#atom_style bond #no stiffness
atom_style angle #with stiffness

boundary        p p p
###
# Pair interactions require lists of neighbours to be calculated
###

#neighbor 0.3 bin
neighbor 4 bin

neigh_modify every 1 delay 1 check yes
atom_modify sort 0 0
### Generate RESTART file, SPECIAL format, not a .txt file ###
### Useful if simulation crashes ###

restart 1000000 nuc3branch4/restarts3/$f.restart
restart 1000000 nuc3branch4/restarts3/bb200nuc3bl50bn4d30tot500.restart
#############################



### READ "start" data file ###

read_data nuc3branch4/$f.dat
read_data nuc3branch4/bb200nuc3bl50bn4d30tot500.dat
Reading data file ...
  orthogonal box = (-1000 -1000 -1000) to (1000 1000 1000)
  1 by 1 by 1 MPI processor grid
  reading atoms ...
  501 atoms
  scanning bonds ...
  3 = max bonds/atom
  scanning angles ...
  6 = max angles/atom
  reading bonds ...
  500 bonds
  reading angles ...
  508 angles
Finding 1-2 1-3 1-4 neighbors ...
  special bond factors lj:    0        0        0       
  special bond factors coul:  0        0        0       
     4 = max # of 1-2 neighbors
     4 = max # of 1-3 neighbors
     8 = max # of 1-4 neighbors
    12 = max # of special neighbors
  special bonds CPU = 0.001 seconds
  read_data CPU = 0.039 seconds

######################

### READ "REstart" data file ###

######################



###
# Define groups (atom type 1 is group 'all')
###
group all type 1
501 atoms in group all


###
# Dump configs - "simple dumpings"
###

###
# Dump configs + box coords
###

dump   1   all   custom   1000  nuc3branch4/trjs3/$f.lammpstrj  id  x y z  ix iy iz
dump   1   all   custom   1000  nuc3branch4/trjs3/bb200nuc3bl50bn4d30tot500.lammpstrj  id  x y z  ix iy iz
dump_modify   1   format line "%d %.5f %.5f %.5f %d %d %d"

########################################################################


###################################################################
# Stiffness term
#
# E = K * (1+cos(theta)), K>0
#
angle_style   cosine
#change this coefficient to change stiffness (e.g. 1,5,10)
angle_coeff   1 1.0
###################################################################

###################################################################
# Pair interaction between non-bonded atoms
#
#  Lennard-Jones 12-6 potential with cutoff:
#  potential E=4epsilon[ (sigma/r)^12 - (sigma/r)^6]  for r<r_cut
#
#  1.12246 = 2^(1/6) is the minimum of the potential


pair_style      lj/cut 1.12246152962189
#pair_style      lj/cut 3

#
#  pair_modify shift yes adds a constant to the potential such

#  that E(r_cut)=0. Forces remains unchanged.
#

pair_modify     shift yes

#
#  pair_coeff for lj/cut, specify 4:
#    * atom type interacting with
#    * atom type
#    * epsilon (energy units)
#    * sigma (distance units)
#

pair_coeff      1 1 1.0 1.0
###################################################################

###################################################################
# Pair interaction between non-bonded atoms
#
#  soft potential, for PUSHING apart overlapping atoms
#  potential E=A*(1 + cos(pi*r/r_c))
#
#  1.12246 = 2^(1/6) is the cut-off r_c

#pair_style     soft 1.12246152962189

#
#  pair_coeff for soft, specify 3:
#    * atom type interacting with
#    * atom type
#    * A
#
#

#pair_coeff      1 1 100.0
###################################################################

###################################################################
# Pair interaction between bonded atoms
#
# Fene potential + Lennard Jones 12-6:

#
#  E= - 0.5 K R0^2 ln[ 1- (r/R0)^2]
#     + 4epsilon[ (sigma/r)^12 - (sigma/r)^6] + epsilon
#

bond_style   fene


#
# For style fene, specify:
#   * bond type
#   * K (energy/distance^2)
#   * R0 (distance)
#   * epsilon (energy)  (LJ component)
#   * sigma (distance)  (LJ component)
#


special_bonds fene #<=== I M P O R T A N T (new command)
Finding 1-2 1-3 1-4 neighbors ...
  special bond factors lj:    0        1        1       
  special bond factors coul:  0        1        1       
     4 = max # of 1-2 neighbors
    12 = max # of special neighbors
  special bonds CPU = 0.000 seconds

bond_coeff   1   30   2   1.0   1.0


###################################################

###################################################################
# Pair interaction between bonded atoms
#
# Harmonic potential:
#
#  E= K * (R-R0)^2
#

#bond_style   harmonic

#
# For style harmonic, specify:
#   * bond type
#   * K (energy/distance^2)
#   * R0 (distance)
#

#bond_coeff   1   60.0   1.0
#bond_coeff   2   harmonic 0.1   1.0

###################################################
compute 1 all gyration
variable rog equal c_1
#compute 2 all coord/atom cutoff 1.1

#dump 2 all custom 10000 contact_number.dump id c_2


###
# Set up fixes
###
thermo_style   custom   step  temp enthalpy c_1
fix 1 all nve   ###NVE ensemble

fix 2 all   langevin   1.0 1.0 1.0  158102   ###Langevin integrator Tstart Tstop 1/friction rndseed


##### Sample thermodynamic info  (temperature, energy, pressure, etc.) #####
thermo 1000









############################################################################

###
# set timestep of integrator

timestep 0.01

###
# run integration for a number of steps
###
#run 0
#variable r equal c_1
#if "$r < 63.1" then "quit 1"

# lj potential minimum, cause molecule to explore
run 100000
Generated 0 of 0 mixed pair_coeff terms from geometric mixing rule
Last active /omp style is angle_style cosine/omp
Neighbor list info ...
  update: every = 1 steps, delay = 1 steps, check = yes
  max neighbors/atom: 2000, page size: 100000
  master list distance cutoff = 5.1224615
  ghost atom cutoff = 5.1224615
  binsize = 2.5612308, bins = 781 781 781
  1 neighbor lists, perpetual/occasional/extra = 1 0 0
  (1) pair lj/cut/omp, perpetual
      attributes: half, newton on, omp
      pair build: half/bin/newton/omp
      stencil: half/bin/3d
      bin: standard
WARNING: Communication cutoff 5.12246152962189 is shorter than a bond length based estimate of 5.455. This may lead to errors. (src/comm.cpp:723)
Per MPI rank memory allocation (min/avg/max) = 1861 | 1861 | 1861 Mbytes
   Step          Temp         Enthalpy         c_1      
         0   0              13.257425      44.841509    
      1000   0.96962764     18.610135      43.721223    
      2000   1.0693264      19.64648       43.052836    
      3000   0.98748154     19.619347      42.465341    
      4000   0.99459561     19.93638       42.138391    
      5000   1.0350982      19.953887      41.196958    
      6000   1.0291639      19.248503      40.308151    
      7000   1.0389242      20.174979      39.607202    
      8000   1.0162053      20.957361      39.159277    
      9000   1.0436954      21.019556      38.570421    
     10000   1.036634       20.49017       38.306703    
     11000   0.99123123     19.654504      37.945164    
     12000   1.0610909      20.319947      37.816861    
     13000   0.9882692      20.192721      37.878711    
     14000   0.97038008     20.523628      37.686108    
     15000   0.96144256     19.486666      37.884493    
     16000   1.0598326      20.130358      37.797435    
     17000   0.96464254     20.40766       37.384039    
     18000   0.98465011     20.809392      37.122875    
     19000   1.009735       20.623461      36.818589    
     20000   1.0574902      20.766676      36.273462    
     21000   0.94342335     20.161627      36.205206    
     22000   1.0803366      21.358224      35.99729     
     23000   0.95389403     20.332504      36.04303     
     24000   1.0152453      20.062695      36.040695    
     25000   1.0090642      20.461766      35.591835    
     26000   0.96457264     19.467496      35.310801    
     27000   0.971367       20.370942      34.874924    
     28000   1.0278909      20.886539      34.413833    
     29000   1.0323564      20.801505      34.056145    
     30000   0.9853618      20.16087       33.773327    
     31000   1.029184       20.415839      33.665312    
     32000   0.96961142     19.675185      33.494908    
     33000   0.9934645      20.569832      33.147219    
     34000   0.97560782     20.096759      32.893163    
     35000   0.97247517     20.301901      32.706415    
     36000   1.0688628      20.422378      32.770701    
     37000   1.0029338      20.958632      32.768115    
     38000   0.93444849     20.097709      32.34742     
     39000   0.99142875     21.308885      32.334566    
     40000   1.055754       20.285091      32.245104    
     41000   1.0677816      20.251152      32.543776    
     42000   1.0489086      20.695261      32.443754    
     43000   1.0032999      21.277991      31.681832    
     44000   0.96679992     19.979243      31.420768    
     45000   0.96578347     19.138948      31.009055    
     46000   1.0410107      19.806254      30.714901    
     47000   1.0286033      19.897106      30.463162    
     48000   0.99401722     20.207883      30.589405    
     49000   1.0091539      19.67825       30.507863    
     50000   0.98851482     20.730346      30.357703    
     51000   1.0368245      21.073868      30.115828    
     52000   0.97170126     20.176555      30.08048     
     53000   0.95412719     20.350873      30.113935    
     54000   1.0131551      19.644608      30.201043    
     55000   1.0543253      21.099119      29.913562    
     56000   1.0099329      20.557073      29.975589    
     57000   0.94219382     20.553539      29.894816    
     58000   0.98506147     20.790946      29.557252    
     59000   0.95928785     20.363798      29.445941    
     60000   0.99866066     20.511732      29.748483    
     61000   0.94989426     21.544888      29.32446     
     62000   1.0121956      21.350523      29.381513    
     63000   0.91982948     20.687946      29.65053     
     64000   0.92990808     20.810095      29.561732    
     65000   1.0538833      21.070166      29.128457    
     66000   0.97826275     20.029885      29.190586    
     67000   1.0163166      21.143758      29.114984    
     68000   0.94232862     20.505379      28.97305     
     69000   1.0065214      20.19794       28.900451    
     70000   1.0150443      20.584497      28.863098    
     71000   1.0043438      20.564081      28.790991    
     72000   0.97681891     20.53986       28.800972    
     73000   1.0234556      20.481152      28.362327    
     74000   1.0084407      20.885671      28.262715    
     75000   1.020024       20.089719      28.563913    
     76000   1.0114317      20.585183      28.199019    
     77000   0.97172435     20.599447      28.448513    
     78000   1.0944121      20.849896      28.537367    
     79000   0.99150397     20.040117      28.669945    
     80000   1.0495952      20.715419      28.697608    
     81000   0.99379913     20.502792      28.43902     
     82000   0.98343259     19.931357      28.300781    
     83000   1.0161937      20.327371      28.035994    
     84000   1.0071334      20.073621      27.921178    
     85000   0.97800499     20.537474      27.668466    
     86000   1.0318291      21.76549       27.784546    
     87000   0.94046697     20.102745      27.811418    
     88000   0.98317923     20.469254      27.603528    
     89000   0.98442198     20.176631      27.630456    
     90000   1.0575831      20.400784      27.466389    
     91000   0.99763548     20.095866      27.392267    
     92000   0.91600949     20.836958      27.572163    
     93000   0.99829158     20.108207      27.617138    
     94000   1.0204955      20.216244      27.881303    
     95000   0.97701111     20.630282      27.696411    
     96000   0.99192327     20.266887      27.846757    
     97000   1.0264381      20.612994      27.52773     
     98000   1.0354357      20.31326       27.434528    
     99000   1.0529398      20.454707      27.250121    
    100000   0.95614042     21.371655      27.372782    
Loop time of 398.451 on 2 procs for 100000 steps with 501 atoms

Performance: 216839.642 tau/day, 250.972 timesteps/s
101.4% CPU use with 1 MPI tasks x 2 OpenMP threads

MPI task timing breakdown:
Section |  min time  |  avg time  |  max time  |%varavg| %total
---------------------------------------------------------------
Pair    | 0.77142    | 0.77142    | 0.77142    |   0.0 |  0.19
Bond    | 1.0332     | 1.0332     | 1.0332     |   0.0 |  0.26
Neigh   | 394.08     | 394.08     | 394.08     |   0.0 | 98.90
Comm    | 0.022087   | 0.022087   | 0.022087   |   0.0 |  0.01
Output  | 0.18828    | 0.18828    | 0.18828    |   0.0 |  0.05
Modify  | 2.1889     | 2.1889     | 2.1889     |   0.0 |  0.55
Other   |            | 0.1722     |            |       |  0.04

Nlocal:            501 ave         501 max         501 min
Histogram: 1 0 0 0 0 0 0 0 0 0
Nghost:              0 ave           0 max           0 min
Histogram: 1 0 0 0 0 0 0 0 0 0
Neighs:           6836 ave        6836 max        6836 min
Histogram: 1 0 0 0 0 0 0 0 0 0

Total # of neighbors = 6836
Ave neighs/atom = 13.644711
Ave special neighs/atom = 1.996008
Neighbor list builds = 1119
Dangerous builds = 0

# Replace lj potential, now collapse
pair_style      lj/cut 3

# Cutoff simul when gyration under 10
# Variable created with equal requires v_ + 'name'
fix 3 all halt 1000 v_rog < 7

run 3000000
Generated 0 of 0 mixed pair_coeff terms from geometric mixing rule
Last active /omp style is angle_style cosine/omp
Per MPI rank memory allocation (min/avg/max) = 1861 | 1861 | 1861 Mbytes
   Step          Temp         Enthalpy         c_1      
    100000   0.95614042     20.2215        27.372782    
    101000   0.97081777     18.309222      27.436217    
    102000   0.95746986     18.850778      27.031183    
    103000   1.0120423      18.922469      26.76948     
    104000   1.0458372      18.084705      26.769969    
    105000   1.0651908      18.502439      26.840336    
    106000   0.93862591     18.319645      26.464806    
    107000   1.028003       19.18568       26.214849    
    108000   0.93558512     19.154644      25.950654    
    109000   1.0388615      18.230535      25.417834    
    110000   1.0273539      18.257576      25.248755    
    111000   0.98719051     18.417976      24.969568    
    112000   0.98281337     17.925573      24.708814    
    113000   0.93453224     18.32041       24.389022    
    114000   0.96024331     17.539547      23.844509    
    115000   1.0311109      17.981962      23.909991    
    116000   0.99474495     17.943145      23.46904     
    117000   0.96361835     18.010872      23.110459    
    118000   1.0365061      18.248179      22.657971    
    119000   0.95630485     17.075972      22.441622    
    120000   0.99963955     18.029884      22.314612    
    121000   0.98111388     18.363814      22.376779    
    122000   1.0149574      17.819397      22.014301    
    123000   1.0489965      18.620404      21.926465    
    124000   0.96252227     17.769102      21.742734    
    125000   0.95508033     17.32808       21.465052    
    126000   1.0457123      18.272681      21.399149    
    127000   1.0992828      18.739207      21.263858    
    128000   0.88924012     17.264849      21.08678     
    129000   1.0285546      18.012372      20.942129    
    130000   0.9792748      16.963373      20.581905    
    131000   1.0201903      18.48296       20.696018    
    132000   0.97853331     18.417282      20.544399    
    133000   1.0470448      17.679388      20.055435    
    134000   1.0280603      18.217199      19.729246    
    135000   1.019945       18.495899      19.316375    
    136000   1.0037101      18.422533      19.235621    
    137000   0.95529985     17.408799      19.315919    
    138000   1.0206611      17.45905       19.071439    
    139000   1.0104764      17.726655      18.588633    
    140000   0.95072329     17.77971       18.41189     
    141000   0.94785261     18.194877      18.460146    
    142000   1.0268882      17.719302      18.202372    
    143000   1.0092904      17.950305      17.932676    
    144000   0.98465118     17.606746      17.900472    
    145000   1.0121537      17.981238      17.956319    
    146000   0.9865175      18.631559      18.042267    
    147000   0.97409445     17.103925      18.225302    
    148000   1.0828906      18.377897      18.132852    
    149000   1.0583332      18.352153      17.894108    
    150000   0.99317806     17.76798       17.755015    
    151000   0.96236432     17.663136      17.558034    
    152000   0.97828167     17.819048      17.26799     
    153000   1.000212       17.129421      16.869416    
    154000   0.93160397     16.807842      16.693141    
    155000   1.0110215      17.584351      16.436877    
    156000   1.0461435      18.306033      16.565142    
    157000   1.0751135      18.468643      16.596085    
    158000   1.014238       18.499763      16.538827    
    159000   1.0412121      17.13672       16.527644    
    160000   1.0418961      17.338385      16.39951     
    161000   0.97641791     17.26468       16.51799     
    162000   1.0454648      17.325485      16.803672    
    163000   0.97901395     18.677917      16.611857    
    164000   1.0144127      17.842223      16.298656    
    165000   1.0381169      17.883786      15.987898    
    166000   1.0044725      17.566105      15.928043    
    167000   1.0425233      17.601747      15.79966     
    168000   0.99958757     17.451748      15.501889    
    169000   0.99939801     18.942553      15.325944    
    170000   1.0282862      17.44402       15.054518    
    171000   1.0465653      18.408334      15.241097    
    172000   0.98658183     17.802668      15.161002    
    173000   1.0221432      17.123072      14.844514    
    174000   1.0252763      18.305668      14.768571    
    175000   1.0525763      17.754055      14.909998    
    176000   0.9710676      17.723613      14.759103    
    177000   0.98766334     18.051454      14.241988    
    178000   1.0773928      17.397411      13.898496    
    179000   0.93986869     17.087942      13.772806    
    180000   0.98955557     18.702976      13.583111    
    181000   0.96096829     18.312488      13.633582    
    182000   1.0003773      17.373582      13.112444    
    183000   0.98703349     18.676975      12.866139    
    184000   1.0430294      18.043107      12.563433    
    185000   0.99051552     17.829907      12.524066    
    186000   0.95949591     18.132336      12.181076    
    187000   1.0780941      17.54485       11.891788    
    188000   1.0142939      17.590112      11.42444     
    189000   0.98629682     17.189386      11.314745    
    190000   1.0540646      18.863432      11.088598    
    191000   1.0149899      18.038803      10.91119     
    192000   0.99622466     17.716684      10.462763    
    193000   1.0417834      17.740693      10.283117    
    194000   1.0327815      16.926659      10.149034    
    195000   0.99425313     17.215321      10.169338    
    196000   1.0736496      17.651644      9.8886035    
    197000   0.98850235     17.545399      9.6442951    
    198000   0.98537516     17.2056        9.2602143    
    199000   1.0433931      17.238303      8.9646328    
    200000   1.0123665      17.06692       8.9346998    
    201000   1.0433027      17.89613       8.909746     
    202000   1.0502935      18.432383      8.8009046    
    203000   1.0514041      17.777692      8.8452558    
    204000   1.0249077      17.507472      8.812361     
    205000   1.0481457      17.331433      8.8305553    
    206000   1.0119454      17.102929      8.5622886    
    207000   1.0158576      17.18049       8.5757925    
    208000   1.016976       16.91687       8.2965612    
    209000   0.95734908     17.681855      8.1770032    
    210000   0.97831814     16.776733      8.1301798    
    211000   0.91316387     16.8713        8.0896279    
    212000   0.98917298     17.339984      8.1138957    
    213000   0.98373795     17.562972      8.2192461    
    214000   0.96274748     17.676047      8.3341679    
    215000   1.0295331      18.823824      8.1767339    
    216000   0.99461202     17.622192      8.2270768    
    217000   1.0187522      17.82371       7.991301     
    218000   1.0365306      17.741049      7.4949228    
    219000   1.0356401      17.648585      7.3856207    
    220000   1.0969857      17.436194      7.3956538    
    221000   1.0349371      16.579567      7.56664      
    222000   1.0544011      17.844498      7.3232411    
    223000   0.97971769     16.978245      7.5881583    
    224000   0.96631074     17.871739      7.5450804    
    225000   1.0187058      16.736577      7.2158149    
Fix halt condition for fix-id 3 met on step 226000 with value 6.961756900621717 (src/fix_halt.cpp:237)
    226000   0.97227135     16.976269      6.9617569    
Loop time of 159.998 on 2 procs for 126000 steps with 501 atoms

Performance: 680408.212 tau/day, 787.510 timesteps/s
114.1% CPU use with 1 MPI tasks x 2 OpenMP threads

MPI task timing breakdown:
Section |  min time  |  avg time  |  max time  |%varavg| %total
---------------------------------------------------------------
Pair    | 16.245     | 16.245     | 16.245     |   0.0 | 10.15
Bond    | 1.5153     | 1.5153     | 1.5153     |   0.0 |  0.95
Neigh   | 138.62     | 138.62     | 138.62     |   0.0 | 86.64
Comm    | 0.0311     | 0.0311     | 0.0311     |   0.0 |  0.02
Output  | 0.23933    | 0.23933    | 0.23933    |   0.0 |  0.15
Modify  | 3.0952     | 3.0952     | 3.0952     |   0.0 |  1.93
Other   |            | 0.2503     |            |       |  0.16

Nlocal:            501 ave         501 max         501 min
Histogram: 1 0 0 0 0 0 0 0 0 0
Nghost:              0 ave           0 max           0 min
Histogram: 1 0 0 0 0 0 0 0 0 0
Neighs:          61750 ave       61750 max       61750 min
Histogram: 1 0 0 0 0 0 0 0 0 0

Total # of neighbors = 61750
Ave neighs/atom = 123.25349
Ave special neighs/atom = 1.996008
Neighbor list builds = 991
Dangerous builds = 0

# This simulation is done
# Move onto the next one
clear
  using 2 OpenMP thread(s) per MPI task
package omp 0
using multi-threaded neighbor list subroutines
next f
jump SELF

###
# Reference paper:
# K. Kremer and G. S. Grest
# Dynamics of entangled linear polymer melts: A molecular-dynamics simulation
# J Chem Phys 92, 5057 (1990)

##################################
# MIHIR: for branched polymers
# LJ minimum first to expand and explore, then collapse
###

###
# Looping through the various nuc3branch4 polymers to simulate,
# define variables to switch through
variable f index bb40nuc3bl10bn4d30tot100 bb80nuc3bl20bn4d30tot200 bb120nuc3bl30bn4d30tot300 bb160nuc3bl40bn4d30tot400 bb200nuc3bl50bn4d30tot500 bb240nuc3bl60bn4d30tot600 bb280nuc3bl70bn4d30tot700 bb320nuc3bl80bn4d30tot800 bb360nuc3bl90bn4d30tot900 bb400nuc3bl100bn4d30tot1000 bb440nuc3bl110bn4d30tot1100 bb480nuc3bl120bn4d30tot1200
###


###
# Box and units  (use LJ units and periodic boundaries)
###

units lj
log nuc3branch4/logs3/$f.log
log nuc3branch4/logs3/bb240nuc3bl60bn4d30tot600.log
