#atom_style bond #no stiffness
atom_style angle #with stiffness

boundary        p p p
###
# Pair interactions require lists of neighbours to be calculated
###

#neighbor 0.3 bin
neighbor 4 bin

neigh_modify every 1 delay 1 check yes
atom_modify sort 0 0
### Generate RESTART file, SPECIAL format, not a .txt file ###
### Useful if simulation crashes ###

restart 1000000 nuc3branch4/restarts3/$f.restart
restart 1000000 nuc3branch4/restarts3/bb280nuc3bl70bn4d30tot700.restart
#############################



### READ "start" data file ###

read_data nuc3branch4/$f.dat
read_data nuc3branch4/bb280nuc3bl70bn4d30tot700.dat
Reading data file ...
  orthogonal box = (-1000 -1000 -1000) to (1000 1000 1000)
  1 by 1 by 1 MPI processor grid
  reading atoms ...
  701 atoms
  scanning bonds ...
  3 = max bonds/atom
  scanning angles ...
  6 = max angles/atom
  reading bonds ...
  700 bonds
  reading angles ...
  708 angles
Finding 1-2 1-3 1-4 neighbors ...
  special bond factors lj:    0        0        0       
  special bond factors coul:  0        0        0       
     4 = max # of 1-2 neighbors
     4 = max # of 1-3 neighbors
     8 = max # of 1-4 neighbors
    12 = max # of special neighbors
  special bonds CPU = 0.001 seconds
  read_data CPU = 0.112 seconds

######################

### READ "REstart" data file ###

######################



###
# Define groups (atom type 1 is group 'all')
###
group all type 1
701 atoms in group all


###
# Dump configs - "simple dumpings"
###

###
# Dump configs + box coords
###

dump   1   all   custom   1000  nuc3branch4/trjs3/$f.lammpstrj  id  x y z  ix iy iz
dump   1   all   custom   1000  nuc3branch4/trjs3/bb280nuc3bl70bn4d30tot700.lammpstrj  id  x y z  ix iy iz
dump_modify   1   format line "%d %.5f %.5f %.5f %d %d %d"

########################################################################


###################################################################
# Stiffness term
#
# E = K * (1+cos(theta)), K>0
#
angle_style   cosine
#change this coefficient to change stiffness (e.g. 1,5,10)
angle_coeff   1 1.0
###################################################################

###################################################################
# Pair interaction between non-bonded atoms
#
#  Lennard-Jones 12-6 potential with cutoff:
#  potential E=4epsilon[ (sigma/r)^12 - (sigma/r)^6]  for r<r_cut
#
#  1.12246 = 2^(1/6) is the minimum of the potential


pair_style      lj/cut 1.12246152962189
#pair_style      lj/cut 3

#
#  pair_modify shift yes adds a constant to the potential such

#  that E(r_cut)=0. Forces remains unchanged.
#

pair_modify     shift yes

#
#  pair_coeff for lj/cut, specify 4:
#    * atom type interacting with
#    * atom type
#    * epsilon (energy units)
#    * sigma (distance units)
#

pair_coeff      1 1 1.0 1.0
###################################################################

###################################################################
# Pair interaction between non-bonded atoms
#
#  soft potential, for PUSHING apart overlapping atoms
#  potential E=A*(1 + cos(pi*r/r_c))
#
#  1.12246 = 2^(1/6) is the cut-off r_c

#pair_style     soft 1.12246152962189

#
#  pair_coeff for soft, specify 3:
#    * atom type interacting with
#    * atom type
#    * A
#
#

#pair_coeff      1 1 100.0
###################################################################

###################################################################
# Pair interaction between bonded atoms
#
# Fene potential + Lennard Jones 12-6:

#
#  E= - 0.5 K R0^2 ln[ 1- (r/R0)^2]
#     + 4epsilon[ (sigma/r)^12 - (sigma/r)^6] + epsilon
#

bond_style   fene


#
# For style fene, specify:
#   * bond type
#   * K (energy/distance^2)
#   * R0 (distance)
#   * epsilon (energy)  (LJ component)
#   * sigma (distance)  (LJ component)
#


special_bonds fene #<=== I M P O R T A N T (new command)
Finding 1-2 1-3 1-4 neighbors ...
  special bond factors lj:    0        1        1       
  special bond factors coul:  0        1        1       
     4 = max # of 1-2 neighbors
    12 = max # of special neighbors
  special bonds CPU = 0.000 seconds

bond_coeff   1   30   2   1.0   1.0


###################################################

###################################################################
# Pair interaction between bonded atoms
#
# Harmonic potential:
#
#  E= K * (R-R0)^2
#

#bond_style   harmonic

#
# For style harmonic, specify:
#   * bond type
#   * K (energy/distance^2)
#   * R0 (distance)
#

#bond_coeff   1   60.0   1.0
#bond_coeff   2   harmonic 0.1   1.0

###################################################
compute 1 all gyration
variable rog equal c_1
#compute 2 all coord/atom cutoff 1.1

#dump 2 all custom 10000 contact_number.dump id c_2


###
# Set up fixes
###
thermo_style   custom   step  temp enthalpy c_1
fix 1 all nve   ###NVE ensemble

fix 2 all   langevin   1.0 1.0 1.0  158102   ###Langevin integrator Tstart Tstop 1/friction rndseed


##### Sample thermodynamic info  (temperature, energy, pressure, etc.) #####
thermo 1000









############################################################################

###
# set timestep of integrator

timestep 0.01

###
# run integration for a number of steps
###
#run 0
#variable r equal c_1
#if "$r < 63.1" then "quit 1"

# lj potential minimum, cause molecule to explore
run 100000
Generated 0 of 0 mixed pair_coeff terms from geometric mixing rule
Last active /omp style is angle_style cosine/omp
Neighbor list info ...
  update: every = 1 steps, delay = 1 steps, check = yes
  max neighbors/atom: 2000, page size: 100000
  master list distance cutoff = 5.1224615
  ghost atom cutoff = 5.1224615
  binsize = 2.5612308, bins = 781 781 781
  1 neighbor lists, perpetual/occasional/extra = 1 0 0
  (1) pair lj/cut/omp, perpetual
      attributes: half, newton on, omp
      pair build: half/bin/newton/omp
      stencil: half/bin/3d
      bin: standard
WARNING: Communication cutoff 5.12246152962189 is shorter than a bond length based estimate of 5.455. This may lead to errors. (src/comm.cpp:723)
Per MPI rank memory allocation (min/avg/max) = 1862 | 1862 | 1862 Mbytes
   Step          Temp         Enthalpy         c_1      
         0   0              13.257882      62.554062    
      1000   0.98575985     18.016905      61.674225    
      2000   1.0207983      18.994548      60.967911    
      3000   0.98509382     19.407633      60.260764    
      4000   0.99772595     19.260652      59.447702    
      5000   1.0130722      20.042957      58.953878    
      6000   1.0393875      20.041611      58.393106    
      7000   1.0220123      19.822839      58.246001    
      8000   1.0219818      19.598599      57.921049    
      9000   1.030684       19.611037      57.539652    
     10000   0.97617702     19.870442      56.959956    
     11000   0.97944802     19.906231      56.535078    
     12000   1.021728       19.974241      56.084211    
     13000   0.98231985     19.558628      55.862797    
     14000   0.97133941     20.359478      55.233023    
     15000   0.93545123     19.446205      54.975494    
     16000   0.94652844     19.724606      54.644117    
     17000   1.0824725      20.819212      54.647142    
     18000   0.96228823     19.646687      54.379342    
     19000   0.99785547     19.89375       54.151772    
     20000   1.023079       20.90999       53.946794    
     21000   0.95339617     19.45548       53.726657    
     22000   0.98755584     19.961375      53.419334    
     23000   0.99754374     19.631449      53.01383     
     24000   0.97686505     19.954415      52.966444    
     25000   1.023455       20.064569      53.010625    
     26000   1.0243552      20.055438      52.680082    
     27000   1.0126526      20.099212      52.363243    
     28000   0.99238982     20.193455      51.870508    
     29000   0.94652788     19.837306      51.778114    
     30000   1.0462703      20.921429      51.579246    
     31000   0.99872008     20.402564      51.47017     
     32000   0.97342466     20.058203      51.40244     
     33000   1.0437303      20.118483      51.369802    
     34000   1.0250723      20.322396      51.095681    
     35000   1.0447858      20.709951      50.850709    
     36000   1.0089642      19.981763      50.507362    
     37000   0.9857398      20.279439      50.359885    
     38000   0.98866379     19.980882      50.555042    
     39000   0.99721382     20.166136      50.42328     
     40000   0.98884308     19.814717      50.070586    
     41000   1.046535       20.320104      49.819861    
     42000   0.97388784     20.999549      49.753908    
     43000   0.95262301     20.10785       49.406056    
     44000   0.97556745     21.017625      49.487365    
     45000   1.0225503      21.044737      49.478689    
     46000   1.027518       20.414548      49.554809    
     47000   0.99133241     19.824346      49.435738    
     48000   1.0129326      20.036938      49.081844    
     49000   0.99512109     20.754298      49.034923    
     50000   1.0017273      20.251052      48.931374    
     51000   1.0178127      20.581542      48.774142    
     52000   1.0157068      20.390202      48.383273    
     53000   0.91786368     20.680608      48.254926    
     54000   0.98054982     19.990986      48.108796    
     55000   1.0095317      20.44443       47.838496    
     56000   1.0251265      20.772335      47.849096    
     57000   1.005562       20.77907       47.711451    
     58000   1.0519611      20.440124      47.579362    
     59000   1.0441707      20.87311       47.409069    
     60000   1.0433402      20.496083      47.463947    
     61000   1.0184088      20.088391      47.082862    
     62000   1.0267886      20.326791      46.838384    
     63000   1.0386807      20.548656      46.557206    
     64000   1.0039478      21.099644      46.691242    
     65000   1.0615618      20.80889       46.429417    
     66000   1.0338045      20.976774      46.17042     
     67000   1.0078403      20.345306      46.060246    
     68000   0.99714423     20.483389      46.04325     
     69000   1.0172827      20.370816      46.024424    
     70000   0.94934143     20.268635      45.805899    
     71000   1.0349783      20.252103      45.707691    
     72000   1.0321281      20.595614      45.81434     
     73000   1.0080606      20.946893      45.821499    
     74000   0.99886684     19.973237      45.735188    
     75000   0.99983948     21.204564      45.414669    
     76000   0.9719336      19.943146      45.225891    
     77000   0.99406857     20.239781      44.823645    
     78000   1.0029452      20.538849      44.485825    
     79000   0.99325331     20.309722      44.701374    
     80000   1.0174848      20.388699      44.717053    
     81000   0.98535031     20.984511      44.722847    
     82000   0.99459803     20.38222       44.651543    
     83000   0.99051827     20.429996      44.376267    
     84000   0.950519       20.839102      44.507879    
     85000   0.96144498     20.9266        44.594419    
     86000   0.97632477     20.68311       44.366225    
     87000   0.99905836     20.040294      44.474993    
     88000   0.98035171     20.065394      44.576415    
     89000   1.0196164      20.697554      44.691436    
     90000   0.96402233     20.599862      44.597124    
     91000   1.0245495      20.811741      44.656105    
     92000   0.98376513     20.128085      44.405351    
     93000   1.0197117      20.5897        44.44009     
     94000   1.030986       20.510671      44.341204    
     95000   0.9849457      21.26743       44.343485    
     96000   0.96100739     20.6165        44.191265    
     97000   1.0069806      20.790727      44.080373    
     98000   1.0367461      20.265102      43.960297    
     99000   1.0182839      20.637809      43.838424    
    100000   0.99822495     20.470526      43.626814    
Loop time of 709.684 on 2 procs for 100000 steps with 701 atoms

Performance: 121744.282 tau/day, 140.908 timesteps/s
101.8% CPU use with 1 MPI tasks x 2 OpenMP threads

MPI task timing breakdown:
Section |  min time  |  avg time  |  max time  |%varavg| %total
---------------------------------------------------------------
Pair    | 1.7319     | 1.7319     | 1.7319     |   0.0 |  0.24
Bond    | 2.7911     | 2.7911     | 2.7911     |   0.0 |  0.39
Neigh   | 699.03     | 699.03     | 699.03     |   0.0 | 98.50
Comm    | 0.05389    | 0.05389    | 0.05389    |   0.0 |  0.01
Output  | 0.32634    | 0.32634    | 0.32634    |   0.0 |  0.05
Modify  | 5.2592     | 5.2592     | 5.2592     |   0.0 |  0.74
Other   |            | 0.4888     |            |       |  0.07

Nlocal:            701 ave         701 max         701 min
Histogram: 1 0 0 0 0 0 0 0 0 0
Nghost:              0 ave           0 max           0 min
Histogram: 1 0 0 0 0 0 0 0 0 0
Neighs:           5951 ave        5951 max        5951 min
Histogram: 1 0 0 0 0 0 0 0 0 0

Total # of neighbors = 5951
Ave neighs/atom = 8.489301
Ave special neighs/atom = 1.9971469
Neighbor list builds = 1131
Dangerous builds = 0

# Replace lj potential, now collapse
pair_style      lj/cut 3

# Cutoff simul when gyration under 10
# Variable created with equal requires v_ + 'name'
fix 3 all halt 1000 v_rog < 7

run 3000000
Generated 0 of 0 mixed pair_coeff terms from geometric mixing rule
Last active /omp style is angle_style cosine/omp
Per MPI rank memory allocation (min/avg/max) = 1862 | 1862 | 1862 Mbytes
   Step          Temp         Enthalpy         c_1      
    100000   0.99822495     19.647356      43.626814    
    101000   1.0276881      19.710578      43.664505    
    102000   1.0573049      19.156606      43.569618    
    103000   1.0259302      19.291839      43.14578     
    104000   1.0011541      19.333638      43.011492    
    105000   1.0095799      19.392398      42.926119    
    106000   0.97209689     20.222108      42.750592    
    107000   1.04518        19.186788      42.625182    
    108000   1.0166934      19.063546      42.406715    
    109000   1.0268506      19.194656      42.512978    
    110000   1.0268379      19.575474      42.259292    
    111000   1.0317001      19.618255      42.099319    
    112000   0.95013999     18.370286      41.970488    
    113000   1.0332324      18.982532      41.871481    
    114000   0.96489997     18.602274      41.746452    
    115000   0.95639019     19.393019      41.590397    
    116000   1.0046591      18.696024      41.007736    
    117000   1.0029166      18.604236      40.677845    
    118000   1.0359781      18.683604      40.304319    
    119000   1.0385187      18.441745      40.280817    
    120000   0.99155317     19.40539       40.051939    
    121000   1.0211708      18.799083      39.829624    
    122000   0.92992816     18.967021      39.59166     
    123000   0.95570975     18.540911      39.497522    
    124000   0.96903833     19.172123      39.300535    
    125000   1.002735       19.154852      39.095515    
    126000   0.99387064     18.411595      38.824436    
    127000   1.0980787      18.696505      38.540294    
    128000   1.0448839      18.419463      38.434647    
    129000   1.0682997      19.038915      38.353372    
    130000   1.0116515      18.572833      38.150379    
    131000   0.99724785     18.36925       37.836415    
    132000   0.96220088     18.308801      37.836379    
    133000   1.0342432      18.308999      37.513112    
    134000   1.0173306      17.833926      37.645884    
    135000   1.0472256      18.853619      37.393253    
    136000   1.0354535      18.143207      37.377205    
    137000   0.94751275     17.562112      37.082933    
    138000   0.97202773     18.206494      36.907951    
    139000   1.036266       17.915172      36.852481    
    140000   0.96445985     18.129742      36.579362    
    141000   0.95049868     17.511502      36.201321    
    142000   0.98055182     17.64818       36.407106    
    143000   0.94417091     18.19943       36.116178    
    144000   1.0411541      18.277838      35.849348    
    145000   1.0318085      17.767544      35.509126    
    146000   0.97647688     17.590227      35.488868    
    147000   1.0222918      18.021448      35.315332    
    148000   0.98295671     17.265613      35.439898    
    149000   1.0246414      17.624356      35.414698    
    150000   0.97693199     17.780741      35.052864    
    151000   0.98841466     18.189159      34.687913    
    152000   1.0796408      17.553074      34.406233    
    153000   1.0340104      17.489519      34.217626    
    154000   0.97103248     17.560124      34.02516     
    155000   0.9975652      18.239528      33.803145    
    156000   0.95970474     17.222049      33.573554    
    157000   1.0282651      17.415615      33.304596    
    158000   0.99696904     17.772594      33.149927    
    159000   0.99641244     17.812435      33.069758    
    160000   0.98526668     17.968701      32.861496    
    161000   0.98992447     17.942241      32.573661    
    162000   0.98963877     17.896193      32.50154     
    163000   0.9923511      18.021217      32.579054    
    164000   1.047816       17.982574      32.608874    
    165000   1.012116       17.997329      32.324063    
    166000   0.9477322      17.136198      32.367602    
    167000   0.97680478     17.843339      32.549033    
    168000   1.0127195      18.182513      32.867326    
    169000   1.0084642      17.907707      32.786034    
    170000   0.94665348     17.799636      32.848686    
    171000   1.024479       17.60326       32.414327    
    172000   1.0001238      17.734164      32.130529    
    173000   0.91783144     17.43644       31.752624    
    174000   0.96997981     16.997722      31.406124    
    175000   0.97488014     16.995683      31.271608    
    176000   0.97789886     17.130518      30.929943    
    177000   1.0222503      18.122825      30.840401    
    178000   0.97914968     17.123278      30.940226    
    179000   1.0521903      17.900656      30.865164    
    180000   1.0183544      17.651113      30.711812    
    181000   1.0132301      18.363109      30.551907    
    182000   0.99743489     17.652052      30.496433    
    183000   1.044125       17.633285      30.402399    
    184000   0.95362336     17.622         30.147174    
    185000   0.9606043      17.872209      30.187321    
    186000   1.0497862      17.99727       30.20672     
    187000   1.0060931      17.57583       30.211304    
    188000   0.95341557     17.509226      29.9136      
    189000   0.97694128     17.943619      29.730409    
    190000   1.0131337      17.587174      29.803363    
    191000   1.0081973      18.509151      29.741693    
    192000   0.97368015     17.729919      29.901757    
    193000   1.0232096      17.471731      29.725022    
    194000   1.0058397      17.884045      29.568223    
    195000   1.014381       17.524913      29.70621     
    196000   1.0677411      18.108259      29.725666    
    197000   1.0278527      17.22367       29.690933    
    198000   1.0203984      18.254006      29.668878    
    199000   1.0237924      17.659862      29.787806    
    200000   1.0323982      18.00954       29.645263    
    201000   0.93207874     17.322457      29.526826    
    202000   1.006516       18.279891      29.445867    
    203000   1.0270616      17.402629      29.222258    
    204000   0.96114935     17.777018      28.819333    
    205000   1.0473988      17.449266      28.754057    
    206000   0.98808389     17.189504      28.498408    
    207000   0.98194146     17.780217      28.392279    
    208000   0.97032675     17.413568      28.034816    
    209000   0.97963705     17.977777      27.929934    
    210000   0.96349034     17.263726      27.762734    
    211000   0.96726605     17.729406      27.515302    
    212000   0.99291992     18.073157      27.469725    
    213000   1.0026769      18.319151      27.259583    
    214000   0.98826803     17.860174      27.037049    
    215000   0.96632041     17.861072      26.826025    
    216000   1.0311966      17.741338      26.595715    
    217000   1.0665237      18.292073      26.658435    
    218000   1.0310028      17.158123      26.452024    
    219000   1.0110963      18.310007      26.496388    
    220000   1.026464       17.512977      26.2007      
    221000   0.98891906     17.846295      26.172052    
    222000   1.0453214      17.254481      25.793466    
    223000   1.0274807      17.848162      25.914964    
    224000   0.9774766      18.118834      25.715287    
    225000   1.0074953      17.156706      25.430779    
    226000   1.0389684      17.432429      25.482031    
    227000   0.97798555     17.44476       25.279049    
    228000   1.0006654      17.991072      25.278886    
    229000   1.0479254      17.9955        25.230346    
    230000   0.98306134     17.639862      24.958414    
    231000   0.96830957     17.629545      24.850958    
    232000   1.0580531      18.288599      24.74889     
    233000   1.0081055      17.313059      24.598976    
    234000   0.97731967     17.321495      24.492753    
    235000   0.96893662     17.494379      24.197084    
    236000   1.0408748      17.66825       24.091373    
    237000   0.94275919     18.094228      24.242634    
    238000   0.98608975     18.37188       24.247345    
    239000   1.0594517      18.183679      24.248132    
    240000   0.99381863     17.370906      24.159107    
    241000   1.05296        18.272782      24.045628    
    242000   1.0927689      18.483647      24.077303    
    243000   0.98377726     17.533945      23.956326    
    244000   0.99570502     17.576187      23.688996    
    245000   1.0273922      18.081834      23.690829    
    246000   0.97608228     17.876428      23.543617    
    247000   0.99198099     17.680314      23.557535    
    248000   1.0158803      17.778601      23.728037    
    249000   1.03852        17.845129      23.800994    
    250000   0.99242757     17.724642      23.418559    
    251000   0.97731541     17.249166      23.099451    
    252000   1.012817       16.802408      22.869292    
    253000   1.0481705      18.170089      22.649405    
    254000   1.0074992      18.066299      22.448654    
    255000   0.98760659     17.838442      22.136751    
    256000   1.015607       17.42099       22.03251     
    257000   1.0372962      17.782391      21.8774      
    258000   1.0139911      18.028132      21.764928    
    259000   0.99590674     17.483281      21.653345    
    260000   1.017327       17.815813      21.593763    
    261000   1.014483       17.71785       21.217049    
    262000   1.0351797      17.896384      21.04801     
    263000   1.0197907      17.220318      20.933026    
    264000   1.0367676      17.671654      20.785003    
    265000   1.0406712      16.691355      20.744953    
    266000   1.0189092      17.182848      20.495265    
    267000   1.0533684      17.858621      20.199456    
    268000   1.0428973      17.570266      20.073952    
    269000   0.99752834     17.581265      20.267293    
    270000   0.99970191     17.679757      20.367217    
    271000   0.97489783     17.61415       20.135199    
    272000   0.98423381     17.618176      20.199357    
    273000   1.0358577      17.595839      20.466293    
    274000   0.99761648     17.864024      20.307983    
    275000   1.0491844      17.919479      20.343183    
    276000   0.97469269     17.260994      20.197073    
    277000   0.99631509     17.798567      19.975799    
    278000   1.0846221      17.563617      19.759364    
    279000   0.9994829      17.370873      19.960156    
    280000   0.98568984     17.185897      20.100772    
    281000   0.99782529     17.508736      20.140248    
    282000   1.0074559      17.352908      19.96328     
    283000   0.94834703     17.794866      19.953866    
    284000   0.98457288     17.287061      19.745197    
    285000   0.98955982     17.285929      19.632043    
    286000   1.0280228      17.652975      19.346859    
    287000   1.0090556      17.454786      19.417807    
    288000   0.96997086     16.81595       19.325006    
    289000   1.0397644      17.942922      18.975497    
    290000   1.0130815      17.855673      19.041953    
    291000   0.9806605      17.655158      18.71156     
    292000   0.98845326     18.210768      18.846102    
    293000   1.0275798      17.825594      18.765616    
    294000   1.0341726      17.650825      18.741157    
    295000   1.0046178      17.288921      18.783329    
    296000   0.99186282     17.292748      18.854996    
    297000   0.99125842     17.45459       18.953364    
    298000   0.9979142      17.335552      18.796593    
    299000   1.0159133      17.33467       18.905683    
    300000   0.98337603     17.718656      18.872763    
    301000   0.94869087     17.387731      18.640182    
    302000   0.99893299     17.645232      18.361503    
    303000   0.96514422     17.583334      18.154881    
    304000   1.0066912      17.628037      17.904211    
    305000   0.97662821     17.280629      17.654024    
    306000   1.0010851      17.687751      17.207957    
    307000   1.0252004      17.946786      17.094145    
    308000   1.0216288      17.768316      17.098159    
    309000   1.0726735      17.879495      17.080261    
    310000   1.0161957      17.533469      16.795962    
    311000   1.0011413      17.384056      16.548067    
    312000   1.0345103      17.538511      16.462373    
    313000   0.9883697      17.248372      16.308912    
    314000   0.94772162     17.781324      16.428659    
    315000   1.012514       17.200941      16.284602    
    316000   0.98207277     17.48989       16.413753    
    317000   0.97008907     18.170133      16.28957     
    318000   1.0087919      17.479262      16.200286    
    319000   1.0150803      17.149476      16.263082    
    320000   0.95473764     17.47158       16.295316    
    321000   0.97657991     18.16558       16.147384    
    322000   0.99727494     17.167623      16.229798    
    323000   0.99959503     17.338288      16.428396    
    324000   1.0594002      17.87538       16.583294    
    325000   1.0369126      17.959229      16.656583    
    326000   1.0383335      17.208322      16.885087    
    327000   0.99086263     16.841049      16.677486    
    328000   1.0161508      17.276012      16.751897    
    329000   0.96921243     17.4284        16.76757     
    330000   1.005307       17.001625      16.757868    
    331000   1.078037       17.194991      16.607229    
    332000   0.97838547     17.293672      16.35969     
    333000   1.0733782      16.666546      16.180672    
    334000   0.9929285      17.729463      16.032349    
    335000   1.0201791      17.112777      15.901486    
    336000   1.0223806      17.0228        15.768243    
    337000   0.99779665     17.780928      15.78629     
    338000   0.97721196     18.008298      15.96269     
    339000   1.0004828      17.531168      16.218428    
    340000   1.0448841      17.561009      15.882689    
    341000   0.97388722     17.406425      15.770612    
    342000   1.0627721      17.085363      15.577484    
    343000   0.98247226     17.999267      15.366099    
    344000   0.96064443     16.983073      15.359937    
    345000   0.97468767     17.377917      15.178206    
    346000   1.0294409      17.724348      14.926834    
    347000   1.0156527      17.373696      14.786579    
    348000   1.0492916      17.127659      14.390316    
    349000   0.99744442     16.32031       14.40128     
    350000   0.96909653     17.801009      14.456542    
    351000   0.93970835     17.067455      14.283566    
    352000   0.98468391     17.41191       13.978549    
    353000   1.0029848      17.391035      13.763923    
    354000   0.98233274     17.248485      13.722253    
    355000   0.97502735     16.581205      13.458524    
    356000   0.97444022     18.001435      13.115606    
    357000   1.0302071      17.382801      13.036316    
    358000   0.99708206     17.070115      13.100651    
    359000   1.0318376      17.254818      12.882846    
    360000   0.97378934     17.108883      12.710857    
    361000   1.0169686      17.208162      12.74244     
    362000   0.95395816     16.893637      12.727995    
    363000   1.0369555      17.277816      12.783007    
    364000   0.95410753     17.629364      12.517089    
    365000   1.0535014      17.627381      12.368818    
    366000   1.0523638      17.909648      12.288047    
    367000   1.0679427      17.587607      12.309621    
    368000   0.99555218     16.507513      12.162607    
    369000   1.0083584      17.415177      12.042482    
    370000   0.99614351     17.74439       11.780557    
    371000   1.0205766      18.001364      11.331431    
    372000   1.0066442      16.803434      11.185457    
    373000   0.99668796     17.440988      11.101474    
    374000   0.9981288      17.402905      10.975094    
    375000   0.96711095     17.078453      10.792923    
    376000   1.0107496      17.607665      10.806857    
    377000   0.93319066     17.691261      10.60197     
    378000   1.0168914      17.465         10.39505     
    379000   1.0053901      17.17932       10.442433    
    380000   1.0145725      16.615148      10.321411    
    381000   1.0474171      17.619624      10.09019     
    382000   0.94299591     17.717204      9.9246587    
    383000   1.0356865      17.372796      9.7538293    
    384000   1.0058694      17.141342      9.624012     
    385000   0.98257488     17.183683      9.5701825    
    386000   1.0200443      17.299914      9.4552019    
    387000   0.99272103     16.860984      9.3764373    
    388000   0.97201998     17.191596      9.1699778    
    389000   1.024395       17.718686      8.9503142    
    390000   0.98960733     17.439338      8.9281976    
    391000   1.0005296      17.513163      8.9399699    
    392000   0.94949648     17.717679      9.0135489    
    393000   0.98601074     17.485576      9.2353964    
    394000   0.99474468     17.949784      9.0232218    
    395000   0.99971        16.494552      9.1415025    
    396000   1.0163274      17.134267      9.0585442    
    397000   1.0020743      17.441194      9.0779843    
    398000   0.99363679     16.922092      9.0168711    
    399000   0.96971909     16.88473       8.9308878    
    400000   1.0179621      17.320647      8.9361211    
    401000   1.0390414      18.419806      8.9633511    
    402000   0.99638091     17.555116      8.8681505    
    403000   0.97246001     17.529665      8.5990926    
    404000   1.0219733      17.177263      8.5895523    
    405000   1.0181371      18.009395      8.4270698    
    406000   1.0207164      16.848863      8.3854896    
    407000   0.94567167     17.455597      7.9909773    
    408000   0.95195124     17.21722       7.7923446    
    409000   0.98816203     17.195272      7.5325295    
    410000   1.0230565      17.038829      7.1382492    
    411000   1.0084492      16.44479       7.2275436    
Fix halt condition for fix-id 3 met on step 412000 with value 6.9801665876280055 (src/fix_halt.cpp:237)
    412000   0.95346818     16.74842       6.9801666    
Loop time of 790.417 on 2 procs for 312000 steps with 701 atoms

Performance: 341045.352 tau/day, 394.728 timesteps/s
118.1% CPU use with 1 MPI tasks x 2 OpenMP threads

MPI task timing breakdown:
Section |  min time  |  avg time  |  max time  |%varavg| %total
---------------------------------------------------------------
Pair    | 108.1      | 108.1      | 108.1      |   0.0 | 13.68
Bond    | 9.7926     | 9.7926     | 9.7926     |   0.0 |  1.24
Neigh   | 651.96     | 651.96     | 651.96     |   0.0 | 82.48
Comm    | 0.19986    | 0.19986    | 0.19986    |   0.0 |  0.03
Output  | 1.1059     | 1.1059     | 1.1059     |   0.0 |  0.14
Modify  | 17.265     | 17.265     | 17.265     |   0.0 |  2.18
Other   |            | 1.988      |            |       |  0.25

Nlocal:            701 ave         701 max         701 min
Histogram: 1 0 0 0 0 0 0 0 0 0
Nghost:              0 ave           0 max           0 min
Histogram: 1 0 0 0 0 0 0 0 0 0
Neighs:         113064 ave      113064 max      113064 min
Histogram: 1 0 0 0 0 0 0 0 0 0

Total # of neighbors = 113064
Ave neighs/atom = 161.28959
Ave special neighs/atom = 1.9971469
Neighbor list builds = 2552
Dangerous builds = 0

# This simulation is done
# Move onto the next one
clear
  using 2 OpenMP thread(s) per MPI task
package omp 0
using multi-threaded neighbor list subroutines
next f
jump SELF

###
# Reference paper:
# K. Kremer and G. S. Grest
# Dynamics of entangled linear polymer melts: A molecular-dynamics simulation
# J Chem Phys 92, 5057 (1990)

##################################
# MIHIR: for branched polymers
# LJ minimum first to expand and explore, then collapse
###

###
# Looping through the various nuc3branch4 polymers to simulate,
# define variables to switch through
variable f index bb40nuc3bl10bn4d30tot100 bb80nuc3bl20bn4d30tot200 bb120nuc3bl30bn4d30tot300 bb160nuc3bl40bn4d30tot400 bb200nuc3bl50bn4d30tot500 bb240nuc3bl60bn4d30tot600 bb280nuc3bl70bn4d30tot700 bb320nuc3bl80bn4d30tot800 bb360nuc3bl90bn4d30tot900 bb400nuc3bl100bn4d30tot1000 bb440nuc3bl110bn4d30tot1100 bb480nuc3bl120bn4d30tot1200
###


###
# Box and units  (use LJ units and periodic boundaries)
###

units lj
log nuc3branch4/logs3/$f.log
log nuc3branch4/logs3/bb320nuc3bl80bn4d30tot800.log
