#atom_style bond #no stiffness
atom_style angle #with stiffness

boundary        p p p
###
# Pair interactions require lists of neighbours to be calculated
###

#neighbor 0.3 bin
neighbor 4 bin

neigh_modify every 1 delay 1 check yes
atom_modify sort 0 0
### Generate RESTART file, SPECIAL format, not a .txt file ###
### Useful if simulation crashes ###

restart 1000000 nuc3branch4/restarts3/$f.restart
restart 1000000 nuc3branch4/restarts3/bb320nuc3bl80bn4d30tot800.restart
#############################



### READ "start" data file ###

read_data nuc3branch4/$f.dat
read_data nuc3branch4/bb320nuc3bl80bn4d30tot800.dat
Reading data file ...
  orthogonal box = (-1000 -1000 -1000) to (1000 1000 1000)
  1 by 1 by 1 MPI processor grid
  reading atoms ...
  801 atoms
  scanning bonds ...
  3 = max bonds/atom
  scanning angles ...
  6 = max angles/atom
  reading bonds ...
  800 bonds
  reading angles ...
  808 angles
Finding 1-2 1-3 1-4 neighbors ...
  special bond factors lj:    0        0        0       
  special bond factors coul:  0        0        0       
     4 = max # of 1-2 neighbors
     4 = max # of 1-3 neighbors
     8 = max # of 1-4 neighbors
    12 = max # of special neighbors
  special bonds CPU = 0.002 seconds
  read_data CPU = 0.172 seconds

######################

### READ "REstart" data file ###

######################



###
# Define groups (atom type 1 is group 'all')
###
group all type 1
801 atoms in group all


###
# Dump configs - "simple dumpings"
###

###
# Dump configs + box coords
###

dump   1   all   custom   1000  nuc3branch4/trjs3/$f.lammpstrj  id  x y z  ix iy iz
dump   1   all   custom   1000  nuc3branch4/trjs3/bb320nuc3bl80bn4d30tot800.lammpstrj  id  x y z  ix iy iz
dump_modify   1   format line "%d %.5f %.5f %.5f %d %d %d"

########################################################################


###################################################################
# Stiffness term
#
# E = K * (1+cos(theta)), K>0
#
angle_style   cosine
#change this coefficient to change stiffness (e.g. 1,5,10)
angle_coeff   1 1.0
###################################################################

###################################################################
# Pair interaction between non-bonded atoms
#
#  Lennard-Jones 12-6 potential with cutoff:
#  potential E=4epsilon[ (sigma/r)^12 - (sigma/r)^6]  for r<r_cut
#
#  1.12246 = 2^(1/6) is the minimum of the potential


pair_style      lj/cut 1.12246152962189
#pair_style      lj/cut 3

#
#  pair_modify shift yes adds a constant to the potential such

#  that E(r_cut)=0. Forces remains unchanged.
#

pair_modify     shift yes

#
#  pair_coeff for lj/cut, specify 4:
#    * atom type interacting with
#    * atom type
#    * epsilon (energy units)
#    * sigma (distance units)
#

pair_coeff      1 1 1.0 1.0
###################################################################

###################################################################
# Pair interaction between non-bonded atoms
#
#  soft potential, for PUSHING apart overlapping atoms
#  potential E=A*(1 + cos(pi*r/r_c))
#
#  1.12246 = 2^(1/6) is the cut-off r_c

#pair_style     soft 1.12246152962189

#
#  pair_coeff for soft, specify 3:
#    * atom type interacting with
#    * atom type
#    * A
#
#

#pair_coeff      1 1 100.0
###################################################################

###################################################################
# Pair interaction between bonded atoms
#
# Fene potential + Lennard Jones 12-6:

#
#  E= - 0.5 K R0^2 ln[ 1- (r/R0)^2]
#     + 4epsilon[ (sigma/r)^12 - (sigma/r)^6] + epsilon
#

bond_style   fene


#
# For style fene, specify:
#   * bond type
#   * K (energy/distance^2)
#   * R0 (distance)
#   * epsilon (energy)  (LJ component)
#   * sigma (distance)  (LJ component)
#


special_bonds fene #<=== I M P O R T A N T (new command)
Finding 1-2 1-3 1-4 neighbors ...
  special bond factors lj:    0        1        1       
  special bond factors coul:  0        1        1       
     4 = max # of 1-2 neighbors
    12 = max # of special neighbors
  special bonds CPU = 0.000 seconds

bond_coeff   1   30   2   1.0   1.0


###################################################

###################################################################
# Pair interaction between bonded atoms
#
# Harmonic potential:
#
#  E= K * (R-R0)^2
#

#bond_style   harmonic

#
# For style harmonic, specify:
#   * bond type
#   * K (energy/distance^2)
#   * R0 (distance)
#

#bond_coeff   1   60.0   1.0
#bond_coeff   2   harmonic 0.1   1.0

###################################################
compute 1 all gyration
variable rog equal c_1
#compute 2 all coord/atom cutoff 1.1

#dump 2 all custom 10000 contact_number.dump id c_2


###
# Set up fixes
###
thermo_style   custom   step  temp enthalpy c_1
fix 1 all nve   ###NVE ensemble

fix 2 all   langevin   1.0 1.0 1.0  158102   ###Langevin integrator Tstart Tstop 1/friction rndseed


##### Sample thermodynamic info  (temperature, energy, pressure, etc.) #####
thermo 1000









############################################################################

###
# set timestep of integrator

timestep 0.01

###
# run integration for a number of steps
###
#run 0
#variable r equal c_1
#if "$r < 63.1" then "quit 1"

# lj potential minimum, cause molecule to explore
run 100000
Generated 0 of 0 mixed pair_coeff terms from geometric mixing rule
Last active /omp style is angle_style cosine/omp
Neighbor list info ...
  update: every = 1 steps, delay = 1 steps, check = yes
  max neighbors/atom: 2000, page size: 100000
  master list distance cutoff = 5.1224615
  ghost atom cutoff = 5.1224615
  binsize = 2.5612308, bins = 781 781 781
  1 neighbor lists, perpetual/occasional/extra = 1 0 0
  (1) pair lj/cut/omp, perpetual
      attributes: half, newton on, omp
      pair build: half/bin/newton/omp
      stencil: half/bin/3d
      bin: standard
WARNING: Communication cutoff 5.12246152962189 is shorter than a bond length based estimate of 5.455. This may lead to errors. (src/comm.cpp:723)
Per MPI rank memory allocation (min/avg/max) = 1862 | 1862 | 1862 Mbytes
   Step          Temp         Enthalpy         c_1      
         0   0              13.259555      71.570058    
      1000   0.95940885     18.276239      70.585967    
      2000   1.0279765      18.708481      69.935653    
      3000   0.9885352      18.671433      69.05663     
      4000   1.0291434      18.914377      68.592725    
      5000   1.0326832      19.373145      68.220804    
      6000   0.99359898     19.185289      67.552999    
      7000   1.0423527      19.360999      67.171387    
      8000   1.0165805      19.486203      66.67764     
      9000   0.9890563      20.184698      65.889392    
     10000   0.98022447     19.54933       65.170237    
     11000   1.0211913      19.588428      64.939746    
     12000   0.97235777     19.637298      64.632625    
     13000   1.0040032      20.415319      64.14096     
     14000   0.98619164     19.749035      63.910059    
     15000   1.0012645      19.47543       63.335746    
     16000   0.97852909     20.170262      63.260931    
     17000   1.0122013      20.53845       62.893982    
     18000   0.94549241     20.081388      62.877208    
     19000   1.0002726      20.260685      62.628025    
     20000   1.0444437      20.350583      62.675349    
     21000   1.0752539      19.825692      62.325394    
     22000   0.96865612     19.917578      62.208124    
     23000   0.98234703     20.090789      61.988932    
     24000   0.97109894     19.672991      61.445194    
     25000   0.97460004     19.461749      61.377325    
     26000   0.98914507     20.433745      60.888415    
     27000   1.0073068      20.44419       60.997094    
     28000   1.0143406      20.580694      60.705997    
     29000   0.98255625     20.008291      60.58185     
     30000   1.0071525      19.838681      60.302986    
     31000   0.95751755     20.086337      60.261156    
     32000   1.0058765      20.059886      59.926182    
     33000   1.0201082      19.939067      59.728844    
     34000   1.0584386      20.078684      59.537867    
     35000   1.0326764      20.615605      59.58053     
     36000   1.0143126      20.193692      59.699684    
     37000   1.0015553      20.658942      59.55854     
     38000   0.98725239     19.935607      59.392953    
     39000   1.047081       20.785994      59.440217    
     40000   1.0196555      20.222155      59.432298    
     41000   1.023686       19.85141       59.317501    
     42000   0.98613289     20.373218      59.416966    
     43000   1.022668       20.263055      59.484722    
     44000   0.95179414     19.783202      59.264021    
     45000   1.0125853      20.433193      59.193241    
     46000   0.9424829      20.025502      58.965537    
     47000   1.0236117      20.0722        58.675682    
     48000   1.0132534      20.032222      58.478122    
     49000   1.0338885      20.175514      58.064666    
     50000   0.97546869     20.180972      58.137759    
     51000   1.0074283      20.592514      58.099367    
     52000   0.96399515     19.931412      57.940924    
     53000   1.0198252      20.291771      57.999142    
     54000   1.0792068      20.387554      57.901035    
     55000   1.0050418      19.992569      57.705159    
     56000   1.0124236      21.139331      57.507858    
     57000   1.0322229      20.758422      57.306106    
     58000   0.95461459     20.146493      57.027711    
     59000   0.99520709     20.112072      57.206253    
     60000   0.94810375     20.404252      57.134923    
     61000   0.99022293     20.464695      56.987942    
     62000   0.99016557     20.570946      56.790738    
     63000   0.98685829     20.059589      56.957355    
     64000   0.95855383     19.992383      56.989498    
     65000   1.0282469      20.50166       56.813905    
     66000   0.99079074     20.355456      56.761999    
     67000   0.95065026     20.220217      56.563907    
     68000   0.96967686     20.128596      56.362212    
     69000   1.0303011      20.662841      55.99013     
     70000   0.94741209     20.223978      55.835108    
     71000   1.0362964      20.512017      55.524511    
     72000   0.96907908     20.640949      55.527874    
     73000   0.99458979     20.450062      55.615087    
     74000   0.94501419     20.239802      55.737682    
     75000   0.99787333     19.997367      55.385558    
     76000   1.0200818      20.094115      55.163643    
     77000   0.99504905     20.359674      55.428627    
     78000   0.97104843     20.301338      55.352217    
     79000   0.98280924     20.482934      55.232428    
     80000   0.99709119     20.759255      55.238135    
     81000   0.98267339     20.401815      54.98211     
     82000   0.96141037     19.926278      54.933893    
     83000   0.98191349     20.193038      54.875972    
     84000   0.99428734     20.584406      54.830429    
     85000   1.0113964      20.200588      54.672367    
     86000   0.99367004     20.108357      54.556012    
     87000   0.97573368     20.033514      54.6594      
     88000   0.96297009     20.151837      54.688932    
     89000   0.95927182     20.32079       54.641728    
     90000   1.0050289      20.303084      54.803429    
     91000   0.99543353     19.921621      54.68238     
     92000   1.0292072      20.554082      54.558243    
     93000   1.0327229      20.785667      54.39261     
     94000   1.004701       20.450099      54.058064    
     95000   1.0102918      21.387395      53.88071     
     96000   1.0242742      20.124332      53.769213    
     97000   1.0166006      20.407165      53.724614    
     98000   0.96951994     20.361011      53.67499     
     99000   0.93258521     20.549165      53.339846    
    100000   0.98994834     20.659321      53.267786    
Loop time of 673.318 on 2 procs for 100000 steps with 801 atoms

Performance: 128319.757 tau/day, 148.518 timesteps/s
102.0% CPU use with 1 MPI tasks x 2 OpenMP threads

MPI task timing breakdown:
Section |  min time  |  avg time  |  max time  |%varavg| %total
---------------------------------------------------------------
Pair    | 1.7279     | 1.7279     | 1.7279     |   0.0 |  0.26
Bond    | 2.9801     | 2.9801     | 2.9801     |   0.0 |  0.44
Neigh   | 661.72     | 661.72     | 661.72     |   0.0 | 98.28
Comm    | 0.05396    | 0.05396    | 0.05396    |   0.0 |  0.01
Output  | 0.35952    | 0.35952    | 0.35952    |   0.0 |  0.05
Modify  | 5.9705     | 5.9705     | 5.9705     |   0.0 |  0.89
Other   |            | 0.5109     |            |       |  0.08

Nlocal:            801 ave         801 max         801 min
Histogram: 1 0 0 0 0 0 0 0 0 0
Nghost:              0 ave           0 max           0 min
Histogram: 1 0 0 0 0 0 0 0 0 0
Neighs:           6192 ave        6192 max        6192 min
Histogram: 1 0 0 0 0 0 0 0 0 0

Total # of neighbors = 6192
Ave neighs/atom = 7.7303371
Ave special neighs/atom = 1.9975031
Neighbor list builds = 1150
Dangerous builds = 0

# Replace lj potential, now collapse
pair_style      lj/cut 3

# Cutoff simul when gyration under 10
# Variable created with equal requires v_ + 'name'
fix 3 all halt 1000 v_rog < 7

run 3000000
Generated 0 of 0 mixed pair_coeff terms from geometric mixing rule
Last active /omp style is angle_style cosine/omp
Per MPI rank memory allocation (min/avg/max) = 1862 | 1862 | 1862 Mbytes
   Step          Temp         Enthalpy         c_1      
    100000   0.98994834     19.826245      53.267786    
    101000   1.0220569      20.2339        52.976729    
    102000   1.0219456      19.061591      52.690009    
    103000   0.98451679     19.273699      52.668691    
    104000   1.0002048      19.512635      52.598538    
    105000   0.95535163     19.134977      52.536081    
    106000   0.98064082     19.590579      52.440802    
    107000   0.98518091     19.061397      52.151116    
    108000   0.98912525     19.642658      51.941249    
    109000   1.0284807      19.449137      51.556703    
    110000   0.98401884     18.133488      51.464751    
    111000   1.0029019      18.738067      51.333811    
    112000   1.0525654      19.26128       51.120651    
    113000   1.0117364      18.978826      50.825365    
    114000   0.9695255      19.121582      50.473379    
    115000   1.0170794      18.648975      50.408211    
    116000   1.0082004      18.475031      50.246462    
    117000   0.97469141     18.687776      50.143325    
    118000   0.96242837     18.559433      50.167491    
    119000   1.0061403      19.278685      50.111103    
    120000   1.0165583      18.978205      49.973601    
    121000   0.98472598     18.32964       49.698726    
    122000   1.0143786      18.438382      49.60857     
    123000   0.99400105     18.989269      49.590198    
    124000   0.98064706     18.914476      49.562161    
    125000   0.95963454     18.506282      48.979519    
    126000   0.99682952     18.829942      48.797757    
    127000   1.0183649      19.184463      48.751116    
    128000   1.0012195      18.861946      48.902631    
    129000   0.98982375     18.591555      48.771208    
    130000   0.96593968     18.357773      48.645891    
    131000   1.0217538      18.183544      48.378938    
    132000   1.0838998      19.036824      48.300262    
    133000   1.0025984      18.58346       47.901754    
    134000   1.0198182      18.278408      47.725208    
    135000   1.0700638      18.183809      47.547536    
    136000   0.96215238     18.056048      47.56003     
    137000   0.96599987     17.824244      47.490983    
    138000   0.92729179     17.213942      47.37382     
    139000   1.0050321      17.96425       47.304028    
    140000   1.0533327      17.787671      47.35531     
    141000   0.98311239     17.542703      47.101905    
    142000   0.99354803     18.234513      46.949788    
    143000   0.99786517     18.633627      46.839428    
    144000   1.0192883      18.403141      46.785912    
    145000   0.97081996     17.524641      46.558167    
    146000   1.0068451      18.550689      46.570365    
    147000   0.97272718     17.612654      46.356055    
    148000   1.0123427      17.495503      46.001124    
    149000   0.99439985     17.400999      45.480273    
    150000   1.0074972      18.085387      45.361069    
    151000   1.0127085      17.747064      45.496099    
    152000   1.0176477      18.413737      45.636298    
    153000   0.99107074     17.568395      45.350475    
    154000   0.98510633     18.353962      45.280202    
    155000   1.0263934      17.78695       45.360388    
    156000   0.92499783     17.958755      45.252221    
    157000   0.96952968     17.597386      45.46167     
    158000   0.96894312     18.193268      45.378685    
    159000   0.97679364     17.318947      45.255401    
    160000   1.0101511      17.525851      45.102364    
    161000   1.0104688      17.926879      45.060613    
    162000   0.99450459     17.765176      44.971761    
    163000   1.0419925      18.713623      44.771901    
    164000   0.96378254     17.826821      44.687221    
    165000   0.98145064     17.613127      44.51023     
    166000   0.98766069     18.058077      44.378756    
    167000   0.98929146     18.01363       44.020055    
    168000   1.009029       17.683516      43.941814    
    169000   1.0207428      17.783281      43.658591    
    170000   1.0307306      17.541199      43.59812     
    171000   0.9924118      17.840638      43.425309    
    172000   1.0192933      18.241612      43.428946    
    173000   1.0405052      17.834204      43.150442    
    174000   0.99087633     17.712023      42.953183    
    175000   0.99868473     17.856185      42.788871    
    176000   1.0302133      17.208486      42.667448    
    177000   0.97594399     18.119992      42.570346    
    178000   0.98737257     18.586275      42.430447    
    179000   1.0062955      17.351346      42.457668    
    180000   1.0003062      17.884514      42.399909    
    181000   0.9986675      17.113239      42.079533    
    182000   0.99479312     18.764174      41.818297    
    183000   0.96299288     17.873768      41.98669     
    184000   0.97659596     17.921133      41.82092     
    185000   0.95942144     17.793601      41.490189    
    186000   0.99121506     17.455825      41.585741    
    187000   0.99078411     18.022874      41.475098    
    188000   0.97394171     17.852287      41.271852    
    189000   1.0011227      17.909264      41.278805    
    190000   0.9977808      18.498646      41.234733    
    191000   0.96270063     17.097318      41.216776    
    192000   0.97646541     17.573551      41.141125    
    193000   0.9843994      18.276858      40.943304    
    194000   1.0238562      17.768381      40.796792    
    195000   0.9652972      17.417705      40.736333    
    196000   1.0088925      18.010395      40.791736    
    197000   0.97319246     17.788946      40.728587    
    198000   1.0543143      17.336714      40.792262    
    199000   1.0530805      17.68999       40.612115    
    200000   1.0605986      17.962515      40.294506    
    201000   1.0157863      18.244689      40.078783    
    202000   0.9604499      17.628312      39.966823    
    203000   1.0275323      17.658652      39.688512    
    204000   1.0402638      18.076505      39.212074    
    205000   1.0197267      18.116113      39.307754    
    206000   1.0163391      18.000104      39.13691     
    207000   0.9953017      17.882883      39.137911    
    208000   0.98079397     17.872634      39.070693    
    209000   0.95614726     17.202735      39.075772    
    210000   1.0109071      17.791134      38.717254    
    211000   0.9875297      18.064254      38.979072    
    212000   0.97465392     17.162484      39.113167    
    213000   1.0075122      18.363674      39.173108    
    214000   1.0024136      17.197169      38.877077    
    215000   0.94264673     17.809224      38.83199     
    216000   0.9674255      18.099048      38.729333    
    217000   1.0287844      17.802052      38.636694    
    218000   0.97840375     17.680606      38.448403    
    219000   0.9747092      17.520342      38.212676    
    220000   1.0138963      16.844009      38.017801    
    221000   1.0147665      17.763475      37.842461    
    222000   1.0118537      17.771992      37.881965    
    223000   1.0041084      17.958786      37.820259    
    224000   1.0360503      17.66656       37.794766    
    225000   1.0091092      17.498363      37.491188    
    226000   1.0274527      17.802812      37.589027    
    227000   0.99827146     17.570204      37.807687    
    228000   1.0533108      18.415038      37.64211     
    229000   1.008884       17.666615      37.313138    
    230000   1.0085519      17.53793       37.125339    
    231000   1.0074162      17.506975      37.111333    
    232000   1.0062159      17.830813      36.971544    
    233000   0.98538764     17.512604      36.74822     
    234000   0.97982459     17.372073      36.770333    
    235000   1.0013346      17.263376      36.575399    
    236000   0.9971624      17.525965      36.350707    
    237000   0.97590509     17.294827      36.321661    
    238000   0.94710561     17.726659      35.911304    
    239000   1.0275726      17.419598      35.714803    
    240000   1.0469357      18.220909      35.708353    
    241000   0.98079767     17.643398      35.349665    
    242000   0.97112458     17.659689      34.981519    
    243000   1.019149       18.253         34.823633    
    244000   0.99090496     17.321292      34.838793    
    245000   1.0044271      18.169373      34.908283    
    246000   0.94565245     17.400479      35.154523    
    247000   0.98068425     18.234593      35.434345    
    248000   0.98835327     17.479418      35.466349    
    249000   1.0521303      17.57424       35.649909    
    250000   0.9887075      17.956784      35.494862    
    251000   0.97642404     17.330517      35.430579    
    252000   0.97973375     18.575485      35.094146    
    253000   0.97567442     17.498174      35.074126    
    254000   0.96773337     17.233567      35.059235    
    255000   1.0151385      17.414294      34.668386    
    256000   0.99944519     17.64929       34.780821    
    257000   1.0087151      17.80389       34.538327    
    258000   1.0017843      17.894384      34.452783    
    259000   0.98913629     17.12384       34.256229    
    260000   0.93924168     18.013188      34.391446    
    261000   0.96194873     17.609636      34.523342    
    262000   0.96847785     17.538871      34.659705    
    263000   1.0268712      17.331763      34.570384    
    264000   0.96658722     17.332483      34.469922    
    265000   0.96836141     17.588929      34.282825    
    266000   0.96385636     17.52775       34.059503    
    267000   0.99529949     18.502795      33.813012    
    268000   0.96250444     17.66908       33.722606    
    269000   1.0097028      17.745557      33.739919    
    270000   1.0003754      18.311812      33.644476    
    271000   1.017654       17.527625      33.627386    
    272000   1.0502204      18.286418      33.653138    
    273000   0.9807548      17.328119      33.485592    
    274000   1.0191022      17.672707      33.304428    
    275000   0.97419891     17.641028      33.168171    
    276000   1.0934802      17.817696      33.007161    
    277000   0.96884896     16.90208       33.021963    
    278000   1.0338362      18.163437      33.136027    
    279000   0.9303549      17.407098      33.077373    
    280000   1.0244032      17.827987      32.926771    
    281000   1.0022754      17.417992      32.889439    
    282000   0.98481377     17.099784      32.609002    
    283000   1.0277495      18.48064       32.744265    
    284000   1.022377       17.905473      32.611059    
    285000   1.0219946      17.700564      32.670043    
    286000   1.049398       17.955468      32.756211    
    287000   1.020482       18.042302      32.624934    
    288000   0.96896706     17.401654      32.445601    
    289000   1.0197385      17.980419      32.226891    
    290000   1.0151498      17.332678      32.134565    
    291000   1.0123106      17.874097      32.151532    
    292000   0.97459555     17.098803      32.082734    
    293000   0.95054008     17.672011      32.11598     
    294000   0.99287405     16.957599      31.988447    
    295000   0.97052428     17.749376      31.817728    
    296000   0.98120363     16.839346      31.525015    
    297000   1.0024213      17.420833      31.681639    
    298000   1.0134133      17.814714      31.496157    
    299000   1.0522475      17.856659      31.2683      
    300000   0.9955158      17.885809      31.173612    
    301000   1.002563       17.585432      30.75481     
    302000   1.0069361      17.926048      30.603227    
    303000   0.97947538     17.879735      30.559109    
    304000   0.99771671     17.930809      30.491745    
    305000   1.0215975      17.417808      30.463279    
    306000   0.9633333      18.446945      30.443102    
    307000   0.98154482     17.386456      30.244981    
    308000   0.96084208     18.021238      30.005998    
    309000   0.98011612     17.497549      30.031076    
    310000   1.0137055      17.53834       30.104016    
    311000   1.0857691      17.929728      30.042979    
    312000   1.0272204      17.676923      29.813573    
    313000   0.98946861     17.786864      29.617217    
    314000   1.0369225      17.582559      29.668988    
    315000   1.0078941      17.079744      29.451367    
    316000   0.98067086     17.874478      29.105139    
    317000   0.99887262     17.943322      28.873997    
    318000   1.0090536      17.651992      28.655338    
    319000   1.0344695      17.370743      28.655667    
    320000   1.0045112      16.919421      28.734521    
    321000   0.96379012     18.011241      28.734173    
    322000   0.99647758     17.651106      28.581723    
    323000   1.0475367      17.892162      28.652405    
    324000   0.98609158     17.761822      28.544652    
    325000   1.0388676      17.661463      28.385232    
    326000   1.0111676      18.098247      28.367759    
    327000   1.0449394      17.705693      28.25955     
    328000   1.0015676      18.280387      28.052402    
    329000   1.0543204      17.866539      27.930329    
    330000   1.0096486      17.54189       27.590588    
    331000   1.0512955      17.470181      27.419495    
    332000   0.96280436     17.137016      27.273488    
    333000   1.0143105      17.407373      27.295802    
    334000   0.97408901     18.088771      27.03063     
    335000   1.0469423      17.811333      26.743663    
    336000   0.9493241      17.301186      26.414059    
    337000   0.98779195     17.449338      26.263306    
    338000   0.94072672     17.152399      26.073591    
    339000   0.98881871     18.525321      25.944578    
    340000   0.98920527     17.098073      25.767372    
    341000   0.97253129     17.477903      25.688166    
    342000   0.98773325     17.942236      25.623134    
    343000   0.99394756     17.822907      25.487153    
    344000   1.0270382      17.589263      25.232017    
    345000   0.96733132     17.165906      25.184198    
    346000   1.0137342      17.690541      25.200424    
    347000   0.99410249     17.203179      25.065107    
    348000   0.9861415      17.087015      25.238693    
    349000   1.0069744      17.763837      25.277751    
    350000   0.99536727     16.989544      25.230006    
    351000   0.98732853     17.517585      25.038384    
    352000   0.97422658     17.556141      25.153311    
    353000   0.98286436     17.50039       25.258414    
    354000   1.0056995      17.758515      25.250584    
    355000   0.99962082     17.547551      24.953459    
    356000   0.95480488     18.065614      24.748343    
    357000   0.97888991     17.88379       24.838275    
    358000   1.0177337      17.396023      24.777233    
    359000   1.0209174      17.772675      24.633778    
    360000   1.0058316      17.460733      24.603642    
    361000   0.96251417     17.204371      24.414781    
    362000   1.0121196      16.841811      24.140043    
    363000   0.9835188      17.575078      24.174026    
    364000   1.029504       17.45248       24.318077    
    365000   0.96727377     17.729337      24.472174    
    366000   1.0125002      17.772048      24.667326    
    367000   1.0034283      17.054625      24.296351    
    368000   0.98643518     17.560728      23.94754     
    369000   1.0156689      17.737989      23.627067    
    370000   1.0462548      17.707363      23.514622    
    371000   1.0035966      17.59823       23.347395    
    372000   0.97063195     17.355353      23.556874    
    373000   0.99286448     17.515392      23.437097    
    374000   0.97767117     17.699698      23.400258    
    375000   0.97840906     16.978539      23.507889    
    376000   0.96746581     17.142327      23.33016     
    377000   0.98592455     16.971905      23.232545    
    378000   1.0083804      17.546069      23.161074    
    379000   1.0186236      17.099153      23.215974    
    380000   1.0235153      17.997278      23.039343    
    381000   1.0044044      17.563036      22.780887    
    382000   0.95904035     17.235558      22.77015     
    383000   1.0101582      17.518628      22.878909    
    384000   0.98961186     17.671138      22.651242    
    385000   0.99796325     17.225959      22.540754    
    386000   0.97344054     17.281099      22.364689    
    387000   0.97933406     17.526791      22.489125    
    388000   1.0116704      17.913426      22.760013    
    389000   0.96473234     17.638274      22.631578    
    390000   1.0353663      17.638376      22.683482    
    391000   0.97402705     17.447553      22.443862    
    392000   1.0058398      17.372714      22.277046    
    393000   0.97833945     17.506614      22.255309    
    394000   0.96859112     17.208308      21.915551    
    395000   1.0458592      17.814613      21.665467    
    396000   1.0475209      17.419495      21.6231      
    397000   0.96160223     17.106058      21.227678    
    398000   1.0020351      17.294384      21.032646    
    399000   0.94647701     16.902634      21.17529     
    400000   1.0288007      17.645107      21.053892    
    401000   1.0023049      17.68026       21.057659    
    402000   0.98767903     17.37109       21.170729    
    403000   0.9950549      17.891591      21.029291    
    404000   0.97958458     17.234328      21.025525    
    405000   0.99814271     17.840543      20.894488    
    406000   1.0345778      17.81716       20.929351    
    407000   0.96932389     17.934125      20.868567    
    408000   0.98727539     17.761266      20.653581    
    409000   0.98824513     17.748496      20.427167    
    410000   0.98066428     16.807663      20.294481    
    411000   0.98613215     17.442294      20.06577     
    412000   1.068384       17.58817       20.084545    
    413000   0.95397379     18.398946      19.887684    
    414000   0.95885784     17.708938      19.628083    
    415000   0.97912046     17.200483      19.41828     
    416000   0.9730836      17.564852      19.557084    
    417000   0.97828829     16.971345      19.396975    
    418000   0.98775588     17.129287      19.155812    
    419000   0.93825176     17.01557       19.085885    
    420000   0.98594632     17.546438      19.169163    
    421000   1.0093939      17.645757      19.139784    
    422000   1.0414096      17.813351      18.880124    
    423000   0.98532769     17.821276      18.789068    
    424000   1.0367538      17.2467        18.856564    
    425000   0.9615678      16.799711      18.74893     
    426000   1.0037364      16.912479      18.505636    
    427000   0.95045229     17.549797      18.487584    
    428000   1.0512369      17.919516      18.652082    
    429000   1.0104379      18.224395      18.418534    
    430000   0.96525617     17.892412      18.226335    
    431000   1.0247635      17.526461      18.178769    
    432000   1.0023117      17.61638       18.292326    
    433000   1.0072788      17.498377      18.408477    
    434000   0.97920678     17.744584      18.478269    
    435000   0.95880569     17.442788      18.534029    
    436000   0.98558098     17.167389      18.493554    
    437000   1.0307803      17.22996       18.579699    
    438000   1.013302       17.742587      18.598824    
    439000   1.0007258      18.22113       18.651309    
    440000   0.9951396      17.873418      18.655213    
    441000   0.98649742     17.347364      18.316457    
    442000   0.98026933     18.117377      18.071189    
    443000   1.012263       17.671642      18.02481     
    444000   0.96600121     17.205592      17.989995    
    445000   1.0284923      18.445538      17.929369    
    446000   1.0574393      17.089429      17.885456    
    447000   1.0150694      17.31538       17.887924    
    448000   1.0278046      17.117041      17.977416    
    449000   0.99140869     17.180629      17.94358     
    450000   1.012279       17.22757       17.681397    
    451000   0.96618959     17.280576      17.452469    
    452000   0.95930831     17.333726      17.546724    
    453000   0.98141438     17.67994       17.528343    
    454000   1.0348444      17.482032      17.516875    
    455000   1.0061197      17.507749      17.189929    
    456000   0.98241367     17.775726      17.265237    
    457000   1.0105033      17.433801      17.168289    
    458000   1.040176       17.704638      17.066887    
    459000   0.9863307      17.140502      16.797325    
    460000   1.0444225      17.733131      16.663966    
    461000   1.0236221      17.127275      16.355196    
    462000   1.0172023      17.274472      16.31406     
    463000   1.0113337      17.676835      16.015484    
    464000   1.0123958      17.760584      15.683111    
    465000   1.0158792      17.709095      15.508297    
    466000   1.0004653      17.469435      15.581131    
    467000   0.97279882     17.780005      15.693609    
    468000   1.0100539      17.908846      15.735462    
    469000   0.99263732     16.980465      15.785976    
    470000   1.0176163      18.108706      15.865956    
    471000   1.0162227      17.83372       15.731133    
    472000   0.99842774     17.997068      15.809888    
    473000   1.0105731      17.467281      15.612697    
    474000   0.95580325     17.610212      15.530844    
    475000   1.0595914      18.00519       15.448245    
    476000   0.96302316     17.225865      15.35702     
    477000   1.0543204      17.90416       15.219162    
    478000   1.0620961      16.803281      15.344059    
    479000   0.99193983     17.777772      15.330464    
    480000   0.99078773     18.214803      14.983264    
    481000   0.99042495     17.300498      14.872435    
    482000   0.98220812     17.19304       14.868924    
    483000   0.94945228     16.630811      14.671479    
    484000   0.92634544     16.513365      14.501961    
    485000   1.0212808      16.82145       14.238431    
    486000   0.99171736     17.501097      14.229497    
    487000   1.0111673      17.429903      14.132924    
    488000   1.0411301      18.256177      13.99812     
    489000   0.9467707      17.661765      13.812867    
    490000   1.0450471      17.830554      13.409495    
    491000   0.98771801     17.343808      13.370731    
    492000   1.0074071      17.45084       13.27077     
    493000   0.97791365     16.809087      13.371651    
    494000   1.0105784      18.124097      13.200934    
    495000   0.99548551     16.925759      13.244876    
    496000   0.97260189     17.888834      12.928857    
    497000   1.0284318      16.424289      12.942033    
    498000   1.0661515      17.355948      12.649242    
    499000   1.0553444      16.988365      12.437894    
    500000   0.95566168     16.92729       12.206478    
    501000   1.0069453      17.463822      12.130491    
    502000   1.0488917      17.207168      12.041226    
    503000   1.0279669      17.833529      11.995018    
    504000   1.0101815      17.127943      11.952971    
    505000   0.97868218     17.247261      12.076634    
    506000   0.97561192     17.090499      11.904033    
    507000   0.98852094     17.27235       12.239438    
    508000   0.99962596     17.650717      12.079007    
    509000   1.0245567      17.29469       12.124517    
    510000   0.94824148     16.73873       11.871936    
    511000   1.0320937      17.15579       11.956249    
    512000   1.0041686      17.514913      11.862236    
    513000   0.98814867     17.540743      11.912529    
    514000   0.99317036     16.825526      11.887217    
    515000   1.028381       17.664066      11.934889    
    516000   0.98775387     16.448798      11.977488    
    517000   0.98541715     16.96608       11.99199     
    518000   0.97366605     17.188567      11.687778    
    519000   1.0058777      17.845308      11.602709    
    520000   1.001365       17.247551      11.485668    
    521000   0.99384052     17.726985      11.544589    
    522000   0.98861263     17.044933      11.609298    
    523000   0.94399429     16.583659      11.495376    
    524000   1.0439488      17.289308      11.167718    
    525000   0.98139324     17.804339      11.153153    
    526000   0.94945525     16.845286      11.23185     
    527000   1.0012457      17.447693      11.127252    
    528000   1.0121042      16.687975      11.244939    
    529000   1.0170852      17.362791      11.258946    
    530000   0.96993672     17.365651      11.24421     
    531000   1.0051558      16.914412      11.088706    
    532000   0.94387917     16.731702      11.005159    
    533000   1.0066625      16.985703      11.219439    
    534000   1.0319818      17.33382       11.15721     
    535000   0.97739641     16.794506      10.833667    
    536000   1.0270643      17.385595      10.855459    
    537000   1.0083059      17.949621      11.031541    
    538000   1.0201323      16.985713      10.885959    
    539000   0.94105859     17.588954      10.971202    
    540000   1.007087       16.380227      10.794286    
    541000   0.99243204     17.145963      10.570191    
    542000   0.99490799     17.954363      10.117285    
    543000   1.0255216      17.391361      10.200296    
    544000   1.0223294      17.507613      9.9805309    
    545000   1.0328152      16.752366      9.9715561    
    546000   0.96320529     17.692038      9.6926682    
    547000   0.99766395     17.299343      9.565575     
    548000   1.0192128      17.075886      9.4781639    
    549000   1.0039311      16.973253      9.2980428    
    550000   0.97393298     17.364587      9.2115262    
    551000   1.0545622      17.644281      8.9031575    
    552000   1.0056857      17.267448      8.8938906    
    553000   0.99544402     17.705258      8.7092679    
    554000   0.99618872     17.738149      8.5701982    
    555000   0.9893653      17.184019      8.6317982    
    556000   0.98612132     16.754777      8.6433296    
    557000   0.99115265     16.868891      8.4631501    
    558000   0.98540679     16.714447      8.2032385    
    559000   1.0149558      16.659378      8.0653569    
    560000   1.0093009      17.424364      7.9645462    
    561000   0.99695361     17.773918      7.8678249    
    562000   1.01828        17.221498      7.907969     
    563000   1.0325775      17.221935      7.8345785    
    564000   1.0493282      17.460336      7.7041688    
    565000   0.96067503     17.397091      7.8120477    
    566000   1.037913       16.862065      7.7678315    
    567000   1.021435       17.92537       7.4774301    
    568000   0.97902606     17.337994      7.3805041    
    569000   1.0034615      17.161341      7.2006911    
    570000   1.0102649      17.291172      7.0024431    
Fix halt condition for fix-id 3 met on step 571000 with value 6.89379718971198 (src/fix_halt.cpp:237)
    571000   1.0357551      17.202643      6.8937972    
Loop time of 1198.85 on 2 procs for 471000 steps with 801 atoms

Performance: 339445.396 tau/day, 392.877 timesteps/s
117.4% CPU use with 1 MPI tasks x 2 OpenMP threads

MPI task timing breakdown:
Section |  min time  |  avg time  |  max time  |%varavg| %total
---------------------------------------------------------------
Pair    | 157.53     | 157.53     | 157.53     |   0.0 | 13.14
Bond    | 14.355     | 14.355     | 14.355     |   0.0 |  1.20
Neigh   | 995.99     | 995.99     | 995.99     |   0.0 | 83.08
Comm    | 0.29435    | 0.29435    | 0.29435    |   0.0 |  0.02
Output  | 1.4712     | 1.4712     | 1.4712     |   0.0 |  0.12
Modify  | 26.201     | 26.201     | 26.201     |   0.0 |  2.19
Other   |            | 3.006      |            |       |  0.25

Nlocal:            801 ave         801 max         801 min
Histogram: 1 0 0 0 0 0 0 0 0 0
Nghost:              0 ave           0 max           0 min
Histogram: 1 0 0 0 0 0 0 0 0 0
Neighs:         142162 ave      142162 max      142162 min
Histogram: 1 0 0 0 0 0 0 0 0 0

Total # of neighbors = 142162
Ave neighs/atom = 177.48065
Ave special neighs/atom = 1.9975031
Neighbor list builds = 3900
Dangerous builds = 0

# This simulation is done
# Move onto the next one
clear
  using 2 OpenMP thread(s) per MPI task
package omp 0
using multi-threaded neighbor list subroutines
next f
jump SELF

###
# Reference paper:
# K. Kremer and G. S. Grest
# Dynamics of entangled linear polymer melts: A molecular-dynamics simulation
# J Chem Phys 92, 5057 (1990)

##################################
# MIHIR: for branched polymers
# LJ minimum first to expand and explore, then collapse
###

###
# Looping through the various nuc3branch4 polymers to simulate,
# define variables to switch through
variable f index bb40nuc3bl10bn4d30tot100 bb80nuc3bl20bn4d30tot200 bb120nuc3bl30bn4d30tot300 bb160nuc3bl40bn4d30tot400 bb200nuc3bl50bn4d30tot500 bb240nuc3bl60bn4d30tot600 bb280nuc3bl70bn4d30tot700 bb320nuc3bl80bn4d30tot800 bb360nuc3bl90bn4d30tot900 bb400nuc3bl100bn4d30tot1000 bb440nuc3bl110bn4d30tot1100 bb480nuc3bl120bn4d30tot1200
###


###
# Box and units  (use LJ units and periodic boundaries)
###

units lj
log nuc3branch4/logs3/$f.log
log nuc3branch4/logs3/bb360nuc3bl90bn4d30tot900.log
