#atom_style bond #no stiffness
atom_style angle #with stiffness

boundary        p p p
###
# Pair interactions require lists of neighbours to be calculated
###

#neighbor 0.3 bin
neighbor 4 bin

neigh_modify every 1 delay 1 check yes
atom_modify sort 0 0
### Generate RESTART file, SPECIAL format, not a .txt file ###
### Useful if simulation crashes ###

restart 1000000 nuc3branch4/restarts3/$f.restart
restart 1000000 nuc3branch4/restarts3/bb360nuc3bl90bn4d30tot900.restart
#############################



### READ "start" data file ###

read_data nuc3branch4/$f.dat
read_data nuc3branch4/bb360nuc3bl90bn4d30tot900.dat
Reading data file ...
  orthogonal box = (-1000 -1000 -1000) to (1000 1000 1000)
  1 by 1 by 1 MPI processor grid
  reading atoms ...
  901 atoms
  scanning bonds ...
  3 = max bonds/atom
  scanning angles ...
  6 = max angles/atom
  reading bonds ...
  900 bonds
  reading angles ...
  908 angles
Finding 1-2 1-3 1-4 neighbors ...
  special bond factors lj:    0        0        0       
  special bond factors coul:  0        0        0       
     4 = max # of 1-2 neighbors
     4 = max # of 1-3 neighbors
     8 = max # of 1-4 neighbors
    12 = max # of special neighbors
  special bonds CPU = 0.001 seconds
  read_data CPU = 0.117 seconds

######################

### READ "REstart" data file ###

######################



###
# Define groups (atom type 1 is group 'all')
###
group all type 1
901 atoms in group all


###
# Dump configs - "simple dumpings"
###

###
# Dump configs + box coords
###

dump   1   all   custom   1000  nuc3branch4/trjs3/$f.lammpstrj  id  x y z  ix iy iz
dump   1   all   custom   1000  nuc3branch4/trjs3/bb360nuc3bl90bn4d30tot900.lammpstrj  id  x y z  ix iy iz
dump_modify   1   format line "%d %.5f %.5f %.5f %d %d %d"

########################################################################


###################################################################
# Stiffness term
#
# E = K * (1+cos(theta)), K>0
#
angle_style   cosine
#change this coefficient to change stiffness (e.g. 1,5,10)
angle_coeff   1 1.0
###################################################################

###################################################################
# Pair interaction between non-bonded atoms
#
#  Lennard-Jones 12-6 potential with cutoff:
#  potential E=4epsilon[ (sigma/r)^12 - (sigma/r)^6]  for r<r_cut
#
#  1.12246 = 2^(1/6) is the minimum of the potential


pair_style      lj/cut 1.12246152962189
#pair_style      lj/cut 3

#
#  pair_modify shift yes adds a constant to the potential such

#  that E(r_cut)=0. Forces remains unchanged.
#

pair_modify     shift yes

#
#  pair_coeff for lj/cut, specify 4:
#    * atom type interacting with
#    * atom type
#    * epsilon (energy units)
#    * sigma (distance units)
#

pair_coeff      1 1 1.0 1.0
###################################################################

###################################################################
# Pair interaction between non-bonded atoms
#
#  soft potential, for PUSHING apart overlapping atoms
#  potential E=A*(1 + cos(pi*r/r_c))
#
#  1.12246 = 2^(1/6) is the cut-off r_c

#pair_style     soft 1.12246152962189

#
#  pair_coeff for soft, specify 3:
#    * atom type interacting with
#    * atom type
#    * A
#
#

#pair_coeff      1 1 100.0
###################################################################

###################################################################
# Pair interaction between bonded atoms
#
# Fene potential + Lennard Jones 12-6:

#
#  E= - 0.5 K R0^2 ln[ 1- (r/R0)^2]
#     + 4epsilon[ (sigma/r)^12 - (sigma/r)^6] + epsilon
#

bond_style   fene


#
# For style fene, specify:
#   * bond type
#   * K (energy/distance^2)
#   * R0 (distance)
#   * epsilon (energy)  (LJ component)
#   * sigma (distance)  (LJ component)
#


special_bonds fene #<=== I M P O R T A N T (new command)
Finding 1-2 1-3 1-4 neighbors ...
  special bond factors lj:    0        1        1       
  special bond factors coul:  0        1        1       
     4 = max # of 1-2 neighbors
    12 = max # of special neighbors
  special bonds CPU = 0.000 seconds

bond_coeff   1   30   2   1.0   1.0


###################################################

###################################################################
# Pair interaction between bonded atoms
#
# Harmonic potential:
#
#  E= K * (R-R0)^2
#

#bond_style   harmonic

#
# For style harmonic, specify:
#   * bond type
#   * K (energy/distance^2)
#   * R0 (distance)
#

#bond_coeff   1   60.0   1.0
#bond_coeff   2   harmonic 0.1   1.0

###################################################
compute 1 all gyration
variable rog equal c_1
#compute 2 all coord/atom cutoff 1.1

#dump 2 all custom 10000 contact_number.dump id c_2


###
# Set up fixes
###
thermo_style   custom   step  temp enthalpy c_1
fix 1 all nve   ###NVE ensemble

fix 2 all   langevin   1.0 1.0 1.0  158102   ###Langevin integrator Tstart Tstop 1/friction rndseed


##### Sample thermodynamic info  (temperature, energy, pressure, etc.) #####
thermo 1000









############################################################################

###
# set timestep of integrator

timestep 0.01

###
# run integration for a number of steps
###
#run 0
#variable r equal c_1
#if "$r < 63.1" then "quit 1"

# lj potential minimum, cause molecule to explore
run 100000
Generated 0 of 0 mixed pair_coeff terms from geometric mixing rule
Last active /omp style is angle_style cosine/omp
Neighbor list info ...
  update: every = 1 steps, delay = 1 steps, check = yes
  max neighbors/atom: 2000, page size: 100000
  master list distance cutoff = 5.1224615
  ghost atom cutoff = 5.1224615
  binsize = 2.5612308, bins = 781 781 781
  1 neighbor lists, perpetual/occasional/extra = 1 0 0
  (1) pair lj/cut/omp, perpetual
      attributes: half, newton on, omp
      pair build: half/bin/newton/omp
      stencil: half/bin/3d
      bin: standard
WARNING: Communication cutoff 5.12246152962189 is shorter than a bond length based estimate of 5.455. This may lead to errors. (src/comm.cpp:723)
Per MPI rank memory allocation (min/avg/max) = 1862 | 1862 | 1862 Mbytes
   Step          Temp         Enthalpy         c_1      
         0   0              13.257249      76.91073     
      1000   1.0319977      18.415319      76.078565    
      2000   1.0093682      18.789488      75.382669    
      3000   1.0032753      18.991924      74.490721    
      4000   1.0108659      18.854144      73.801584    
      5000   0.97596341     18.993431      73.133081    
      6000   1.0423373      19.31037       72.712421    
      7000   1.0236243      18.789806      72.359399    
      8000   1.0053934      19.889032      71.836158    
      9000   1.0147884      19.299954      71.580988    
     10000   1.0265092      19.815054      70.998013    
     11000   0.96441881     19.890637      70.686396    
     12000   1.0195144      19.796217      70.447192    
     13000   0.96327199     19.874335      69.980747    
     14000   1.0237158      19.529866      69.716394    
     15000   0.99998784     19.466424      69.356376    
     16000   1.0355372      19.674852      69.084656    
     17000   1.006926       20.360243      68.740061    
     18000   1.0048038      20.327778      68.421592    
     19000   0.97956044     19.850587      68.081909    
     20000   0.96813927     19.442964      67.996899    
     21000   0.98637116     20.065935      67.71873     
     22000   1.0282998      19.902294      67.394462    
     23000   1.0054748      19.968752      67.098033    
     24000   0.9590125      19.657515      66.591361    
     25000   0.95119454     20.12065       66.498079    
     26000   1.0392793      19.892978      66.341317    
     27000   1.0070585      20.054171      65.967531    
     28000   1.0354926      20.35625       65.812196    
     29000   1.0117096      20.468467      65.623208    
     30000   0.99453413     19.726898      65.605943    
     31000   0.98166725     20.299539      65.749752    
     32000   0.97779548     20.109947      65.52713     
     33000   1.0267325      20.396709      65.235152    
     34000   1.0063382      19.665489      65.381529    
     35000   1.0076319      20.077247      65.254017    
     36000   0.99652535     20.21896       65.122573    
     37000   0.96539669     20.173035      64.82815     
     38000   0.95688813     20.020926      64.471086    
     39000   0.98426966     20.338856      64.203453    
     40000   1.0386944      20.138621      63.918472    
     41000   1.01764        20.233188      63.474378    
     42000   1.0187821      20.396658      63.253785    
     43000   0.96757704     20.168684      62.96612     
     44000   0.98189768     20.169108      62.51434     
     45000   0.95672162     20.11118       62.2387      
     46000   0.97521728     20.433855      61.913414    
     47000   1.0426858      20.281         61.811669    
     48000   1.0263702      20.749712      61.797624    
     49000   0.99580828     20.391206      61.560036    
     50000   0.98656308     20.206683      61.547845    
     51000   1.0466193      20.489206      61.49317     
     52000   1.0048463      20.8824        61.147155    
     53000   0.98334406     20.378468      60.891433    
     54000   1.0304025      20.605412      60.726398    
     55000   1.0003079      20.725837      60.517503    
     56000   0.99729431     20.390117      60.383134    
     57000   0.93832833     20.106234      60.414964    
     58000   1.0088728      20.440688      60.554535    
     59000   0.91077949     19.565957      60.630023    
     60000   1.0282761      20.920947      60.50833     
     61000   1.0221187      19.781836      60.49826     
     62000   1.0264761      20.557489      60.327484    
     63000   0.94669412     20.19659       60.07647     
     64000   0.94950437     20.19421       60.077322    
     65000   1.0351326      20.179473      59.889139    
     66000   0.97780041     20.551557      59.692719    
     67000   1.0532834      19.937711      59.565734    
     68000   1.0389788      20.560526      59.525299    
     69000   1.0026895      20.450695      59.518283    
     70000   0.96944916     20.725173      59.488882    
     71000   1.0095428      20.55523       59.464457    
     72000   1.0117627      20.135038      59.352426    
     73000   0.95631743     20.383632      59.121103    
     74000   1.0200632      20.356109      58.885856    
     75000   1.0109631      20.519961      58.753167    
     76000   0.98448012     20.815027      58.733617    
     77000   0.98045537     20.265653      58.738243    
     78000   0.97386237     20.768676      58.718021    
     79000   1.0336239      20.533002      58.562028    
     80000   0.98646824     20.237019      58.355736    
     81000   1.02623        20.22891       58.307       
     82000   0.99868371     20.408637      58.396081    
     83000   0.94832722     19.859411      58.287651    
     84000   1.044103       20.569351      58.220336    
     85000   0.99535382     20.376898      58.1878      
     86000   0.9927521      20.2609        58.281886    
     87000   1.0213692      20.482516      58.244419    
     88000   0.98730503     20.507945      58.110834    
     89000   0.9993157      20.281863      57.867487    
     90000   1.0761258      19.988328      57.899137    
     91000   1.0324796      20.522444      57.656997    
     92000   1.0229252      20.959926      57.483706    
     93000   0.96433185     19.926464      57.321019    
     94000   1.0447634      20.42674       57.427946    
     95000   0.95131148     19.862689      57.297907    
     96000   1.0184296      20.505316      57.585963    
     97000   1.012947       20.327853      57.452634    
     98000   0.96034893     19.665506      57.290735    
     99000   1.0172513      20.447314      57.267555    
    100000   0.99656466     20.341681      57.026246    
Loop time of 665.496 on 2 procs for 100000 steps with 901 atoms

Performance: 129828.024 tau/day, 150.264 timesteps/s
101.6% CPU use with 1 MPI tasks x 2 OpenMP threads

MPI task timing breakdown:
Section |  min time  |  avg time  |  max time  |%varavg| %total
---------------------------------------------------------------
Pair    | 1.4306     | 1.4306     | 1.4306     |   0.0 |  0.21
Bond    | 2.4767     | 2.4767     | 2.4767     |   0.0 |  0.37
Neigh   | 656.18     | 656.18     | 656.18     |   0.0 | 98.60
Comm    | 0.046562   | 0.046562   | 0.046562   |   0.0 |  0.01
Output  | 0.28841    | 0.28841    | 0.28841    |   0.0 |  0.04
Modify  | 4.6342     | 4.6342     | 4.6342     |   0.0 |  0.70
Other   |            | 0.441      |            |       |  0.07

Nlocal:            901 ave         901 max         901 min
Histogram: 1 0 0 0 0 0 0 0 0 0
Nghost:              0 ave           0 max           0 min
Histogram: 1 0 0 0 0 0 0 0 0 0
Neighs:           6903 ave        6903 max        6903 min
Histogram: 1 0 0 0 0 0 0 0 0 0

Total # of neighbors = 6903
Ave neighs/atom = 7.6614872
Ave special neighs/atom = 1.9977802
Neighbor list builds = 1164
Dangerous builds = 0

# Replace lj potential, now collapse
pair_style      lj/cut 3

# Cutoff simul when gyration under 10
# Variable created with equal requires v_ + 'name'
fix 3 all halt 1000 v_rog < 7

run 3000000
Generated 0 of 0 mixed pair_coeff terms from geometric mixing rule
Last active /omp style is angle_style cosine/omp
Per MPI rank memory allocation (min/avg/max) = 1862 | 1862 | 1862 Mbytes
   Step          Temp         Enthalpy         c_1      
    100000   0.99656466     19.599248      57.026246    
    101000   0.99616838     19.871654      56.912223    
    102000   0.98992219     19.41097       56.806487    
    103000   1.018324       19.510122      56.871706    
    104000   0.98289811     19.389314      56.554806    
    105000   1.038441       19.490411      56.16335     
    106000   0.97632914     19.630083      56.037413    
    107000   0.98698548     18.963807      55.860886    
    108000   0.98866393     19.411078      55.708006    
    109000   0.9774044      19.047325      55.572671    
    110000   0.98968314     18.975663      55.530232    
    111000   1.0190769      18.819264      55.400566    
    112000   0.97119939     18.796413      55.34439     
    113000   1.0102601      19.539287      55.228914    
    114000   0.99996083     19.381006      55.203322    
    115000   0.99022114     19.019456      54.95055     
    116000   1.0515244      19.473295      54.5888      
    117000   0.99251143     18.454376      54.494147    
    118000   0.95944124     19.075597      54.485533    
    119000   1.0228546      18.924062      54.32677     
    120000   0.97207974     18.810535      54.291351    
    121000   1.0195163      19.02749       54.129806    
    122000   0.99202184     19.107511      54.090206    
    123000   1.0398538      19.073525      53.893783    
    124000   1.0368544      19.319359      53.895376    
    125000   1.0100531      18.968204      53.714714    
    126000   1.005123       18.593055      53.552245    
    127000   0.99178834     19.034119      53.471115    
    128000   0.99620811     19.060307      53.446073    
    129000   1.0276197      18.472019      53.280474    
    130000   0.96694734     18.700808      52.895226    
    131000   0.95533086     18.782337      52.759736    
    132000   1.002668       18.956974      52.461882    
    133000   0.97683026     18.708808      52.223169    
    134000   1.0183655      18.012311      51.874372    
    135000   1.0137828      18.859762      51.499672    
    136000   1.0210073      18.70434       51.13672     
    137000   1.0099422      18.824986      51.033503    
    138000   0.97544602     18.595335      51.020748    
    139000   0.94156076     18.874287      50.94371     
    140000   0.976338       19.109576      50.982541    
    141000   0.99887193     18.628855      50.6963      
    142000   1.0458126      18.476672      50.50651     
    143000   0.97390359     18.166013      50.346317    
    144000   1.0033512      18.631634      50.266518    
    145000   1.0152631      18.936777      49.811106    
    146000   1.0315446      18.821569      49.590134    
    147000   0.9988952      18.795494      49.382697    
    148000   0.99534578     18.525043      49.195092    
    149000   0.97923327     17.843114      48.941703    
    150000   0.99543892     18.207124      48.77367     
    151000   0.96747248     18.103801      48.758959    
    152000   0.97263231     17.70106       48.597996    
    153000   1.0078661      18.54755       48.557514    
    154000   1.0192553      18.585481      48.552815    
    155000   0.98144405     18.157744      48.480552    
    156000   1.0138328      17.865811      48.346057    
    157000   0.98091226     18.116911      48.236868    
    158000   0.99256854     17.967628      48.075369    
    159000   0.95306837     17.384764      47.804526    
    160000   1.0114099      17.718914      47.648767    
    161000   1.0208817      18.050765      47.519837    
    162000   1.0242987      18.015157      47.34706     
    163000   1.0339601      17.804995      47.227643    
    164000   1.0307502      18.165855      47.103173    
    165000   1.0214421      17.878191      46.865998    
    166000   1.0498658      17.967998      46.718474    
    167000   1.0369681      17.962134      46.586826    
    168000   0.99600429     17.961353      46.434664    
    169000   0.96250979     17.820605      46.24178     
    170000   0.97184736     17.767923      46.048685    
    171000   1.0345655      18.084012      45.771935    
    172000   0.99413119     17.626425      45.652533    
    173000   1.0074097      18.294963      45.511097    
    174000   0.98539855     17.416266      45.292276    
    175000   0.98551791     18.000964      45.162236    
    176000   1.052421       18.277298      44.9948      
    177000   1.0232948      18.472783      44.82829     
    178000   1.0601109      17.652352      44.952799    
    179000   0.9761106      17.644951      44.898824    
    180000   0.98092032     17.884037      44.545426    
    181000   1.0261636      17.664449      44.521628    
    182000   1.0429548      18.049017      44.338293    
    183000   0.98477463     17.38953       44.40103     
    184000   0.99586645     17.420228      44.245332    
    185000   1.0025746      17.864832      44.139435    
    186000   1.0250238      17.697077      44.038722    
    187000   0.99466456     17.307604      44.065667    
    188000   1.0913297      17.492672      44.113316    
    189000   0.96140338     18.269029      43.780529    
    190000   1.039842       17.902261      44.046725    
    191000   0.95255124     18.002799      43.930336    
    192000   0.98223413     18.055038      43.734673    
    193000   1.0596567      17.960917      43.56958     
    194000   0.97263137     17.890419      43.45155     
    195000   0.96815578     17.722745      43.512368    
    196000   1.0242473      18.236697      43.416142    
    197000   1.0168678      17.863411      43.19453     
    198000   1.0227952      17.422185      42.8962      
    199000   1.0374478      17.610293      42.882959    
    200000   0.94050798     17.341787      42.705337    
    201000   0.99576076     17.387479      42.632564    
    202000   0.96139709     17.806323      42.343224    
    203000   0.96109729     17.852972      41.992383    
    204000   0.98998435     17.606701      41.933724    
    205000   0.93941087     17.430379      41.822541    
    206000   0.97242992     17.644586      41.767806    
    207000   1.0369828      17.800599      41.67351     
    208000   0.98703333     17.789414      41.677792    
    209000   0.99277616     17.870416      41.591652    
    210000   0.96322846     17.805358      41.675709    
    211000   0.99827117     17.629048      41.555934    
    212000   1.0031863      17.964796      41.472618    
    213000   1.0178707      17.519388      41.750786    
    214000   0.97928111     17.509449      41.671373    
    215000   1.0284484      18.012827      41.717983    
    216000   0.95154345     17.311901      41.583593    
    217000   1.02648        17.397904      41.425443    
    218000   0.95805622     17.067058      41.248147    
    219000   0.98232786     17.395873      41.28558     
    220000   1.0058586      17.649646      41.221924    
    221000   1.0007077      18.475161      41.022527    
    222000   0.99823377     17.650147      40.939094    
    223000   1.0037077      17.891265      40.635602    
    224000   1.0304298      17.857946      40.593807    
    225000   1.0210086      17.592179      40.504163    
    226000   0.97179146     17.631203      40.406105    
    227000   1.0126431      17.642028      40.365264    
    228000   0.98894179     17.790079      40.537609    
    229000   1.0189636      17.950047      40.128587    
    230000   1.0119078      17.888536      39.969274    
    231000   0.97978556     17.52366       40.035517    
    232000   0.96327744     17.583588      39.869816    
    233000   0.95798738     17.60265       39.671938    
    234000   1.0123676      16.98544       39.569004    
    235000   1.0109158      17.559704      39.703523    
    236000   1.0509729      17.728204      39.610299    
    237000   0.98323178     18.155899      39.418982    
    238000   0.99284112     17.582555      39.351262    
    239000   1.0286776      17.808858      39.159714    
    240000   1.0425653      17.542292      39.325103    
    241000   0.99894372     17.540518      39.202544    
    242000   1.0403119      18.002323      39.274187    
    243000   0.99254339     17.263923      38.858398    
    244000   1.0349027      17.473607      38.589874    
    245000   1.0347715      18.407511      38.47247     
    246000   0.99770842     17.236707      38.649154    
    247000   0.97930949     18.144483      38.727886    
    248000   1.040142       17.747062      38.660867    
    249000   1.0330671      17.801809      38.651063    
    250000   1.050362       18.102118      38.405604    
    251000   0.98533777     17.661558      38.160211    
    252000   1.0001935      17.557617      37.810618    
    253000   0.95959629     17.668694      37.603755    
    254000   1.0548467      17.613134      37.399383    
    255000   0.96619134     17.131293      37.248257    
    256000   0.99226039     17.686201      37.025634    
    257000   0.97476822     17.41984       36.960806    
    258000   1.0437202      17.628646      36.883011    
    259000   0.98421205     17.649912      36.655041    
    260000   0.95479493     18.063469      36.506291    
    261000   1.0264262      18.082185      36.146704    
    262000   1.0150958      17.721187      36.224372    
    263000   0.99650309     17.398777      36.048001    
    264000   1.0374097      17.546439      35.848681    
    265000   0.93211193     17.605289      35.670068    
    266000   1.0058345      18.115227      35.438055    
    267000   1.0106986      17.596793      35.21931     
    268000   1.0095272      17.872154      35.251883    
    269000   0.92888451     17.565646      35.083291    
    270000   0.97418943     17.538075      35.008136    
    271000   0.99953955     17.902321      35.145575    
    272000   0.99234568     17.489097      35.131775    
    273000   1.0240159      17.951641      35.201661    
    274000   0.97513643     17.748929      35.144483    
    275000   1.0096157      17.852965      34.834059    
    276000   0.96230173     17.315226      34.773901    
    277000   0.98742843     17.861419      34.749445    
    278000   1.036977       17.573003      34.666008    
    279000   0.99029301     17.610364      34.639355    
    280000   0.97821429     17.351977      34.736412    
    281000   0.99688011     17.86511       34.493213    
    282000   0.97260196     17.714988      34.435947    
    283000   1.0395158      17.491043      34.183696    
    284000   1.0341889      18.043265      33.944704    
    285000   0.97273773     17.050944      33.983207    
    286000   1.0598062      17.91897       34.032806    
    287000   0.98981626     17.625199      33.709773    
    288000   0.99249069     17.449609      33.675305    
    289000   0.97809092     17.727395      33.412752    
    290000   1.0512277      17.416497      33.15727     
    291000   1.0491244      17.587134      32.66292     
    292000   1.0104219      17.327314      32.630353    
    293000   0.98912847     17.653661      32.588371    
    294000   1.0108613      16.499105      32.315811    
    295000   0.96608062     17.534136      32.283255    
    296000   0.96703759     17.492202      32.156581    
    297000   1.0268008      18.105495      32.106651    
    298000   0.97111112     17.771757      31.946988    
    299000   1.0247211      17.628936      32.24068     
    300000   1.0292944      17.409766      32.160773    
    301000   1.0228726      18.06979       32.433625    
    302000   1.0284461      18.110733      32.438802    
    303000   1.0293763      17.792351      32.403139    
    304000   1.0050035      17.714178      32.451651    
    305000   0.95974755     17.432592      32.683174    
    306000   1.0111831      17.518883      32.87576     
    307000   1.0338566      18.058255      32.721492    
    308000   1.0105454      16.980565      32.502914    
    309000   0.98850892     17.863673      32.367681    
    310000   1.0124365      17.476289      32.227787    
    311000   1.0247562      17.447916      32.311383    
    312000   0.98124498     17.153043      32.229127    
    313000   1.034284       17.447358      32.147651    
    314000   1.027202       17.579361      32.135457    
    315000   0.9918752      18.760705      31.968512    
    316000   0.98107084     18.107603      31.901744    
    317000   1.029938       17.8806        31.828972    
    318000   1.0192106      17.116905      31.59549     
    319000   1.0078359      17.274311      31.304461    
    320000   1.0087584      17.215998      30.944284    
    321000   0.97238571     17.202472      30.74095     
    322000   0.99974487     17.536623      30.682009    
    323000   1.0046296      17.547569      30.635207    
    324000   0.98592274     17.165312      30.499848    
    325000   1.0150068      17.516406      30.292377    
    326000   1.0044866      18.247411      29.848399    
    327000   1.0409113      17.875568      29.645369    
    328000   0.97687411     17.014402      29.545594    
    329000   1.0397683      17.901218      29.580908    
    330000   0.94389463     17.205247      29.306928    
    331000   1.0070618      17.480791      29.366966    
    332000   1.0256331      17.395057      29.248796    
    333000   0.99286901     17.442636      29.263552    
    334000   1.0016517      16.785303      29.226947    
    335000   0.94558807     17.325949      29.218358    
    336000   0.98842834     17.799507      29.028362    
    337000   0.99617674     17.423397      28.89544     
    338000   0.97007883     17.36509       28.887975    
    339000   0.96358566     17.517329      28.869569    
    340000   0.97385049     17.11173       28.849146    
    341000   0.99112358     17.654642      28.693799    
    342000   1.0095187      17.626722      28.615117    
    343000   0.99445434     17.01854       28.388372    
    344000   1.0060584      17.725947      28.666105    
    345000   0.99505013     17.633972      28.618094    
    346000   1.0319991      17.197991      28.601799    
    347000   1.0279613      17.709104      28.614147    
    348000   0.9910114      17.21986       28.583438    
    349000   0.97468284     16.900878      28.544565    
    350000   0.99713775     17.992137      28.433538    
    351000   0.97587863     17.316056      28.288627    
    352000   1.0248066      17.471048      28.105838    
    353000   0.9978123      16.803616      28.212379    
    354000   1.0107957      17.174327      27.947862    
    355000   0.97136717     17.440484      27.701843    
    356000   1.0147426      18.266971      27.561612    
    357000   1.013134       17.710677      27.303609    
    358000   1.0069205      17.199191      27.06443     
    359000   1.0039719      18.109857      26.67712     
    360000   0.95559279     17.772058      26.526904    
    361000   1.0022009      17.555503      26.607989    
    362000   0.98383771     17.378433      26.525244    
    363000   1.0107939      17.283561      26.519066    
    364000   1.060951       17.651799      26.526935    
    365000   0.99791395     17.006508      26.217026    
    366000   1.0150215      17.732972      25.970572    
    367000   1.0245752      17.808402      25.741051    
    368000   0.98874786     18.022663      25.762493    
    369000   1.001264       17.401976      25.592097    
    370000   0.97107636     17.192183      25.464501    
    371000   0.96104393     17.244201      25.529677    
    372000   1.0012646      17.382891      25.590499    
    373000   0.96642482     17.792667      25.460185    
    374000   0.96509423     17.531935      25.415641    
    375000   1.0052141      17.943265      25.479883    
    376000   1.0056064      17.455197      25.48802     
    377000   1.0207806      17.921372      25.258795    
    378000   0.98602404     17.124822      25.476864    
    379000   0.99879856     17.584376      25.311713    
    380000   0.97278985     16.873894      25.29378     
    381000   1.0106582      17.96843       25.319646    
    382000   1.0133637      17.373123      25.286331    
    383000   0.99526461     17.530869      25.365382    
    384000   0.98168026     17.46239       25.431741    
    385000   0.98693445     17.119095      25.427175    
    386000   1.0130121      17.30961       25.34984     
    387000   1.0061002      17.725406      25.352452    
    388000   0.99561765     17.833513      25.250138    
    389000   0.99428929     17.692673      24.931933    
    390000   0.98687515     17.65043       24.714991    
    391000   0.96340756     16.956591      24.72188     
    392000   0.99570558     18.375963      24.831666    
    393000   1.0336637      17.463225      24.64894     
    394000   0.99854413     17.4962        24.71038     
    395000   1.0138904      17.846514      24.72059     
    396000   1.0102384      17.927384      24.745681    
    397000   0.9970768      17.096326      24.731784    
    398000   1.0085104      17.170419      24.535689    
    399000   0.96335469     17.607482      24.43668     
    400000   1.0169519      17.417686      24.368618    
    401000   0.98937918     17.679022      24.213014    
    402000   0.97862636     17.697863      24.032367    
    403000   0.99248939     17.605774      23.959285    
    404000   1.0491957      17.620198      24.019349    
    405000   0.97023706     17.042191      24.118685    
    406000   0.98846075     17.483132      24.160601    
    407000   0.99035888     17.050769      23.92867     
    408000   1.0385898      17.514689      23.821393    
    409000   1.0029085      17.93543       23.673803    
    410000   1.0091945      17.549286      23.738798    
    411000   0.98691894     17.299785      23.839102    
    412000   1.0458019      17.306523      23.807344    
    413000   1.0441092      17.427198      23.677601    
    414000   1.0014844      17.54158       23.624851    
    415000   0.95641435     17.431634      23.36516     
    416000   1.0141325      17.647812      23.06603     
    417000   1.007726       17.599367      23.162023    
    418000   0.97138483     17.766467      23.049488    
    419000   1.0297684      18.079003      23.274339    
    420000   0.99541863     17.734207      23.045237    
    421000   1.003506       17.537828      22.60835     
    422000   0.97313774     17.652022      22.475028    
    423000   1.0154778      17.39459       22.323223    
    424000   1.0164699      18.055456      22.469748    
    425000   1.0114764      17.72511       22.277034    
    426000   0.96114752     17.338256      22.074877    
    427000   1.0281646      17.499533      21.910798    
    428000   0.98534106     17.811984      21.721273    
    429000   0.98467449     17.318916      21.675616    
    430000   0.99753311     17.358611      21.84378     
    431000   0.99382804     18.064416      21.76232     
    432000   1.0161985      17.785123      21.599887    
    433000   0.99618478     17.507697      21.619362    
    434000   0.98875423     16.989291      21.60981     
    435000   0.9740912      16.985974      21.349343    
    436000   1.025305       17.723289      21.39196     
    437000   1.0063215      17.848721      21.279565    
    438000   1.0192919      17.307274      20.819811    
    439000   1.0087971      17.724323      20.555357    
    440000   1.002602       17.055034      20.358887    
    441000   1.000368       18.020395      20.419141    
    442000   1.004534       18.142392      20.226242    
    443000   1.0188197      17.448846      20.252922    
    444000   0.98471348     17.455248      20.125269    
    445000   1.0483121      17.920876      20.077397    
    446000   0.96649205     17.644939      19.981112    
    447000   0.98929859     17.245701      19.727104    
    448000   1.0200788      17.446182      19.723772    
    449000   1.0368301      18.316934      19.395618    
    450000   0.99817604     17.434084      19.11173     
    451000   1.0044099      17.671326      19.122649    
    452000   0.98756313     17.513055      18.859647    
    453000   1.0151946      17.507831      18.803906    
    454000   0.97051131     17.396647      18.764966    
    455000   1.0498814      17.913536      18.623916    
    456000   1.0152681      17.368746      18.477839    
    457000   0.94788457     18.346635      18.383743    
    458000   0.97892987     17.471305      18.425087    
    459000   1.0305044      17.945108      18.245663    
    460000   1.0091331      17.681503      18.081397    
    461000   0.98630587     17.184121      18.193873    
    462000   0.99855387     17.242254      17.873075    
    463000   0.98034519     16.976053      17.850596    
    464000   1.0155551      17.144122      17.809541    
    465000   1.0500027      17.713025      17.708888    
    466000   1.0139657      17.242222      17.765667    
    467000   1.0089803      17.833473      17.527065    
    468000   1.0338865      16.640064      17.398932    
    469000   0.98760084     17.686542      17.371554    
    470000   0.95631266     17.176365      17.215293    
    471000   1.0315543      17.528833      17.311717    
    472000   0.99536372     17.294049      17.327164    
    473000   1.0229176      17.365331      17.107879    
    474000   0.98880614     18.144242      16.737348    
    475000   0.97054949     16.694073      16.704661    
    476000   1.0324337      16.854397      16.787557    
    477000   1.0664655      17.41756       16.847634    
    478000   1.0035408      17.273051      16.742289    
    479000   0.98184942     17.593754      16.711531    
    480000   0.99178205     17.256801      16.77446     
    481000   0.95793401     17.31704       16.549824    
    482000   1.034309       17.771376      16.463991    
    483000   1.0241989      17.480293      16.286085    
    484000   1.0619523      18.398295      16.186652    
    485000   0.99480375     17.511399      15.995094    
    486000   0.99728524     17.544112      15.933929    
    487000   1.0268308      17.373651      15.86706     
    488000   0.98577929     17.669043      15.714609    
    489000   1.0090903      16.935202      15.903142    
    490000   1.0221322      17.795594      15.949422    
    491000   0.98360719     17.431849      15.904428    
    492000   0.93105645     17.46418       15.693014    
    493000   0.96701824     17.266599      15.666625    
    494000   1.0054974      17.060131      15.607474    
    495000   1.0080153      17.915296      15.426044    
    496000   1.0012197      16.945396      15.541082    
    497000   1.0413437      16.959231      15.786499    
    498000   0.9950455      17.269018      15.783985    
    499000   1.0283194      17.256774      15.707637    
    500000   0.96674722     17.04166       15.845195    
    501000   0.9936213      17.535387      15.950614    
    502000   0.98312328     17.244315      15.913826    
    503000   1.0018548      16.877694      15.517351    
    504000   1.0224553      17.10224       15.216868    
    505000   1.0328644      17.181198      15.097062    
    506000   0.99076589     16.937304      15.005647    
    507000   0.98378481     17.365432      14.910109    
    508000   1.0404647      16.918357      14.641594    
    509000   0.98026573     17.216704      14.412753    
    510000   1.0065149      17.698791      13.967911    
    511000   0.97293055     16.663545      13.69347     
    512000   0.98508426     17.325725      13.694762    
    513000   1.0074874      17.372412      13.89149     
    514000   0.9655189      17.471414      13.967624    
    515000   0.97476606     17.27606       14.030465    
    516000   1.0161504      17.421933      14.18988     
    517000   0.99515435     17.628259      14.182762    
    518000   0.97123626     17.390498      14.282226    
    519000   1.0002734      16.961701      14.252329    
    520000   0.96362591     17.222953      13.881423    
    521000   0.98965037     17.589511      13.981588    
    522000   1.0467518      17.497313      13.710691    
    523000   0.9661805      16.950467      13.663096    
    524000   0.95190218     17.537548      13.831462    
    525000   0.96307617     16.875945      13.661646    
    526000   0.99158434     17.391291      13.671493    
    527000   1.0713351      17.496949      13.734801    
    528000   1.0438982      16.76881       13.762337    
    529000   0.96082502     16.915731      13.574931    
    530000   0.99521568     16.900619      13.59656     
    531000   1.006647       17.121194      13.26654     
    532000   1.0328072      17.568064      13.022162    
    533000   1.010216       17.082395      12.863313    
    534000   1.0404566      17.308751      12.87434     
    535000   1.0172583      17.039132      12.801785    
    536000   0.99343685     17.659984      12.682842    
    537000   1.0337334      17.506494      12.809615    
    538000   0.96136224     17.633964      12.65242     
    539000   1.0110193      17.119137      12.614166    
    540000   0.99571775     17.28394       12.878882    
    541000   1.0282279      17.351334      12.752185    
    542000   0.99104781     17.678873      12.606567    
    543000   1.0126029      17.404044      12.261295    
    544000   0.96377723     17.241016      12.18188     
    545000   1.0255971      17.15595       12.041117    
    546000   1.0204861      17.508594      11.998756    
    547000   0.98933363     17.225798      11.934286    
    548000   0.98890669     17.135658      11.758124    
    549000   0.94431777     16.810521      11.744533    
    550000   1.0098975      17.122352      11.63076     
    551000   1.0030954      17.121486      11.486754    
    552000   1.0458201      17.506326      11.240714    
    553000   1.0020569      17.55454       11.239397    
    554000   1.0288382      17.505696      11.324059    
    555000   0.9699193      17.232074      11.32752     
    556000   0.9986024      16.996461      11.058197    
    557000   0.97483286     17.567996      10.995032    
    558000   1.0428494      17.279481      10.963981    
    559000   1.0055148      17.517643      10.992174    
    560000   0.98108249     17.169917      10.791727    
    561000   1.0012734      17.559032      10.625739    
    562000   0.97475483     16.810506      10.412387    
    563000   1.0221672      16.990917      10.383283    
    564000   0.97326117     17.185733      10.42046     
    565000   0.98946497     16.909626      10.321403    
    566000   0.98718981     17.252002      10.126462    
    567000   1.0021877      16.954938      10.261394    
    568000   1.0071931      16.846763      10.280273    
    569000   0.99737415     16.973656      10.205462    
    570000   0.9836328      17.207263      10.185524    
    571000   1.0033778      16.723916      10.00321     
    572000   1.0098659      16.93075       10.042467    
    573000   1.0088908      16.852035      9.9851844    
    574000   0.94781469     17.09997       9.9611178    
    575000   0.96757213     16.760115      9.7118977    
    576000   0.99883467     17.478365      9.3752299    
    577000   1.0120626      17.396787      9.2381229    
    578000   1.0307375      17.458574      8.9807236    
    579000   0.97307903     16.824514      8.7714806    
    580000   1.0065131      17.111855      8.6578887    
    581000   1.0197049      17.537821      8.6675798    
    582000   1.0386244      17.090707      8.6303592    
    583000   1.0269664      17.716163      8.5740602    
    584000   1.0010612      16.891348      8.5162466    
    585000   0.97747248     18.038472      8.5169713    
    586000   1.0072501      17.313097      8.6632458    
    587000   0.95012549     16.906748      8.4946682    
    588000   1.0142893      17.211623      8.5705459    
    589000   1.0261051      17.237711      8.5291603    
    590000   1.0277004      17.587881      8.4758997    
    591000   1.0468621      17.531126      8.6516181    
    592000   0.98351784     16.993237      8.7214244    
    593000   0.98789671     16.493914      8.7847072    
    594000   1.0378477      17.344158      8.8155426    
    595000   1.0281738      16.661958      8.6451427    
    596000   1.0015059      16.688223      8.4781445    
    597000   0.97934928     17.299783      8.4756024    
    598000   0.93273527     16.890951      8.4690207    
    599000   1.0390233      17.538942      8.3682812    
    600000   0.97041911     17.277112      8.3412961    
    601000   1.0248762      17.24563       8.3420573    
    602000   0.99019242     17.357859      8.6174664    
    603000   1.0182302      17.135228      8.6188209    
    604000   0.99825854     17.436776      8.3454413    
    605000   0.97608176     17.671073      8.4142997    
    606000   0.9860969      17.075984      8.3397327    
    607000   0.97541689     16.785551      8.3886094    
    608000   1.0097305      17.10679       8.2391473    
    609000   0.98489458     17.031939      8.1715194    
    610000   1.0191502      16.988624      8.1098064    
    611000   1.0448511      17.320566      8.2720862    
    612000   0.99871811     17.501982      8.1229892    
    613000   1.0004626      16.702145      7.8231159    
    614000   0.97485626     17.136336      7.7449218    
    615000   0.98986847     17.485065      7.4362185    
    616000   0.97898685     17.417067      7.3062479    
Fix halt condition for fix-id 3 met on step 617000 with value 6.931306663880981 (src/fix_halt.cpp:237)
    617000   1.0091065      17.140613      6.9313067    
Loop time of 1282.09 on 2 procs for 517000 steps with 901 atoms

Performance: 348407.088 tau/day, 403.249 timesteps/s
118.7% CPU use with 1 MPI tasks x 2 OpenMP threads

MPI task timing breakdown:
Section |  min time  |  avg time  |  max time  |%varavg| %total
---------------------------------------------------------------
Pair    | 186.67     | 186.67     | 186.67     |   0.0 | 14.56
Bond    | 14.932     | 14.932     | 14.932     |   0.0 |  1.16
Neigh   | 1049       | 1049       | 1049       |   0.0 | 81.82
Comm    | 0.29108    | 0.29108    | 0.29108    |   0.0 |  0.02
Output  | 1.5893     | 1.5893     | 1.5893     |   0.0 |  0.12
Modify  | 26.365     | 26.365     | 26.365     |   0.0 |  2.06
Other   |            | 3.244      |            |       |  0.25

Nlocal:            901 ave         901 max         901 min
Histogram: 1 0 0 0 0 0 0 0 0 0
Nghost:              0 ave           0 max           0 min
Histogram: 1 0 0 0 0 0 0 0 0 0
Neighs:         177621 ave      177621 max      177621 min
Histogram: 1 0 0 0 0 0 0 0 0 0

Total # of neighbors = 177621
Ave neighs/atom = 197.13762
Ave special neighs/atom = 1.9977802
Neighbor list builds = 4313
Dangerous builds = 0

# This simulation is done
# Move onto the next one
clear
  using 2 OpenMP thread(s) per MPI task
package omp 0
using multi-threaded neighbor list subroutines
next f
jump SELF

###
# Reference paper:
# K. Kremer and G. S. Grest
# Dynamics of entangled linear polymer melts: A molecular-dynamics simulation
# J Chem Phys 92, 5057 (1990)

##################################
# MIHIR: for branched polymers
# LJ minimum first to expand and explore, then collapse
###

###
# Looping through the various nuc3branch4 polymers to simulate,
# define variables to switch through
variable f index bb40nuc3bl10bn4d30tot100 bb80nuc3bl20bn4d30tot200 bb120nuc3bl30bn4d30tot300 bb160nuc3bl40bn4d30tot400 bb200nuc3bl50bn4d30tot500 bb240nuc3bl60bn4d30tot600 bb280nuc3bl70bn4d30tot700 bb320nuc3bl80bn4d30tot800 bb360nuc3bl90bn4d30tot900 bb400nuc3bl100bn4d30tot1000 bb440nuc3bl110bn4d30tot1100 bb480nuc3bl120bn4d30tot1200
###


###
# Box and units  (use LJ units and periodic boundaries)
###

units lj
log nuc3branch4/logs3/$f.log
log nuc3branch4/logs3/bb400nuc3bl100bn4d30tot1000.log
