#atom_style bond #no stiffness
atom_style angle #with stiffness

boundary        p p p
###
# Pair interactions require lists of neighbours to be calculated
###

#neighbor 0.3 bin
neighbor 4 bin

neigh_modify every 1 delay 1 check yes
atom_modify sort 0 0
### Generate RESTART file, SPECIAL format, not a .txt file ###
### Useful if simulation crashes ###

restart 1000000 nuc3branch4/restarts3/$f.restart
restart 1000000 nuc3branch4/restarts3/bb400nuc3bl100bn4d30tot1000.restart
#############################



### READ "start" data file ###

read_data nuc3branch4/$f.dat
read_data nuc3branch4/bb400nuc3bl100bn4d30tot1000.dat
Reading data file ...
  orthogonal box = (-1000 -1000 -1000) to (1000 1000 1000)
  1 by 1 by 1 MPI processor grid
  reading atoms ...
  1001 atoms
  scanning bonds ...
  3 = max bonds/atom
  scanning angles ...
  6 = max angles/atom
  reading bonds ...
  1000 bonds
  reading angles ...
  1008 angles
Finding 1-2 1-3 1-4 neighbors ...
  special bond factors lj:    0        0        0       
  special bond factors coul:  0        0        0       
     4 = max # of 1-2 neighbors
     4 = max # of 1-3 neighbors
     8 = max # of 1-4 neighbors
    12 = max # of special neighbors
  special bonds CPU = 0.001 seconds
  read_data CPU = 0.109 seconds

######################

### READ "REstart" data file ###

######################



###
# Define groups (atom type 1 is group 'all')
###
group all type 1
1001 atoms in group all


###
# Dump configs - "simple dumpings"
###

###
# Dump configs + box coords
###

dump   1   all   custom   1000  nuc3branch4/trjs3/$f.lammpstrj  id  x y z  ix iy iz
dump   1   all   custom   1000  nuc3branch4/trjs3/bb400nuc3bl100bn4d30tot1000.lammpstrj  id  x y z  ix iy iz
dump_modify   1   format line "%d %.5f %.5f %.5f %d %d %d"

########################################################################


###################################################################
# Stiffness term
#
# E = K * (1+cos(theta)), K>0
#
angle_style   cosine
#change this coefficient to change stiffness (e.g. 1,5,10)
angle_coeff   1 1.0
###################################################################

###################################################################
# Pair interaction between non-bonded atoms
#
#  Lennard-Jones 12-6 potential with cutoff:
#  potential E=4epsilon[ (sigma/r)^12 - (sigma/r)^6]  for r<r_cut
#
#  1.12246 = 2^(1/6) is the minimum of the potential


pair_style      lj/cut 1.12246152962189
#pair_style      lj/cut 3

#
#  pair_modify shift yes adds a constant to the potential such

#  that E(r_cut)=0. Forces remains unchanged.
#

pair_modify     shift yes

#
#  pair_coeff for lj/cut, specify 4:
#    * atom type interacting with
#    * atom type
#    * epsilon (energy units)
#    * sigma (distance units)
#

pair_coeff      1 1 1.0 1.0
###################################################################

###################################################################
# Pair interaction between non-bonded atoms
#
#  soft potential, for PUSHING apart overlapping atoms
#  potential E=A*(1 + cos(pi*r/r_c))
#
#  1.12246 = 2^(1/6) is the cut-off r_c

#pair_style     soft 1.12246152962189

#
#  pair_coeff for soft, specify 3:
#    * atom type interacting with
#    * atom type
#    * A
#
#

#pair_coeff      1 1 100.0
###################################################################

###################################################################
# Pair interaction between bonded atoms
#
# Fene potential + Lennard Jones 12-6:

#
#  E= - 0.5 K R0^2 ln[ 1- (r/R0)^2]
#     + 4epsilon[ (sigma/r)^12 - (sigma/r)^6] + epsilon
#

bond_style   fene


#
# For style fene, specify:
#   * bond type
#   * K (energy/distance^2)
#   * R0 (distance)
#   * epsilon (energy)  (LJ component)
#   * sigma (distance)  (LJ component)
#


special_bonds fene #<=== I M P O R T A N T (new command)
Finding 1-2 1-3 1-4 neighbors ...
  special bond factors lj:    0        1        1       
  special bond factors coul:  0        1        1       
     4 = max # of 1-2 neighbors
    12 = max # of special neighbors
  special bonds CPU = 0.000 seconds

bond_coeff   1   30   2   1.0   1.0


###################################################

###################################################################
# Pair interaction between bonded atoms
#
# Harmonic potential:
#
#  E= K * (R-R0)^2
#

#bond_style   harmonic

#
# For style harmonic, specify:
#   * bond type
#   * K (energy/distance^2)
#   * R0 (distance)
#

#bond_coeff   1   60.0   1.0
#bond_coeff   2   harmonic 0.1   1.0

###################################################
compute 1 all gyration
variable rog equal c_1
#compute 2 all coord/atom cutoff 1.1

#dump 2 all custom 10000 contact_number.dump id c_2


###
# Set up fixes
###
thermo_style   custom   step  temp enthalpy c_1
fix 1 all nve   ###NVE ensemble

fix 2 all   langevin   1.0 1.0 1.0  158102   ###Langevin integrator Tstart Tstop 1/friction rndseed


##### Sample thermodynamic info  (temperature, energy, pressure, etc.) #####
thermo 1000









############################################################################

###
# set timestep of integrator

timestep 0.01

###
# run integration for a number of steps
###
#run 0
#variable r equal c_1
#if "$r < 63.1" then "quit 1"

# lj potential minimum, cause molecule to explore
run 100000
Generated 0 of 0 mixed pair_coeff terms from geometric mixing rule
Last active /omp style is angle_style cosine/omp
Neighbor list info ...
  update: every = 1 steps, delay = 1 steps, check = yes
  max neighbors/atom: 2000, page size: 100000
  master list distance cutoff = 5.1224615
  ghost atom cutoff = 5.1224615
  binsize = 2.5612308, bins = 781 781 781
  1 neighbor lists, perpetual/occasional/extra = 1 0 0
  (1) pair lj/cut/omp, perpetual
      attributes: half, newton on, omp
      pair build: half/bin/newton/omp
      stencil: half/bin/3d
      bin: standard
WARNING: Communication cutoff 5.12246152962189 is shorter than a bond length based estimate of 5.455. This may lead to errors. (src/comm.cpp:723)
Per MPI rank memory allocation (min/avg/max) = 1862 | 1862 | 1862 Mbytes
   Step          Temp         Enthalpy         c_1      
         0   0              13.27894       91.099931    
      1000   0.99654045     18.006441      90.31079     
      2000   1.0220323      18.616655      89.748228    
      3000   1.0410837      18.517391      89.150192    
      4000   1.0155418      18.78153       88.551548    
      5000   1.032031       18.640346      88.000098    
      6000   1.0061236      19.042886      87.500054    
      7000   1.0191531      19.458088      87.105894    
      8000   1.0141871      19.631591      86.934359    
      9000   1.0382759      19.245758      86.664769    
     10000   1.0055823      19.52112       86.312013    
     11000   1.0168944      19.148413      85.974256    
     12000   0.99361098     19.559147      85.453826    
     13000   0.9964479      19.491207      85.159837    
     14000   1.0358579      19.468938      84.709247    
     15000   0.98413681     19.7492        84.158635    
     16000   1.0485009      19.817522      83.925088    
     17000   1.0054763      19.749217      83.880637    
     18000   0.99313275     19.585462      83.826457    
     19000   0.99612394     19.438693      83.551882    
     20000   1.016101       19.921136      83.358974    
     21000   1.0042643      19.677094      83.225819    
     22000   1.0306032      19.83414       83.034746    
     23000   0.97281391     19.765782      82.777652    
     24000   1.0140232      20.065671      82.508821    
     25000   0.97610933     19.861694      82.330167    
     26000   0.97752091     19.753079      82.252336    
     27000   0.99297687     20.037971      81.864327    
     28000   0.97793183     19.76893       81.461916    
     29000   1.0065609      20.514305      81.089129    
     30000   1.0419344      19.960328      81.18662     
     31000   1.0046244      19.895935      81.330537    
     32000   0.97563935     19.057821      81.041088    
     33000   1.0062223      20.071549      80.953611    
     34000   0.96841044     20.018183      80.871319    
     35000   1.0321999      20.007659      80.784054    
     36000   0.96486514     19.869384      80.476581    
     37000   0.94045204     20.029035      80.312554    
     38000   0.95207702     19.80394       80.040119    
     39000   0.975871       19.515614      79.874359    
     40000   1.0289578      19.907597      79.751058    
     41000   0.95949401     19.687853      79.28742     
     42000   0.96096901     19.951275      79.135984    
     43000   0.98771941     19.975493      78.997382    
     44000   0.98677192     20.380331      78.86806     
     45000   0.99695481     19.614003      78.727186    
     46000   1.0178735      20.284847      78.555875    
     47000   1.0047333      20.480551      78.430566    
     48000   0.93259887     20.029512      78.077455    
     49000   0.98611812     20.09914       78.089259    
     50000   0.97397708     19.738999      77.743311    
     51000   0.99726643     20.156716      77.853278    
     52000   0.98142855     19.572339      77.927153    
     53000   0.9872887      20.196409      77.757136    
     54000   0.99965552     19.908998      77.757239    
     55000   0.94855827     20.10251       77.743399    
     56000   1.0270813      20.373517      77.543389    
     57000   0.97123409     20.105242      77.099014    
     58000   0.98617874     19.995529      76.977177    
     59000   1.0027564      20.04016       76.626954    
     60000   0.99384685     20.184806      76.559819    
     61000   1.018037       19.918115      76.439198    
     62000   1.0162608      20.182596      76.456664    
     63000   0.96132387     20.464804      76.492078    
     64000   0.99404977     20.135975      76.188819    
     65000   0.99002293     20.295439      76.113021    
     66000   0.98545359     20.587659      75.939532    
     67000   0.99516857     19.89366       75.927639    
     68000   0.95265716     19.985234      75.473275    
     69000   1.0203698      20.270694      75.253258    
     70000   1.024614       20.170455      75.063244    
     71000   0.98313041     20.557898      75.08539     
     72000   1.0082124      20.052117      74.950498    
     73000   1.0021351      20.316971      74.837109    
     74000   0.99129898     20.329591      74.826802    
     75000   0.98764111     20.504389      74.721604    
     76000   1.0369758      20.101604      74.638356    
     77000   0.9907324      19.784134      74.689824    
     78000   1.0405976      20.523807      74.697041    
     79000   0.99086713     19.883171      74.951009    
     80000   0.99698337     19.727318      74.967746    
     81000   1.0016937      20.450251      74.723477    
     82000   1.0208709      20.525995      74.61173     
     83000   1.0003187      19.724401      74.588437    
     84000   0.99792842     20.118549      74.523281    
     85000   0.99571413     20.341749      74.686236    
     86000   0.97542657     19.953568      74.431083    
     87000   0.97792488     20.49448       74.430979    
     88000   0.98917215     20.429402      74.168117    
     89000   0.98539735     20.270521      74.089224    
     90000   0.95973012     20.038943      74.096868    
     91000   0.99243143     20.540808      74.16285     
     92000   0.97972923     20.087123      74.102915    
     93000   1.0137588      20.470802      74.045801    
     94000   1.0326568      20.334228      73.84385     
     95000   0.99919478     20.541762      73.814933    
     96000   0.99185108     20.25633       73.681841    
     97000   1.0120563      20.128041      73.602051    
     98000   1.0111174      20.323281      73.560137    
     99000   1.0007619      19.965882      73.574162    
    100000   1.0523472      20.546902      73.565193    
Loop time of 657.599 on 2 procs for 100000 steps with 1001 atoms

Performance: 131387.150 tau/day, 152.068 timesteps/s
101.9% CPU use with 1 MPI tasks x 2 OpenMP threads

MPI task timing breakdown:
Section |  min time  |  avg time  |  max time  |%varavg| %total
---------------------------------------------------------------
Pair    | 1.6363     | 1.6363     | 1.6363     |   0.0 |  0.25
Bond    | 2.8447     | 2.8447     | 2.8447     |   0.0 |  0.43
Neigh   | 646.66     | 646.66     | 646.66     |   0.0 | 98.34
Comm    | 0.050681   | 0.050681   | 0.050681   |   0.0 |  0.01
Output  | 0.34238    | 0.34238    | 0.34238    |   0.0 |  0.05
Modify  | 5.5706     | 5.5706     | 5.5706     |   0.0 |  0.85
Other   |            | 0.4959     |            |       |  0.08

Nlocal:           1001 ave        1001 max        1001 min
Histogram: 1 0 0 0 0 0 0 0 0 0
Nghost:              0 ave           0 max           0 min
Histogram: 1 0 0 0 0 0 0 0 0 0
Neighs:           7109 ave        7109 max        7109 min
Histogram: 1 0 0 0 0 0 0 0 0 0

Total # of neighbors = 7109
Ave neighs/atom = 7.1018981
Ave special neighs/atom = 1.998002
Neighbor list builds = 1156
Dangerous builds = 0

# Replace lj potential, now collapse
pair_style      lj/cut 3

# Cutoff simul when gyration under 10
# Variable created with equal requires v_ + 'name'
fix 3 all halt 1000 v_rog < 7

run 3000000
Generated 0 of 0 mixed pair_coeff terms from geometric mixing rule
Last active /omp style is angle_style cosine/omp
Per MPI rank memory allocation (min/avg/max) = 1862 | 1862 | 1862 Mbytes
   Step          Temp         Enthalpy         c_1      
    100000   1.0523472      19.823855      73.565193    
    101000   0.98978482     19.453538      73.209788    
    102000   0.95369261     19.276035      73.122646    
    103000   1.0428461      19.892125      72.833785    
    104000   0.9904494      19.879047      72.38944     
    105000   1.0420205      19.717044      72.211947    
    106000   1.0320373      20.189937      71.866832    
    107000   0.93923685     18.842427      71.523213    
    108000   1.0427842      18.915283      71.525491    
    109000   0.99902601     19.266133      71.238596    
    110000   0.96983555     18.849118      70.969554    
    111000   1.0682438      19.520937      70.768482    
    112000   0.98283678     18.691266      70.592539    
    113000   1.0138675      19.513303      70.534901    
    114000   1.0224946      18.824146      70.392631    
    115000   0.9642908      19.131265      70.165089    
    116000   0.99466785     19.238268      70.082654    
    117000   0.93661224     18.99495       69.830078    
    118000   0.94308492     19.377865      69.580402    
    119000   0.99869987     19.106943      69.217584    
    120000   1.0182426      19.369328      69.034521    
    121000   0.96928151     18.674621      68.782268    
    122000   1.0148539      19.527069      68.318768    
    123000   0.97010513     18.634192      67.901187    
    124000   1.0093494      19.581029      67.584752    
    125000   0.96140531     19.225083      67.481593    
    126000   0.9944255      18.763506      66.986402    
    127000   1.0142654      18.911181      66.541253    
    128000   1.0013125      18.960287      66.131953    
    129000   1.0005791      18.703528      66.236877    
    130000   1.0330354      18.200976      66.000342    
    131000   0.99477553     18.9069        65.87328     
    132000   0.96017594     18.739533      65.675044    
    133000   1.0500935      19.178452      65.65632     
    134000   0.97691571     18.948793      65.494767    
    135000   0.99927555     18.041888      65.169647    
    136000   0.99405429     18.830438      64.870156    
    137000   0.97967899     19.169473      64.596634    
    138000   1.0203609      18.602099      64.494522    
    139000   1.0121656      18.70946       64.431808    
    140000   1.0301704      18.833586      64.273106    
    141000   0.98961652     18.440748      64.129858    
    142000   0.98241987     18.669579      63.946409    
    143000   1.02703        18.35017       63.715579    
    144000   0.98306794     18.600275      63.679677    
    145000   0.97751546     18.885205      63.615792    
    146000   1.0003833      18.537289      63.436044    
    147000   0.988321       18.974962      63.206707    
    148000   1.0227682      19.140038      63.075183    
    149000   0.98458465     18.62546       62.822906    
    150000   0.9884275      18.452637      62.686215    
    151000   0.98564973     19.789746      62.679806    
    152000   0.99673459     19.10154       62.579711    
    153000   0.96053973     18.626447      62.416298    
    154000   0.97210074     18.153543      62.4363      
    155000   1.0089429      18.448768      62.423657    
    156000   0.96795382     18.383667      62.406151    
    157000   1.0369195      18.654573      62.181221    
    158000   0.97944234     18.271633      61.676532    
    159000   0.99861376     18.773697      61.457745    
    160000   1.0183243      18.251731      61.258815    
    161000   0.97732381     18.604443      61.018338    
    162000   1.0289571      18.535592      60.705144    
    163000   0.96655061     18.301807      60.669091    
    164000   0.99908273     18.560262      60.415147    
    165000   0.98931332     18.316529      60.329557    
    166000   0.98962713     18.106847      60.233346    
    167000   1.0103168      18.327707      60.312797    
    168000   0.95978865     18.355738      60.121524    
    169000   1.0026343      18.267848      59.845667    
    170000   1.0167697      18.391528      59.76012     
    171000   0.98579957     18.332866      59.68637     
    172000   1.0149156      18.634202      59.823021    
    173000   0.99028036     18.44968       59.786877    
    174000   1.0458036      18.699746      59.825088    
    175000   0.98679349     18.660607      59.488304    
    176000   0.98771132     18.596263      59.628271    
    177000   0.98340331     18.06323       59.689076    
    178000   0.97598671     18.605714      59.534203    
    179000   0.99980037     18.334756      59.326171    
    180000   1.0454233      18.066567      59.19149     
    181000   1.0143162      18.446127      59.243407    
    182000   0.99028468     18.644296      59.134753    
    183000   1.0163427      18.388514      58.85699     
    184000   0.95586435     18.032625      58.539801    
    185000   1.0534128      18.780421      58.370089    
    186000   0.99702458     17.988628      58.164361    
    187000   0.99669069     18.948048      58.13574     
    188000   1.029436       17.912243      57.860601    
    189000   0.92407088     17.264618      57.946073    
    190000   1.0099361      17.877081      58.16849     
    191000   1.0015433      18.630343      57.960818    
    192000   0.98004049     17.356556      57.847028    
    193000   1.0128844      17.77282       57.711865    
    194000   1.0452574      18.236215      57.578118    
    195000   1.0044875      18.19677       57.693073    
    196000   0.95266084     17.795805      57.624673    
    197000   1.0270461      18.258286      57.440794    
    198000   0.99699236     18.19617       57.177183    
    199000   0.9898292      17.952323      57.208096    
    200000   0.97858738     18.152129      56.95366     
    201000   1.0006884      18.015965      56.801528    
    202000   0.99057337     17.95724       56.777992    
    203000   1.0206747      18.09906       56.750787    
    204000   1.022522       17.904723      56.738664    
    205000   0.97631966     17.782526      56.763525    
    206000   1.023014       17.812315      56.687741    
    207000   0.99466389     17.931914      56.472018    
    208000   0.98508725     17.817011      56.502369    
    209000   0.99598954     17.16264       56.526172    
    210000   1.0670722      18.261796      56.332048    
    211000   0.96593596     17.873883      56.270723    
    212000   1.0028925      17.633126      56.291081    
    213000   0.99605759     17.797877      56.123947    
    214000   0.98634282     17.429019      56.066061    
    215000   0.99998411     17.839646      55.604272    
    216000   1.0357711      18.162765      55.485668    
    217000   0.96763678     18.434418      55.455734    
    218000   0.95704198     17.348101      55.183765    
    219000   0.98691347     17.466863      55.191639    
    220000   0.95639373     18.016482      55.013204    
    221000   1.0046369      17.450699      55.105979    
    222000   0.99166832     18.253257      55.084233    
    223000   1.0394369      17.717379      54.716211    
    224000   1.0056284      18.12028       54.445683    
    225000   1.0566539      17.739546      54.190871    
    226000   1.022659       17.710794      53.94534     
    227000   0.99339066     17.239513      53.660073    
    228000   1.0039551      17.574093      53.768893    
    229000   0.94376075     17.496549      53.599701    
    230000   0.98987444     17.353572      53.596375    
    231000   0.99871966     17.74448       53.326667    
    232000   0.94769071     17.740834      53.238298    
    233000   0.98083375     17.726933      53.102447    
    234000   1.0140249      17.33435       53.117406    
    235000   0.98246481     17.518762      52.897838    
    236000   1.0367031      17.629115      52.744199    
    237000   0.96821973     17.625265      52.537755    
    238000   1.0027769      18.505168      52.3051      
    239000   0.97538951     17.954948      52.004606    
    240000   1.040568       17.666502      51.851467    
    241000   1.0289632      17.475422      51.791262    
    242000   0.96899155     17.922075      51.556873    
    243000   0.96261429     18.053736      51.520678    
    244000   1.0102266      18.100816      51.555942    
    245000   1.0307148      17.900349      51.525869    
    246000   0.99948119     17.97729       51.439161    
    247000   1.0252942      17.626383      51.576883    
    248000   0.9986697      17.494275      51.243804    
    249000   0.9792821      17.916696      51.211084    
    250000   1.0366421      17.571783      51.229856    
    251000   1.0013028      17.855743      51.010471    
    252000   1.0061855      17.793113      50.947003    
    253000   0.98082754     17.365845      50.774119    
    254000   1.0344096      17.785037      50.795591    
    255000   0.97735485     17.645564      50.773638    
    256000   1.0382812      18.028983      50.845279    
    257000   1.0303222      18.434679      50.756956    
    258000   0.96677321     17.700304      50.770447    
    259000   0.99882793     17.617745      50.568769    
    260000   1.0206696      18.248353      50.404916    
    261000   1.0549566      17.715092      50.352104    
    262000   1.0201038      17.470649      50.2718      
    263000   0.99343283     17.416388      50.363268    
    264000   1.0042507      17.608092      50.265816    
    265000   1.0281562      17.682878      50.031725    
    266000   1.0507901      17.442137      50.07022     
    267000   1.0212991      17.807494      49.966281    
    268000   0.93754076     17.231494      49.953815    
    269000   0.9990385      17.09455       50.044027    
    270000   0.95934511     17.246919      50.08815     
    271000   1.0126121      17.577234      49.990855    
    272000   0.96750738     17.700414      49.842289    
    273000   1.0069658      17.368726      49.632535    
    274000   0.96961461     17.620765      49.48192     
    275000   0.98032778     17.833082      49.322079    
    276000   0.96849013     17.911878      49.358161    
    277000   0.99414988     17.612382      49.290274    
    278000   1.0160485      17.306862      49.323656    
    279000   0.99003433     17.650376      49.071589    
    280000   1.0135257      17.613298      48.87558     
    281000   0.98535864     17.402258      48.630963    
    282000   0.99503774     17.597134      48.730116    
    283000   1.0068881      17.544327      48.629211    
    284000   1.0141764      17.800912      48.783731    
    285000   0.9932122      17.458105      48.687808    
    286000   0.95909174     16.967117      48.503468    
    287000   1.0111781      17.544345      48.274599    
    288000   1.0396         18.174581      48.142411    
    289000   0.95437462     17.635517      47.848954    
    290000   0.98527267     17.703649      48.053756    
    291000   0.98549856     17.456343      47.801415    
    292000   1.0190873      17.400739      47.813877    
    293000   0.9552604      17.889675      47.669516    
    294000   1.0445891      17.901022      47.302179    
    295000   0.98018865     17.659105      47.164025    
    296000   0.97876057     17.745232      47.091725    
    297000   1.0678543      17.687804      46.891633    
    298000   1.0355596      18.079378      47.029364    
    299000   1.0027071      17.543781      47.101485    
    300000   1.0037273      17.620756      46.970298    
    301000   0.97983698     17.688517      46.98669     
    302000   0.97081067     17.528687      46.965184    
    303000   1.001756       17.470604      46.948426    
    304000   1.0021593      17.494727      46.840544    
    305000   0.94237047     17.444272      46.805048    
    306000   1.0459618      17.428789      46.560645    
    307000   0.99552106     17.513358      46.607099    
    308000   0.98954402     17.583058      46.622247    
    309000   1.0013927      17.527984      46.672822    
    310000   1.0460873      18.208613      46.514863    
    311000   1.0279334      17.444109      46.258506    
    312000   1.0095572      17.812598      46.170268    
    313000   0.96222251     16.795443      46.195829    
    314000   0.99050479     17.668938      46.012019    
    315000   1.0209308      17.619821      45.979547    
    316000   1.0142157      17.398422      45.965938    
    317000   0.9882817      17.266286      45.718977    
    318000   0.9720209      17.5481        45.620655    
    319000   0.96077013     17.440977      45.462676    
    320000   0.93741426     17.610663      45.358       
    321000   0.98900721     18.447625      45.323373    
    322000   0.99260257     17.235667      45.215598    
    323000   1.0578421      17.537186      45.234379    
    324000   1.0358516      17.850879      45.168953    
    325000   0.9822295      17.576973      45.072598    
    326000   1.0147957      17.710918      45.011334    
    327000   1.0014607      17.472053      45.142236    
    328000   1.0327822      17.325306      45.094406    
    329000   0.9930135      17.941874      44.915814    
    330000   1.011525       18.154461      45.150177    
    331000   0.98797094     17.503001      45.009252    
    332000   0.95716865     17.603183      45.245012    
    333000   0.99481201     17.296306      45.289343    
    334000   0.98438175     17.352692      44.999805    
    335000   1.0336417      17.486231      45.114878    
    336000   0.97613082     17.23467       45.091539    
    337000   0.9683237      17.971815      45.017148    
    338000   1.0129422      17.743594      44.911773    
    339000   1.0052466      17.625523      44.755258    
    340000   0.93355497     17.161702      44.702258    
    341000   1.0358314      17.952177      44.435576    
    342000   1.0389569      17.280672      44.52721     
    343000   0.96919691     17.45002       44.636559    
    344000   0.96635364     17.031948      44.529534    
    345000   1.0116781      17.517504      44.318329    
    346000   1.009175       17.555122      44.289706    
    347000   0.97953377     17.315185      44.204945    
    348000   1.0040855      17.708917      43.95959     
    349000   1.0033125      17.952925      43.83317     
    350000   0.93595098     17.610329      43.778577    
    351000   0.9667478      17.495173      43.747749    
    352000   1.0070953      17.652353      43.673583    
    353000   0.98089916     17.592503      43.378572    
    354000   1.0262016      17.206136      43.262839    
    355000   1.0024908      17.547654      43.127968    
    356000   1.010036       17.463952      42.980767    
    357000   1.0193645      17.670681      42.961114    
    358000   1.0137486      18.14282       42.990672    
    359000   0.99037172     17.482628      42.791006    
    360000   0.96994085     17.300934      42.706973    
    361000   0.97381595     17.447139      42.634952    
    362000   1.0281125      18.00249       42.697335    
    363000   1.0059035      17.341499      42.962499    
    364000   0.98515812     17.477577      43.005198    
    365000   1.0268327      17.652058      43.107701    
    366000   0.99187021     17.594486      43.229912    
    367000   1.0502358      17.591925      43.370086    
    368000   0.98932778     17.44541       43.341877    
    369000   0.9916877      18.091407      43.234607    
    370000   0.97574708     17.447474      43.097522    
    371000   0.966971       17.43474       43.151351    
    372000   1.0266481      17.367566      43.027119    
    373000   0.99748992     17.281068      43.0682      
    374000   0.99710795     17.389747      42.953766    
    375000   0.99210452     18.024901      43.215877    
    376000   0.92638368     17.860569      43.102072    
    377000   0.9924703      17.785993      42.921394    
    378000   0.99818161     17.962036      42.843592    
    379000   1.0022126      18.090644      42.582639    
    380000   1.0197783      17.634949      42.468159    
    381000   0.9646462      17.499906      42.370765    
    382000   1.0077085      17.418359      42.523036    
    383000   0.97830658     16.871489      42.542575    
    384000   0.98910702     17.55999       42.285935    
    385000   0.99579164     17.520367      41.939199    
    386000   0.99731278     18.02993       41.769003    
    387000   1.0058207      17.651276      41.287632    
    388000   0.9888784      17.192551      41.24276     
    389000   0.98391672     17.333317      41.095004    
    390000   1.027603       17.80522       41.188046    
    391000   1.0123161      17.744461      41.092067    
    392000   0.99361066     17.255725      41.063974    
    393000   1.0205621      18.01773       40.949569    
    394000   1.0331386      17.511112      40.855584    
    395000   1.0227632      17.336762      40.861819    
    396000   1.0248339      17.537103      40.731351    
    397000   0.9596552      17.050049      40.664221    
    398000   0.97810083     17.509532      40.71745     
    399000   0.97503843     17.26113       40.759353    
    400000   0.98018628     16.863831      40.600785    
    401000   1.0162671      17.637299      40.747044    
    402000   0.96666854     16.896394      40.53149     
    403000   1.0144689      17.282314      40.401193    
    404000   1.0060743      17.697671      40.21485     
    405000   1.0307335      17.379079      40.134115    
    406000   0.98317588     17.650803      40.042433    
    407000   1.0346049      17.555787      39.815228    
    408000   0.97633121     16.78133       39.816148    
    409000   0.99994926     17.500944      39.902819    
    410000   0.95345815     17.087958      39.907864    
    411000   1.0187633      17.678348      39.97537     
    412000   1.0259781      17.417682      39.71807     
    413000   0.99793156     17.266361      39.332791    
    414000   0.97999541     17.021823      39.057663    
    415000   1.0180929      17.324876      38.953862    
    416000   0.97811856     16.958272      38.644211    
    417000   1.0083351      17.546627      38.549382    
    418000   0.99065405     17.484939      38.676924    
    419000   1.0021193      18.067911      38.609447    
    420000   0.98696626     17.301259      38.77854     
    421000   1.0279574      17.420702      38.838918    
    422000   0.96058517     17.499301      38.703356    
    423000   0.97080058     16.939145      38.811431    
    424000   1.0066744      17.313493      38.540552    
    425000   1.0147124      17.777502      38.349518    
    426000   0.99957388     17.653087      38.409156    
    427000   0.99574095     17.596344      38.34049     
    428000   0.98479349     17.329466      38.097319    
    429000   0.97797318     17.338197      38.051313    
    430000   1.0091861      17.031322      38.068404    
    431000   1.0250187      17.469852      37.889348    
    432000   0.98729751     17.805054      37.719008    
    433000   0.99264886     17.626581      37.698425    
    434000   0.99659086     17.614475      37.673591    
    435000   0.98782707     17.16944       37.694021    
    436000   1.0204704      17.981508      37.711045    
    437000   0.97616461     17.719088      37.519927    
    438000   0.95105113     17.427103      37.331595    
    439000   0.98858573     17.312468      37.111128    
    440000   0.99299023     17.943469      36.967119    
    441000   1.001218       17.277493      37.192662    
    442000   1.0037857      16.871944      37.045081    
    443000   0.9590656      16.785521      37.147419    
    444000   1.0004744      17.349177      37.076052    
    445000   0.97679359     17.736025      37.12929     
    446000   0.99476821     17.076971      36.998172    
    447000   0.99406551     17.075803      36.74245     
    448000   0.97190616     17.160657      36.677379    
    449000   0.9982685      16.900071      36.622382    
    450000   1.0059575      17.023979      36.391498    
    451000   0.97410427     17.240927      36.438543    
    452000   0.99543365     17.42111       36.384714    
    453000   0.98805343     17.616204      36.043312    
    454000   0.98979053     17.594906      35.984514    
    455000   0.99271123     17.553793      36.035748    
    456000   1.0122134      17.520917      35.782641    
    457000   0.96206059     17.328559      35.531421    
    458000   0.97841642     18.466545      35.610067    
    459000   1.0252506      17.542353      35.743458    
    460000   1.0475667      17.493716      35.40672     
    461000   1.0100818      17.552576      35.579916    
    462000   0.97115311     17.402174      35.521736    
    463000   0.98389506     17.576662      35.442053    
    464000   0.97498051     16.954833      35.064219    
    465000   1.0275608      17.381036      35.03857     
    466000   1.0182303      17.520836      34.84273     
    467000   0.99298175     17.357097      34.864335    
    468000   0.98653693     17.516663      34.636192    
    469000   1.0315555      17.836324      34.53176     
    470000   0.98721002     17.528096      34.450306    
    471000   1.0104688      17.620936      34.361463    
    472000   1.0111887      17.485007      34.213989    
    473000   0.98458507     17.539709      34.150042    
    474000   0.98760958     17.222822      34.04331     
    475000   1.0177438      17.684786      33.891866    
    476000   1.0050029      17.41129       33.948054    
    477000   0.97727033     18.049565      33.872396    
    478000   0.99958646     17.250092      34.028015    
    479000   0.97549811     17.331505      33.973605    
    480000   0.99144359     17.50534       34.002144    
    481000   1.0215124      17.826231      33.850059    
    482000   1.0397085      17.614028      33.733611    
    483000   1.0124073      17.333426      33.511927    
    484000   1.0374791      17.677641      33.495208    
    485000   0.99972851     17.651968      33.44881     
    486000   1.0261777      17.664926      33.211589    
    487000   1.0216224      17.642738      33.180241    
    488000   0.98609727     17.721423      33.033737    
    489000   0.99439479     17.956424      32.940055    
    490000   0.97888747     17.276684      32.91678     
    491000   0.96332639     17.768154      32.942437    
    492000   1.0199254      17.455097      32.953169    
    493000   1.0327702      17.431231      32.975034    
    494000   1.0243971      17.304782      32.911393    
    495000   1.0397727      17.458499      33.037343    
    496000   1.0308075      17.344485      32.964421    
    497000   0.98788497     17.798676      33.148261    
    498000   0.96860792     17.094876      33.184248    
    499000   1.0311325      17.498687      33.115105    
    500000   0.97384264     16.97008       33.172291    
    501000   1.0456982      17.741435      33.014335    
    502000   0.96130874     17.181881      32.793404    
    503000   0.99088315     17.140369      32.770785    
    504000   0.99900209     17.165068      32.710379    
    505000   1.0257336      16.977772      32.770532    
    506000   0.99210666     17.158049      32.734429    
    507000   0.99328992     17.733917      32.569597    
    508000   1.0266172      17.446248      32.294886    
    509000   0.97782019     17.402167      32.367237    
    510000   1.034654       17.295166      32.236738    
    511000   0.9810553      17.968526      32.198764    
    512000   1.022516       18.024025      32.069475    
    513000   0.99116933     17.308996      32.075438    
    514000   1.0033695      17.745721      31.762716    
    515000   0.98528726     17.217119      31.785775    
    516000   1.0197704      17.838866      31.725681    
    517000   0.97019016     16.858124      31.601326    
    518000   0.96556856     17.22769       31.472999    
    519000   1.0296597      17.436788      31.082615    
    520000   0.99470132     17.04801       31.00954     
    521000   1.0077634      17.066759      30.789934    
    522000   1.0045605      17.029833      30.676553    
    523000   0.97310355     17.116813      30.531352    
    524000   0.97447181     18.184425      30.046886    
    525000   1.0096591      17.132442      29.834276    
    526000   0.97777743     17.269292      29.640848    
    527000   0.96681525     17.695558      29.485108    
    528000   0.89409163     17.35318       29.368865    
    529000   0.95531043     17.404251      29.277426    
    530000   0.95247038     16.56932       29.120213    
    531000   0.99189678     17.160315      29.11818     
    532000   1.0257358      17.594356      29.138746    
    533000   1.0758456      17.764814      29.203334    
    534000   0.96431614     17.265297      28.868743    
    535000   0.99333669     17.428079      28.659808    
    536000   1.0366701      17.154006      28.467451    
    537000   1.0310832      17.576802      28.288292    
    538000   1.0016444      17.616375      28.222834    
    539000   0.97416388     16.818118      28.076769    
    540000   0.94986847     17.403506      28.045909    
    541000   0.9713303      17.228882      27.977147    
    542000   0.97735351     17.539144      27.955901    
    543000   0.97846575     17.500555      27.998989    
    544000   0.99108302     17.49158       27.968308    
    545000   1.0152717      17.948881      27.776912    
    546000   1.0038861      17.326158      27.639215    
    547000   0.99710053     17.456123      27.609999    
    548000   0.99733331     17.391576      27.33147     
    549000   1.0727036      17.419623      27.20987     
    550000   0.96786108     18.227234      27.319383    
    551000   0.98957128     16.969037      27.221123    
    552000   0.9878862      17.168168      27.068229    
    553000   1.0425809      17.428544      26.973689    
    554000   0.95768818     17.120055      26.870288    
    555000   0.99930302     17.2384        26.688221    
    556000   0.9981656      17.696006      26.460752    
    557000   1.007462       17.469284      26.229826    
    558000   1.0048211      17.138065      26.258154    
    559000   0.93058627     17.181574      26.182593    
    560000   1.0052311      17.061811      26.232789    
    561000   0.9970361      17.469626      26.05794     
    562000   1.0103858      17.765447      26.056825    
    563000   1.0082774      17.301531      26.001348    
    564000   1.0318975      17.676946      25.964734    
    565000   1.0296019      17.602158      26.085831    
    566000   1.0001211      16.928764      25.906331    
    567000   1.0049724      16.983376      25.880977    
    568000   1.0165862      17.595858      25.466705    
    569000   0.93618197     17.346883      25.539578    
    570000   1.0343842      17.667469      25.553902    
    571000   1.0047461      17.255588      25.176264    
    572000   0.99577156     17.135604      24.964728    
    573000   0.99038594     17.068034      24.945809    
    574000   0.95013901     16.911744      24.70108     
    575000   1.0004809      17.127053      24.863015    
    576000   1.0449669      17.620259      24.858709    
    577000   0.97079244     17.392101      24.88377     
    578000   0.95831626     17.894226      24.782132    
    579000   0.97062742     16.705365      24.611855    
    580000   1.0596543      18.670864      24.461882    
    581000   1.0070752      17.074508      24.516262    
    582000   0.98055461     17.085116      24.169812    
    583000   1.0197791      17.529701      24.018667    
    584000   0.98328037     16.62217       23.994579    
    585000   1.0132709      17.066796      23.89677     
    586000   1.0326183      17.234984      23.856188    
    587000   1.0358149      17.153857      23.732602    
    588000   0.97333293     17.156224      23.659371    
    589000   0.99524114     17.323165      23.878181    
    590000   0.94873378     17.678693      23.90209     
    591000   0.97718296     17.924455      23.950572    
    592000   1.0096236      17.505571      23.880946    
    593000   1.0306973      17.506585      24.153471    
    594000   1.0114433      17.412127      24.057394    
    595000   1.0431652      18.086515      24.139613    
    596000   1.0230205      17.964738      23.861932    
    597000   0.96742425     16.811395      23.556062    
    598000   1.0246027      17.594785      23.471543    
    599000   1.0240976      17.269765      23.375273    
    600000   1.0264206      16.941932      23.211996    
    601000   0.97370452     17.585765      23.026714    
    602000   1.0030287      17.03568       23.084879    
    603000   1.0093584      17.344175      23.120758    
    604000   1.0123021      17.691772      23.003803    
    605000   1.0006908      17.862816      22.836035    
    606000   1.0172025      17.583608      22.778386    
    607000   1.0330184      17.420919      22.79535     
    608000   1.0123551      17.883728      22.859927    
    609000   1.027103       17.717094      22.654676    
    610000   1.0208018      18.065509      22.842486    
    611000   1.0131325      17.837992      22.697955    
    612000   1.0005244      17.683907      22.604622    
    613000   0.98537805     17.254119      22.512415    
    614000   1.0192622      17.673294      22.48065     
    615000   1.0478625      17.603848      22.345242    
    616000   0.97023659     17.552117      22.310759    
    617000   1.0168632      17.108356      22.175258    
    618000   1.0066642      17.166497      22.013151    
    619000   0.98361067     17.355749      22.22419     
    620000   0.99570414     17.7392        22.342243    
    621000   0.99120743     17.420729      22.211934    
    622000   0.96884443     17.207396      22.058793    
    623000   0.99409289     17.111166      21.875121    
    624000   0.98321199     16.864466      21.680616    
    625000   0.94941517     16.821142      21.743104    
    626000   0.98183251     17.388456      21.660822    
    627000   0.94373551     17.067967      21.737577    
    628000   0.99627108     17.32915       21.605749    
    629000   1.0427952      17.460659      21.766545    
    630000   0.96416645     17.650798      21.861809    
    631000   0.98778199     16.93586       21.933189    
    632000   1.0056775      17.302049      21.964001    
    633000   1.0041574      17.026706      21.978062    
    634000   1.0796864      17.401058      21.941523    
    635000   0.99603495     17.639103      21.808704    
    636000   1.0529632      17.815651      21.683458    
    637000   1.026421       17.447474      21.785288    
    638000   0.99154583     17.49661       21.65894     
    639000   1.0223389      18.092136      21.601055    
    640000   1.0208414      17.823152      21.634759    
    641000   1.0481259      17.544038      21.862607    
    642000   0.95643693     16.75078       21.720902    
    643000   0.98485108     16.819374      21.596691    
    644000   1.0236226      17.514487      21.545992    
    645000   0.99904182     17.286299      21.491267    
    646000   1.0353084      17.243868      21.141317    
    647000   0.94643601     17.087657      21.243084    
    648000   1.0021879      17.417968      21.080791    
    649000   1.0188531      17.539985      21.173059    
    650000   0.99849797     17.166513      21.113002    
    651000   1.0658771      17.713396      20.947205    
    652000   1.0039813      17.670949      20.801005    
    653000   1.0073674      17.477298      20.794669    
    654000   0.98830063     17.435729      20.734518    
    655000   0.99420721     17.605617      20.796187    
    656000   0.9960236      17.261053      20.660029    
    657000   0.99343891     17.355071      20.487871    
    658000   0.9699126      17.520836      20.530687    
    659000   0.9695137      17.260367      20.529985    
    660000   1.0147937      17.775359      20.587896    
    661000   1.0460768      17.687543      20.708919    
    662000   1.0230934      17.356106      20.568153    
    663000   1.0468918      17.17936       20.324491    
    664000   1.0311687      16.938714      20.285842    
    665000   1.016295       17.674301      20.359991    
    666000   0.95790731     17.584414      20.30603     
    667000   1.0004791      17.18607       20.210505    
    668000   0.97200861     17.15178       20.135093    
    669000   1.0123208      17.366936      20.127528    
    670000   1.0026282      17.637109      20.035316    
    671000   1.0120856      17.159144      20.001974    
    672000   0.98809538     17.396791      19.767092    
    673000   0.97142251     17.65443       19.759501    
    674000   1.0381462      17.196581      19.768281    
    675000   0.99382666     17.331312      19.622489    
    676000   1.0357723      17.72081       19.67405     
    677000   1.0024031      17.406373      19.59361     
    678000   1.0340703      16.905788      19.412674    
    679000   0.98299381     17.344021      19.365278    
    680000   1.0015546      17.202442      19.024905    
    681000   0.95476055     17.057577      18.81839     
    682000   1.0304678      17.262917      18.66704     
    683000   1.0162495      17.499905      18.496666    
    684000   1.0035679      16.867281      18.520308    
    685000   1.0634417      17.514067      18.238901    
    686000   1.0230212      17.128575      18.035724    
    687000   1.0052336      17.876762      17.964519    
    688000   0.9980803      17.258208      17.867637    
    689000   0.95982744     16.948734      17.594253    
    690000   1.0074784      17.400582      17.388848    
    691000   0.94890399     16.917367      17.588105    
    692000   0.99348615     17.301816      17.508643    
    693000   1.0526832      17.443063      17.287073    
    694000   1.0013748      17.401818      17.324572    
    695000   1.0315061      17.501779      17.416603    
    696000   0.99377665     17.262674      17.405034    
    697000   1.0083537      17.378281      17.452706    
    698000   1.0184027      17.329901      17.232253    
    699000   0.99211364     17.221108      17.041359    
    700000   1.0098654      17.122451      17.070522    
    701000   0.99881923     17.566761      17.120576    
    702000   1.0017469      17.07516       17.295329    
    703000   0.97989692     17.834636      17.214993    
    704000   1.0619319      17.141865      17.293725    
    705000   0.9901845      16.873128      17.151802    
    706000   0.97469129     17.17155       17.1236      
    707000   1.0101638      16.416105      16.928055    
    708000   1.0044654      16.76125       16.791874    
    709000   0.9980087      17.341592      16.523594    
    710000   0.99731699     17.262662      16.498642    
    711000   1.0396343      17.478976      16.638623    
    712000   1.0347863      16.961252      16.506522    
    713000   1.0236837      17.371516      16.255196    
    714000   1.0023051      17.17199       16.271686    
    715000   0.98466514     17.134351      15.879089    
    716000   1.0369276      16.575118      15.572725    
    717000   1.0217         17.570731      15.582505    
    718000   0.96348051     18.026665      15.468923    
    719000   1.052209       17.594539      15.692447    
    720000   1.0311558      16.900011      15.64066     
    721000   1.0107719      16.885023      15.493214    
    722000   0.98864301     17.205576      15.363021    
    723000   0.95171336     17.265001      15.238845    
    724000   1.0212636      17.802883      15.292095    
    725000   0.97565901     16.750581      15.091759    
    726000   1.0149859      16.612539      15.089596    
    727000   1.0351232      16.631946      15.174634    
    728000   1.0694323      17.790374      14.942617    
    729000   0.98406848     16.797483      14.795982    
    730000   1.0176615      17.309383      14.770757    
    731000   1.015655       17.618184      14.664814    
    732000   0.97545678     17.677609      14.95684     
    733000   0.97281739     17.313896      14.91462     
    734000   1.0098862      17.053953      14.92846     
    735000   1.0587004      17.796137      14.732818    
    736000   1.0241196      17.36845       14.519312    
    737000   1.0172632      17.314224      14.420371    
    738000   0.97298284     17.502192      14.462       
    739000   0.98269918     17.042102      14.522205    
    740000   1.0093988      16.781442      14.41016     
    741000   0.99345746     17.260398      14.179323    
    742000   0.96497274     17.021677      14.143627    
    743000   1.0011231      17.377831      14.042737    
    744000   1.0020396      16.843055      13.960262    
    745000   1.0048132      17.092054      13.904592    
    746000   1.004949       16.969778      13.756068    
    747000   0.96076725     16.396411      13.7611      
    748000   0.98161285     16.759119      13.700924    
    749000   0.99917789     17.049472      13.546209    
    750000   0.99940263     17.298975      13.564668    
    751000   1.0105899      17.501023      13.671748    
    752000   1.0300905      16.990397      13.54965     
    753000   1.0428743      16.776349      13.325319    
    754000   0.96646466     17.214164      13.420498    
    755000   1.0359183      16.879018      13.395415    
    756000   0.97667557     16.723189      13.44285     
    757000   0.98488944     17.227622      13.122267    
    758000   1.0159697      16.947445      13.317347    
    759000   1.0151513      17.468498      13.394892    
    760000   1.0389946      17.120965      13.442162    
    761000   0.98079285     17.463906      13.219468    
    762000   1.0006669      17.467945      13.055541    
    763000   1.0292583      17.113031      12.672237    
    764000   0.95568203     17.455864      12.59583     
    765000   1.03154        17.095605      12.508017    
    766000   1.0166897      17.302298      12.558464    
    767000   0.98963036     17.231402      12.654273    
    768000   0.99368582     17.122746      12.670176    
    769000   0.99843468     17.17051       12.504602    
    770000   0.98681854     16.935473      12.439447    
    771000   1.0164937      16.967669      12.389064    
    772000   1.0953616      17.600205      12.262528    
    773000   0.97222541     17.701987      12.296361    
    774000   0.9475015      17.323519      12.254856    
    775000   1.0428415      17.093995      12.076521    
    776000   0.96079749     16.673774      11.806913    
    777000   1.0016606      17.0894        11.614264    
    778000   1.041899       17.428464      11.27902     
    779000   0.99749712     17.219843      11.164506    
    780000   1.0320933      17.273971      11.133151    
    781000   0.99677746     17.027693      10.890445    
    782000   1.005897       17.014358      10.822734    
    783000   0.98836737     16.462797      10.772182    
    784000   1.0144769      17.277959      10.764532    
    785000   0.99269874     17.364155      10.690292    
    786000   1.009286       16.672568      10.410076    
    787000   0.99071694     17.257125      10.565123    
    788000   0.96514408     16.984249      10.455603    
    789000   0.97069576     17.355549      10.487936    
    790000   0.99715353     16.846243      10.279391    
    791000   1.0036602      16.812955      10.089047    
    792000   0.98106512     16.952787      9.8310047    
    793000   0.98248287     17.023906      9.5310509    
    794000   1.0501825      17.259806      9.441911     
    795000   1.0123791      17.003062      9.5069034    
    796000   0.98284166     16.704206      9.413558     
    797000   0.99322858     17.396217      9.3910629    
    798000   0.96199396     16.805395      9.3259196    
    799000   0.98003859     16.951201      9.2437967    
    800000   0.99161947     17.444493      9.0310373    
    801000   0.98271478     16.912736      8.8851937    
    802000   0.97987891     17.429106      8.9895831    
    803000   1.0138321      16.90614       9.016935     
    804000   1.044017       17.339453      9.0834206    
    805000   1.0132713      17.44575       8.8883814    
    806000   0.98754864     16.621123      8.7129476    
    807000   0.99534232     16.957479      8.8170705    
    808000   1.0082202      17.368328      8.8959497    
    809000   0.97280842     16.712267      8.8676518    
    810000   1.0350006      17.107802      8.7442476    
    811000   0.96329891     17.066659      8.6761115    
    812000   1.0444834      17.058218      8.7444531    
    813000   1.0086121      17.575398      8.8919616    
    814000   1.0005831      16.826238      8.8875642    
    815000   1.0140882      17.552374      9.0201675    
    816000   1.0173205      16.672484      9.1669092    
    817000   0.99261806     17.032943      9.2222134    
    818000   0.99527217     16.510804      9.2005632    
    819000   1.0195924      17.139315      9.1049131    
    820000   0.95642581     17.056094      8.8836121    
    821000   0.98252868     17.71841       8.8349044    
    822000   1.0226865      17.641275      8.8170465    
    823000   1.0204148      17.453149      8.5536847    
    824000   1.0320792      16.923587      8.4792357    
    825000   0.98867383     16.822922      8.4187845    
    826000   0.9903406      16.717439      8.2278823    
    827000   0.97074694     16.997748      8.2200799    
    828000   0.97780083     16.994725      8.4512525    
    829000   0.97303873     16.910807      8.5274984    
    830000   0.94398737     16.529494      8.5564566    
    831000   1.0164805      17.352346      8.6016675    
    832000   1.0329867      17.649318      8.3285621    
    833000   1.0365287      16.863876      8.1999561    
    834000   1.0199212      17.57659       8.116872     
    835000   1.0338336      17.126834      8.1237452    
    836000   1.040024       17.488117      8.1804108    
    837000   1.0302041      16.96598       8.1505284    
    838000   0.9670562      16.767903      8.0962824    
    839000   0.9872972      17.030805      8.0798001    
    840000   1.0150684      17.475743      7.9326267    
    841000   0.96432374     16.911647      7.8145775    
    842000   1.0014405      16.510433      7.7667446    
    843000   0.99993203     17.132771      7.6962663    
    844000   1.0144935      17.089611      7.5376331    
    845000   1.0249932      17.277132      7.4352505    
    846000   0.97073423     16.981818      7.2841586    
    847000   0.98176669     17.108734      7.2467091    
    848000   0.9526326      16.795155      7.1240372    
Fix halt condition for fix-id 3 met on step 849000 with value 6.82967504412763 (src/fix_halt.cpp:237)
    849000   0.98628169     17.018593      6.829675     
Loop time of 1845.84 on 2 procs for 749000 steps with 1001 atoms

Performance: 350591.343 tau/day, 405.777 timesteps/s
121.3% CPU use with 1 MPI tasks x 2 OpenMP threads

MPI task timing breakdown:
Section |  min time  |  avg time  |  max time  |%varavg| %total
---------------------------------------------------------------
Pair    | 308.15     | 308.15     | 308.15     |   0.0 | 16.69
Bond    | 23.876     | 23.876     | 23.876     |   0.0 |  1.29
Neigh   | 1461.5     | 1461.5     | 1461.5     |   0.0 | 79.18
Comm    | 0.44955    | 0.44955    | 0.44955    |   0.0 |  0.02
Output  | 2.5426     | 2.5426     | 2.5426     |   0.0 |  0.14
Modify  | 44.06      | 44.06      | 44.06      |   0.0 |  2.39
Other   |            | 5.242      |            |       |  0.28

Nlocal:           1001 ave        1001 max        1001 min
Histogram: 1 0 0 0 0 0 0 0 0 0
Nghost:              0 ave           0 max           0 min
Histogram: 1 0 0 0 0 0 0 0 0 0
Neighs:         213037 ave      213037 max      213037 min
Histogram: 1 0 0 0 0 0 0 0 0 0

Total # of neighbors = 213037
Ave neighs/atom = 212.82418
Ave special neighs/atom = 1.998002
Neighbor list builds = 6402
Dangerous builds = 0

# This simulation is done
# Move onto the next one
clear
  using 2 OpenMP thread(s) per MPI task
package omp 0
using multi-threaded neighbor list subroutines
next f
jump SELF

###
# Reference paper:
# K. Kremer and G. S. Grest
# Dynamics of entangled linear polymer melts: A molecular-dynamics simulation
# J Chem Phys 92, 5057 (1990)

##################################
# MIHIR: for branched polymers
# LJ minimum first to expand and explore, then collapse
###

###
# Looping through the various nuc3branch4 polymers to simulate,
# define variables to switch through
variable f index bb40nuc3bl10bn4d30tot100 bb80nuc3bl20bn4d30tot200 bb120nuc3bl30bn4d30tot300 bb160nuc3bl40bn4d30tot400 bb200nuc3bl50bn4d30tot500 bb240nuc3bl60bn4d30tot600 bb280nuc3bl70bn4d30tot700 bb320nuc3bl80bn4d30tot800 bb360nuc3bl90bn4d30tot900 bb400nuc3bl100bn4d30tot1000 bb440nuc3bl110bn4d30tot1100 bb480nuc3bl120bn4d30tot1200
###


###
# Box and units  (use LJ units and periodic boundaries)
###

units lj
log nuc3branch4/logs3/$f.log
log nuc3branch4/logs3/bb440nuc3bl110bn4d30tot1100.log
