#atom_style bond #no stiffness
atom_style angle #with stiffness

boundary        p p p
###
# Pair interactions require lists of neighbours to be calculated
###

#neighbor 0.3 bin
neighbor 4 bin

neigh_modify every 1 delay 1 check yes
atom_modify sort 0 0
### Generate RESTART file, SPECIAL format, not a .txt file ###
### Useful if simulation crashes ###

restart 1000000 nuc3branch4/restarts3/$f.restart
restart 1000000 nuc3branch4/restarts3/bb40nuc3bl10bn4d30tot100.restart
#############################



### READ "start" data file ###

read_data nuc3branch4/$f.dat
read_data nuc3branch4/bb40nuc3bl10bn4d30tot100.dat
Reading data file ...
  orthogonal box = (-1000 -1000 -1000) to (1000 1000 1000)
  1 by 1 by 1 MPI processor grid
  reading atoms ...
  101 atoms
  scanning bonds ...
  3 = max bonds/atom
  scanning angles ...
  6 = max angles/atom
  reading bonds ...
  100 bonds
  reading angles ...
  108 angles
Finding 1-2 1-3 1-4 neighbors ...
  special bond factors lj:    0        0        0       
  special bond factors coul:  0        0        0       
     4 = max # of 1-2 neighbors
     4 = max # of 1-3 neighbors
     8 = max # of 1-4 neighbors
    12 = max # of special neighbors
  special bonds CPU = 0.000 seconds
  read_data CPU = 0.014 seconds

######################

### READ "REstart" data file ###

######################



###
# Define groups (atom type 1 is group 'all')
###
group all type 1
101 atoms in group all


###
# Dump configs - "simple dumpings"
###

###
# Dump configs + box coords
###

dump   1   all   custom   1000  nuc3branch4/trjs3/$f.lammpstrj  id  x y z  ix iy iz
dump   1   all   custom   1000  nuc3branch4/trjs3/bb40nuc3bl10bn4d30tot100.lammpstrj  id  x y z  ix iy iz
dump_modify   1   format line "%d %.5f %.5f %.5f %d %d %d"

########################################################################


###################################################################
# Stiffness term
#
# E = K * (1+cos(theta)), K>0
#
angle_style   cosine
#change this coefficient to change stiffness (e.g. 1,5,10)
angle_coeff   1 1.0
###################################################################

###################################################################
# Pair interaction between non-bonded atoms
#
#  Lennard-Jones 12-6 potential with cutoff:
#  potential E=4epsilon[ (sigma/r)^12 - (sigma/r)^6]  for r<r_cut
#
#  1.12246 = 2^(1/6) is the minimum of the potential


pair_style      lj/cut 1.12246152962189
#pair_style      lj/cut 3

#
#  pair_modify shift yes adds a constant to the potential such

#  that E(r_cut)=0. Forces remains unchanged.
#

pair_modify     shift yes

#
#  pair_coeff for lj/cut, specify 4:
#    * atom type interacting with
#    * atom type
#    * epsilon (energy units)
#    * sigma (distance units)
#

pair_coeff      1 1 1.0 1.0
###################################################################

###################################################################
# Pair interaction between non-bonded atoms
#
#  soft potential, for PUSHING apart overlapping atoms
#  potential E=A*(1 + cos(pi*r/r_c))
#
#  1.12246 = 2^(1/6) is the cut-off r_c

#pair_style     soft 1.12246152962189

#
#  pair_coeff for soft, specify 3:
#    * atom type interacting with
#    * atom type
#    * A
#
#

#pair_coeff      1 1 100.0
###################################################################

###################################################################
# Pair interaction between bonded atoms
#
# Fene potential + Lennard Jones 12-6:

#
#  E= - 0.5 K R0^2 ln[ 1- (r/R0)^2]
#     + 4epsilon[ (sigma/r)^12 - (sigma/r)^6] + epsilon
#

bond_style   fene


#
# For style fene, specify:
#   * bond type
#   * K (energy/distance^2)
#   * R0 (distance)
#   * epsilon (energy)  (LJ component)
#   * sigma (distance)  (LJ component)
#


special_bonds fene #<=== I M P O R T A N T (new command)
Finding 1-2 1-3 1-4 neighbors ...
  special bond factors lj:    0        1        1       
  special bond factors coul:  0        1        1       
     4 = max # of 1-2 neighbors
    12 = max # of special neighbors
  special bonds CPU = 0.000 seconds

bond_coeff   1   30   2   1.0   1.0


###################################################

###################################################################
# Pair interaction between bonded atoms
#
# Harmonic potential:
#
#  E= K * (R-R0)^2
#

#bond_style   harmonic

#
# For style harmonic, specify:
#   * bond type
#   * K (energy/distance^2)
#   * R0 (distance)
#

#bond_coeff   1   60.0   1.0
#bond_coeff   2   harmonic 0.1   1.0

###################################################
compute 1 all gyration
variable rog equal c_1
#compute 2 all coord/atom cutoff 1.1

#dump 2 all custom 10000 contact_number.dump id c_2


###
# Set up fixes
###
thermo_style   custom   step  temp enthalpy c_1
fix 1 all nve   ###NVE ensemble

fix 2 all   langevin   1.0 1.0 1.0  158102   ###Langevin integrator Tstart Tstop 1/friction rndseed


##### Sample thermodynamic info  (temperature, energy, pressure, etc.) #####
thermo 1000









############################################################################

###
# set timestep of integrator

timestep 0.01

###
# run integration for a number of steps
###
#run 0
#variable r equal c_1
#if "$r < 63.1" then "quit 1"

# lj potential minimum, cause molecule to explore
run 100000
Generated 0 of 0 mixed pair_coeff terms from geometric mixing rule
Last active /omp style is angle_style cosine/omp
Neighbor list info ...
  update: every = 1 steps, delay = 1 steps, check = yes
  max neighbors/atom: 2000, page size: 100000
  master list distance cutoff = 5.1224615
  ghost atom cutoff = 5.1224615
  binsize = 2.5612308, bins = 781 781 781
  1 neighbor lists, perpetual/occasional/extra = 1 0 0
  (1) pair lj/cut/omp, perpetual
      attributes: half, newton on, omp
      pair build: half/bin/newton/omp
      stencil: half/bin/3d
      bin: standard
WARNING: Communication cutoff 5.12246152962189 is shorter than a bond length based estimate of 5.455. This may lead to errors. (src/comm.cpp:723)
Per MPI rank memory allocation (min/avg/max) = 1861 | 1861 | 1861 Mbytes
   Step          Temp         Enthalpy         c_1      
         0   0              13.17225       9.834386     
      1000   0.98372314     22.210058      8.4511034    
      2000   0.82801822     18.195292      7.8508808    
      3000   0.95681003     20.208556      7.5745275    
      4000   0.8927901      19.220914      7.3891082    
      5000   1.0861608      20.345604      6.2130528    
      6000   0.99483269     20.966102      6.114879     
      7000   0.99793468     19.328282      5.9118679    
      8000   0.94080476     19.374807      6.1704668    
      9000   0.92924751     20.545776      5.6723513    
     10000   0.94893911     20.483916      5.3804972    
     11000   0.93587705     20.57784       4.9105504    
     12000   1.2190481      19.593416      5.381512     
     13000   0.91023326     20.598171      5.5192729    
     14000   1.056057       21.208745      5.3338526    
     15000   0.85984025     20.323982      5.4456887    
     16000   0.93524486     20.773947      5.9511422    
     17000   0.87413434     20.964139      6.5297637    
     18000   1.0482545      19.872437      6.0828105    
     19000   0.98901686     20.460848      6.229594     
     20000   1.0491717      20.413025      6.2373408    
     21000   0.97680023     19.856052      5.8396333    
     22000   1.1436365      21.528769      6.4164148    
     23000   1.0541171      19.637661      6.573747     
     24000   1.0934435      20.773198      6.5107212    
     25000   1.004125       20.035408      6.6522183    
     26000   0.95734639     20.053539      6.4058659    
     27000   1.1729596      21.481998      5.8826763    
     28000   0.89665125     19.361201      5.8066445    
     29000   0.96040264     19.678752      6.0690305    
     30000   0.9478145      21.028966      6.4977559    
     31000   0.91381857     20.623169      6.4712275    
     32000   0.94090531     20.117814      6.4832022    
     33000   0.95920342     20.069691      6.2789763    
     34000   1.0783779      21.366559      6.3778978    
     35000   1.1612412      20.23767       6.132583     
     36000   0.93420823     20.185638      6.2948872    
     37000   0.97434361     19.873686      6.6479452    
     38000   1.052244       21.395514      6.0640605    
     39000   0.97718054     19.51833       5.580414     
     40000   1.1764011      19.767435      4.893024     
     41000   1.0429276      21.43765       5.1412785    
     42000   1.0860574      21.573903      5.6831922    
     43000   1.1071995      19.869797      5.4718659    
     44000   1.1109272      20.8185        4.8604542    
     45000   0.87755977     20.482303      4.6895958    
     46000   1.0092638      19.077743      4.9904291    
     47000   1.0633956      20.053766      4.4964527    
     48000   0.94043014     21.695021      5.1896943    
     49000   1.1078575      21.371295      5.9515034    
     50000   0.9773925      20.222749      5.55883      
     51000   0.91314033     19.861588      5.4150545    
     52000   0.97842592     21.209705      5.0903307    
     53000   0.92089566     20.975384      4.8421875    
     54000   1.0060035      21.508213      5.1866961    
     55000   1.0125226      20.046438      5.6855105    
     56000   0.96789767     20.274005      5.7422828    
     57000   1.0043417      19.668445      5.4170712    
     58000   1.0434758      21.648758      5.4485268    
     59000   0.91138171     20.621811      5.1601351    
     60000   1.0251577      19.978679      5.0235419    
     61000   1.0436965      19.68926       5.1818765    
     62000   0.79977247     19.812323      5.3055169    
     63000   0.94829048     20.720615      5.2863969    
     64000   1.045562       21.328335      5.8982024    
     65000   1.009259       21.093432      5.5554031    
     66000   0.87929234     19.906209      5.9031407    
     67000   1.2009498      21.6617        5.757439     
     68000   1.1613627      21.012459      5.9682144    
     69000   1.1561542      19.760518      5.6009216    
     70000   1.0645595      21.04664       5.6343471    
     71000   0.97443242     19.075257      5.2741975    
     72000   0.94706224     19.555737      5.3534273    
     73000   1.0295428      21.318616      5.3035961    
     74000   0.9067049      21.54508       5.1996461    
     75000   1.0454427      20.972457      5.5999826    
     76000   0.98053919     21.912349      6.036138     
     77000   1.1822155      20.98057       6.5020147    
     78000   1.1859595      19.909507      6.4818349    
     79000   0.86851246     18.829272      6.2562622    
     80000   1.1398507      22.885372      6.4088763    
     81000   1.0587724      21.109595      6.0093745    
     82000   0.92547075     21.018951      5.9688459    
     83000   1.0150577      19.720045      5.680606     
     84000   1.1409621      19.952015      5.9297187    
     85000   1.1258442      20.546755      6.5295511    
     86000   0.97782772     19.342344      6.7489462    
     87000   1.0776776      21.610594      7.0241348    
     88000   0.98314628     20.023419      6.544419     
     89000   1.0793012      20.935669      6.2898294    
     90000   1.0958968      21.70597       6.016627     
     91000   1.0323084      21.021863      6.6185141    
     92000   1.0207674      20.211149      7.2398527    
     93000   0.98851012     21.444516      6.8981879    
     94000   0.94209109     19.344781      7.5423297    
     95000   1.0869188      21.565956      7.0851076    
     96000   1.0538761      20.303138      6.5142246    
     97000   1.0822557      20.852322      5.9675215    
     98000   0.97907668     20.004365      6.4438863    
     99000   1.155585       22.407286      6.5884183    
    100000   0.97323098     19.510602      6.6321866    
Loop time of 255.624 on 2 procs for 100000 steps with 101 atoms

Performance: 337995.996 tau/day, 391.199 timesteps/s
100.9% CPU use with 1 MPI tasks x 2 OpenMP threads

MPI task timing breakdown:
Section |  min time  |  avg time  |  max time  |%varavg| %total
---------------------------------------------------------------
Pair    | 0.26979    | 0.26979    | 0.26979    |   0.0 |  0.11
Bond    | 0.33622    | 0.33622    | 0.33622    |   0.0 |  0.13
Neigh   | 254.24     | 254.24     | 254.24     |   0.0 | 99.46
Comm    | 0.012528   | 0.012528   | 0.012528   |   0.0 |  0.00
Output  | 0.1145     | 0.1145     | 0.1145     |   0.0 |  0.04
Modify  | 0.60347    | 0.60347    | 0.60347    |   0.0 |  0.24
Other   |            | 0.0478     |            |       |  0.02

Nlocal:            101 ave         101 max         101 min
Histogram: 1 0 0 0 0 0 0 0 0 0
Nghost:              0 ave           0 max           0 min
Histogram: 1 0 0 0 0 0 0 0 0 0
Neighs:           1238 ave        1238 max        1238 min
Histogram: 1 0 0 0 0 0 0 0 0 0

Total # of neighbors = 1238
Ave neighs/atom = 12.257426
Ave special neighs/atom = 1.980198
Neighbor list builds = 942
Dangerous builds = 0

# Replace lj potential, now collapse
pair_style      lj/cut 3

# Cutoff simul when gyration under 10
# Variable created with equal requires v_ + 'name'
fix 3 all halt 1000 v_rog < 7

run 3000000
Generated 0 of 0 mixed pair_coeff terms from geometric mixing rule
Last active /omp style is angle_style cosine/omp
Per MPI rank memory allocation (min/avg/max) = 1861 | 1861 | 1861 Mbytes
   Step          Temp         Enthalpy         c_1      
    100000   0.97323098     18.223809      6.6321866    
Fix halt condition for fix-id 3 met on step 101000 with value 5.27859185998187 (src/fix_halt.cpp:237)
    101000   1.0138677      17.556812      5.2785919    
Loop time of 1.56758 on 2 procs for 1000 steps with 101 atoms

Performance: 551166.495 tau/day, 637.924 timesteps/s
101.1% CPU use with 1 MPI tasks x 2 OpenMP threads

MPI task timing breakdown:
Section |  min time  |  avg time  |  max time  |%varavg| %total
---------------------------------------------------------------
Pair    | 0.0059765  | 0.0059765  | 0.0059765  |   0.0 |  0.38
Bond    | 0.003106   | 0.003106   | 0.003106   |   0.0 |  0.20
Neigh   | 1.5504     | 1.5504     | 1.5504     |   0.0 | 98.90
Comm    | 0.0001333  | 0.0001333  | 0.0001333  |   0.0 |  0.01
Output  | 0.0012172  | 0.0012172  | 0.0012172  |   0.0 |  0.08
Modify  | 0.0063132  | 0.0063132  | 0.0063132  |   0.0 |  0.40
Other   |            | 0.000474   |            |       |  0.03

Nlocal:            101 ave         101 max         101 min
Histogram: 1 0 0 0 0 0 0 0 0 0
Nghost:              0 ave           0 max           0 min
Histogram: 1 0 0 0 0 0 0 0 0 0
Neighs:           2905 ave        2905 max        2905 min
Histogram: 1 0 0 0 0 0 0 0 0 0

Total # of neighbors = 2905
Ave neighs/atom = 28.762376
Ave special neighs/atom = 1.980198
Neighbor list builds = 9
Dangerous builds = 0

# This simulation is done
# Move onto the next one
clear
  using 2 OpenMP thread(s) per MPI task
package omp 0
using multi-threaded neighbor list subroutines
next f
jump SELF

###
# Reference paper:
# K. Kremer and G. S. Grest
# Dynamics of entangled linear polymer melts: A molecular-dynamics simulation
# J Chem Phys 92, 5057 (1990)

##################################
# MIHIR: for branched polymers
# LJ minimum first to expand and explore, then collapse
###

###
# Looping through the various nuc3branch4 polymers to simulate,
# define variables to switch through
variable f index bb40nuc3bl10bn4d30tot100 bb80nuc3bl20bn4d30tot200 bb120nuc3bl30bn4d30tot300 bb160nuc3bl40bn4d30tot400 bb200nuc3bl50bn4d30tot500 bb240nuc3bl60bn4d30tot600 bb280nuc3bl70bn4d30tot700 bb320nuc3bl80bn4d30tot800 bb360nuc3bl90bn4d30tot900 bb400nuc3bl100bn4d30tot1000 bb440nuc3bl110bn4d30tot1100 bb480nuc3bl120bn4d30tot1200
###


###
# Box and units  (use LJ units and periodic boundaries)
###

units lj
log nuc3branch4/logs3/$f.log
log nuc3branch4/logs3/bb80nuc3bl20bn4d30tot200.log
