#atom_style bond #no stiffness
atom_style angle #with stiffness

boundary        p p p
###
# Pair interactions require lists of neighbours to be calculated
###

#neighbor 0.3 bin
neighbor 4 bin

neigh_modify every 1 delay 1 check yes
atom_modify sort 0 0
### Generate RESTART file, SPECIAL format, not a .txt file ###
### Useful if simulation crashes ###

restart 1000000 tshaped/restarts2/$f.restart
restart 1000000 tshaped/restarts2/bb333nuc1bl166bn3d30tot500.restart
#############################



### READ "start" data file ###

read_data tshaped/$f.dat
read_data tshaped/bb333nuc1bl166bn3d30tot500.dat
Reading data file ...
  orthogonal box = (-1000 -1000 -1000) to (1000 1000 1000)
  1 by 1 by 1 MPI processor grid
  reading atoms ...
  499 atoms
  scanning bonds ...
  2 = max bonds/atom
  scanning angles ...
  3 = max angles/atom
  reading bonds ...
  498 bonds
  reading angles ...
  498 angles
Finding 1-2 1-3 1-4 neighbors ...
  special bond factors lj:    0        0        0       
  special bond factors coul:  0        0        0       
     3 = max # of 1-2 neighbors
     3 = max # of 1-3 neighbors
     6 = max # of 1-4 neighbors
     9 = max # of special neighbors
  special bonds CPU = 0.001 seconds
  read_data CPU = 0.038 seconds

######################

### READ "REstart" data file ###

######################



###
# Define groups (atom type 1 is group 'all')
###
group all type 1
499 atoms in group all


###
# Dump configs - "simple dumpings"
###

###
# Dump configs + box coords
###

dump   1   all   custom   1000  tshaped/trjs2/$f.lammpstrj  id  x y z  ix iy iz
dump   1   all   custom   1000  tshaped/trjs2/bb333nuc1bl166bn3d30tot500.lammpstrj  id  x y z  ix iy iz
dump_modify   1   format line "%d %.5f %.5f %.5f %d %d %d"

########################################################################


###################################################################
# Stiffness term
#
# E = K * (1+cos(theta)), K>0
#
angle_style   cosine
#change this coefficient to change stiffness (e.g. 1,5,10)
angle_coeff   1 1.0
###################################################################

###################################################################
# Pair interaction between non-bonded atoms
#
#  Lennard-Jones 12-6 potential with cutoff:
#  potential E=4epsilon[ (sigma/r)^12 - (sigma/r)^6]  for r<r_cut
#
#  1.12246 = 2^(1/6) is the minimum of the potential


pair_style      lj/cut 1.12246152962189
#pair_style      lj/cut 3

#
#  pair_modify shift yes adds a constant to the potential such

#  that E(r_cut)=0. Forces remains unchanged.
#

pair_modify     shift yes

#
#  pair_coeff for lj/cut, specify 4:
#    * atom type interacting with
#    * atom type
#    * epsilon (energy units)
#    * sigma (distance units)
#

pair_coeff      1 1 1.0 1.0
###################################################################

###################################################################
# Pair interaction between non-bonded atoms
#
#  soft potential, for PUSHING apart overlapping atoms
#  potential E=A*(1 + cos(pi*r/r_c))
#
#  1.12246 = 2^(1/6) is the cut-off r_c

#pair_style     soft 1.12246152962189

#
#  pair_coeff for soft, specify 3:
#    * atom type interacting with
#    * atom type
#    * A
#
#

#pair_coeff      1 1 100.0
###################################################################

###################################################################
# Pair interaction between bonded atoms
#
# Fene potential + Lennard Jones 12-6:

#
#  E= - 0.5 K R0^2 ln[ 1- (r/R0)^2]
#     + 4epsilon[ (sigma/r)^12 - (sigma/r)^6] + epsilon
#

bond_style   fene


#
# For style fene, specify:
#   * bond type
#   * K (energy/distance^2)
#   * R0 (distance)
#   * epsilon (energy)  (LJ component)
#   * sigma (distance)  (LJ component)
#


special_bonds fene #<=== I M P O R T A N T (new command)
Finding 1-2 1-3 1-4 neighbors ...
  special bond factors lj:    0        1        1       
  special bond factors coul:  0        1        1       
     3 = max # of 1-2 neighbors
     9 = max # of special neighbors
  special bonds CPU = 0.000 seconds

bond_coeff   1   30   2   1.0   1.0


###################################################

###################################################################
# Pair interaction between bonded atoms
#
# Harmonic potential:
#
#  E= K * (R-R0)^2
#

#bond_style   harmonic

#
# For style harmonic, specify:
#   * bond type
#   * K (energy/distance^2)
#   * R0 (distance)
#

#bond_coeff   1   60.0   1.0
#bond_coeff   2   harmonic 0.1   1.0

###################################################
compute 1 all gyration
variable rog equal c_1
#compute 2 all coord/atom cutoff 1.1

#dump 2 all custom 10000 contact_number.dump id c_2


###
# Set up fixes
###
thermo_style   custom   step  temp enthalpy c_1
fix 1 all nve   ###NVE ensemble

fix 2 all   langevin   1.0 1.0 1.0  778655   ###Langevin integrator Tstart Tstop 1/friction rndseed


##### Sample thermodynamic info  (temperature, energy, pressure, etc.) #####
thermo 1000









############################################################################

###
# set timestep of integrator

timestep 0.01

###
# run integration for a number of steps
###
#run 0
#variable r equal c_1
#if "$r < 63.1" then "quit 1"

# lj potential minimum, cause molecule to explore
run 100000
Generated 0 of 0 mixed pair_coeff terms from geometric mixing rule
Last active /omp style is angle_style cosine/omp
Neighbor list info ...
  update: every = 1 steps, delay = 1 steps, check = yes
  max neighbors/atom: 2000, page size: 100000
  master list distance cutoff = 5.1224615
  ghost atom cutoff = 5.1224615
  binsize = 2.5612308, bins = 781 781 781
  1 neighbor lists, perpetual/occasional/extra = 1 0 0
  (1) pair lj/cut/omp, perpetual
      attributes: half, newton on, omp
      pair build: half/bin/newton/omp
      stencil: half/bin/3d
      bin: standard
WARNING: Communication cutoff 5.12246152962189 is shorter than a bond length based estimate of 5.455. This may lead to errors. (src/comm.cpp:723)
Per MPI rank memory allocation (min/avg/max) = 1860 | 1860 | 1860 Mbytes
   Step          Temp         Enthalpy         c_1      
         0   0              13.39584       82.507509    
      1000   1.0204301      18.511336      82.354396    
      2000   1.0392798      19.453084      81.612995    
      3000   1.025219       18.867934      81.312821    
      4000   0.99698992     18.676854      80.826961    
      5000   1.0242417      19.923683      80.61499     
      6000   0.98635512     19.158103      80.046418    
      7000   0.97641737     19.169257      79.626696    
      8000   0.96502239     18.629849      79.224222    
      9000   1.0409517      19.028028      78.674442    
     10000   1.0752302      19.558112      78.268267    
     11000   0.99911034     19.625919      77.941071    
     12000   0.9725398      18.87676       77.764915    
     13000   0.99943099     19.533229      77.299771    
     14000   1.0134065      19.873321      77.070788    
     15000   1.0146413      19.110105      76.792369    
     16000   1.0011006      19.401394      76.050466    
     17000   0.9580753      19.79062       75.641807    
     18000   1.0347309      19.976448      74.98989     
     19000   1.0403951      20.509484      74.565439    
     20000   0.99277261     19.49868       74.036479    
     21000   0.94483907     19.759793      73.52827     
     22000   1.0186557      18.844732      73.388493    
     23000   0.97311309     20.284849      73.333483    
     24000   1.059251       19.954373      73.024025    
     25000   0.97708327     19.328171      72.571779    
     26000   1.0340016      20.041815      72.321188    
     27000   0.99154852     20.445462      71.964223    
     28000   1.04589        20.690999      71.375813    
     29000   0.97310262     19.954094      71.115151    
     30000   0.97713404     19.830205      70.855465    
     31000   0.97564568     19.619749      70.494312    
     32000   0.97359559     20.080095      70.23439     
     33000   1.0416927      20.222034      69.829875    
     34000   1.0077194      20.311994      69.689404    
     35000   1.0626002      19.764401      69.265752    
     36000   0.99260494     20.360654      68.858654    
     37000   1.0111201      19.8949        68.600099    
     38000   0.97129313     20.053074      68.279415    
     39000   0.9487457      19.448755      68.101337    
     40000   1.0382494      19.692698      67.873104    
     41000   1.0155094      19.90718       67.680101    
     42000   0.9465879      19.626057      67.5161      
     43000   1.0143817      20.29356       67.441006    
     44000   0.9720313      19.897808      66.98855     
     45000   0.97032253     19.858929      66.911764    
     46000   1.0020735      19.559165      66.59467     
     47000   0.94581604     19.402371      66.535566    
     48000   1.0701213      19.735009      66.230655    
     49000   0.96200044     19.969461      65.966619    
     50000   1.0202802      20.121662      65.706329    
     51000   1.017957       20.323594      65.534184    
     52000   0.90307998     20.372337      65.303782    
     53000   1.0109299      20.141964      65.186028    
     54000   0.92174825     20.009265      65.245608    
     55000   1.0319518      20.255758      65.305965    
     56000   0.9927592      20.205811      65.305804    
     57000   1.0104687      20.035962      65.052296    
     58000   0.95441694     19.761835      64.648188    
     59000   1.0085489      19.985511      64.50084     
     60000   0.96384833     19.668428      64.332371    
     61000   0.96705424     20.482925      64.126827    
     62000   1.0101054      20.076756      63.542171    
     63000   1.0163956      19.704115      63.332916    
     64000   1.0531869      20.096076      63.333019    
     65000   0.97290457     19.889084      63.210114    
     66000   1.0002327      20.085144      63.022091    
     67000   0.99600561     20.696905      63.003634    
     68000   0.98530531     20.080062      63.127097    
     69000   0.97413567     20.169091      63.23621     
     70000   0.97510723     19.68407       63.238953    
     71000   0.9957275      20.988839      62.989308    
     72000   1.0284249      20.11436       62.851207    
     73000   0.98374295     20.113301      62.733218    
     74000   1.0150687      20.053099      62.787152    
     75000   0.99456281     20.857462      62.665612    
     76000   0.98936307     20.183493      62.06297     
     77000   0.97840319     21.177768      61.815836    
     78000   1.0386759      20.209808      61.634403    
     79000   1.0238912      20.289453      61.543413    
     80000   0.97155168     19.627106      61.442407    
     81000   0.9810066      19.999251      61.306545    
     82000   0.96334219     19.789166      61.086146    
     83000   0.97644516     20.320872      60.955379    
     84000   0.94683316     20.598314      60.601456    
     85000   0.96082222     20.915033      60.23557     
     86000   0.9948904      20.551346      60.049453    
     87000   0.94781459     20.286637      59.975585    
     88000   0.96221776     20.440127      59.712787    
     89000   1.005168       20.926694      59.682099    
     90000   1.037356       20.204473      59.374945    
     91000   0.97104333     20.551618      58.842478    
     92000   1.0271534      20.653865      58.381825    
     93000   1.0446818      20.264653      58.442855    
     94000   1.0450399      20.790911      58.220047    
     95000   0.97617016     20.338517      57.958304    
     96000   1.0448219      20.01908       57.488269    
     97000   1.0325785      20.988837      57.563656    
     98000   0.97957006     20.260352      57.370231    
     99000   1.0105616      20.51849       57.179094    
    100000   1.0485309      20.081509      57.225752    
Loop time of 337.217 on 2 procs for 100000 steps with 499 atoms

Performance: 256215.134 tau/day, 296.545 timesteps/s
101.6% CPU use with 1 MPI tasks x 2 OpenMP threads

MPI task timing breakdown:
Section |  min time  |  avg time  |  max time  |%varavg| %total
---------------------------------------------------------------
Pair    | 0.5153     | 0.5153     | 0.5153     |   0.0 |  0.15
Bond    | 1.02       | 1.02       | 1.02       |   0.0 |  0.30
Neigh   | 333.18     | 333.18     | 333.18     |   0.0 | 98.80
Comm    | 0.019541   | 0.019541   | 0.019541   |   0.0 |  0.01
Output  | 0.16706    | 0.16706    | 0.16706    |   0.0 |  0.05
Modify  | 2.1538     | 2.1538     | 2.1538     |   0.0 |  0.64
Other   |            | 0.1595     |            |       |  0.05

Nlocal:            499 ave         499 max         499 min
Histogram: 1 0 0 0 0 0 0 0 0 0
Nghost:              0 ave           0 max           0 min
Histogram: 1 0 0 0 0 0 0 0 0 0
Neighs:           3120 ave        3120 max        3120 min
Histogram: 1 0 0 0 0 0 0 0 0 0

Total # of neighbors = 3120
Ave neighs/atom = 6.252505
Ave special neighs/atom = 1.995992
Neighbor list builds = 1064
Dangerous builds = 0

# Replace lj potential, now collapse
pair_style      lj/cut 3

# Cutoff simul when gyration under 5
# Variable created with equal requires v_ + 'name'
fix 3 all halt 1000 v_rog < 7

run 5000000
Generated 0 of 0 mixed pair_coeff terms from geometric mixing rule
Last active /omp style is angle_style cosine/omp
Per MPI rank memory allocation (min/avg/max) = 1860 | 1860 | 1860 Mbytes
   Step          Temp         Enthalpy         c_1      
    100000   1.0485309      19.387356      57.225752    
    101000   1.0050465      20.133693      56.91052     
    102000   0.97731462     19.804586      56.663727    
    103000   0.95181749     19.180678      56.461304    
    104000   1.0060346      19.83798       56.084494    
    105000   1.0600575      20.363494      56.150733    
    106000   0.99229808     19.709207      56.032903    
    107000   0.95304061     18.921534      55.883391    
    108000   0.99273982     19.434668      55.677215    
    109000   0.99858094     19.535841      55.482398    
    110000   1.0465855      19.466814      55.466844    
    111000   0.96429637     19.626214      55.059888    
    112000   1.029218       19.876666      54.642341    
    113000   1.0485783      19.792307      54.435973    
    114000   0.93582169     19.608678      54.581805    
    115000   0.93825288     19.112312      54.241961    
    116000   0.97405814     19.354419      53.970103    
    117000   1.0111795      19.743547      53.844077    
    118000   1.0357952      19.818063      53.238697    
    119000   1.0396507      19.489731      53.228007    
    120000   0.96411418     19.47425       53.120029    
    121000   1.0119071      19.08621       52.678128    
    122000   1.0400568      19.911415      52.31398     
    123000   1.0125182      19.007236      52.549552    
    124000   0.97057266     19.303455      51.830365    
    125000   0.98516825     19.223431      51.476436    
    126000   1.0192625      19.444661      51.079909    
    127000   1.0148764      19.156044      50.84641     
    128000   0.93538207     18.913146      50.732208    
    129000   1.0351331      19.406835      50.745467    
    130000   0.99099695     19.147128      50.650128    
    131000   0.97467592     19.764122      50.400365    
    132000   1.0320264      19.669164      50.370391    
    133000   0.98175665     18.512749      50.05665     
    134000   0.97398924     19.924743      49.832001    
    135000   0.94239665     18.939334      49.632924    
    136000   0.96482429     19.295319      49.57046     
    137000   1.014331       18.358479      49.5808      
    138000   1.0267345      18.895822      49.350906    
    139000   1.0210801      18.75933       48.991583    
    140000   1.0484361      19.184529      48.90399     
    141000   0.98992611     18.776962      48.447725    
    142000   0.99259926     18.72837       48.077905    
    143000   0.99273381     18.72883       47.995975    
    144000   0.97318804     19.652353      47.798481    
    145000   0.988199       18.968271      47.502441    
    146000   1.0244218      19.130202      47.343909    
    147000   1.0485668      18.942459      47.165364    
    148000   0.97400676     18.83104       47.160263    
    149000   0.94117364     17.61276       47.105203    
    150000   0.98798724     18.943833      46.460814    
    151000   1.0108547      18.902091      46.127588    
    152000   1.0171832      18.33514       45.796379    
    153000   1.0550771      19.081671      45.63645     
    154000   0.97656239     18.67114       45.083319    
    155000   0.95775139     19.026513      44.711706    
    156000   1.0823547      18.559168      44.891867    
    157000   0.99419634     18.079211      44.597153    
    158000   0.93071697     18.83687       44.572032    
    159000   1.0183825      18.938078      44.329524    
    160000   1.0759615      19.147581      44.468396    
    161000   0.93026176     18.933945      44.337483    
    162000   1.0546837      18.224671      44.459775    
    163000   0.99736922     18.709265      44.198293    
    164000   0.96409573     18.494554      43.704864    
    165000   1.0010022      18.778834      43.545932    
    166000   1.0279682      19.608674      43.202465    
    167000   0.98491744     19.197411      42.63123     
    168000   0.98250837     19.141838      42.676754    
    169000   1.0349473      19.047881      42.560011    
    170000   0.9964066      18.680885      42.475983    
    171000   0.95858654     18.727039      42.23174     
    172000   0.97325492     18.800258      41.928382    
    173000   0.97982074     18.254246      41.694015    
    174000   0.99593027     18.464923      41.465032    
    175000   1.0677149      19.124421      41.255257    
    176000   1.0462625      18.159817      41.255518    
    177000   1.0098755      18.219338      40.850937    
    178000   0.98119465     19.413231      40.645737    
    179000   0.99221061     18.795063      40.327088    
    180000   0.99514955     18.823964      40.123958    
    181000   0.93457418     18.519534      40.054624    
    182000   1.0153278      19.181567      39.674317    
    183000   1.0136006      19.449378      39.515252    
    184000   0.97668306     17.852356      39.443789    
    185000   0.98911454     18.566293      39.251141    
    186000   0.97908034     18.787813      39.149631    
    187000   1.0463167      18.865171      39.170871    
    188000   1.0345076      18.843298      38.847334    
    189000   1.0259906      18.495878      38.343404    
    190000   1.0538026      19.298711      38.0058      
    191000   1.017103       19.318006      37.918741    
    192000   1.03109        18.592489      37.805736    
    193000   0.95161111     18.251844      37.954041    
    194000   0.93238585     18.750575      37.762734    
    195000   1.0324005      18.816487      37.604225    
    196000   0.92531917     18.662335      37.103506    
    197000   1.0359673      17.925607      37.021679    
    198000   0.98060882     18.063764      36.897926    
    199000   0.94848918     17.690274      36.831879    
    200000   0.99839978     18.47131       36.696483    
    201000   1.0149658      18.860094      36.622336    
    202000   1.0461627      18.193867      36.522362    
    203000   0.97910346     18.556885      36.218331    
    204000   0.99402585     19.00064       35.866408    
    205000   0.98788581     19.602691      35.92079     
    206000   1.0165436      18.56482       35.580632    
    207000   1.026393       17.887827      35.451585    
    208000   0.9970982      18.36184       34.929229    
    209000   1.0207458      18.141143      34.900872    
    210000   1.0141765      19.097318      34.533983    
    211000   1.0240258      18.818643      34.479975    
    212000   1.0036063      19.022809      34.336756    
    213000   1.0144161      18.570666      34.104724    
    214000   0.96377413     18.276248      33.930148    
    215000   0.96501005     18.022095      33.665363    
    216000   1.0659983      18.877473      33.706529    
    217000   1.0385518      18.28364       33.609343    
    218000   1.0135519      18.562357      33.622367    
    219000   1.0647464      18.57839       33.562231    
    220000   0.95169794     19.384632      33.288617    
    221000   1.0552997      17.426416      33.383323    
    222000   1.0099747      17.610124      33.066219    
    223000   1.0322378      18.179702      32.989689    
    224000   1.0374199      18.764869      32.628681    
    225000   1.0159714      18.791646      32.065808    
    226000   1.0061817      18.460364      32.069225    
    227000   1.0144621      18.930456      31.762596    
    228000   0.99539494     18.292552      31.705294    
    229000   1.0207678      17.03952       31.568602    
    230000   1.0014843      18.561208      31.438705    
    231000   1.0459063      18.318804      31.345529    
    232000   1.0056194      18.678159      31.241942    
    233000   1.0327636      18.240448      30.75514     
    234000   0.99801779     18.09138       30.687582    
    235000   0.99398134     18.93398       30.72625     
    236000   1.0216961      18.152612      30.309107    
    237000   0.97127985     17.730818      29.868514    
    238000   0.95887604     18.569509      29.694175    
    239000   1.0415751      18.256996      29.277838    
    240000   0.99378568     18.486743      29.140477    
    241000   1.0340559      18.215757      29.119995    
    242000   0.97238716     18.584871      28.797568    
    243000   0.97938731     17.812806      28.678914    
    244000   0.99681855     19.234405      28.788931    
    245000   1.0499094      18.158629      28.310879    
    246000   0.96081168     17.646603      28.23701     
    247000   1.0144887      18.677644      28.183844    
    248000   0.997152       17.774452      27.936129    
    249000   0.99748526     18.408174      27.767454    
    250000   0.99342313     18.672573      27.284573    
    251000   0.98588104     18.214789      27.163244    
    252000   1.0385137      18.622901      27.007444    
    253000   1.0358832      18.699304      26.427516    
    254000   0.97445252     18.75027       26.332948    
    255000   0.90762867     18.04488       26.465694    
    256000   0.99215127     18.229459      26.426155    
    257000   0.98593275     18.86018       26.406791    
    258000   1.0012815      17.672823      26.437511    
    259000   1.0291362      18.280047      26.185403    
    260000   1.0854483      18.140912      25.949404    
    261000   0.99605263     17.571042      25.455834    
    262000   0.99239212     16.930829      25.114135    
    263000   1.0711642      18.272684      24.68293     
    264000   0.93217229     18.592345      24.214984    
    265000   1.0039726      17.938595      24.389023    
    266000   0.97226019     17.679449      24.119637    
    267000   0.9616735      18.313307      23.885223    
    268000   1.0244573      18.258311      23.715826    
    269000   0.96055235     17.445114      23.617734    
    270000   1.0243011      17.933932      23.36428     
    271000   1.0443991      17.918888      23.197514    
    272000   1.0318982      17.623239      23.332108    
    273000   0.9942632      18.390807      23.343086    
    274000   0.96233936     17.685011      23.0855      
    275000   0.93923275     17.353752      22.639476    
    276000   1.0125584      18.573355      22.798562    
    277000   0.98158714     17.622193      22.369132    
    278000   1.031545       18.06151       22.027715    
    279000   0.93175684     17.985378      22.244602    
    280000   1.0483816      18.788784      22.240251    
    281000   0.95172467     17.66131       22.077939    
    282000   1.014071       18.349323      21.733721    
    283000   0.97525867     17.906857      21.627785    
    284000   0.98436817     18.150752      21.507765    
    285000   1.0595599      17.952034      21.524228    
    286000   0.95403342     18.177032      21.021919    
    287000   1.0223378      17.501626      20.903949    
    288000   0.97480095     17.989167      20.637533    
    289000   0.97826919     17.544035      20.443109    
    290000   1.0502381      18.439555      20.292746    
    291000   0.98618412     18.259654      20.123165    
    292000   0.96220349     17.417319      20.237786    
    293000   1.046467       19.063112      19.803781    
    294000   0.99549603     18.347624      19.18489     
    295000   1.0260049      17.449348      19.011857    
    296000   0.98790523     17.420049      18.936749    
    297000   0.97651458     17.7317        18.474349    
    298000   0.97488243     17.838543      18.07499     
    299000   1.0784567      18.290886      18.227737    
    300000   1.03527        18.290052      17.906299    
    301000   0.94090636     17.323624      17.688472    
    302000   1.0807448      18.28978       17.444375    
    303000   1.0220236      17.589994      17.343289    
    304000   1.0127108      18.244322      17.547374    
    305000   1.0119082      17.26243       17.289807    
    306000   1.0050846      18.006691      17.20466     
    307000   1.0146799      17.967941      17.203457    
    308000   0.96073394     17.267164      17.28528     
    309000   0.96361568     17.523644      17.014968    
    310000   1.0424911      19.172561      16.635001    
    311000   1.0118187      17.51447       16.327389    
    312000   1.0070251      17.526245      16.072465    
    313000   1.0069674      18.148578      16.016728    
    314000   0.98177625     16.994172      15.926908    
    315000   1.0344393      16.959891      15.762202    
    316000   0.97067317     19.42865       15.842878    
    317000   1.0609236      17.166431      15.583417    
    318000   1.0172462      17.797705      15.463131    
    319000   1.0639988      17.922128      15.160253    
    320000   1.0235292      17.121117      14.98293     
    321000   0.95388111     17.656207      14.589755    
    322000   0.94091344     17.402536      14.208741    
    323000   0.97772292     17.464052      14.070445    
    324000   1.0308544      17.343735      13.744928    
    325000   0.98443015     16.438101      13.718804    
    326000   1.0714558      17.112992      13.559426    
    327000   0.95903297     18.068119      13.346031    
    328000   1.02355        17.741228      13.117955    
    329000   0.98601714     16.204365      13.333764    
    330000   0.99859954     17.610031      13.011957    
    331000   0.94930537     17.523216      12.964735    
    332000   0.98538028     16.989127      12.804238    
    333000   1.0312898      17.286094      12.698042    
    334000   0.9661072      17.86427       13.004518    
    335000   0.98412649     17.38395       12.900464    
    336000   1.0249084      17.812339      12.636035    
    337000   0.9725374      17.472151      12.429475    
    338000   0.98784037     17.542836      12.495222    
    339000   0.98557147     16.936721      12.113873    
    340000   0.96977836     17.692239      11.848351    
    341000   1.0357815      17.631072      11.540613    
    342000   1.0179563      17.170407      10.972031    
    343000   0.99048163     17.976658      10.58224     
    344000   0.97085256     17.466944      10.534264    
    345000   0.95585045     16.565983      10.080778    
    346000   0.95250197     17.059105      10.044916    
    347000   1.0077092      17.329803      10.041013    
    348000   1.0005628      16.775207      9.8001666    
    349000   1.0037168      16.669121      9.7610257    
    350000   0.97416271     17.413095      9.6871441    
    351000   1.0041349      17.326226      9.4543781    
    352000   1.0072483      17.728686      9.1587758    
    353000   1.0417326      17.101694      8.7934805    
    354000   1.0953008      17.093101      8.5481477    
    355000   1.008361       17.979048      8.6607585    
    356000   0.99962605     17.814786      8.4077323    
    357000   0.98138028     17.349307      8.1675264    
    358000   0.98242148     17.832958      8.1928667    
    359000   0.95290086     17.22524       8.1564091    
    360000   0.97703102     17.966418      8.1330767    
    361000   0.9833655      17.427556      7.9884414    
    362000   1.0092424      16.892733      7.9563223    
    363000   0.94835027     16.925366      7.8240449    
    364000   1.0750021      17.717988      7.7278201    
    365000   0.95590091     17.019173      7.7139336    
    366000   0.99090913     17.031866      7.607934     
    367000   1.0077952      17.22609       7.4408234    
    368000   1.014571       17.838339      7.122458     
    369000   1.0407548      18.009491      7.0026525    
    370000   0.99103172     17.026366      7.0610046    
    371000   1.0118738      16.641877      7.0147191    
Fix halt condition for fix-id 3 met on step 372000 with value 6.887538509640522 (src/fix_halt.cpp:237)
    372000   1.0105861      17.11688       6.8875385    
Loop time of 324.271 on 2 procs for 272000 steps with 499 atoms

Performance: 724726.763 tau/day, 838.804 timesteps/s
110.8% CPU use with 1 MPI tasks x 2 OpenMP threads

MPI task timing breakdown:
Section |  min time  |  avg time  |  max time  |%varavg| %total
---------------------------------------------------------------
Pair    | 22.279     | 22.279     | 22.279     |   0.0 |  6.87
Bond    | 2.8547     | 2.8547     | 2.8547     |   0.0 |  0.88
Neigh   | 292.18     | 292.18     | 292.18     |   0.0 | 90.10
Comm    | 0.057017   | 0.057017   | 0.057017   |   0.0 |  0.02
Output  | 0.42762    | 0.42762    | 0.42762    |   0.0 |  0.13
Modify  | 6.0141     | 6.0141     | 6.0141     |   0.0 |  1.85
Other   |            | 0.4599     |            |       |  0.14

Nlocal:            499 ave         499 max         499 min
Histogram: 1 0 0 0 0 0 0 0 0 0
Nghost:              0 ave           0 max           0 min
Histogram: 1 0 0 0 0 0 0 0 0 0
Neighs:          65563 ave       65563 max       65563 min
Histogram: 1 0 0 0 0 0 0 0 0 0

Total # of neighbors = 65563
Ave neighs/atom = 131.38878
Ave special neighs/atom = 1.995992
Neighbor list builds = 2397
Dangerous builds = 0

# This simulation is done
# Move onto the next one
clear
  using 2 OpenMP thread(s) per MPI task
package omp 0
using multi-threaded neighbor list subroutines
next f
jump SELF

###
# Reference paper:
# K. Kremer and G. S. Grest
# Dynamics of entangled linear polymer melts: A molecular-dynamics simulation
# J Chem Phys 92, 5057 (1990)

##################################
# MIHIR: for branched polymers
# LJ minimum first to expand and explore, then collapse
###

###
# Looping through the various tshaped polymers to simulate,
# define variables to switch through
#variable f index bb66nuc1bl33bn3d30tot100 bb133nuc1bl66bn3d30tot200 bb200nuc1bl100bn3d30tot300 bb266nuc1bl133bn3d30tot400 bb333nuc1bl166bn3d30tot500 bb400nuc1bl200bn3d30tot600 bb466nuc1bl233bn3d30tot700 bb533nuc1bl266bn3d30tot800 bb600nuc1bl300bn3d30tot900 bb666nuc1bl333bn3d30tot1000 bb733nuc1bl366bn3d30tot1100 bb800nuc1bl400bn3d30tot1200
variable f index bb333nuc1bl166bn3d30tot500 bb400nuc1bl200bn3d30tot600 bb466nuc1bl233bn3d30tot700 bb533nuc1bl266bn3d30tot800 bb600nuc1bl300bn3d30tot900 bb666nuc1bl333bn3d30tot1000 bb733nuc1bl366bn3d30tot1100 bb800nuc1bl400bn3d30tot1200
###


###
# Box and units  (use LJ units and periodic boundaries)
###

units lj
log tshaped/logs2/$f.log
log tshaped/logs2/bb400nuc1bl200bn3d30tot600.log
