#atom_style bond #no stiffness
atom_style angle #with stiffness

boundary        p p p
###
# Pair interactions require lists of neighbours to be calculated
###

#neighbor 0.3 bin
neighbor 4 bin

neigh_modify every 1 delay 1 check yes
atom_modify sort 0 0
### Generate RESTART file, SPECIAL format, not a .txt file ###
### Useful if simulation crashes ###

restart 1000000 tshaped/restarts2/$f.restart
restart 1000000 tshaped/restarts2/bb466nuc1bl233bn3d30tot700.restart
#############################



### READ "start" data file ###

read_data tshaped/$f.dat
read_data tshaped/bb466nuc1bl233bn3d30tot700.dat
Reading data file ...
  orthogonal box = (-1000 -1000 -1000) to (1000 1000 1000)
  1 by 1 by 1 MPI processor grid
  reading atoms ...
  700 atoms
  scanning bonds ...
  2 = max bonds/atom
  scanning angles ...
  3 = max angles/atom
  reading bonds ...
  699 bonds
  reading angles ...
  699 angles
Finding 1-2 1-3 1-4 neighbors ...
  special bond factors lj:    0        0        0       
  special bond factors coul:  0        0        0       
     3 = max # of 1-2 neighbors
     3 = max # of 1-3 neighbors
     6 = max # of 1-4 neighbors
     9 = max # of special neighbors
  special bonds CPU = 0.000 seconds
  read_data CPU = 0.042 seconds

######################

### READ "REstart" data file ###

######################



###
# Define groups (atom type 1 is group 'all')
###
group all type 1
700 atoms in group all


###
# Dump configs - "simple dumpings"
###

###
# Dump configs + box coords
###

dump   1   all   custom   1000  tshaped/trjs2/$f.lammpstrj  id  x y z  ix iy iz
dump   1   all   custom   1000  tshaped/trjs2/bb466nuc1bl233bn3d30tot700.lammpstrj  id  x y z  ix iy iz
dump_modify   1   format line "%d %.5f %.5f %.5f %d %d %d"

########################################################################


###################################################################
# Stiffness term
#
# E = K * (1+cos(theta)), K>0
#
angle_style   cosine
#change this coefficient to change stiffness (e.g. 1,5,10)
angle_coeff   1 1.0
###################################################################

###################################################################
# Pair interaction between non-bonded atoms
#
#  Lennard-Jones 12-6 potential with cutoff:
#  potential E=4epsilon[ (sigma/r)^12 - (sigma/r)^6]  for r<r_cut
#
#  1.12246 = 2^(1/6) is the minimum of the potential


pair_style      lj/cut 1.12246152962189
#pair_style      lj/cut 3

#
#  pair_modify shift yes adds a constant to the potential such

#  that E(r_cut)=0. Forces remains unchanged.
#

pair_modify     shift yes

#
#  pair_coeff for lj/cut, specify 4:
#    * atom type interacting with
#    * atom type
#    * epsilon (energy units)
#    * sigma (distance units)
#

pair_coeff      1 1 1.0 1.0
###################################################################

###################################################################
# Pair interaction between non-bonded atoms
#
#  soft potential, for PUSHING apart overlapping atoms
#  potential E=A*(1 + cos(pi*r/r_c))
#
#  1.12246 = 2^(1/6) is the cut-off r_c

#pair_style     soft 1.12246152962189

#
#  pair_coeff for soft, specify 3:
#    * atom type interacting with
#    * atom type
#    * A
#
#

#pair_coeff      1 1 100.0
###################################################################

###################################################################
# Pair interaction between bonded atoms
#
# Fene potential + Lennard Jones 12-6:

#
#  E= - 0.5 K R0^2 ln[ 1- (r/R0)^2]
#     + 4epsilon[ (sigma/r)^12 - (sigma/r)^6] + epsilon
#

bond_style   fene


#
# For style fene, specify:
#   * bond type
#   * K (energy/distance^2)
#   * R0 (distance)
#   * epsilon (energy)  (LJ component)
#   * sigma (distance)  (LJ component)
#


special_bonds fene #<=== I M P O R T A N T (new command)
Finding 1-2 1-3 1-4 neighbors ...
  special bond factors lj:    0        1        1       
  special bond factors coul:  0        1        1       
     3 = max # of 1-2 neighbors
     9 = max # of special neighbors
  special bonds CPU = 0.000 seconds

bond_coeff   1   30   2   1.0   1.0


###################################################

###################################################################
# Pair interaction between bonded atoms
#
# Harmonic potential:
#
#  E= K * (R-R0)^2
#

#bond_style   harmonic

#
# For style harmonic, specify:
#   * bond type
#   * K (energy/distance^2)
#   * R0 (distance)
#

#bond_coeff   1   60.0   1.0
#bond_coeff   2   harmonic 0.1   1.0

###################################################
compute 1 all gyration
variable rog equal c_1
#compute 2 all coord/atom cutoff 1.1

#dump 2 all custom 10000 contact_number.dump id c_2


###
# Set up fixes
###
thermo_style   custom   step  temp enthalpy c_1
fix 1 all nve   ###NVE ensemble

fix 2 all   langevin   1.0 1.0 1.0  778655   ###Langevin integrator Tstart Tstop 1/friction rndseed


##### Sample thermodynamic info  (temperature, energy, pressure, etc.) #####
thermo 1000









############################################################################

###
# set timestep of integrator

timestep 0.01

###
# run integration for a number of steps
###
#run 0
#variable r equal c_1
#if "$r < 63.1" then "quit 1"

# lj potential minimum, cause molecule to explore
run 100000
Generated 0 of 0 mixed pair_coeff terms from geometric mixing rule
Last active /omp style is angle_style cosine/omp
Neighbor list info ...
  update: every = 1 steps, delay = 1 steps, check = yes
  max neighbors/atom: 2000, page size: 100000
  master list distance cutoff = 5.1224615
  ghost atom cutoff = 5.1224615
  binsize = 2.5612308, bins = 781 781 781
  1 neighbor lists, perpetual/occasional/extra = 1 0 0
  (1) pair lj/cut/omp, perpetual
      attributes: half, newton on, omp
      pair build: half/bin/newton/omp
      stencil: half/bin/3d
      bin: standard
WARNING: Communication cutoff 5.12246152962189 is shorter than a bond length based estimate of 5.455. This may lead to errors. (src/comm.cpp:723)
Per MPI rank memory allocation (min/avg/max) = 1860 | 1860 | 1860 Mbytes
   Step          Temp         Enthalpy         c_1      
         0   0              13.403887      115.69713    
      1000   1.0043412      19.254405      115.49984    
      2000   1.0195902      18.398655      115.23925    
      3000   1.0115359      19.049727      114.80839    
      4000   1.0060371      18.972202      114.04316    
      5000   1.0275298      19.166766      113.5039     
      6000   0.98171996     19.448282      113.09462    
      7000   0.97544889     18.891432      112.99935    
      8000   1.0252159      19.518357      112.70632    
      9000   0.99843872     19.243123      112.40663    
     10000   1.0029469      19.357189      112.18244    
     11000   1.0426187      19.311597      111.80826    
     12000   0.95580664     19.59283       111.55986    
     13000   1.0223432      19.54751       110.94592    
     14000   1.0036387      19.758045      110.26642    
     15000   1.0356338      19.671784      109.95399    
     16000   0.99435833     19.469124      109.75268    
     17000   1.0747927      19.446722      109.32237    
     18000   0.99808666     19.42905       108.80989    
     19000   0.94556888     19.660871      108.7364     
     20000   1.0369473      19.610691      108.35868    
     21000   1.0090531      19.583949      107.89411    
     22000   1.0125024      19.592961      107.85118    
     23000   1.0340124      19.844351      107.32611    
     24000   0.99181486     19.227004      107.12219    
     25000   0.96762419     19.489887      106.91251    
     26000   0.99450768     19.437306      106.79127    
     27000   1.0325279      19.508636      106.4344     
     28000   1.0235151      20.34412       106.28405    
     29000   1.0813244      19.971909      105.82544    
     30000   0.95079861     19.195154      105.69445    
     31000   0.98088722     19.877602      105.22841    
     32000   0.99725932     19.181069      104.72885    
     33000   0.96923552     19.581469      104.40413    
     34000   1.0175911      20.304471      104.27552    
     35000   1.0219554      19.025512      103.64454    
     36000   1.0103402      19.785816      103.37532    
     37000   1.0466166      19.524094      103.27282    
     38000   0.94082399     19.163234      103.15393    
     39000   1.0080845      19.46431       103.14128    
     40000   1.0378767      19.831245      102.89499    
     41000   0.98663613     19.586606      102.9199     
     42000   1.0187788      19.480293      102.77929    
     43000   1.0116012      19.668182      102.42778    
     44000   1.0035459      20.155017      102.16168    
     45000   0.98847901     20.04477       101.84664    
     46000   0.99311186     19.337359      101.6683     
     47000   1.0575743      20.069279      101.59128    
     48000   0.99095251     20.466908      101.17006    
     49000   1.012764       19.989891      101.1757     
     50000   0.99895051     19.748539      101.1061     
     51000   0.98090614     19.593802      100.88372    
     52000   1.0165497      20.193588      100.81406    
     53000   1.0285471      20.245627      100.47513    
     54000   0.96626851     19.635748      100.36391    
     55000   0.93584242     19.724775      100.174      
     56000   1.00577        20.026433      99.633431    
     57000   0.98008314     19.965877      99.49109     
     58000   1.0711084      19.552137      99.298404    
     59000   1.0413619      19.601736      98.898571    
     60000   1.0251016      20.612544      99.086895    
     61000   0.98371626     20.090824      98.937783    
     62000   0.99649875     19.987278      98.732777    
     63000   0.99959042     20.431789      98.583736    
     64000   0.99300072     20.28789       98.554596    
     65000   1.0148167      20.069946      98.535225    
     66000   1.0351341      20.252852      98.24661     
     67000   0.9928341      20.082671      98.033287    
     68000   0.99360581     20.097329      97.976559    
     69000   0.97476546     19.915047      97.893641    
     70000   0.98870617     19.877603      97.918389    
     71000   1.0260035      20.083213      97.919368    
     72000   0.97157619     19.713301      97.808208    
     73000   0.99627643     19.445495      97.524052    
     74000   1.0186251      19.327956      97.477511    
     75000   1.0269879      20.851659      97.403592    
     76000   0.97312482     20.118206      96.976058    
     77000   1.0167494      20.403986      96.872446    
     78000   0.98934601     20.52151       96.884817    
     79000   1.0428239      20.200103      96.444737    
     80000   0.9948975      20.086463      96.332564    
     81000   1.008476       20.11887       96.215508    
     82000   1.03887        20.164404      95.801467    
     83000   0.9481827      19.410183      95.82048     
     84000   1.0210574      20.34102       95.568855    
     85000   0.97264153     20.176799      95.381916    
     86000   1.0074884      20.396555      95.087568    
     87000   0.92113791     20.113281      95.083305    
     88000   1.0284634      20.228391      95.017517    
     89000   0.95412015     19.961626      94.870241    
     90000   0.98886322     20.202738      94.91198     
     91000   0.97906153     19.720269      94.948024    
     92000   0.9723493      20.429404      95.159769    
     93000   1.0091693      20.100752      94.903761    
     94000   0.96399349     18.92999       94.748289    
     95000   1.0130075      20.000233      94.453732    
     96000   1.0556206      20.302035      94.246194    
     97000   0.96374814     19.601417      94.304297    
     98000   1.0297293      20.054355      94.218746    
     99000   1.0576216      20.481589      94.18789     
    100000   1.029055       20.610626      94.104071    
Loop time of 374.277 on 2 procs for 100000 steps with 700 atoms

Performance: 230845.145 tau/day, 267.182 timesteps/s
101.9% CPU use with 1 MPI tasks x 2 OpenMP threads

MPI task timing breakdown:
Section |  min time  |  avg time  |  max time  |%varavg| %total
---------------------------------------------------------------
Pair    | 0.6917     | 0.6917     | 0.6917     |   0.0 |  0.18
Bond    | 1.4236     | 1.4236     | 1.4236     |   0.0 |  0.38
Neigh   | 368.65     | 368.65     | 368.65     |   0.0 | 98.50
Comm    | 0.024909   | 0.024909   | 0.024909   |   0.0 |  0.01
Output  | 0.19124    | 0.19124    | 0.19124    |   0.0 |  0.05
Modify  | 3.0567     | 3.0567     | 3.0567     |   0.0 |  0.82
Other   |            | 0.2361     |            |       |  0.06

Nlocal:            700 ave         700 max         700 min
Histogram: 1 0 0 0 0 0 0 0 0 0
Nghost:              0 ave           0 max           0 min
Histogram: 1 0 0 0 0 0 0 0 0 0
Neighs:           3949 ave        3949 max        3949 min
Histogram: 1 0 0 0 0 0 0 0 0 0

Total # of neighbors = 3949
Ave neighs/atom = 5.6414286
Ave special neighs/atom = 1.9971429
Neighbor list builds = 1074
Dangerous builds = 0

# Replace lj potential, now collapse
pair_style      lj/cut 3

# Cutoff simul when gyration under 5
# Variable created with equal requires v_ + 'name'
fix 3 all halt 1000 v_rog < 7

run 5000000
Generated 0 of 0 mixed pair_coeff terms from geometric mixing rule
Last active /omp style is angle_style cosine/omp
Per MPI rank memory allocation (min/avg/max) = 1860 | 1860 | 1860 Mbytes
   Step          Temp         Enthalpy         c_1      
    100000   1.029055       20.034012      94.104071    
    101000   1.0275636      19.025458      93.825335    
    102000   1.0276852      19.832494      93.526377    
    103000   0.97259038     19.98742       93.143932    
    104000   1.025144       19.575018      92.880198    
    105000   1.0122889      19.638541      92.27651     
    106000   1.0500281      20.247579      92.100879    
    107000   1.0047482      20.047464      91.851781    
    108000   0.99501946     18.624738      91.599814    
    109000   1.07857        18.925326      91.320112    
    110000   0.96306269     19.299816      91.246399    
    111000   0.99837668     19.881617      91.153339    
    112000   1.0586017      19.583362      90.815738    
    113000   1.0284371      19.849961      90.297982    
    114000   0.98775171     19.388533      90.310359    
    115000   1.0219567      19.114597      89.925102    
    116000   1.0304579      19.91856       89.664645    
    117000   0.97508791     19.667468      89.331946    
    118000   1.0174492      19.681602      89.108333    
    119000   0.97428595     18.753032      89.201926    
    120000   0.97901652     19.382848      89.119       
    121000   0.99784325     19.311273      89.096938    
    122000   1.0073339      19.487109      88.724752    
    123000   1.0493999      20.18995       88.520795    
    124000   1.0247299      20.219869      88.308747    
    125000   1.001293       18.802505      88.109907    
    126000   0.99434116     19.263874      87.954958    
    127000   1.0107108      19.129755      87.754599    
    128000   0.98914211     18.947825      87.473361    
    129000   0.99297497     19.718242      87.333039    
    130000   1.0419876      19.151728      87.337885    
    131000   1.0012393      19.338981      87.038295    
    132000   1.0225862      19.611883      87.153844    
    133000   0.98775312     19.37053       86.711281    
    134000   1.0037101      19.483076      86.380771    
    135000   1.0127635      19.418803      86.133466    
    136000   0.97217876     19.252157      86.284381    
    137000   0.98610115     19.509293      86.182249    
    138000   1.0022071      19.711232      86.260355    
    139000   0.99279946     19.593786      86.058662    
    140000   1.013321       19.179265      85.933809    
    141000   1.0128103      19.337677      85.876814    
    142000   0.92443206     19.409826      85.621141    
    143000   0.99772537     19.177469      85.461258    
    144000   1.026671       19.495306      85.411592    
    145000   1.0345002      18.960832      85.292354    
    146000   0.99790923     19.545594      85.132101    
    147000   0.99933071     19.316531      84.938795    
    148000   1.0162343      19.539929      84.696818    
    149000   0.95499255     19.404889      84.561907    
    150000   0.96797784     19.244921      84.198461    
    151000   1.0197024      19.491839      84.013023    
    152000   1.0056587      19.424734      83.732782    
    153000   0.99089713     19.612162      83.669841    
    154000   1.0215243      19.772889      83.52862     
    155000   1.0206819      18.994496      83.622712    
    156000   0.95300986     18.822521      83.583304    
    157000   0.95534405     19.694104      83.428313    
    158000   0.98379165     19.204382      83.519221    
    159000   1.0535986      19.323894      83.149765    
    160000   0.95747004     19.297813      83.093352    
    161000   0.95011352     18.769141      83.224221    
    162000   0.98835056     19.071007      83.363417    
    163000   1.0212786      18.798778      83.128466    
    164000   0.94637172     19.323338      83.125484    
    165000   0.92743272     18.599646      82.670175    
    166000   0.99892556     19.206721      82.389404    
    167000   0.99933795     19.585385      81.890667    
    168000   0.9925432      19.217696      82.008196    
    169000   0.99038762     19.664982      82.033508    
    170000   0.96660349     19.291209      81.991006    
    171000   0.99411237     19.125946      81.988332    
    172000   0.9670568      18.934991      81.82988     
    173000   0.9710476      19.133722      81.688235    
    174000   0.98868099     18.424301      81.592943    
    175000   1.0040151      19.334735      81.362153    
    176000   1.0205335      18.600082      81.096698    
    177000   1.0119387      19.599877      80.782133    
    178000   1.0436599      19.374309      80.406652    
    179000   1.0246626      19.104787      80.273052    
    180000   0.99664024     18.86782       80.128156    
    181000   1.008398       19.02519       79.830083    
    182000   1.013895       19.429437      79.806883    
    183000   0.96788961     18.327584      79.715052    
    184000   1.0047441      19.236657      79.542387    
    185000   0.97995862     18.792755      79.660507    
    186000   0.98012927     18.95454       79.451966    
    187000   0.97427254     19.343272      79.329638    
    188000   1.0123823      18.841742      79.210728    
    189000   1.0176187      19.077487      79.008964    
    190000   1.0359562      19.530984      78.697215    
    191000   0.99635271     19.32743       78.559882    
    192000   0.9574274      19.0211        78.271609    
    193000   1.0163522      19.358744      78.109667    
    194000   0.98701711     18.548239      77.754809    
    195000   1.0378678      18.974937      77.806871    
    196000   1.046271       18.972796      77.399982    
    197000   0.99495164     19.459422      77.111717    
    198000   1.0665527      19.700813      76.77508     
    199000   1.0615002      18.782845      76.538636    
    200000   0.96809681     18.630161      76.459875    
    201000   0.99382978     18.046085      76.548429    
    202000   1.0452076      19.101798      76.286549    
    203000   0.9909644      19.135529      76.168362    
    204000   1.0169315      19.056844      75.964373    
    205000   1.0162236      19.584084      75.496733    
    206000   0.96491215     18.453633      75.287302    
    207000   1.0515299      19.145504      75.087407    
    208000   1.0138831      18.889581      74.724479    
    209000   0.99988569     19.430419      74.548591    
    210000   1.0054766      19.272722      74.504518    
    211000   1.0005654      19.070499      74.484035    
    212000   0.99273252     18.929107      74.22714     
    213000   0.99117907     19.653319      74.062251    
    214000   1.004091       18.938306      73.9057      
    215000   0.99902821     18.871719      73.825684    
    216000   0.99857274     18.902752      73.766148    
    217000   1.0108418      19.079878      73.706396    
    218000   0.99744878     19.589813      73.816141    
    219000   0.98792057     19.440148      73.589537    
    220000   0.95068723     18.711266      73.562666    
    221000   0.99898929     19.567328      73.407202    
    222000   0.99080729     19.16908       73.215184    
    223000   1.0133242      19.040492      73.057796    
    224000   1.0489079      19.253898      72.87644     
    225000   1.0026412      18.999324      72.682318    
    226000   0.96300691     19.429818      72.711132    
    227000   0.97542702     18.748753      72.571826    
    228000   0.98806111     18.443345      72.290489    
    229000   1.0334469      18.762988      72.318993    
    230000   0.96625407     18.963737      72.326267    
    231000   0.98080035     18.600615      72.121174    
    232000   1.022953       18.564305      71.965093    
    233000   0.99960038     18.564175      71.706121    
    234000   0.95186167     18.941026      71.688897    
    235000   1.0118915      19.677692      71.115148    
    236000   0.98491827     18.570195      70.992676    
    237000   0.99174538     19.446309      70.804512    
    238000   0.97466185     18.684273      70.645449    
    239000   0.98775048     18.555814      70.406838    
    240000   0.98999529     19.011655      70.129766    
    241000   0.95199377     18.618662      70.099324    
    242000   0.94456242     18.111         69.994838    
    243000   1.0160208      18.72238       69.754594    
    244000   0.97450424     18.804295      69.509069    
    245000   1.0271555      19.315972      69.176361    
    246000   1.0482676      19.145472      68.723946    
    247000   0.98677988     18.800118      68.679299    
    248000   0.97648845     18.4476        68.478797    
    249000   0.99719559     18.861498      68.375624    
    250000   0.9927342      18.288722      68.366141    
    251000   1.0046038      18.921255      68.367177    
    252000   0.97232934     18.262756      68.347667    
    253000   0.99965781     18.772033      68.284234    
    254000   0.97106936     18.937002      67.9869      
    255000   1.0536338      19.217275      67.851606    
    256000   1.0324684      18.830359      68.101725    
    257000   1.0519975      18.921289      68.161451    
    258000   1.010872       18.774134      67.967551    
    259000   0.99479761     18.251659      67.879774    
    260000   1.0662934      19.311708      67.651736    
    261000   0.99658476     18.704453      67.610155    
    262000   0.9777759      18.317468      67.659581    
    263000   1.0220634      18.851695      67.587335    
    264000   0.99542406     18.893439      67.302255    
    265000   1.0043539      18.354043      67.267179    
    266000   1.0372791      18.545367      67.249078    
    267000   1.0593647      18.60249       67.058286    
    268000   1.0172456      18.429376      66.734402    
    269000   1.0060984      18.451363      66.35251     
    270000   0.98301843     18.219337      66.279891    
    271000   0.96121489     18.562259      65.986839    
    272000   1.0394633      18.644906      65.703841    
    273000   0.96848122     18.706268      65.356716    
    274000   1.006098       18.926757      65.271219    
    275000   1.0077384      18.463267      65.172426    
    276000   0.96394978     18.11332       64.848506    
    277000   0.93486396     18.154332      64.726326    
    278000   0.96310377     18.614095      64.901071    
    279000   0.94054724     18.890266      64.895836    
    280000   0.97136725     18.60338       64.620427    
    281000   1.0068712      18.542356      64.609054    
    282000   1.0029443      18.156159      64.459713    
    283000   0.9520016      18.60734       64.292158    
    284000   0.971379       19.273865      63.932436    
    285000   1.0283179      18.517234      63.820983    
    286000   0.99221818     18.467637      63.557413    
    287000   1.0079158      18.536432      63.506403    
    288000   1.0306241      18.804016      63.394629    
    289000   1.018596       18.851481      63.219029    
    290000   1.0047554      18.819022      62.943839    
    291000   1.0161971      18.903249      62.811254    
    292000   1.0292205      18.682981      62.784271    
    293000   1.011494       18.048295      62.856988    
    294000   1.0059973      18.321958      62.774192    
    295000   0.97459929     18.709172      62.629594    
    296000   1.0089351      19.082858      62.673904    
    297000   1.0246331      18.56302       62.57281     
    298000   1.034281       18.352694      62.355058    
    299000   0.98890423     18.486764      62.068409    
    300000   1.0111946      18.523405      62.063274    
    301000   0.96157565     18.635458      61.982266    
    302000   0.98250166     18.277804      61.834997    
    303000   1.0147773      18.526304      62.045661    
    304000   1.0397043      18.861686      61.773379    
    305000   1.0190154      18.294787      61.508484    
    306000   1.0339629      18.996398      61.112652    
    307000   0.96396648     18.060796      60.91599     
    308000   1.0191686      18.482535      60.492709    
    309000   1.0008872      18.029146      60.499999    
    310000   0.97525728     18.510542      60.519001    
    311000   1.0248628      18.502299      60.294294    
    312000   0.98318216     17.240551      59.89639     
    313000   1.0336991      18.247795      59.535726    
    314000   1.0406979      18.274153      59.298132    
    315000   1.0396306      18.789401      59.324667    
    316000   1.0180129      18.373127      59.14227     
    317000   1.0415611      18.865485      58.960047    
    318000   1.0319699      18.453885      58.673349    
    319000   1.0108568      18.774024      58.672874    
    320000   1.0057481      18.221343      58.384012    
    321000   0.98619457     18.132921      58.299066    
    322000   1.02103        18.441016      58.175818    
    323000   1.0185137      18.182443      58.146448    
    324000   0.99145127     18.185358      57.841931    
    325000   1.0190963      18.917963      57.834456    
    326000   0.96163858     17.796251      57.79387     
    327000   1.0085216      18.920216      57.763307    
    328000   0.94219537     18.035945      57.72701     
    329000   1.0580235      18.10872       57.561485    
    330000   1.0641252      18.671105      57.290792    
    331000   0.98309301     18.477498      57.009901    
    332000   0.98990929     19.096021      56.752449    
    333000   0.9862641      18.61529       56.608502    
    334000   0.99667505     18.989117      56.293446    
    335000   1.0228767      17.956104      56.140077    
    336000   0.99133891     18.035437      56.10151     
    337000   1.0283515      18.371219      56.146389    
    338000   1.0504062      18.799189      55.933078    
    339000   0.94010885     18.478205      55.54566     
    340000   0.93719856     18.400349      55.390264    
    341000   1.0009893      18.554318      55.42686     
    342000   0.99912797     18.744108      55.236838    
    343000   1.0028189      18.620426      55.123854    
    344000   1.016495       18.298081      55.143467    
    345000   0.99688272     18.501151      55.110102    
    346000   0.97015132     18.097042      54.774219    
    347000   0.98488765     18.665412      54.772278    
    348000   0.98365891     17.762822      54.607849    
    349000   1.0008959      18.172649      54.512531    
    350000   0.96294965     18.29701       54.250795    
    351000   0.93032501     18.398221      54.213606    
    352000   0.9665283      18.507736      54.057516    
    353000   1.044957       18.263068      53.809353    
    354000   0.99832372     18.072955      53.541635    
    355000   0.94882422     18.49638       53.40421     
    356000   1.0176169      18.190519      53.189174    
    357000   0.98378022     17.763937      53.252902    
    358000   1.0121585      17.43888       53.094649    
    359000   0.93491301     18.347796      52.951044    
    360000   1.0062952      19.049293      52.976953    
    361000   0.98465373     18.631605      52.986878    
    362000   1.0381583      18.933196      52.927605    
    363000   0.96305579     18.326449      52.829644    
    364000   0.99813735     17.782809      52.536343    
    365000   1.0236925      18.657197      52.377296    
    366000   1.0196177      17.9821        52.556771    
    367000   0.98265938     18.300923      52.427877    
    368000   0.98377627     18.32267       52.388284    
    369000   1.0389553      18.40156       52.342299    
    370000   1.019942       18.421378      52.202714    
    371000   1.0126726      17.487862      52.085883    
    372000   0.94622005     18.793603      51.711376    
    373000   0.97739812     18.479754      51.529157    
    374000   0.96556004     18.668333      51.74965     
    375000   1.0242716      17.983954      51.548468    
    376000   1.0039785      18.324561      51.18259     
    377000   0.99026249     18.460555      51.11637     
    378000   1.0041039      18.403057      50.943118    
    379000   1.0001677      18.216993      51.030195    
    380000   1.0359509      17.770506      50.669369    
    381000   0.96453766     17.488604      50.786779    
    382000   1.0326965      18.104968      50.653833    
    383000   1.0183503      19.291039      50.554551    
    384000   1.0282378      18.248234      50.421741    
    385000   0.99488953     18.127094      50.275879    
    386000   0.9918802      18.331982      50.173735    
    387000   0.91059114     17.617694      49.850317    
    388000   0.99744118     18.42041       49.911563    
    389000   1.0107121      18.698225      49.880268    
    390000   0.99968581     17.758914      49.665324    
    391000   0.9909583      18.278367      49.3073      
    392000   1.0060603      18.361425      49.096752    
    393000   0.98755975     18.514897      49.110949    
    394000   1.0074085      18.088802      49.15988     
    395000   1.0397188      17.980557      49.15141     
    396000   1.0277194      17.858637      49.033253    
    397000   0.98585208     18.518391      49.183153    
    398000   0.96741595     18.516855      49.085416    
    399000   1.0347789      18.533162      48.945522    
    400000   1.0043433      18.223554      48.678751    
    401000   0.98623999     18.548049      48.344452    
    402000   0.95398209     17.711843      48.251249    
    403000   1.006043       18.039226      48.495041    
    404000   0.98986014     18.466098      48.08303     
    405000   0.99150205     19.050522      48.006224    
    406000   1.0028026      18.288967      47.848351    
    407000   1.0283889      18.720391      47.638248    
    408000   1.0295897      18.425481      47.573781    
    409000   0.98312        18.621126      47.430424    
    410000   1.0140017      17.979911      47.429802    
    411000   0.99135543     18.080474      47.170373    
    412000   1.0018204      18.634482      46.949077    
    413000   1.0225562      17.950815      46.608383    
    414000   1.0107813      17.169309      46.614294    
    415000   1.0241229      17.863256      46.655544    
    416000   1.0033805      18.400016      46.519491    
    417000   0.98416215     18.451294      46.515658    
    418000   1.0397399      17.899308      46.441481    
    419000   0.95984432     17.345258      46.329678    
    420000   1.009007       18.284126      46.058604    
    421000   0.98258861     17.938024      45.976022    
    422000   0.99313826     18.027699      45.662626    
    423000   1.0099631      17.708725      45.711197    
    424000   1.0255915      17.80312       45.652783    
    425000   0.96943442     17.853334      45.427273    
    426000   0.98826218     18.448304      45.316375    
    427000   1.0082141      18.12336       45.082438    
    428000   0.95235955     19.239294      45.061162    
    429000   1.0533973      18.28248       44.970449    
    430000   0.98331652     18.004702      45.139113    
    431000   0.99540118     18.317838      44.924599    
    432000   0.95817362     17.814874      44.583555    
    433000   1.0761243      18.533421      44.456396    
    434000   1.0005122      17.988428      44.184443    
    435000   0.99050735     18.238795      43.945576    
    436000   1.0189781      17.512229      43.867312    
    437000   0.96262409     18.461376      43.543887    
    438000   1.0070084      18.538753      43.412585    
    439000   1.0100376      17.639548      43.484889    
    440000   0.99716786     18.36487       43.589287    
    441000   1.0010159      18.025733      43.555718    
    442000   0.98891368     17.597487      43.206376    
    443000   0.99839141     18.088568      43.133567    
    444000   0.98348332     17.634014      43.00092     
    445000   1.0002762      18.035682      42.959631    
    446000   1.000062       18.147955      42.716948    
    447000   1.0064946      17.92912       42.585566    
    448000   1.0347357      18.604724      42.402618    
    449000   0.97081341     18.640675      42.372884    
    450000   0.97997019     18.564502      42.223165    
    451000   1.0376561      18.467128      41.908144    
    452000   1.0174641      17.880721      42.022969    
    453000   0.97417307     17.857342      41.851937    
    454000   1.0260397      17.553833      41.930285    
    455000   0.97481319     17.761547      41.563513    
    456000   1.0550429      18.078497      41.431724    
    457000   1.0291443      17.866866      41.27323     
    458000   0.99083507     18.402922      41.006951    
    459000   1.0341228      18.592092      40.674715    
    460000   0.97592946     18.849784      40.552756    
    461000   0.95096807     17.706242      40.556178    
    462000   0.97129969     17.732519      40.372438    
    463000   1.0054521      17.725035      39.9116      
    464000   0.98042738     17.826356      39.824731    
    465000   0.98452949     18.526073      39.483984    
    466000   0.97733612     18.172444      39.546865    
    467000   0.98184776     17.796232      39.497088    
    468000   1.0386831      17.882457      39.327843    
    469000   1.0027793      18.317413      39.1015      
    470000   0.94185253     18.00502       38.910319    
    471000   1.0450782      18.109722      38.763805    
    472000   1.0018801      17.93193       38.662829    
    473000   0.9877745      17.261572      38.767085    
    474000   1.0064646      17.827502      38.690104    
    475000   1.0312572      18.876854      38.718321    
    476000   0.97914163     18.52238       38.615346    
    477000   0.95350322     17.861705      38.44105     
    478000   0.98611094     18.291808      38.50443     
    479000   1.0068104      18.525808      38.379814    
    480000   0.99669267     17.964594      38.5399      
    481000   0.92626777     18.076361      38.610382    
    482000   0.93668138     18.096721      38.424269    
    483000   0.97592618     17.800159      38.409344    
    484000   1.006113       18.035411      38.61795     
    485000   0.96973585     17.769604      38.503092    
    486000   0.97467865     18.254621      38.246931    
    487000   1.0504274      17.91373       37.957303    
    488000   0.98192347     17.877555      37.786353    
    489000   1.0481317      17.521975      37.524289    
    490000   0.95368984     17.498166      37.131533    
    491000   0.98687999     17.877366      36.757245    
    492000   1.0088704      17.232111      36.574324    
    493000   1.0112671      18.304457      36.384828    
    494000   0.95705334     17.759087      36.208201    
    495000   1.0017179      17.782116      36.007661    
    496000   0.97479259     17.909086      35.496853    
    497000   1.0235535      17.955485      35.203451    
    498000   1.0210418      18.258846      34.75836     
    499000   1.0361811      17.862687      34.448511    
    500000   1.0263344      18.040414      34.478784    
    501000   0.99608115     17.548647      34.217261    
    502000   1.0195365      18.065786      34.058035    
    503000   0.9837688      18.492633      34.049689    
    504000   0.97164984     18.246922      33.72821     
    505000   0.99104367     18.167886      33.53763     
    506000   1.0265656      17.559824      33.138537    
    507000   0.99122349     18.553482      33.012889    
    508000   0.98732053     18.099346      32.899507    
    509000   0.98690247     17.762964      32.63645     
    510000   1.0025409      18.098813      32.216847    
    511000   0.96103678     17.10061       31.926453    
    512000   1.0033775      18.538951      31.79144     
    513000   0.99183541     18.039044      31.610118    
    514000   1.0051858      17.454852      31.425202    
    515000   1.0588175      17.665319      31.407862    
    516000   0.9728579      17.997356      31.615757    
    517000   1.0507188      17.724618      31.614406    
    518000   1.0096382      18.273523      31.449463    
    519000   0.97167845     17.118384      31.371402    
    520000   0.96522295     17.867044      31.185117    
    521000   0.96931894     17.072186      31.076275    
    522000   1.0311039      17.934046      31.206993    
    523000   0.9843874      18.049548      31.021704    
    524000   1.040618       17.976915      31.109369    
    525000   1.0294469      18.260249      30.87256     
    526000   1.0298586      18.084409      30.597987    
    527000   1.0053201      17.492463      30.562933    
    528000   1.0060082      17.681115      30.328935    
    529000   0.97448895     17.636842      30.358683    
    530000   1.014273       17.557116      30.266652    
    531000   1.0485527      17.846697      30.356921    
    532000   1.0066758      17.18641       30.168118    
    533000   1.0261047      17.816737      30.121599    
    534000   0.99180264     17.427509      30.185738    
    535000   0.99121219     17.669175      30.220868    
    536000   0.99008352     17.934242      29.926657    
    537000   1.0064765      17.615069      29.710778    
    538000   0.99235432     17.752577      29.336179    
    539000   1.0076789      17.986238      28.930566    
    540000   0.99505015     17.987964      28.444646    
    541000   1.0176284      17.714514      28.329143    
    542000   1.0298543      18.077418      28.288067    
    543000   1.008666       17.959846      28.071547    
    544000   1.0006604      17.766446      27.730368    
    545000   1.0173358      17.72307       27.399151    
    546000   1.0814321      18.104316      26.887705    
    547000   1.0071109      18.414743      27.028533    
    548000   1.0219346      18.293622      26.850846    
    549000   0.97356443     17.922598      26.595305    
    550000   0.97979543     17.543665      26.239454    
    551000   0.98468334     18.072233      26.025906    
    552000   1.0035263      17.234756      25.957036    
    553000   1.0207629      17.398519      25.959282    
    554000   0.98585604     17.621646      25.765856    
    555000   0.96850453     18.026508      25.346797    
    556000   1.0238482      17.656744      25.18102     
    557000   0.95386959     18.174616      24.795149    
    558000   0.99977451     17.701014      24.798054    
    559000   1.0221473      18.106384      24.793791    
    560000   1.0365078      17.73084       24.642658    
    561000   1.0423322      18.24647       24.541778    
    562000   0.92972389     17.100157      24.583816    
    563000   0.98320554     17.754941      24.436676    
    564000   1.0501308      17.630399      24.368801    
    565000   1.0106047      17.473006      24.320723    
    566000   0.97728028     18.070947      24.305685    
    567000   0.98545194     17.846546      24.141063    
    568000   1.0335339      17.478331      23.963253    
    569000   1.0085954      17.681591      23.854787    
    570000   0.95967743     17.445828      23.697098    
    571000   0.99323109     17.577375      23.610686    
    572000   1.0212463      17.537228      23.737936    
    573000   0.9597663      17.457954      23.581957    
    574000   1.0470762      18.44846       23.335994    
    575000   1.0229155      17.201271      23.430563    
    576000   1.0186716      18.06195       23.113566    
    577000   0.97147795     17.571736      23.235413    
    578000   1.015898       17.301856      22.952792    
    579000   0.98277803     17.856106      22.759394    
    580000   1.0057872      18.29813       22.725215    
    581000   1.012876       17.747062      22.585092    
    582000   0.98334544     17.431811      22.215969    
    583000   0.95901905     17.904167      21.833225    
    584000   0.99762201     18.024926      21.636808    
    585000   1.033394       18.141647      21.655458    
    586000   1.0443332      18.249347      21.357789    
    587000   0.97743416     17.429962      21.182945    
    588000   1.0483334      18.007187      21.133271    
    589000   1.0209966      17.601623      20.975585    
    590000   1.0113837      17.652105      20.668695    
    591000   1.0475753      18.170354      20.663737    
    592000   0.97934591     17.607613      20.545052    
    593000   1.0235484      17.844641      20.232643    
    594000   0.9584456      17.274247      20.120471    
    595000   1.0047841      17.571738      20.142234    
    596000   1.0187825      17.684509      19.87803     
    597000   1.0122016      17.101123      19.709543    
    598000   0.96901638     18.294919      19.654579    
    599000   1.0016479      17.713876      19.695119    
    600000   0.96962176     18.157756      19.471516    
    601000   1.0312467      18.06799       19.476709    
    602000   0.99639482     16.92973       19.181365    
    603000   1.0285328      17.847097      19.092356    
    604000   0.97154865     17.829992      18.785184    
    605000   1.0209791      17.528781      18.545325    
    606000   1.028664       17.534588      18.446901    
    607000   0.96951469     17.573477      18.378365    
    608000   0.9795204      16.852866      18.196171    
    609000   1.0047207      17.335624      18.28168     
    610000   0.96901142     16.868481      17.787278    
    611000   0.98011772     17.756497      17.527524    
    612000   1.042765       17.956336      17.636951    
    613000   0.97507484     17.874994      17.614143    
    614000   0.95039706     17.282457      17.244004    
    615000   0.94652268     17.338286      17.210672    
    616000   1.0826214      18.048879      17.083109    
    617000   0.98019997     17.54674       17.017487    
    618000   1.0458648      17.358473      16.856094    
    619000   0.99539653     17.821665      16.704805    
    620000   1.0052493      17.394111      16.74609     
    621000   1.0669759      18.295663      16.505144    
    622000   0.98197609     17.929251      16.52476     
    623000   0.98308498     17.023956      16.44645     
    624000   1.0244447      17.76714       16.164494    
    625000   1.0128897      17.850721      16.060187    
    626000   0.98911086     17.813779      16.142493    
    627000   0.98562626     18.105837      16.088137    
    628000   1.0325347      17.195164      16.163886    
    629000   1.0088823      17.347179      16.109749    
    630000   1.0067295      17.498005      16.069233    
    631000   1.0196029      17.396566      15.888188    
    632000   0.96504871     17.581521      15.883575    
    633000   1.038483       17.374205      15.630091    
    634000   0.99839643     17.533009      15.537872    
    635000   1.0155331      17.441117      15.584701    
    636000   0.98407533     16.517896      15.538674    
    637000   1.0417586      17.32364       15.24181     
    638000   1.0643992      17.724135      15.082391    
    639000   0.99643111     17.130523      15.008165    
    640000   0.98667454     17.38941       14.98856     
    641000   1.0044096      17.636731      15.098898    
    642000   0.94473378     17.494742      15.099983    
    643000   1.0353489      18.091406      15.080035    
    644000   0.99228309     17.878155      14.988055    
    645000   1.0077687      18.005089      14.845155    
    646000   0.98065306     17.115445      14.83826     
    647000   0.95421794     17.620508      15.002589    
    648000   0.98980844     17.623226      14.716118    
    649000   1.0107437      18.02633       14.367707    
    650000   1.080317       17.607738      14.206223    
    651000   0.94641604     17.922165      14.152812    
    652000   1.0004453      16.677481      14.126582    
    653000   1.0411907      17.275788      14.019914    
    654000   0.98621182     17.690139      13.862496    
    655000   0.96529159     17.818547      13.756536    
    656000   0.9541186      17.957325      13.518299    
    657000   1.0360787      17.353868      13.29466     
    658000   1.0055607      17.692274      13.100705    
    659000   1.0126209      17.851609      13.101103    
    660000   0.9703721      16.878061      12.841877    
    661000   0.99880823     17.365273      12.795383    
    662000   1.0136784      17.836339      12.833022    
    663000   0.95365009     17.04808       12.60103     
    664000   1.0214654      17.061312      12.517535    
    665000   0.97444593     17.608987      12.427078    
    666000   0.99080809     17.1002        12.349448    
    667000   1.0195199      17.098096      12.216449    
    668000   1.0038366      17.66098       11.880392    
    669000   0.96372665     17.138429      11.818101    
    670000   1.0411521      17.825576      11.972541    
    671000   1.0093357      17.650827      12.112959    
    672000   1.0222128      17.191877      11.97663     
    673000   1.0589613      17.941122      12.071713    
    674000   1.0384026      17.894235      11.808626    
    675000   1.0387765      17.517512      11.628914    
    676000   0.9845982      17.892037      11.270994    
    677000   0.98146916     16.976657      10.998287    
    678000   0.98094487     17.494733      10.953328    
    679000   0.95536603     17.498889      10.815003    
    680000   0.97347804     17.500602      10.461818    
    681000   0.97177085     17.236007      10.246555    
    682000   0.96237979     17.369405      10.203757    
    683000   0.99624098     17.26613       10.320071    
    684000   1.0065477      17.073261      10.290758    
    685000   1.0384257      17.541835      10.409095    
    686000   1.0427508      17.026327      10.464743    
    687000   0.93912403     17.815229      10.379522    
    688000   1.0308204      17.267078      10.383483    
    689000   0.95063809     17.057422      10.04325     
    690000   1.0597015      17.330936      9.8905953    
    691000   1.030474       17.806448      9.7186844    
    692000   1.0049448      17.747689      9.4533969    
    693000   1.0010687      17.216357      9.4497915    
    694000   0.99131853     17.72869       9.2571498    
    695000   1.0658363      18.146333      9.1608705    
    696000   1.0037219      17.750847      9.1727398    
    697000   1.0098532      17.370034      9.0423957    
    698000   0.95609431     17.213508      8.9671481    
    699000   1.0420009      17.850471      8.7190143    
    700000   0.99542006     18.171623      8.4526807    
    701000   1.0025316      17.266296      8.4640767    
    702000   1.0261576      16.808431      8.4082854    
    703000   1.0122355      16.847735      8.1664608    
    704000   1.0028279      18.188165      7.8363952    
    705000   0.97138597     16.898431      7.5697361    
    706000   1.0151727      17.539031      7.5882155    
    707000   1.0322527      16.685515      7.4027567    
    708000   1.0308783      17.467795      7.3481059    
Fix halt condition for fix-id 3 met on step 709000 with value 6.933086189191422 (src/fix_halt.cpp:237)
    709000   1.0189769      17.933485      6.9330862    
Loop time of 818.525 on 2 procs for 609000 steps with 700 atoms

Performance: 642834.005 tau/day, 744.021 timesteps/s
114.2% CPU use with 1 MPI tasks x 2 OpenMP threads

MPI task timing breakdown:
Section |  min time  |  avg time  |  max time  |%varavg| %total
---------------------------------------------------------------
Pair    | 78.635     | 78.635     | 78.635     |   0.0 |  9.61
Bond    | 8.7571     | 8.7571     | 8.7571     |   0.0 |  1.07
Neigh   | 709.47     | 709.47     | 709.47     |   0.0 | 86.68
Comm    | 0.15701    | 0.15701    | 0.15701    |   0.0 |  0.02
Output  | 1.1467     | 1.1467     | 1.1467     |   0.0 |  0.14
Modify  | 18.885     | 18.885     | 18.885     |   0.0 |  2.31
Other   |            | 1.475      |            |       |  0.18

Nlocal:            700 ave         700 max         700 min
Histogram: 1 0 0 0 0 0 0 0 0 0
Nghost:              0 ave           0 max           0 min
Histogram: 1 0 0 0 0 0 0 0 0 0
Neighs:         113982 ave      113982 max      113982 min
Histogram: 1 0 0 0 0 0 0 0 0 0

Total # of neighbors = 113982
Ave neighs/atom = 162.83143
Ave special neighs/atom = 1.9971429
Neighbor list builds = 5695
Dangerous builds = 0

# This simulation is done
# Move onto the next one
clear
  using 2 OpenMP thread(s) per MPI task
package omp 0
using multi-threaded neighbor list subroutines
next f
jump SELF

###
# Reference paper:
# K. Kremer and G. S. Grest
# Dynamics of entangled linear polymer melts: A molecular-dynamics simulation
# J Chem Phys 92, 5057 (1990)

##################################
# MIHIR: for branched polymers
# LJ minimum first to expand and explore, then collapse
###

###
# Looping through the various tshaped polymers to simulate,
# define variables to switch through
#variable f index bb66nuc1bl33bn3d30tot100 bb133nuc1bl66bn3d30tot200 bb200nuc1bl100bn3d30tot300 bb266nuc1bl133bn3d30tot400 bb333nuc1bl166bn3d30tot500 bb400nuc1bl200bn3d30tot600 bb466nuc1bl233bn3d30tot700 bb533nuc1bl266bn3d30tot800 bb600nuc1bl300bn3d30tot900 bb666nuc1bl333bn3d30tot1000 bb733nuc1bl366bn3d30tot1100 bb800nuc1bl400bn3d30tot1200
variable f index bb333nuc1bl166bn3d30tot500 bb400nuc1bl200bn3d30tot600 bb466nuc1bl233bn3d30tot700 bb533nuc1bl266bn3d30tot800 bb600nuc1bl300bn3d30tot900 bb666nuc1bl333bn3d30tot1000 bb733nuc1bl366bn3d30tot1100 bb800nuc1bl400bn3d30tot1200
###


###
# Box and units  (use LJ units and periodic boundaries)
###

units lj
log tshaped/logs2/$f.log
log tshaped/logs2/bb533nuc1bl266bn3d30tot800.log
