#atom_style bond #no stiffness
atom_style angle #with stiffness

boundary        p p p
###
# Pair interactions require lists of neighbours to be calculated
###

#neighbor 0.3 bin
neighbor 4 bin

neigh_modify every 1 delay 1 check yes
atom_modify sort 0 0
### Generate RESTART file, SPECIAL format, not a .txt file ###
### Useful if simulation crashes ###

restart 1000000 tshaped/restarts2/$f.restart
restart 1000000 tshaped/restarts2/bb533nuc1bl266bn3d30tot800.restart
#############################



### READ "start" data file ###

read_data tshaped/$f.dat
read_data tshaped/bb533nuc1bl266bn3d30tot800.dat
Reading data file ...
  orthogonal box = (-1000 -1000 -1000) to (1000 1000 1000)
  1 by 1 by 1 MPI processor grid
  reading atoms ...
  799 atoms
  scanning bonds ...
  2 = max bonds/atom
  scanning angles ...
  3 = max angles/atom
  reading bonds ...
  798 bonds
  reading angles ...
  798 angles
Finding 1-2 1-3 1-4 neighbors ...
  special bond factors lj:    0        0        0       
  special bond factors coul:  0        0        0       
     3 = max # of 1-2 neighbors
     3 = max # of 1-3 neighbors
     6 = max # of 1-4 neighbors
     9 = max # of special neighbors
  special bonds CPU = 0.001 seconds
  read_data CPU = 0.044 seconds

######################

### READ "REstart" data file ###

######################



###
# Define groups (atom type 1 is group 'all')
###
group all type 1
799 atoms in group all


###
# Dump configs - "simple dumpings"
###

###
# Dump configs + box coords
###

dump   1   all   custom   1000  tshaped/trjs2/$f.lammpstrj  id  x y z  ix iy iz
dump   1   all   custom   1000  tshaped/trjs2/bb533nuc1bl266bn3d30tot800.lammpstrj  id  x y z  ix iy iz
dump_modify   1   format line "%d %.5f %.5f %.5f %d %d %d"

########################################################################


###################################################################
# Stiffness term
#
# E = K * (1+cos(theta)), K>0
#
angle_style   cosine
#change this coefficient to change stiffness (e.g. 1,5,10)
angle_coeff   1 1.0
###################################################################

###################################################################
# Pair interaction between non-bonded atoms
#
#  Lennard-Jones 12-6 potential with cutoff:
#  potential E=4epsilon[ (sigma/r)^12 - (sigma/r)^6]  for r<r_cut
#
#  1.12246 = 2^(1/6) is the minimum of the potential


pair_style      lj/cut 1.12246152962189
#pair_style      lj/cut 3

#
#  pair_modify shift yes adds a constant to the potential such

#  that E(r_cut)=0. Forces remains unchanged.
#

pair_modify     shift yes

#
#  pair_coeff for lj/cut, specify 4:
#    * atom type interacting with
#    * atom type
#    * epsilon (energy units)
#    * sigma (distance units)
#

pair_coeff      1 1 1.0 1.0
###################################################################

###################################################################
# Pair interaction between non-bonded atoms
#
#  soft potential, for PUSHING apart overlapping atoms
#  potential E=A*(1 + cos(pi*r/r_c))
#
#  1.12246 = 2^(1/6) is the cut-off r_c

#pair_style     soft 1.12246152962189

#
#  pair_coeff for soft, specify 3:
#    * atom type interacting with
#    * atom type
#    * A
#
#

#pair_coeff      1 1 100.0
###################################################################

###################################################################
# Pair interaction between bonded atoms
#
# Fene potential + Lennard Jones 12-6:

#
#  E= - 0.5 K R0^2 ln[ 1- (r/R0)^2]
#     + 4epsilon[ (sigma/r)^12 - (sigma/r)^6] + epsilon
#

bond_style   fene


#
# For style fene, specify:
#   * bond type
#   * K (energy/distance^2)
#   * R0 (distance)
#   * epsilon (energy)  (LJ component)
#   * sigma (distance)  (LJ component)
#


special_bonds fene #<=== I M P O R T A N T (new command)
Finding 1-2 1-3 1-4 neighbors ...
  special bond factors lj:    0        1        1       
  special bond factors coul:  0        1        1       
     3 = max # of 1-2 neighbors
     9 = max # of special neighbors
  special bonds CPU = 0.000 seconds

bond_coeff   1   30   2   1.0   1.0


###################################################

###################################################################
# Pair interaction between bonded atoms
#
# Harmonic potential:
#
#  E= K * (R-R0)^2
#

#bond_style   harmonic

#
# For style harmonic, specify:
#   * bond type
#   * K (energy/distance^2)
#   * R0 (distance)
#

#bond_coeff   1   60.0   1.0
#bond_coeff   2   harmonic 0.1   1.0

###################################################
compute 1 all gyration
variable rog equal c_1
#compute 2 all coord/atom cutoff 1.1

#dump 2 all custom 10000 contact_number.dump id c_2


###
# Set up fixes
###
thermo_style   custom   step  temp enthalpy c_1
fix 1 all nve   ###NVE ensemble

fix 2 all   langevin   1.0 1.0 1.0  778655   ###Langevin integrator Tstart Tstop 1/friction rndseed


##### Sample thermodynamic info  (temperature, energy, pressure, etc.) #####
thermo 1000









############################################################################

###
# set timestep of integrator

timestep 0.01

###
# run integration for a number of steps
###
#run 0
#variable r equal c_1
#if "$r < 63.1" then "quit 1"

# lj potential minimum, cause molecule to explore
run 100000
Generated 0 of 0 mixed pair_coeff terms from geometric mixing rule
Last active /omp style is angle_style cosine/omp
Neighbor list info ...
  update: every = 1 steps, delay = 1 steps, check = yes
  max neighbors/atom: 2000, page size: 100000
  master list distance cutoff = 5.1224615
  ghost atom cutoff = 5.1224615
  binsize = 2.5612308, bins = 781 781 781
  1 neighbor lists, perpetual/occasional/extra = 1 0 0
  (1) pair lj/cut/omp, perpetual
      attributes: half, newton on, omp
      pair build: half/bin/newton/omp
      stencil: half/bin/3d
      bin: standard
WARNING: Communication cutoff 5.12246152962189 is shorter than a bond length based estimate of 5.455. This may lead to errors. (src/comm.cpp:723)
Per MPI rank memory allocation (min/avg/max) = 1860 | 1860 | 1860 Mbytes
   Step          Temp         Enthalpy         c_1      
         0   0              13.173265      142.10606    
      1000   0.96027643     16.992077      141.68225    
      2000   1.0117261      17.076711      140.93781    
      3000   1.0186001      17.314617      140.363      
      4000   0.95646888     17.697375      139.82463    
      5000   0.99459515     17.993787      139.16553    
      6000   0.99572885     18.019597      138.5809     
      7000   0.9794859      17.611823      137.8703     
      8000   0.97425485     18.044756      137.20605    
      9000   0.98867375     18.187037      136.82003    
     10000   0.93549306     18.078719      136.43834    
     11000   1.0044565      18.381131      135.90819    
     12000   1.0221508      18.314438      135.61012    
     13000   0.99423473     18.568045      135.00325    
     14000   0.98026323     18.74331       134.65843    
     15000   0.98901303     18.455932      134.26852    
     16000   1.0210349      18.738639      133.86804    
     17000   1.0389781      18.374569      133.6015     
     18000   0.99314929     18.839507      133.11578    
     19000   0.99338112     18.661269      132.61269    
     20000   1.0480724      18.928183      132.06649    
     21000   1.0231736      18.789674      131.86202    
     22000   1.0516976      19.482909      131.3025     
     23000   1.0617296      19.098046      131.09156    
     24000   0.95548144     18.860151      130.79167    
     25000   0.97807151     18.795541      130.4117     
     26000   1.0536978      19.888585      130.40073    
     27000   0.99960033     18.859251      130.31594    
     28000   1.0007265      18.722952      129.7722     
     29000   1.0141242      18.746162      129.21711    
     30000   0.98645803     19.746049      128.98912    
     31000   0.95349195     18.986186      128.7212     
     32000   1.0255576      19.661228      128.5954     
     33000   1.0247675      19.08015       128.22602    
     34000   1.006502       19.224204      127.95656    
     35000   0.97371543     19.212795      127.57408    
     36000   0.95972155     18.575891      127.07123    
     37000   1.0202422      19.266697      126.96856    
     38000   1.0276307      19.812649      127.0233     
     39000   1.0572854      19.634461      126.69526    
     40000   0.98720555     19.119039      126.58487    
     41000   1.0070791      18.910031      126.51882    
     42000   1.0136682      19.018172      126.33561    
     43000   0.9848181      19.130913      126.28191    
     44000   1.0032581      18.89129       126.05851    
     45000   1.0120031      19.365191      125.52706    
     46000   0.98979657     19.641077      125.10091    
     47000   0.99602735     19.285708      124.42472    
     48000   1.0253622      19.625386      124.09869    
     49000   0.98948075     19.151939      123.78169    
     50000   1.0342705      19.291454      123.46817    
     51000   1.0406316      19.726854      123.45937    
     52000   1.0308278      19.610807      123.14559    
     53000   0.98691511     19.389831      122.95583    
     54000   1.0081082      19.836703      122.93207    
     55000   0.96773731     19.354469      122.89024    
     56000   1.0127594      19.570456      122.71136    
     57000   0.99723599     19.910439      122.32396    
     58000   1.0123176      19.474761      122.00953    
     59000   1.0192556      19.52718       121.80044    
     60000   1.0376912      19.855152      121.44453    
     61000   1.0170367      19.616711      121.3643     
     62000   1.0345371      19.545775      121.09787    
     63000   1.0343555      19.576979      120.87934    
     64000   1.0224189      19.747687      120.72217    
     65000   1.0070165      19.639098      120.6365     
     66000   1.0233381      19.607788      120.42322    
     67000   0.99353451     20.04585       120.1665     
     68000   1.0194748      19.607151      119.87652    
     69000   0.98077754     19.7337        119.86196    
     70000   0.99624088     19.52098       119.81213    
     71000   0.97104375     19.84912       119.54285    
     72000   1.0474507      19.776456      119.43779    
     73000   1.0086271      19.766407      119.34458    
     74000   1.0133051      19.280475      119.18553    
     75000   0.96649332     19.381244      119.13008    
     76000   0.97294459     19.982769      118.89676    
     77000   0.97875557     19.994089      118.4592     
     78000   0.98535906     19.234939      118.36751    
     79000   1.0709993      19.621178      118.06835    
     80000   1.0149298      19.506871      117.83665    
     81000   1.0423426      19.954471      117.7843     
     82000   1.0202404      19.328474      117.7492     
     83000   1.029632       19.460706      117.46114    
     84000   0.97397939     21.003606      117.2956     
     85000   0.93453754     19.639453      117.07689    
     86000   0.99520773     19.855394      116.91997    
     87000   1.0561472      19.881036      116.62231    
     88000   1.0306995      20.092205      116.45795    
     89000   0.99758981     20.288992      116.35735    
     90000   0.99839581     20.128772      116.32678    
     91000   0.94471298     19.5564        116.19015    
     92000   0.98639926     19.476722      116.10062    
     93000   1.0307546      20.003492      115.91703    
     94000   0.98969086     19.540861      115.71294    
     95000   0.99912893     19.817746      115.3798     
     96000   0.93117913     20.392309      115.01031    
     97000   0.98223348     19.898852      115.0499     
     98000   0.97339053     20.065698      114.87651    
     99000   1.0048618      19.881841      114.78077    
    100000   0.99784751     19.844477      114.30758    
Loop time of 317.944 on 2 procs for 100000 steps with 799 atoms

Performance: 271746.137 tau/day, 314.521 timesteps/s
102.3% CPU use with 1 MPI tasks x 2 OpenMP threads

MPI task timing breakdown:
Section |  min time  |  avg time  |  max time  |%varavg| %total
---------------------------------------------------------------
Pair    | 0.69605    | 0.69605    | 0.69605    |   0.0 |  0.22
Bond    | 1.5147     | 1.5147     | 1.5147     |   0.0 |  0.48
Neigh   | 311.84     | 311.84     | 311.84     |   0.0 | 98.08
Comm    | 0.023334   | 0.023334   | 0.023334   |   0.0 |  0.01
Output  | 0.20507    | 0.20507    | 0.20507    |   0.0 |  0.06
Modify  | 3.4251     | 3.4251     | 3.4251     |   0.0 |  1.08
Other   |            | 0.2416     |            |       |  0.08

Nlocal:            799 ave         799 max         799 min
Histogram: 1 0 0 0 0 0 0 0 0 0
Nghost:              0 ave           0 max           0 min
Histogram: 1 0 0 0 0 0 0 0 0 0
Neighs:           4453 ave        4453 max        4453 min
Histogram: 1 0 0 0 0 0 0 0 0 0

Total # of neighbors = 4453
Ave neighs/atom = 5.5732165
Ave special neighs/atom = 1.9974969
Neighbor list builds = 1050
Dangerous builds = 0

# Replace lj potential, now collapse
pair_style      lj/cut 3

# Cutoff simul when gyration under 5
# Variable created with equal requires v_ + 'name'
fix 3 all halt 1000 v_rog < 7

run 5000000
Generated 0 of 0 mixed pair_coeff terms from geometric mixing rule
Last active /omp style is angle_style cosine/omp
Per MPI rank memory allocation (min/avg/max) = 1860 | 1860 | 1860 Mbytes
   Step          Temp         Enthalpy         c_1      
    100000   0.99784751     19.31712       114.30758    
    101000   0.98002125     18.793918      114.17298    
    102000   0.9648669      19.238342      114.08525    
    103000   1.0003125      19.504597      113.97255    
    104000   1.0142202      19.103401      113.73572    
    105000   1.0164113      19.306904      113.66483    
    106000   0.98675665     19.615732      113.44764    
    107000   1.0181992      19.797754      113.18038    
    108000   0.98689263     19.055222      112.8598     
    109000   1.0269648      19.65713       112.51423    
    110000   0.96269125     19.115755      112.31732    
    111000   1.0173964      18.991092      112.07342    
    112000   1.0248493      19.527096      112.00528    
    113000   0.99282818     19.168763      111.82673    
    114000   0.95401151     19.43789       111.52003    
    115000   1.0109332      19.122868      111.31659    
    116000   1.0163087      19.127443      111.1841     
    117000   1.0111129      19.385191      111.0053     
    118000   1.0343871      19.746835      110.7342     
    119000   0.96218287     19.472521      110.78589    
    120000   0.98700785     19.373156      110.53309    
    121000   1.0462438      19.963349      110.51775    
    122000   1.0000095      19.33534       110.33258    
    123000   0.98424256     18.649728      110.29779    
    124000   1.0121847      19.096069      109.95619    
    125000   0.96486589     19.194683      109.74632    
    126000   1.0038031      19.219792      109.36977    
    127000   0.98256595     19.228379      109.18538    
    128000   0.98681548     18.964032      109.12774    
    129000   1.0128092      18.737094      109.03605    
    130000   1.037481       18.570484      108.96937    
    131000   1.0342388      19.945834      108.81703    
    132000   0.95296884     19.421829      108.57555    
    133000   0.985503       19.18981       108.25775    
    134000   0.97770668     19.598806      108.09981    
    135000   1.0379586      18.707725      108.06974    
    136000   0.99212808     19.553266      107.7442     
    137000   1.0616011      19.447996      107.67786    
    138000   1.0203622      19.232314      107.25999    
    139000   1.013302       19.084114      107.13238    
    140000   0.97760495     19.138211      106.78719    
    141000   0.98193885     18.302433      106.53457    
    142000   0.99461943     19.286103      106.33368    
    143000   0.99521388     19.47003       106.2386     
    144000   0.99219248     18.82554       106.14275    
    145000   1.0194818      19.265495      105.88543    
    146000   1.0317015      18.88744       105.522      
    147000   1.0068773      19.595994      105.62154    
    148000   1.0205052      19.377618      105.64345    
    149000   1.0788426      19.611419      105.64455    
    150000   0.99037038     19.012414      105.45538    
    151000   0.96321062     19.043319      105.56358    
    152000   1.0308238      18.829507      105.06038    
    153000   1.0155957      19.627407      104.60945    
    154000   0.96402384     18.460734      104.38348    
    155000   0.95921873     18.412825      104.39653    
    156000   1.0095055      18.922561      104.28942    
    157000   1.019565       18.610525      104.24726    
    158000   1.0344739      19.51948       104.30346    
    159000   0.98906676     19.574422      104.12569    
    160000   1.033605       19.10855       104.04784    
    161000   1.0013365      19.01271       103.79813    
    162000   1.0576347      19.442346      103.67055    
    163000   1.0153341      19.295972      103.6        
    164000   0.99030419     19.81015       103.65156    
    165000   1.0308661      19.229545      103.49576    
    166000   0.9830532      18.491831      103.45609    
    167000   0.99350596     18.634844      103.30604    
    168000   1.003698       18.84187       103.10355    
    169000   1.0149555      18.935993      102.88966    
    170000   1.0070695      19.349837      102.60069    
    171000   0.93565453     18.588547      102.44452    
    172000   0.98536953     18.946515      102.14662    
    173000   1.0276784      18.911648      101.7689     
    174000   0.96527666     19.149703      101.57513    
    175000   0.92875405     18.867702      101.3983     
    176000   1.0165215      18.920798      101.12855    
    177000   0.9649104      18.983408      100.88884    
    178000   0.96132282     19.554042      100.50883    
    179000   0.98232203     19.732749      100.29592    
    180000   1.004974       19.067967      100.1666     
    181000   0.99867297     18.632669      99.911716    
    182000   1.0435938      18.385085      99.973735    
    183000   0.99297837     18.459354      100.12316    
    184000   0.99555621     19.316224      99.992707    
    185000   0.97621883     19.253092      99.972409    
    186000   0.95649287     18.324134      99.878405    
    187000   1.0750602      19.436781      99.522629    
    188000   1.0154677      18.976433      99.408211    
    189000   0.96245391     19.191528      99.664882    
    190000   1.0401254      18.994736      99.665316    
    191000   0.98943945     18.449817      99.365518    
    192000   1.0596943      18.385361      99.068946    
    193000   1.0707243      19.40349       98.850355    
    194000   0.96089942     19.270346      98.640531    
    195000   0.9790876      19.08787       98.263255    
    196000   0.99691562     19.123456      98.135788    
    197000   0.98349836     18.881179      97.924822    
    198000   1.0299815      19.603004      97.637175    
    199000   1.0033267      19.186241      97.327667    
    200000   1.0012902      19.171127      97.058143    
    201000   1.0319478      19.101009      96.759998    
    202000   1.0355476      19.102656      96.548369    
    203000   1.0725849      19.585432      96.627795    
    204000   1.0165738      18.904262      96.251055    
    205000   0.96271305     19.068459      96.154153    
    206000   0.98662801     18.959541      95.862682    
    207000   1.003269       18.933225      95.852019    
    208000   0.97487852     18.862112      95.628436    
    209000   0.98946638     18.974319      95.61842     
    210000   0.99141093     19.252711      95.467882    
    211000   0.99851705     19.166386      95.174771    
    212000   0.98910794     18.936277      94.968542    
    213000   1.0238153      18.889331      94.79344     
    214000   1.0595574      19.116591      94.779099    
    215000   0.99337979     19.043245      94.455405    
    216000   0.98593213     19.252773      93.784412    
    217000   0.99022983     19.184683      93.462971    
    218000   1.0077928      19.044927      93.430394    
    219000   0.99038699     19.293471      93.276376    
    220000   1.026654       18.694736      93.227895    
    221000   1.0020244      19.163095      93.307694    
    222000   1.0355813      19.216056      93.392507    
    223000   0.953626       19.20596       93.230747    
    224000   1.0294628      19.548184      93.116524    
    225000   0.97453748     19.028082      92.688094    
    226000   1.0036206      18.703359      92.630786    
    227000   0.99484411     19.477144      92.530111    
    228000   0.98908154     19.0406        92.444744    
    229000   0.97319385     18.838304      92.366738    
    230000   0.98153551     19.062494      92.094472    
    231000   0.98943109     18.481262      92.150025    
    232000   0.98995483     19.204577      92.027966    
    233000   0.96863679     19.449171      91.944603    
    234000   0.95426226     19.235497      92.093663    
    235000   1.0279897      19.214125      91.898079    
    236000   0.99109246     18.877124      91.543578    
    237000   1.0303194      18.977102      91.469627    
    238000   1.011898       19.438078      91.499663    
    239000   0.99977415     19.455373      91.193797    
    240000   1.004958       18.453326      91.128168    
    241000   0.98365328     18.620052      91.086423    
    242000   0.99682878     18.727435      90.916362    
    243000   1.0131016      18.937912      90.94034     
    244000   0.97059835     18.871483      90.823081    
    245000   0.97461133     18.710912      90.417563    
    246000   0.98055181     19.328243      90.297071    
    247000   1.0390251      18.637807      90.088748    
    248000   1.0198784      18.471798      90.060735    
    249000   0.98958334     18.667004      90.091533    
    250000   1.0077912      19.152849      89.896585    
    251000   1.0271158      19.13656       89.700309    
    252000   0.96186733     18.816696      89.683381    
    253000   0.98710341     18.647747      89.70735     
    254000   1.0296588      17.825036      89.629618    
    255000   1.0213276      18.948504      89.439758    
    256000   0.97637708     18.501881      89.363       
    257000   0.97954198     18.658558      89.382002    
    258000   1.0240799      18.606319      89.38374     
    259000   1.0368299      19.255901      89.364318    
    260000   1.0065771      18.317016      89.28543     
    261000   1.0277908      18.704758      89.197697    
    262000   1.0461338      18.291658      89.128401    
    263000   1.0430465      19.29598       88.786076    
    264000   0.96741162     19.350655      88.575362    
    265000   0.98890241     19.219828      88.313316    
    266000   0.98661824     18.951126      88.276068    
    267000   0.99239174     18.859454      88.24366     
    268000   1.0299434      18.921209      87.966496    
    269000   0.99906358     19.220702      88.000916    
    270000   0.98968521     18.65349       88.104372    
    271000   1.0272849      19.009298      87.914521    
    272000   0.96954914     18.686201      87.671115    
    273000   0.99731156     19.038674      87.504395    
    274000   1.0099124      18.812131      87.239569    
    275000   1.013931       18.415894      86.827381    
    276000   1.0168976      19.460623      86.742403    
    277000   0.99588202     18.561526      86.707314    
    278000   1.0251726      19.219423      86.766649    
    279000   0.99603392     18.105516      86.533653    
    280000   0.99577998     18.921319      86.278899    
    281000   0.98578468     18.731558      85.907614    
    282000   1.031289       18.890911      85.772627    
    283000   0.95589363     19.017528      85.761296    
    284000   0.98473257     18.826768      85.660143    
    285000   1.0099434      18.926229      85.416916    
    286000   0.94572982     19.433993      85.226499    
    287000   1.0095775      18.411499      85.293827    
    288000   0.98867548     18.774738      85.231719    
    289000   0.98847953     18.621215      84.90069     
    290000   1.0065111      18.131627      84.599865    
    291000   0.99897673     18.772671      84.694241    
    292000   0.95011981     18.441306      84.636567    
    293000   1.0101644      18.587814      84.377244    
    294000   1.0112122      18.610455      84.379294    
    295000   0.98592491     18.436335      84.032898    
    296000   0.992227       18.358843      84.010031    
    297000   1.0002342      19.626696      83.721668    
    298000   1.0268971      18.919991      83.634572    
    299000   0.99456718     18.456781      83.683802    
    300000   1.0044911      18.777945      83.361627    
    301000   1.0477535      18.72225       83.209037    
    302000   0.9870414      19.340296      83.051195    
    303000   1.0019584      18.868794      82.874097    
    304000   0.99172882     18.59175       82.791846    
    305000   1.0288341      19.216547      82.597971    
    306000   0.99974986     18.923184      82.431979    
    307000   1.0075775      18.652519      81.992402    
    308000   0.97423197     18.161992      81.668445    
    309000   0.9881628      19.027142      81.759934    
    310000   0.95717814     18.928823      81.794726    
    311000   1.0165653      19.001092      81.517734    
    312000   1.0055731      18.470345      81.635396    
    313000   0.99648308     18.769323      81.559604    
    314000   0.99354145     18.933959      81.611286    
    315000   1.0140102      19.178934      81.514709    
    316000   1.0265336      18.706937      81.225113    
    317000   1.0086478      19.605975      81.227821    
    318000   1.0250522      18.745318      81.368259    
    319000   1.0045249      18.440599      81.36999     
    320000   0.9881363      18.891035      81.264373    
    321000   1.0428335      19.040228      81.091445    
    322000   0.94290014     18.517883      80.784628    
    323000   1.0001007      18.04444       80.8362      
    324000   1.0087063      18.775469      80.728348    
    325000   1.0135538      18.73946       80.642486    
    326000   0.98638299     18.599195      80.576025    
    327000   0.98143654     18.821212      80.540853    
    328000   1.0246127      18.622383      80.319597    
    329000   0.9895531      18.966875      80.133939    
    330000   0.99366561     18.795473      79.990792    
    331000   1.0071772      18.03002       79.757735    
    332000   0.97034788     19.214691      79.554531    
    333000   0.9976238      18.295717      79.33395     
    334000   0.97367131     18.693033      79.265861    
    335000   0.98248072     18.395259      78.861824    
    336000   1.0105752      18.803907      78.798357    
    337000   0.97660424     18.254587      78.81358     
    338000   0.97271648     18.923214      78.670759    
    339000   0.98065426     18.458255      78.613467    
    340000   1.0266134      18.533311      78.473648    
    341000   1.0401872      18.224061      78.229773    
    342000   0.9960205      18.670492      77.872743    
    343000   1.0147259      18.166311      77.89088     
    344000   1.0270271      18.312043      77.679725    
    345000   0.92769475     19.089872      77.552672    
    346000   1.0290223      18.605851      77.444593    
    347000   1.0109915      18.26061       77.250189    
    348000   1.0221928      19.00017       76.942264    
    349000   0.97730445     18.721323      76.711898    
    350000   0.98429489     18.856618      76.286646    
    351000   1.0149208      19.070992      75.95644     
    352000   1.0055373      18.669144      75.603774    
    353000   1.0030631      18.349022      75.237449    
    354000   1.0369883      18.458876      75.146164    
    355000   0.97891395     18.538038      74.89792     
    356000   0.97722818     18.168288      74.81933     
    357000   0.94685116     18.43966       74.569923    
    358000   1.0032857      18.84753       74.329956    
    359000   1.0519004      18.370054      74.231289    
    360000   0.98550034     18.882796      73.852384    
    361000   1.0180137      19.176883      73.76716     
    362000   1.0049831      17.789164      73.819083    
    363000   1.0225384      18.483935      74.031523    
    364000   1.0092094      18.573326      73.88491     
    365000   1.0132383      18.733911      73.608418    
    366000   1.0048084      17.965778      73.500231    
    367000   0.99508898     18.911865      73.377614    
    368000   0.9783281      18.945823      73.228653    
    369000   0.9807558      18.412006      73.274274    
    370000   1.0406115      18.773968      73.156801    
    371000   1.0056355      18.128012      73.027486    
    372000   0.99177721     18.213358      73.187981    
    373000   0.93698241     17.681206      72.94196     
    374000   0.9990518      18.7119        73.009845    
    375000   1.0486566      18.270348      72.909785    
    376000   1.0023663      18.129721      72.78599     
    377000   0.99412531     18.235835      72.571379    
    378000   0.96077959     18.710082      72.613807    
    379000   0.98238923     18.690106      72.917349    
    380000   0.99377464     18.355408      72.535256    
    381000   0.99186436     18.570301      72.301627    
    382000   1.0561037      18.52966       72.299519    
    383000   1.0351516      18.829172      72.167747    
    384000   0.99772136     18.292633      71.767802    
    385000   1.0003251      19.138195      71.651482    
    386000   1.0342366      18.772577      71.51844     
    387000   1.0084585      18.222962      71.463806    
    388000   1.0240322      18.098247      71.380228    
    389000   1.0060101      18.256282      71.32689     
    390000   1.021079       18.229424      71.276645    
    391000   1.063772       19.241719      71.303199    
    392000   1.0147171      18.600565      71.467651    
    393000   0.99550398     18.253838      71.172064    
    394000   1.0011473      18.622747      70.989554    
    395000   1.0249904      18.930481      70.881933    
    396000   1.0160909      18.554402      70.989199    
    397000   1.0060233      18.381739      70.979789    
    398000   0.98830814     18.627103      70.919172    
    399000   1.0760276      18.376902      70.55935     
    400000   0.99191072     18.021269      70.409681    
    401000   1.052678       18.812249      70.322145    
    402000   0.98144659     18.267532      70.01006     
    403000   1.0111241      18.849443      69.98846     
    404000   1.0078239      18.41213       69.779899    
    405000   0.95947822     18.348562      69.591033    
    406000   0.99524523     18.165795      69.517963    
    407000   1.0232151      17.947876      69.258281    
    408000   0.9814523      17.919416      68.851935    
    409000   1.0152617      18.753282      68.814698    
    410000   1.0292299      18.601463      68.78865     
    411000   0.95666281     18.352318      68.53246     
    412000   1.0162357      18.203414      68.485023    
    413000   0.99653743     17.764161      68.38277     
    414000   1.0352699      18.534375      68.382342    
    415000   1.0348303      18.392716      68.247264    
    416000   1.0274696      18.367316      68.389017    
    417000   1.0159368      18.970702      68.391962    
    418000   1.014779       18.56626       68.239909    
    419000   1.0159946      18.098573      68.132069    
    420000   0.97569284     18.197478      67.996603    
    421000   1.0622584      18.372429      67.931858    
    422000   0.99446259     18.647186      68.003945    
    423000   1.0307053      18.361841      68.00326     
    424000   1.0192039      18.008987      67.786637    
    425000   0.97652357     18.775563      67.73815     
    426000   0.9933489      17.759289      67.582402    
    427000   0.97637122     17.846781      67.475134    
    428000   1.0259763      17.983086      67.29162     
    429000   0.9687549      18.858606      67.111988    
    430000   1.0116385      18.364755      66.905588    
    431000   1.0207105      17.938084      66.767896    
    432000   0.96960113     18.398466      66.617042    
    433000   1.0198694      18.512238      66.533395    
    434000   1.0227861      18.533992      66.300931    
    435000   0.99923358     18.332886      66.276256    
    436000   1.0173213      18.071923      65.98167     
    437000   0.99935153     18.02907       65.814736    
    438000   0.98718622     18.472167      65.684827    
    439000   1.0159586      18.651346      65.677421    
    440000   1.0189176      18.454         65.484989    
    441000   0.99410206     18.488556      65.320081    
    442000   1.0105087      17.998632      65.364836    
    443000   1.0011129      18.294833      65.113129    
    444000   0.95243235     18.697066      64.669124    
    445000   1.0580738      18.408745      64.557646    
    446000   0.99182306     18.665941      64.419896    
    447000   1.0555089      18.193701      64.259488    
    448000   0.9932971      18.55918       64.385801    
    449000   1.006992       18.234634      64.107327    
    450000   0.98324865     18.019999      63.985526    
    451000   1.0514023      18.2079        63.788286    
    452000   0.99417255     18.939889      63.669585    
    453000   1.0238596      18.287367      63.584227    
    454000   0.94776916     18.410468      63.397191    
    455000   0.99770086     18.303335      63.240465    
    456000   1.0060973      18.634867      63.256799    
    457000   0.98021858     18.795302      63.263952    
    458000   0.98524511     17.79632       63.268629    
    459000   0.97832147     18.391262      62.922358    
    460000   1.0110484      18.556258      62.756023    
    461000   0.97529572     17.894968      62.5419      
    462000   1.0096163      18.624072      62.334       
    463000   0.94768369     18.055631      61.988565    
    464000   1.0077798      18.634683      61.840648    
    465000   1.0295564      19.204528      61.701399    
    466000   1.0163633      18.683241      61.734331    
    467000   0.98335099     18.150551      61.787569    
    468000   0.9885081      18.030765      61.663779    
    469000   1.0129471      17.722573      61.637335    
    470000   1.0030956      18.29053       61.523339    
    471000   0.99382688     18.372919      61.302102    
    472000   1.0170783      17.647754      61.228019    
    473000   1.0008325      18.41397       61.036552    
    474000   1.0184576      18.306015      61.035475    
    475000   0.9911904      17.954882      60.686811    
    476000   1.0178608      18.67804       60.718524    
    477000   1.0113306      18.369451      60.603362    
    478000   1.0631246      18.183503      60.401081    
    479000   0.98965668     18.169983      60.312462    
    480000   0.99830533     18.825128      60.310352    
    481000   0.9820869      18.089304      60.025558    
    482000   1.0115309      18.198362      59.887948    
    483000   1.03775        18.202289      59.857433    
    484000   0.98951041     17.683168      59.803773    
    485000   0.98097677     18.233704      59.441611    
    486000   1.0004337      18.513202      59.105313    
    487000   1.0332258      18.252437      58.926532    
    488000   0.97771142     17.953119      58.803477    
    489000   1.0313761      18.902914      58.576648    
    490000   1.0099611      17.6369        58.275091    
    491000   1.0282716      18.61508       57.961623    
    492000   0.96117786     18.360355      57.647341    
    493000   0.9626426      18.006888      57.42298     
    494000   1.0464301      17.907311      57.202001    
    495000   1.0104745      18.323967      57.203018    
    496000   1.0291647      18.236084      56.997409    
    497000   1.0310595      18.354099      56.94495     
    498000   0.99405592     17.87546       56.981954    
    499000   1.0004375      18.550348      56.896666    
    500000   1.062872       18.339163      56.862468    
    501000   1.0264752      19.268321      56.925231    
    502000   0.94537594     18.25867       56.686742    
    503000   1.0117922      18.429865      56.660755    
    504000   1.0337281      18.911554      56.583755    
    505000   0.99580943     17.503653      56.616659    
    506000   1.0265608      18.346397      56.616122    
    507000   1.006665       17.851611      56.247947    
    508000   1.0098731      18.092961      56.073813    
    509000   0.98505865     18.002246      55.733301    
    510000   1.0462771      18.205407      55.669981    
    511000   1.0340397      17.390505      55.64833     
    512000   0.97421781     18.02475       55.115658    
    513000   1.0220023      18.111141      54.953256    
    514000   0.97515244     18.181949      54.896387    
    515000   0.99184684     18.289713      54.619641    
    516000   1.0183144      18.049618      54.486283    
    517000   0.99879805     18.913258      54.392231    
    518000   0.94972803     17.799623      54.144722    
    519000   0.97774076     18.27793       54.033773    
    520000   0.99849994     18.342517      53.979137    
    521000   0.96265704     18.413277      54.127719    
    522000   0.94143813     18.208471      54.258549    
    523000   1.0637873      18.151593      54.082421    
    524000   0.97183069     17.966151      54.00466     
    525000   0.99317874     18.112406      53.958893    
    526000   0.94915275     17.751433      53.795744    
    527000   1.022714       18.585564      53.680955    
    528000   0.97414832     18.272021      53.502678    
    529000   1.0142156      18.188464      53.163996    
    530000   1.0057052      17.977288      53.16859     
    531000   1.0420315      18.969609      53.08709     
    532000   0.99176178     18.258501      53.085533    
    533000   0.9548435      18.155733      52.870208    
    534000   0.9863054      18.418611      52.99641     
    535000   0.99702412     17.893784      52.673666    
    536000   1.0160431      18.16062       52.458252    
    537000   0.99826436     17.747353      52.224324    
    538000   0.98639048     17.669218      52.182885    
    539000   1.0404118      18.286047      51.917682    
    540000   1.0006675      18.234214      51.742221    
    541000   1.0035602      18.210706      51.692945    
    542000   0.99368301     18.160907      51.834974    
    543000   1.0306261      17.57083       51.722095    
    544000   0.98336245     18.158644      51.711998    
    545000   0.97390036     18.114686      51.665517    
    546000   0.95236204     18.452834      51.752109    
    547000   1.0378732      17.814898      51.588903    
    548000   1.0446911      18.184878      51.576743    
    549000   1.0135575      18.508647      51.702332    
    550000   1.0138138      18.219891      51.51196     
    551000   1.0648195      17.982696      51.45884     
    552000   0.9996411      18.591751      51.419901    
    553000   0.98637247     17.971043      51.418074    
    554000   0.95325945     17.766859      51.421562    
    555000   1.0148123      17.824541      51.244164    
    556000   0.97803819     17.777289      50.937803    
    557000   0.99856487     17.569209      50.511454    
    558000   0.96551603     17.648342      50.604595    
    559000   1.0209776      18.604106      50.252328    
    560000   1.0401105      18.571804      50.158432    
    561000   0.96562976     18.633954      50.133051    
    562000   1.0483338      17.740112      50.204751    
    563000   1.0262178      18.291191      50.045418    
    564000   1.0089514      18.141652      50.248356    
    565000   1.0148788      17.398842      50.005836    
    566000   0.98023434     18.210567      50.03418     
    567000   1.0083256      18.295246      49.787329    
    568000   0.97638091     17.791176      49.721323    
    569000   1.0062373      17.703292      49.604682    
    570000   0.99894427     18.149049      49.413282    
    571000   0.95496302     17.946771      49.25979     
    572000   0.96608295     18.409518      48.936071    
    573000   1.0400774      17.647937      48.914608    
    574000   0.95721468     17.817586      48.543146    
    575000   1.0195464      18.3817        48.472038    
    576000   0.97959948     18.054809      48.224108    
    577000   0.99185092     17.708945      47.751924    
    578000   1.0024789      18.58801       47.484329    
    579000   1.0163745      17.882901      47.234022    
    580000   1.0008418      17.436098      46.97485     
    581000   0.95713767     18.113099      46.963439    
    582000   0.97622422     18.232919      46.810631    
    583000   1.0404663      17.673305      46.603532    
    584000   1.0493106      18.061337      46.305155    
    585000   0.99890932     18.325017      46.311735    
    586000   0.96362529     17.648564      46.243954    
    587000   1.038463       17.863015      46.323647    
    588000   1.009158       18.248284      46.258939    
    589000   0.98165007     17.742353      46.121739    
    590000   0.99957886     17.960626      46.002448    
    591000   1.0186586      17.636279      45.966945    
    592000   0.98987975     18.409115      45.924998    
    593000   1.0112363      17.934728      45.923184    
    594000   1.0115067      17.555203      45.667748    
    595000   0.99063984     17.827287      45.253562    
    596000   1.0346017      17.56741       45.268372    
    597000   0.97777753     17.789094      45.260159    
    598000   0.97226923     18.630912      45.385961    
    599000   0.94871302     17.598392      45.027564    
    600000   0.9904769      18.499169      45.000655    
    601000   1.0187979      17.646612      44.61072     
    602000   0.98021562     18.386318      44.442877    
    603000   1.0264973      17.434974      44.20361     
    604000   0.98566372     18.214886      44.079767    
    605000   1.0355615      18.612917      43.905488    
    606000   1.0081011      18.096467      43.887306    
    607000   0.98461907     17.5689        43.825572    
    608000   1.0648094      17.949918      43.424422    
    609000   0.98867302     17.710487      43.196666    
    610000   1.0453392      18.176863      43.314793    
    611000   0.9940532      18.210277      43.28475     
    612000   0.97299168     18.272989      43.205404    
    613000   0.98497628     17.608334      43.056785    
    614000   0.97571211     17.797443      42.945157    
    615000   0.96952394     18.130541      42.664116    
    616000   0.98077501     17.553777      42.471467    
    617000   1.0365468      18.474192      42.367529    
    618000   0.96693869     18.120669      42.040819    
    619000   0.93745195     18.192484      41.658261    
    620000   1.0002664      18.422293      41.801849    
    621000   1.0067723      17.858611      41.488112    
    622000   1.0134391      17.40866       41.643402    
    623000   1.0127623      17.492687      41.461547    
    624000   1.0156298      18.343857      41.304355    
    625000   0.95535054     17.977063      41.285888    
    626000   1.0226796      17.492116      41.187956    
    627000   1.0184744      18.150038      41.057545    
    628000   1.0575259      18.280682      40.864878    
    629000   1.0175745      18.334996      40.830164    
    630000   1.0121465      18.523354      40.713759    
    631000   1.0213194      17.702612      40.443292    
    632000   0.99291611     17.251756      40.269341    
    633000   1.0124633      17.25238       40.318816    
    634000   1.0643178      17.802584      39.896428    
    635000   1.0126587      18.634         39.906598    
    636000   1.0050317      17.702606      39.85195     
    637000   1.0301337      18.051323      39.554434    
    638000   0.98870666     16.895205      39.248599    
    639000   0.99663731     18.195158      39.313802    
    640000   1.025869       18.11634       39.137163    
    641000   0.99680079     18.174945      39.170927    
    642000   0.96273256     17.896038      39.265686    
    643000   0.98603805     17.380675      39.112504    
    644000   1.0238495      18.614603      39.086476    
    645000   0.90822291     17.519307      38.83779     
    646000   0.9843927      17.757688      38.710736    
    647000   1.0264177      18.16619       38.486221    
    648000   1.0035245      17.645083      38.478527    
    649000   1.0668447      18.359739      38.198739    
    650000   0.95359568     17.951341      38.077906    
    651000   0.99597066     18.077525      37.963135    
    652000   0.9855089      17.931606      37.887501    
    653000   1.0037785      18.239781      37.642995    
    654000   1.0375287      17.871496      37.472589    
    655000   0.96874145     17.952445      37.524491    
    656000   1.005682       18.231514      37.622545    
    657000   0.99021145     17.318359      37.52429     
    658000   0.98741897     18.112057      37.604905    
    659000   1.0624517      17.417336      37.614386    
    660000   0.95609095     17.255597      37.356806    
    661000   1.0095999      17.730578      37.168187    
    662000   1.0438595      18.154727      36.894599    
    663000   0.96339779     17.749045      36.910178    
    664000   1.0218099      17.678376      37.008525    
    665000   0.9629366      17.382074      36.908476    
    666000   0.95319171     17.327317      36.784587    
    667000   1.0402664      17.95793       36.183921    
    668000   1.0044339      18.240222      36.121639    
    669000   0.97985273     17.714364      36.03596     
    670000   0.98320106     17.747719      35.892403    
    671000   1.0490952      17.82342       35.823928    
    672000   1.0349688      18.340924      35.569789    
    673000   0.96232369     18.070534      35.758325    
    674000   0.96681848     17.810145      35.826371    
    675000   0.98672553     17.842231      35.626032    
    676000   1.0080873      17.48513       35.27394     
    677000   0.9600787      17.576312      35.194662    
    678000   0.96673324     18.263459      34.909165    
    679000   1.0247566      17.703617      34.795434    
    680000   1.0362494      17.567381      34.835489    
    681000   0.95417435     17.450244      34.988667    
    682000   1.0089925      17.713012      34.761569    
    683000   1.0076165      18.105201      34.782635    
    684000   0.94735545     17.861405      34.720378    
    685000   1.0149357      18.046484      34.644766    
    686000   1.0136722      18.513821      34.390496    
    687000   1.0367329      18.442378      34.039385    
    688000   1.0365062      17.974261      33.667966    
    689000   0.93641863     18.190697      33.804318    
    690000   1.0152628      17.810199      33.833548    
    691000   0.96796626     17.504601      33.565205    
    692000   0.958279       17.846601      33.426147    
    693000   1.0355504      17.75129       33.2605      
    694000   0.99962575     17.827824      33.223836    
    695000   1.0018266      18.114123      33.290477    
    696000   1.0110959      17.684443      33.286133    
    697000   1.0305826      18.03699       33.252658    
    698000   1.0305572      17.360711      32.914453    
    699000   1.0015425      18.032477      32.849851    
    700000   1.0337385      17.806341      32.592928    
    701000   1.0068055      18.308275      32.472719    
    702000   1.0007044      18.100509      32.357949    
    703000   0.99773037     18.111372      32.326541    
    704000   1.0310723      18.104657      32.301833    
    705000   1.0239467      18.092675      31.85456     
    706000   0.9805509      17.624312      31.950399    
    707000   1.0283534      17.319491      32.059722    
    708000   1.0221395      17.638075      32.05413     
    709000   1.0076549      17.468882      31.965627    
    710000   1.102441       18.180862      31.842371    
    711000   1.0160179      17.651586      31.698265    
    712000   0.9952093      17.881327      31.421084    
    713000   0.97943454     17.873685      31.237883    
    714000   0.98275755     18.252199      31.046291    
    715000   0.96494905     17.861247      30.92048     
    716000   1.0070399      17.90539       30.879698    
    717000   0.96975286     17.428086      30.84241     
    718000   0.98698331     17.764655      30.660162    
    719000   1.0420333      17.756816      30.544666    
    720000   0.98575967     18.062964      30.426145    
    721000   1.0112448      18.398854      30.487716    
    722000   0.97512939     17.164622      30.482605    
    723000   1.0216115      18.059587      30.589755    
    724000   0.93329897     17.825905      30.263636    
    725000   0.99733976     18.15219       30.041401    
    726000   1.0441244      17.689809      29.784353    
    727000   1.0130459      17.870627      29.77572     
    728000   0.97758558     17.678494      29.592978    
    729000   1.0361322      17.908508      29.568117    
    730000   1.0111311      17.394877      29.537592    
    731000   1.0512238      17.922207      29.661163    
    732000   1.0202675      17.957998      29.447127    
    733000   0.96011482     17.695273      29.278208    
    734000   1.0270973      17.154577      29.141706    
    735000   0.96456253     18.123745      29.146424    
    736000   0.94932221     18.047044      29.111019    
    737000   1.0194859      17.577805      28.97883     
    738000   1.0009828      17.827114      28.941384    
    739000   0.97172449     17.90317       28.834198    
    740000   0.97376627     17.589684      28.955125    
    741000   1.0185467      17.733098      28.664596    
    742000   0.9620915      17.718276      28.619029    
    743000   0.99145491     17.602801      28.548577    
    744000   0.99567745     18.19824       28.678123    
    745000   0.98930312     18.538486      28.720502    
    746000   0.98393042     17.441795      28.756953    
    747000   0.97247584     17.280963      28.550022    
    748000   1.0244237      18.209589      28.177346    
    749000   1.0335708      18.143841      27.980264    
    750000   0.99733845     17.349567      27.911639    
    751000   1.0104602      18.047775      27.587266    
    752000   0.99040696     17.017892      27.639904    
    753000   1.0032902      17.996336      27.693757    
    754000   0.95763683     16.96289       27.715027    
    755000   0.96556512     16.96096       27.663796    
    756000   0.9771016      17.562037      27.371596    
    757000   0.98147589     17.354266      27.284146    
    758000   0.99101571     17.761876      27.112661    
    759000   0.95817356     17.451231      27.059366    
    760000   1.0094125      17.74975       27.167822    
    761000   1.0068178      17.020214      27.095171    
    762000   1.0001734      17.663126      26.954486    
    763000   1.015567       17.725394      27.224308    
    764000   1.0191914      18.258178      27.089872    
    765000   1.0095745      16.863269      27.028555    
    766000   0.95765208     17.195848      26.833047    
    767000   0.99343282     18.116007      26.68122     
    768000   1.0689771      17.60025       26.329111    
    769000   0.94353567     17.538043      26.211395    
    770000   1.0738051      17.575661      25.878313    
    771000   0.99463172     17.896313      25.874832    
    772000   1.0210458      17.703107      25.932703    
    773000   1.04247        18.21281       25.846417    
    774000   0.97511724     17.30242       25.793381    
    775000   1.0623805      17.893377      25.704597    
    776000   0.98680478     17.603862      25.563666    
    777000   1.0104175      17.794964      25.364091    
    778000   1.007958       17.801569      25.228617    
    779000   1.0096517      17.474932      24.998777    
    780000   1.0388705      18.042185      25.038092    
    781000   1.0089225      17.708608      24.838136    
    782000   1.0396108      17.066848      24.706084    
    783000   0.99932937     17.661158      24.721163    
    784000   0.97983885     17.941958      24.491584    
    785000   1.0681391      17.470754      24.672564    
    786000   1.0318079      17.661154      24.697683    
    787000   0.99314285     17.526446      24.455103    
    788000   1.0283637      17.501748      24.422337    
    789000   1.0057293      17.719144      24.172412    
    790000   0.97935894     18.407356      23.93882     
    791000   0.96710918     17.396557      23.810464    
    792000   0.97771281     17.618292      23.734128    
    793000   1.0161796      18.424969      23.420979    
    794000   1.002933       17.861047      23.29677     
    795000   0.97541912     16.696304      22.956652    
    796000   1.0036594      17.718375      22.752127    
    797000   0.99929009     17.318124      22.585749    
    798000   0.97912022     17.732601      22.691372    
    799000   1.0209018      17.917529      22.51058     
    800000   1.0278453      17.139137      22.459261    
    801000   0.98808622     17.677062      22.457608    
    802000   1.0143542      17.705087      22.252474    
    803000   1.0178353      17.410083      22.351423    
    804000   0.98451452     17.557963      22.412222    
    805000   0.97933235     17.315782      22.175673    
    806000   0.98388797     17.575568      22.252879    
    807000   0.99340061     17.169748      22.299282    
    808000   1.021483       17.00633       22.28545     
    809000   1.0227745      17.740626      22.419449    
    810000   0.96078128     17.297003      22.224867    
    811000   1.0322645      17.109614      22.15444     
    812000   0.97244954     17.856246      22.027872    
    813000   1.0149195      18.496579      21.993753    
    814000   0.98265527     17.599899      22.139757    
    815000   0.96467218     17.428569      21.952944    
    816000   1.0030408      16.742027      21.755901    
    817000   0.97733198     17.230069      21.730085    
    818000   1.1080683      17.44471       21.729859    
    819000   1.048112       17.790986      21.748829    
    820000   0.94944304     16.873813      21.711943    
    821000   1.0324992      18.032933      21.412317    
    822000   1.0398019      17.84208       21.165549    
    823000   1.0304458      17.077986      20.857377    
    824000   1.0449934      17.3064        20.792557    
    825000   0.98531131     17.209742      20.718114    
    826000   1.0021818      17.660117      20.88221     
    827000   0.98448881     16.986165      20.846715    
    828000   0.98323122     17.692867      20.610337    
    829000   0.97914276     17.26649       20.656274    
    830000   0.98045841     16.400383      20.365617    
    831000   0.95951856     17.440375      20.17456     
    832000   0.94150176     16.867236      20.169382    
    833000   0.995591       17.667612      19.948574    
    834000   1.0209111      17.969358      19.971975    
    835000   1.0019677      17.365885      20.055323    
    836000   1.0051932      17.56126       19.840207    
    837000   0.98337571     17.314105      19.793685    
    838000   1.0088725      17.859715      19.70015     
    839000   1.0334951      17.643124      19.512072    
    840000   1.0627172      17.590409      19.382204    
    841000   0.98951018     17.806389      19.086215    
    842000   1.0361181      18.193108      18.589847    
    843000   0.98843216     17.360482      18.37413     
    844000   1.0825742      18.127053      18.287521    
    845000   1.0040061      17.189176      18.209614    
    846000   0.95405684     17.12651       18.126384    
    847000   0.9551395      17.910421      17.932761    
    848000   1.0133454      17.863149      17.755137    
    849000   0.90802317     17.104465      17.766026    
    850000   1.0109705      17.957436      17.742798    
    851000   1.0110946      18.19669       17.686292    
    852000   1.0309192      17.853037      17.470857    
    853000   0.96369427     16.646468      17.634902    
    854000   0.96472033     16.968592      17.431913    
    855000   1.0873825      18.010156      17.070865    
    856000   0.97828476     17.785541      17.171532    
    857000   0.99446038     18.012358      16.980751    
    858000   1.0293303      17.768398      17.032153    
    859000   1.0076074      17.437076      16.852172    
    860000   0.99212197     17.263903      16.535753    
    861000   0.9820825      17.386711      16.596073    
    862000   0.9843189      17.145025      16.429424    
    863000   1.0585679      17.394304      16.331133    
    864000   0.98433335     18.180811      16.487183    
    865000   0.99489741     17.158715      16.350961    
    866000   0.98157194     17.198611      16.383401    
    867000   0.99322872     17.396438      16.384955    
    868000   0.97810875     17.598002      16.463014    
    869000   0.96002307     17.307028      16.289191    
    870000   1.0138309      17.545629      16.057417    
    871000   1.0545233      17.188298      15.925741    
    872000   0.99204288     17.582639      15.750345    
    873000   0.97529716     17.509383      15.609664    
    874000   0.95065253     17.180938      15.392505    
    875000   0.98713802     17.932362      15.167436    
    876000   0.96563211     17.613526      14.887174    
    877000   1.0389288      17.703721      14.784137    
    878000   0.99902502     17.717603      14.377226    
    879000   1.0124923      17.389447      14.114535    
    880000   0.98774991     16.947308      14.06114     
    881000   1.0014211      17.334091      13.82871     
    882000   1.0565826      17.610776      13.606478    
    883000   1.0173473      17.130359      13.47826     
    884000   0.95895193     17.008723      13.176382    
    885000   1.0262207      17.551325      13.033524    
    886000   1.0427146      17.797425      12.878557    
    887000   0.94324478     17.062342      12.762397    
    888000   1.0443439      17.722227      12.420606    
    889000   0.98465296     17.679843      12.089598    
    890000   0.98837017     17.293648      11.843953    
    891000   0.99922403     16.950089      11.634053    
    892000   0.98816564     17.18012       11.650872    
    893000   1.0396657      17.010683      11.583854    
    894000   1.0024001      17.473011      11.620814    
    895000   1.0058512      16.882351      11.417113    
    896000   0.94717904     17.147035      11.449428    
    897000   1.0035274      17.174076      11.329192    
    898000   0.98895828     18.067799      11.493       
    899000   0.99927021     17.157611      11.334961    
    900000   1.0379004      17.073808      11.286704    
    901000   0.97530302     17.996116      11.112601    
    902000   1.0283656      16.855101      10.982612    
    903000   1.0084296      17.50236       11.118661    
    904000   0.98573064     16.984164      11.10401     
    905000   0.96796115     17.43456       11.097855    
    906000   1.0322662      17.275527      11.253304    
    907000   1.0543321      17.169791      11.03367     
    908000   1.0097082      16.665647      10.882304    
    909000   0.97466656     16.699694      10.554305    
    910000   1.0647643      17.600217      10.402588    
    911000   1.0004769      17.781137      10.297285    
    912000   0.97563102     17.51046       10.232244    
    913000   1.0443403      16.889786      9.9969756    
    914000   1.0059696      16.469023      9.8859625    
    915000   1.0174339      17.666552      9.6733198    
    916000   1.0172274      17.091221      9.4136507    
    917000   1.0034321      17.034527      9.1003924    
    918000   1.0125442      17.533077      8.8588581    
    919000   0.99706939     17.036447      8.7113479    
    920000   1.031043       16.643033      8.7289872    
    921000   0.9929659      16.742562      8.4480267    
    922000   1.0233648      17.288895      8.3638395    
    923000   1.0343131      17.640295      8.4023523    
    924000   0.95797989     17.774599      8.4432948    
    925000   1.0062414      17.079266      8.3730911    
    926000   0.98528471     17.114167      8.3944294    
    927000   1.025076       17.343358      8.3034471    
    928000   1.0371178      17.485278      8.0609256    
    929000   1.0258802      17.698798      7.915926     
    930000   0.96143206     16.340322      7.7017504    
    931000   1.0255479      18.066547      7.529933     
    932000   1.010694       16.607436      7.3686906    
    933000   0.99324386     17.811556      7.2444996    
    934000   0.96803403     16.957118      7.0371526    
Fix halt condition for fix-id 3 met on step 935000 with value 6.998635899136662 (src/fix_halt.cpp:237)
    935000   1.0028583      18.016948      6.9986359    
Loop time of 1130.6 on 2 procs for 835000 steps with 799 atoms

Performance: 638101.460 tau/day, 738.543 timesteps/s
116.4% CPU use with 1 MPI tasks x 2 OpenMP threads

MPI task timing breakdown:
Section |  min time  |  avg time  |  max time  |%varavg| %total
---------------------------------------------------------------
Pair    | 129.54     | 129.54     | 129.54     |   0.0 | 11.46
Bond    | 13.159     | 13.159     | 13.159     |   0.0 |  1.16
Neigh   | 954.93     | 954.93     | 954.93     |   0.0 | 84.46
Comm    | 0.20778    | 0.20778    | 0.20778    |   0.0 |  0.02
Output  | 1.7849     | 1.7849     | 1.7849     |   0.0 |  0.16
Modify  | 28.812     | 28.812     | 28.812     |   0.0 |  2.55
Other   |            | 2.172      |            |       |  0.19

Nlocal:            799 ave         799 max         799 min
Histogram: 1 0 0 0 0 0 0 0 0 0
Nghost:              0 ave           0 max           0 min
Histogram: 1 0 0 0 0 0 0 0 0 0
Neighs:         143860 ave      143860 max      143860 min
Histogram: 1 0 0 0 0 0 0 0 0 0

Total # of neighbors = 143860
Ave neighs/atom = 180.05006
Ave special neighs/atom = 1.9974969
Neighbor list builds = 7900
Dangerous builds = 0

# This simulation is done
# Move onto the next one
clear
  using 2 OpenMP thread(s) per MPI task
package omp 0
using multi-threaded neighbor list subroutines
next f
jump SELF

###
# Reference paper:
# K. Kremer and G. S. Grest
# Dynamics of entangled linear polymer melts: A molecular-dynamics simulation
# J Chem Phys 92, 5057 (1990)

##################################
# MIHIR: for branched polymers
# LJ minimum first to expand and explore, then collapse
###

###
# Looping through the various tshaped polymers to simulate,
# define variables to switch through
#variable f index bb66nuc1bl33bn3d30tot100 bb133nuc1bl66bn3d30tot200 bb200nuc1bl100bn3d30tot300 bb266nuc1bl133bn3d30tot400 bb333nuc1bl166bn3d30tot500 bb400nuc1bl200bn3d30tot600 bb466nuc1bl233bn3d30tot700 bb533nuc1bl266bn3d30tot800 bb600nuc1bl300bn3d30tot900 bb666nuc1bl333bn3d30tot1000 bb733nuc1bl366bn3d30tot1100 bb800nuc1bl400bn3d30tot1200
variable f index bb333nuc1bl166bn3d30tot500 bb400nuc1bl200bn3d30tot600 bb466nuc1bl233bn3d30tot700 bb533nuc1bl266bn3d30tot800 bb600nuc1bl300bn3d30tot900 bb666nuc1bl333bn3d30tot1000 bb733nuc1bl366bn3d30tot1100 bb800nuc1bl400bn3d30tot1200
###


###
# Box and units  (use LJ units and periodic boundaries)
###

units lj
log tshaped/logs2/$f.log
log tshaped/logs2/bb600nuc1bl300bn3d30tot900.log
