#atom_style bond #no stiffness
atom_style angle #with stiffness

boundary        p p p
###
# Pair interactions require lists of neighbours to be calculated
###

#neighbor 0.3 bin
neighbor 4 bin

neigh_modify every 1 delay 1 check yes
atom_modify sort 0 0
### Generate RESTART file, SPECIAL format, not a .txt file ###
### Useful if simulation crashes ###

restart 1000000 tshaped/restarts2/$f.restart
restart 1000000 tshaped/restarts2/bb600nuc1bl300bn3d30tot900.restart
#############################



### READ "start" data file ###

read_data tshaped/$f.dat
read_data tshaped/bb600nuc1bl300bn3d30tot900.dat
Reading data file ...
  orthogonal box = (-1000 -1000 -1000) to (1000 1000 1000)
  1 by 1 by 1 MPI processor grid
  reading atoms ...
  901 atoms
  scanning bonds ...
  2 = max bonds/atom
  scanning angles ...
  3 = max angles/atom
  reading bonds ...
  900 bonds
  reading angles ...
  900 angles
Finding 1-2 1-3 1-4 neighbors ...
  special bond factors lj:    0        0        0       
  special bond factors coul:  0        0        0       
     3 = max # of 1-2 neighbors
     3 = max # of 1-3 neighbors
     6 = max # of 1-4 neighbors
     9 = max # of special neighbors
  special bonds CPU = 0.000 seconds
  read_data CPU = 0.051 seconds

######################

### READ "REstart" data file ###

######################



###
# Define groups (atom type 1 is group 'all')
###
group all type 1
901 atoms in group all


###
# Dump configs - "simple dumpings"
###

###
# Dump configs + box coords
###

dump   1   all   custom   1000  tshaped/trjs2/$f.lammpstrj  id  x y z  ix iy iz
dump   1   all   custom   1000  tshaped/trjs2/bb600nuc1bl300bn3d30tot900.lammpstrj  id  x y z  ix iy iz
dump_modify   1   format line "%d %.5f %.5f %.5f %d %d %d"

########################################################################


###################################################################
# Stiffness term
#
# E = K * (1+cos(theta)), K>0
#
angle_style   cosine
#change this coefficient to change stiffness (e.g. 1,5,10)
angle_coeff   1 1.0
###################################################################

###################################################################
# Pair interaction between non-bonded atoms
#
#  Lennard-Jones 12-6 potential with cutoff:
#  potential E=4epsilon[ (sigma/r)^12 - (sigma/r)^6]  for r<r_cut
#
#  1.12246 = 2^(1/6) is the minimum of the potential


pair_style      lj/cut 1.12246152962189
#pair_style      lj/cut 3

#
#  pair_modify shift yes adds a constant to the potential such

#  that E(r_cut)=0. Forces remains unchanged.
#

pair_modify     shift yes

#
#  pair_coeff for lj/cut, specify 4:
#    * atom type interacting with
#    * atom type
#    * epsilon (energy units)
#    * sigma (distance units)
#

pair_coeff      1 1 1.0 1.0
###################################################################

###################################################################
# Pair interaction between non-bonded atoms
#
#  soft potential, for PUSHING apart overlapping atoms
#  potential E=A*(1 + cos(pi*r/r_c))
#
#  1.12246 = 2^(1/6) is the cut-off r_c

#pair_style     soft 1.12246152962189

#
#  pair_coeff for soft, specify 3:
#    * atom type interacting with
#    * atom type
#    * A
#
#

#pair_coeff      1 1 100.0
###################################################################

###################################################################
# Pair interaction between bonded atoms
#
# Fene potential + Lennard Jones 12-6:

#
#  E= - 0.5 K R0^2 ln[ 1- (r/R0)^2]
#     + 4epsilon[ (sigma/r)^12 - (sigma/r)^6] + epsilon
#

bond_style   fene


#
# For style fene, specify:
#   * bond type
#   * K (energy/distance^2)
#   * R0 (distance)
#   * epsilon (energy)  (LJ component)
#   * sigma (distance)  (LJ component)
#


special_bonds fene #<=== I M P O R T A N T (new command)
Finding 1-2 1-3 1-4 neighbors ...
  special bond factors lj:    0        1        1       
  special bond factors coul:  0        1        1       
     3 = max # of 1-2 neighbors
     9 = max # of special neighbors
  special bonds CPU = 0.000 seconds

bond_coeff   1   30   2   1.0   1.0


###################################################

###################################################################
# Pair interaction between bonded atoms
#
# Harmonic potential:
#
#  E= K * (R-R0)^2
#

#bond_style   harmonic

#
# For style harmonic, specify:
#   * bond type
#   * K (energy/distance^2)
#   * R0 (distance)
#

#bond_coeff   1   60.0   1.0
#bond_coeff   2   harmonic 0.1   1.0

###################################################
compute 1 all gyration
variable rog equal c_1
#compute 2 all coord/atom cutoff 1.1

#dump 2 all custom 10000 contact_number.dump id c_2


###
# Set up fixes
###
thermo_style   custom   step  temp enthalpy c_1
fix 1 all nve   ###NVE ensemble

fix 2 all   langevin   1.0 1.0 1.0  778655   ###Langevin integrator Tstart Tstop 1/friction rndseed


##### Sample thermodynamic info  (temperature, energy, pressure, etc.) #####
thermo 1000









############################################################################

###
# set timestep of integrator

timestep 0.01

###
# run integration for a number of steps
###
#run 0
#variable r equal c_1
#if "$r < 63.1" then "quit 1"

# lj potential minimum, cause molecule to explore
run 100000
Generated 0 of 0 mixed pair_coeff terms from geometric mixing rule
Last active /omp style is angle_style cosine/omp
Neighbor list info ...
  update: every = 1 steps, delay = 1 steps, check = yes
  max neighbors/atom: 2000, page size: 100000
  master list distance cutoff = 5.1224615
  ghost atom cutoff = 5.1224615
  binsize = 2.5612308, bins = 781 781 781
  1 neighbor lists, perpetual/occasional/extra = 1 0 0
  (1) pair lj/cut/omp, perpetual
      attributes: half, newton on, omp
      pair build: half/bin/newton/omp
      stencil: half/bin/3d
      bin: standard
WARNING: Communication cutoff 5.12246152962189 is shorter than a bond length based estimate of 5.455. This may lead to errors. (src/comm.cpp:723)
Per MPI rank memory allocation (min/avg/max) = 1860 | 1860 | 1860 Mbytes
   Step          Temp         Enthalpy         c_1      
         0   0              13.347517      151.89156    
      1000   0.97053901     18.294178      151.71638    
      2000   1.0100187      18.306192      151.39034    
      3000   1.011458       18.25601       151.02625    
      4000   1.0627158      18.512644      150.59275    
      5000   0.98858657     19.160965      150.3001     
      6000   1.0171526      18.785063      149.9666     
      7000   1.0005686      18.796296      149.59657    
      8000   1.0159094      19.043952      149.16718    
      9000   1.0154293      18.649802      148.85654    
     10000   1.0112804      18.594636      148.54237    
     11000   1.0080065      18.998434      148.42316    
     12000   1.0276498      18.87862       148.15247    
     13000   1.0081537      18.460272      147.74327    
     14000   1.0210369      19.006169      147.43655    
     15000   0.97420392     18.865802      147.1881     
     16000   1.0102772      18.617081      146.92893    
     17000   0.97092107     18.803087      146.44961    
     18000   1.0166639      19.616453      146.23568    
     19000   0.9864075      19.165956      145.91947    
     20000   1.0347639      19.107723      145.66958    
     21000   0.97898437     19.06238       145.28718    
     22000   0.94514953     19.243969      144.86654    
     23000   0.99431037     19.067067      144.54381    
     24000   1.0204494      19.643609      144.27579    
     25000   0.94637807     19.227339      144.10599    
     26000   1.0151218      19.347144      143.92087    
     27000   1.0016888      19.663898      143.73478    
     28000   0.98284826     19.105179      143.34915    
     29000   0.98231901     19.084542      142.96799    
     30000   0.96008195     19.402052      142.92676    
     31000   1.0143758      18.770493      142.75958    
     32000   0.99019738     19.50244       142.45925    
     33000   1.0322571      19.091079      142.29542    
     34000   0.94504037     19.360999      142.17005    
     35000   1.0187544      19.385656      141.98714    
     36000   1.0050119      18.975387      141.70682    
     37000   0.99647985     19.665966      141.45052    
     38000   1.0326471      18.936845      141.33619    
     39000   1.012047       19.675999      141.12718    
     40000   1.0140535      18.877611      140.83573    
     41000   0.97001409     19.632821      140.70572    
     42000   0.9849924      18.962449      140.53608    
     43000   0.97111193     19.159731      140.311      
     44000   1.0046787      19.427493      140.21567    
     45000   0.9961417      19.59535       140.13479    
     46000   1.0210393      19.49115       140.04052    
     47000   1.0012969      19.458526      140.03726    
     48000   0.99494443     19.707607      139.81667    
     49000   1.0332996      19.491726      139.62087    
     50000   0.99740089     19.143851      139.63447    
     51000   1.0280182      19.171423      139.36201    
     52000   1.0105298      19.442032      138.90998    
     53000   0.97569796     19.597073      138.64162    
     54000   0.97588988     18.756304      138.37075    
     55000   1.0256486      19.630858      138.19948    
     56000   1.010923       19.825637      137.75132    
     57000   1.0179064      19.218042      137.56052    
     58000   1.0083607      19.348997      137.64458    
     59000   0.99544911     19.407052      137.46057    
     60000   1.0025295      20.117317      137.30293    
     61000   1.0257794      19.950955      137.19522    
     62000   0.96209431     19.517797      137.18418    
     63000   1.0420364      20.107639      136.84386    
     64000   0.9971559      19.080548      136.47408    
     65000   0.93874539     19.397804      136.45841    
     66000   1.0107866      19.948428      136.43795    
     67000   0.96934633     19.576622      136.32939    
     68000   0.98106352     19.718663      136.2589     
     69000   1.0191995      19.657612      136.14035    
     70000   1.0147125      19.107134      135.94196    
     71000   0.9931253      19.590367      135.69253    
     72000   0.97861618     19.622401      135.50954    
     73000   0.9767046      19.529706      135.16286    
     74000   1.0108228      19.618365      134.82804    
     75000   0.99776053     19.934489      134.93556    
     76000   1.0544562      19.455755      134.84218    
     77000   0.99503263     20.091637      134.76145    
     78000   0.97857601     19.669106      134.65294    
     79000   0.97316205     19.630728      134.42185    
     80000   0.94477104     18.991215      134.36069    
     81000   0.99535009     19.541351      134.01384    
     82000   1.0318604      19.676584      133.71669    
     83000   1.0161882      19.957228      133.56277    
     84000   1.0107546      19.844779      133.23835    
     85000   0.96666624     19.655781      132.94642    
     86000   1.0672797      20.16824       132.97402    
     87000   1.0473829      19.731393      132.84567    
     88000   1.0156263      19.398009      132.74683    
     89000   1.0283149      20.162182      132.57967    
     90000   1.0309134      20.035139      132.26449    
     91000   1.0070974      19.623075      132.04862    
     92000   0.98360241     20.008666      131.96973    
     93000   0.99595111     19.422624      131.83368    
     94000   0.96245628     19.338451      131.8465     
     95000   0.98585944     19.99053       131.77398    
     96000   0.97358615     20.134437      131.57687    
     97000   0.95708226     19.382146      131.49314    
     98000   1.00033        20.11709       131.11731    
     99000   1.0526112      19.87005       130.78092    
    100000   0.9966618      19.655628      130.71775    
Loop time of 311.179 on 2 procs for 100000 steps with 901 atoms

Performance: 277654.092 tau/day, 321.359 timesteps/s
102.6% CPU use with 1 MPI tasks x 2 OpenMP threads

MPI task timing breakdown:
Section |  min time  |  avg time  |  max time  |%varavg| %total
---------------------------------------------------------------
Pair    | 0.78586    | 0.78586    | 0.78586    |   0.0 |  0.25
Bond    | 1.7187     | 1.7187     | 1.7187     |   0.0 |  0.55
Neigh   | 304.44     | 304.44     | 304.44     |   0.0 | 97.83
Comm    | 0.024166   | 0.024166   | 0.024166   |   0.0 |  0.01
Output  | 0.21942    | 0.21942    | 0.21942    |   0.0 |  0.07
Modify  | 3.7357     | 3.7357     | 3.7357     |   0.0 |  1.20
Other   |            | 0.2595     |            |       |  0.08

Nlocal:            901 ave         901 max         901 min
Histogram: 1 0 0 0 0 0 0 0 0 0
Nghost:              0 ave           0 max           0 min
Histogram: 1 0 0 0 0 0 0 0 0 0
Neighs:           4689 ave        4689 max        4689 min
Histogram: 1 0 0 0 0 0 0 0 0 0

Total # of neighbors = 4689
Ave neighs/atom = 5.2042175
Ave special neighs/atom = 1.9977802
Neighbor list builds = 1073
Dangerous builds = 0

# Replace lj potential, now collapse
pair_style      lj/cut 3

# Cutoff simul when gyration under 5
# Variable created with equal requires v_ + 'name'
fix 3 all halt 1000 v_rog < 7

run 5000000
Generated 0 of 0 mixed pair_coeff terms from geometric mixing rule
Last active /omp style is angle_style cosine/omp
Per MPI rank memory allocation (min/avg/max) = 1860 | 1860 | 1860 Mbytes
   Step          Temp         Enthalpy         c_1      
    100000   0.9966618      19.138499      130.71775    
    101000   0.98738722     19.3265        130.58991    
    102000   0.96423147     19.500735      130.29364    
    103000   0.9853388      19.72588       130.10694    
    104000   1.0278795      19.225692      130.05552    
    105000   0.98076723     19.071812      129.84302    
    106000   1.0352175      19.656208      129.64409    
    107000   0.96671808     19.028134      129.52534    
    108000   1.0518594      19.499551      129.31114    
    109000   1.0448512      19.210918      129.12158    
    110000   0.99577097     19.015279      128.92124    
    111000   1.0016118      19.146931      128.51583    
    112000   0.98585615     19.317826      128.38601    
    113000   0.99868677     19.172234      128.23771    
    114000   1.0008231      19.485265      128.40135    
    115000   1.0198719      18.955208      128.31087    
    116000   0.98520806     19.198476      128.19306    
    117000   0.97850645     19.760549      127.76221    
    118000   0.97701424     19.760631      127.42103    
    119000   1.0191315      19.59123       127.18135    
    120000   0.99621898     19.211062      126.96483    
    121000   0.99024403     19.148812      126.76244    
    122000   0.99569249     19.572337      126.77338    
    123000   0.98226809     19.006542      126.66278    
    124000   0.99238221     19.632908      126.57975    
    125000   0.99911831     19.779035      126.43889    
    126000   1.0090012      19.598916      126.26933    
    127000   0.99006219     19.488687      125.94546    
    128000   1.045404       19.381687      126.04888    
    129000   0.98520237     19.274809      126.19513    
    130000   0.98604183     18.97774       126.16917    
    131000   0.95554775     19.093894      125.89028    
    132000   0.98111598     19.027499      125.76997    
    133000   0.99467289     19.200156      125.57973    
    134000   1.0093007      19.110709      125.60886    
    135000   0.99000799     19.326599      125.50497    
    136000   1.0016354      18.912754      125.34973    
    137000   1.0112947      19.310937      125.26873    
    138000   1.0101557      19.152439      124.99714    
    139000   0.95842609     19.010159      124.77031    
    140000   1.0429494      19.744262      124.39876    
    141000   0.9897372      18.9966        124.19008    
    142000   0.98019122     19.423297      124.01698    
    143000   0.9748464      19.059266      123.72578    
    144000   0.9680151      18.964849      123.43337    
    145000   0.9896118      19.271766      123.15851    
    146000   0.97309882     18.873229      123.05695    
    147000   1.0009806      19.205222      122.91951    
    148000   0.98772666     19.287343      123.04956    
    149000   0.96712739     19.453756      122.90522    
    150000   1.0274138      19.338239      122.77568    
    151000   0.99747602     19.38731       122.5622     
    152000   0.98770916     19.328209      122.29477    
    153000   0.9821293      19.152116      122.118      
    154000   1.0703923      19.493502      122.05077    
    155000   0.92758849     18.762992      121.7375     
    156000   1.0047265      19.623146      121.7183     
    157000   0.98255157     19.463019      121.45928    
    158000   0.96458383     18.947559      121.20083    
    159000   0.99258866     19.384921      121.05217    
    160000   0.9829503      18.82594       120.96984    
    161000   0.96183868     18.982091      120.98626    
    162000   1.0044787      19.255981      120.78045    
    163000   1.0104712      18.964748      120.55356    
    164000   1.032148       19.127442      120.43281    
    165000   1.0051246      18.581281      120.22877    
    166000   0.97726936     19.103091      120.09882    
    167000   0.98979038     19.118576      119.92833    
    168000   1.0048319      19.443103      119.72435    
    169000   1.0124298      19.456252      119.49824    
    170000   1.0065246      19.126391      119.27351    
    171000   1.0043357      18.822869      119.29863    
    172000   0.95331893     19.06414       119.37143    
    173000   1.068498       18.988839      119.24886    
    174000   0.94169647     18.893225      118.91495    
    175000   0.97384701     18.898826      118.996      
    176000   1.0520927      19.796315      118.92016    
    177000   1.0120011      19.525429      118.73939    
    178000   1.0205587      19.156387      118.61707    
    179000   1.0158501      19.33518       118.5326     
    180000   1.0486637      18.510736      118.4593     
    181000   0.96266029     18.905313      118.18192    
    182000   1.0063935      19.65412       117.95832    
    183000   1.0043071      19.448735      117.80738    
    184000   1.019402       18.875381      117.74365    
    185000   0.96891048     19.088539      117.50565    
    186000   0.98549289     19.409744      117.36824    
    187000   0.97525603     19.268697      117.09588    
    188000   0.93636694     18.277635      116.98776    
    189000   1.0027922      19.324861      116.79606    
    190000   0.95901226     18.851239      116.6739     
    191000   1.0066875      18.983154      116.66662    
    192000   0.97467108     19.358623      116.32398    
    193000   1.0319669      18.712962      116.28902    
    194000   1.0197032      19.038862      116.36933    
    195000   0.99875422     18.164018      116.18217    
    196000   1.0580587      19.310365      116.08375    
    197000   0.99137286     19.0693        115.88856    
    198000   1.0617434      19.551037      115.80939    
    199000   0.98859518     18.89099       115.83558    
    200000   1.0098474      19.534425      115.93631    
    201000   0.97687689     19.991529      115.862      
    202000   1.0522031      18.772017      115.76407    
    203000   1.0020862      19.231854      115.66576    
    204000   0.99037848     19.069692      115.51787    
    205000   1.0083145      19.025644      115.69399    
    206000   1.0102659      18.958807      115.63808    
    207000   0.99123467     18.998088      115.52699    
    208000   0.98892575     19.368486      115.49004    
    209000   1.0007377      19.085299      115.24802    
    210000   1.0532397      18.820965      115.38072    
    211000   0.97329446     19.408739      115.31918    
    212000   1.0012614      19.341792      114.97792    
    213000   0.94828541     19.422673      114.91693    
    214000   0.9868356      19.3009        114.81384    
    215000   0.99329101     18.483251      114.6903     
    216000   0.98633372     19.434573      114.64952    
    217000   0.99588613     19.878169      114.53151    
    218000   0.95002823     19.301064      114.1129     
    219000   1.0411172      19.478034      113.81373    
    220000   0.96457626     19.552578      113.46039    
    221000   1.0002463      19.165452      113.28823    
    222000   1.004738       18.997202      113.25171    
    223000   1.0153252      19.223726      112.9414     
    224000   0.96307269     19.132686      112.88829    
    225000   1.012965       19.006218      112.57275    
    226000   1.0549219      19.652532      112.22924    
    227000   1.0220624      19.302685      111.9596     
    228000   1.0500656      19.020159      111.76252    
    229000   1.0193309      19.496119      111.58787    
    230000   0.99106719     18.878573      111.44678    
    231000   0.9866216      19.102019      111.00367    
    232000   1.0092104      19.107059      111.05889    
    233000   1.0000147      19.532813      110.92976    
    234000   1.0026459      18.850662      110.74719    
    235000   0.98898849     18.991099      110.5907     
    236000   1.0157709      19.347319      110.42757    
    237000   1.0305186      19.513351      110.29501    
    238000   1.0128174      19.127211      110.15447    
    239000   1.0044963      18.991473      110.03207    
    240000   0.98464465     18.566168      109.88999    
    241000   0.98903441     18.760459      109.70108    
    242000   0.9956478      19.366443      109.49573    
    243000   1.0200279      19.422853      109.35149    
    244000   1.050212       19.121673      109.02809    
    245000   1.0432284      19.565631      108.9514     
    246000   0.99469221     19.089743      108.52187    
    247000   1.0309374      19.085653      108.24796    
    248000   1.0195338      19.297681      107.96436    
    249000   0.97596737     19.078217      108.02163    
    250000   0.97745751     19.195575      107.82008    
    251000   0.99674682     19.396612      107.47156    
    252000   0.99580699     19.017235      107.5436     
    253000   1.0198787      19.825006      107.29804    
    254000   1.0024155      19.392139      107.21914    
    255000   0.99948599     18.736629      106.99972    
    256000   1.0371121      18.871454      106.80509    
    257000   1.0293082      18.937086      106.70073    
    258000   1.0022542      18.815624      106.59601    
    259000   1.0339606      18.673697      106.30448    
    260000   0.96201732     18.439742      106.45302    
    261000   0.97729664     19.140397      106.45342    
    262000   0.97089932     18.494544      106.33513    
    263000   1.0145913      18.753596      106.05457    
    264000   1.0216899      18.856088      105.89297    
    265000   0.96918824     18.692579      105.87304    
    266000   1.0149941      19.157272      105.8239     
    267000   0.98833778     19.225452      105.52248    
    268000   0.97477209     18.640987      105.33022    
    269000   0.98446764     18.442009      105.09015    
    270000   1.0048064      18.81744       105.04944    
    271000   1.0313912      18.585784      104.71822    
    272000   1.0008977      18.931233      104.57776    
    273000   0.97209263     18.756515      104.38825    
    274000   1.0085728      18.916849      104.34016    
    275000   1.0093777      19.540191      104.214      
    276000   1.0486454      19.218872      104.46726    
    277000   0.99890804     18.443793      104.46487    
    278000   0.97892416     19.037423      104.25628    
    279000   1.0135445      19.089408      104.09027    
    280000   0.97866618     19.395502      104.02876    
    281000   1.0159432      19.059455      104.1737     
    282000   1.1031658      18.985672      103.68541    
    283000   0.98583072     18.909582      103.46342    
    284000   0.99352268     19.359575      103.4676     
    285000   0.98910759     18.47164       103.14271    
    286000   0.95601163     18.81569       103.12551    
    287000   1.0078793      18.981779      102.62222    
    288000   1.0382903      18.839862      102.53446    
    289000   0.97105292     19.643954      102.31347    
    290000   0.94777862     18.823693      101.99045    
    291000   0.99436668     19.038328      101.86719    
    292000   0.98417718     18.916499      101.81199    
    293000   1.0290008      19.384638      101.6105     
    294000   0.99859561     18.824641      101.42891    
    295000   1.0075841      18.978216      100.991      
    296000   0.97377033     18.998601      101.03294    
    297000   1.0138279      18.999305      100.90992    
    298000   0.9887925      19.131309      100.82432    
    299000   0.98292819     19.691366      100.70004    
    300000   1.0168794      19.049186      100.64137    
    301000   1.00097        18.894048      100.57259    
    302000   1.0191938      19.259902      100.7135     
    303000   0.99297711     18.513244      100.31524    
    304000   1.0107985      18.488618      99.987267    
    305000   0.99366215     18.983659      99.696308    
    306000   1.0041276      18.387679      99.606286    
    307000   0.9589909      18.800549      99.419106    
    308000   0.99508971     18.430321      99.301669    
    309000   1.0009772      19.162143      99.010792    
    310000   0.97047445     18.928706      98.950836    
    311000   1.017995       19.114073      98.98836     
    312000   1.0421474      19.205394      98.855652    
    313000   1.0040727      19.368422      98.704312    
    314000   1.0596633      19.077547      98.589684    
    315000   0.96885601     18.501042      98.648432    
    316000   1.0113912      19.084945      98.536602    
    317000   1.0544079      19.411329      98.707632    
    318000   0.95177666     18.952837      98.680846    
    319000   0.97065795     19.279593      98.597245    
    320000   1.02132        18.726811      98.461832    
    321000   0.98937918     18.700036      98.458695    
    322000   0.96884167     18.896379      98.313485    
    323000   0.96986013     18.895074      98.204469    
    324000   1.0138985      19.291888      98.081862    
    325000   1.0132093      18.966951      97.955372    
    326000   1.0172364      18.659207      98.019194    
    327000   0.98203067     18.812841      97.858182    
    328000   0.96935919     19.051366      97.638948    
    329000   1.0640683      19.039527      97.80387     
    330000   1.0319364      18.843032      97.393674    
    331000   0.98565117     18.59584       97.230706    
    332000   0.98972835     18.937542      96.841767    
    333000   1.0498333      18.52516       96.78807     
    334000   0.99898736     18.701138      96.689469    
    335000   0.99658844     18.619617      96.562226    
    336000   1.0133823      18.985773      96.361073    
    337000   0.95226507     18.698933      96.31474     
    338000   1.0077652      18.94834       96.367597    
    339000   0.97611239     18.720067      96.345692    
    340000   1.0476438      18.697044      96.092083    
    341000   1.0585894      19.008186      95.697476    
    342000   1.023159       19.170008      95.536901    
    343000   1.0190416      18.660421      95.368865    
    344000   1.0432565      19.15454       95.300112    
    345000   1.0117737      18.976993      95.2257      
    346000   1.0097516      18.920762      95.291035    
    347000   0.98716733     19.136918      95.142127    
    348000   1.0059376      18.653305      95.079334    
    349000   0.99436606     18.605512      95.126571    
    350000   1.0116869      18.203735      95.004255    
    351000   0.96948122     19.23865       94.811878    
    352000   0.96609112     18.772156      94.70259     
    353000   0.9335804      18.830634      94.529017    
    354000   0.99911025     18.538605      94.558382    
    355000   1.00576        18.241824      94.504309    
    356000   1.0188172      19.385335      94.092691    
    357000   0.99660563     18.954005      94.031622    
    358000   1.0532446      19.598321      93.771566    
    359000   1.0435991      18.96049       93.813736    
    360000   0.98675081     18.447734      93.549154    
    361000   0.97931902     18.028486      93.271558    
    362000   1.006666       18.837356      93.259234    
    363000   0.99342141     18.477309      93.080982    
    364000   1.0315115      18.537516      92.879789    
    365000   1.0200535      18.97651       92.647597    
    366000   0.97090876     18.978797      92.721914    
    367000   0.97018821     18.422255      92.734666    
    368000   1.0163793      18.709426      92.568057    
    369000   1.0224082      18.921488      92.53918     
    370000   1.0559146      19.314196      92.628592    
    371000   1.0165037      19.082682      92.537141    
    372000   0.99991331     19.318534      92.354981    
    373000   1.0044909      18.677754      92.513769    
    374000   1.0176904      18.758336      92.442032    
    375000   0.98719616     18.425457      92.432267    
    376000   0.98369057     18.890289      92.347726    
    377000   1.0042588      19.02926       92.151396    
    378000   1.0041349      18.859561      92.068917    
    379000   0.99593439     19.025757      91.993207    
    380000   0.99278542     18.750609      91.805129    
    381000   1.0306085      18.978056      91.734662    
    382000   1.012793       18.611875      91.805735    
    383000   0.99606026     18.700241      91.320298    
    384000   0.98902459     18.659018      91.0562      
    385000   0.9790269      18.604174      91.023928    
    386000   1.0324784      18.767102      91.025372    
    387000   1.0238109      18.860944      90.906587    
    388000   1.0009688      18.681034      90.556585    
    389000   0.98609328     18.9482        90.350742    
    390000   1.0002104      18.460572      90.435218    
    391000   1.0555737      18.977651      90.551972    
    392000   1.0371751      18.950667      90.689251    
    393000   1.0312814      18.87135       90.865163    
    394000   0.95873804     18.214248      90.46838     
    395000   1.0266571      19.007874      90.129438    
    396000   0.98634325     18.86888       89.920626    
    397000   1.000526       18.66525       89.937883    
    398000   1.0654435      18.940793      89.909196    
    399000   1.0179012      18.875364      89.667573    
    400000   0.98261649     18.177652      89.492105    
    401000   1.0168948      18.778455      89.244612    
    402000   0.99649304     18.383969      88.962995    
    403000   0.99237925     18.443438      88.878784    
    404000   1.0157858      18.338888      88.748547    
    405000   0.97197278     18.524012      88.976524    
    406000   0.9663552      18.399956      89.015838    
    407000   0.99165773     18.290529      88.870388    
    408000   0.96662737     17.808495      88.501383    
    409000   1.0213857      18.52405       88.245724    
    410000   0.9883393      18.827921      88.008061    
    411000   1.0325486      18.523503      87.886727    
    412000   1.0259487      19.020078      87.967902    
    413000   0.97899674     18.264661      87.944494    
    414000   1.0346078      18.668462      87.766866    
    415000   1.0352316      18.815793      87.81003     
    416000   0.99368047     18.803613      87.639264    
    417000   1.0236379      18.36025       87.617384    
    418000   1.0314145      18.196368      87.642322    
    419000   1.0014444      19.114056      87.443473    
    420000   1.0040566      18.123972      87.402383    
    421000   1.0038915      18.676286      87.200288    
    422000   0.99767663     18.54351       87.180488    
    423000   1.0489229      18.394966      86.914908    
    424000   0.97271225     18.360569      86.813668    
    425000   0.99791647     18.481361      86.875127    
    426000   1.0121994      18.954213      86.801707    
    427000   1.0451927      18.656797      86.581935    
    428000   1.0302006      18.282093      86.627687    
    429000   1.0078079      17.683757      86.133843    
    430000   1.0367103      18.433232      85.896464    
    431000   0.97942945     18.366324      85.740683    
    432000   1.0093013      18.795576      85.874095    
    433000   1.0135506      18.924769      85.741393    
    434000   0.98670034     18.178373      85.492383    
    435000   1.0003602      18.09485       85.591705    
    436000   0.98919536     18.475865      85.447158    
    437000   0.98434982     18.520029      85.410031    
    438000   1.0486097      18.497881      85.076142    
    439000   0.99999485     18.491966      84.883588    
    440000   1.0403629      19.121919      84.687328    
    441000   0.98940032     18.558244      84.483916    
    442000   1.00435        18.557178      84.155969    
    443000   1.0417647      18.399414      83.831043    
    444000   0.9905791      18.406289      83.902988    
    445000   1.0126178      18.397378      83.439839    
    446000   0.98358571     18.533947      83.388426    
    447000   1.0073395      18.395199      83.251325    
    448000   1.0592971      18.301589      83.38726     
    449000   0.97777638     18.549308      83.256013    
    450000   0.96340313     18.312836      83.139878    
    451000   1.0503889      18.655439      82.936968    
    452000   0.99015262     18.671977      82.588902    
    453000   1.0150105      19.032327      82.34786     
    454000   1.0459387      18.558202      82.174162    
    455000   0.98724822     18.165542      82.016491    
    456000   0.98651891     17.942851      81.656367    
    457000   0.98385702     18.400341      81.244139    
    458000   1.0427537      18.428677      80.944436    
    459000   0.99849018     18.53523       81.170615    
    460000   1.0508107      18.427195      80.989828    
    461000   0.95704828     18.373062      80.855889    
    462000   0.98863631     18.592412      80.738622    
    463000   1.031932       18.664761      80.764368    
    464000   0.98158749     18.219697      80.539408    
    465000   1.0217863      19.203065      80.458572    
    466000   1.0082987      17.765074      80.253472    
    467000   1.0087808      18.486757      79.991399    
    468000   1.040311       18.742639      79.7939      
    469000   0.98954231     18.53586       79.658788    
    470000   1.0110882      18.079241      79.373652    
    471000   1.0450116      18.416778      79.314324    
    472000   0.99718239     18.713428      78.984018    
    473000   0.92623664     18.392805      78.814901    
    474000   1.0272291      18.282497      78.624151    
    475000   0.98235857     18.505179      78.342338    
    476000   0.97277906     18.287263      78.318254    
    477000   0.97934414     18.78896       78.265221    
    478000   0.99744153     18.672216      78.221358    
    479000   0.96844623     18.261534      78.015899    
    480000   0.96101229     18.643705      77.909793    
    481000   0.98886706     18.270265      77.7326      
    482000   0.9411677      18.692932      77.801885    
    483000   0.9791554      17.922101      77.627286    
    484000   1.0119787      18.391162      77.652101    
    485000   1.0066512      17.988484      77.631956    
    486000   0.97353765     18.910661      77.322958    
    487000   0.93425465     18.345878      77.316027    
    488000   0.96606717     18.175404      77.314467    
    489000   0.96437627     18.133268      77.163616    
    490000   0.97925481     18.059977      77.264488    
    491000   0.98082632     18.315293      77.197915    
    492000   0.99442609     18.905396      77.123575    
    493000   0.98347069     18.534472      77.095559    
    494000   1.0217821      18.170425      76.765757    
    495000   0.99337824     18.078877      76.678125    
    496000   0.97029184     17.962255      76.540874    
    497000   1.0240193      17.971526      76.455524    
    498000   1.0044966      18.556779      76.415301    
    499000   0.98510217     18.818214      76.385464    
    500000   0.98802886     18.386011      76.246962    
    501000   1.0260388      18.191519      76.302983    
    502000   0.96541838     18.599187      76.126308    
    503000   0.96552519     18.04456       75.831627    
    504000   1.0088957      18.878213      75.748994    
    505000   0.99065127     18.08851       75.611567    
    506000   1.0115316      18.119526      75.390367    
    507000   1.0037737      17.847143      75.290628    
    508000   0.98242921     18.47053       75.196168    
    509000   1.0098091      17.624029      75.268218    
    510000   1.0087533      18.057066      75.200225    
    511000   0.97515753     18.369688      74.915866    
    512000   1.0835998      18.82778       74.880883    
    513000   0.97208083     18.029448      74.846505    
    514000   1.0059242      18.557352      74.693047    
    515000   1.0112765      19.038392      74.564545    
    516000   0.99425356     18.055606      74.464905    
    517000   0.98207222     17.915846      74.186157    
    518000   0.98965586     18.695124      74.209589    
    519000   0.99907376     18.425811      74.027467    
    520000   1.0112824      18.129648      73.711024    
    521000   1.0434772      18.585481      73.506102    
    522000   1.0002618      17.716684      73.314053    
    523000   0.99633426     17.758188      73.081412    
    524000   1.0590844      18.55496       73.017117    
    525000   0.97055467     18.248974      72.734067    
    526000   1.0203019      17.90869       72.632347    
    527000   1.004761       17.990677      72.763703    
    528000   1.0467748      18.112695      72.687612    
    529000   1.0363225      18.130682      72.581363    
    530000   1.0024396      18.544368      72.485323    
    531000   0.97027582     18.130486      72.423014    
    532000   1.0171927      18.510327      72.445578    
    533000   1.0008746      17.727274      72.13729     
    534000   0.99986769     18.155186      72.16969     
    535000   1.0538756      18.497666      71.803126    
    536000   0.99712047     18.122413      71.76004     
    537000   0.98340099     18.305133      71.705289    
    538000   0.9908054      18.318711      71.506221    
    539000   0.96776887     18.403141      71.188354    
    540000   0.99633023     17.674942      71.096362    
    541000   0.9960867      18.046607      71.346972    
    542000   0.94936314     18.488188      71.225812    
    543000   0.9970824      18.569278      71.219713    
    544000   0.99789524     19.004349      71.196543    
    545000   0.98025689     17.963231      71.018086    
    546000   1.0096365      18.941653      70.812519    
    547000   0.97460692     18.43672       70.593674    
    548000   0.99668066     18.274654      70.61402     
    549000   1.053491       18.399033      70.516815    
    550000   0.98833274     18.377148      70.457025    
    551000   1.0248187      18.234493      70.516015    
    552000   0.96764756     17.998438      70.292255    
    553000   1.018265       18.427288      69.862923    
    554000   0.98231317     17.994368      69.67859     
    555000   1.0378473      18.557918      69.647281    
    556000   1.0019141      18.833123      69.337707    
    557000   0.98975175     18.516314      69.146765    
    558000   0.97254692     18.083026      68.86009     
    559000   1.0183881      18.515558      68.688254    
    560000   0.99371332     18.108656      68.389042    
    561000   1.0032809      18.306164      68.120679    
    562000   1.0087614      18.435115      67.689187    
    563000   1.0111654      18.587541      67.451435    
    564000   1.0088748      18.516431      67.32204     
    565000   0.97636879     18.040005      67.060818    
    566000   1.0065099      18.555108      66.709245    
    567000   1.0007028      18.705699      66.809687    
    568000   0.98865465     18.090393      66.663193    
    569000   1.0399646      18.490528      66.839517    
    570000   0.99943146     18.141351      66.655106    
    571000   1.0035218      18.236125      66.440604    
    572000   1.0146881      17.904833      66.421523    
    573000   1.0216495      19.031749      66.479339    
    574000   1.0285201      18.487205      66.553378    
    575000   1.0084367      18.152755      66.217425    
    576000   0.95025656     17.949534      66.156255    
    577000   0.98037189     18.858198      66.266876    
    578000   1.0095586      17.979313      66.360779    
    579000   0.96919157     18.084012      66.114292    
    580000   1.0548536      18.171667      65.924208    
    581000   1.0330386      18.353888      65.878829    
    582000   0.96614464     17.563996      65.841457    
    583000   1.0043252      17.930621      65.7088      
    584000   1.0182729      18.84741       65.351406    
    585000   0.98143464     17.813942      65.646224    
    586000   1.0040632      18.567838      65.737428    
    587000   0.96637591     18.452505      65.285874    
    588000   1.0259573      19.323046      65.302488    
    589000   1.0324496      18.645567      65.200431    
    590000   1.0042639      18.197311      65.282372    
    591000   1.0061502      18.166985      65.170767    
    592000   1.0252736      18.069656      65.144808    
    593000   1.005983       17.908348      64.857765    
    594000   1.0560374      18.871555      64.565255    
    595000   1.0137242      17.937663      64.198026    
    596000   1.0114567      18.167711      64.117343    
    597000   0.97196226     18.106906      64.196425    
    598000   0.99999783     18.411764      64.064107    
    599000   0.97523146     18.350028      64.027885    
    600000   1.0005172      17.732597      63.836258    
    601000   0.9580763      18.028754      63.775413    
    602000   0.9955525      17.850474      63.650466    
    603000   0.99176281     17.85179       63.503589    
    604000   1.0582574      18.493304      63.433823    
    605000   0.98050245     18.445276      63.382011    
    606000   1.0238541      18.284971      63.168471    
    607000   1.0185123      17.987038      63.049834    
    608000   1.0094003      17.98978       62.71614     
    609000   1.0171727      18.650445      62.481431    
    610000   1.0118123      17.646376      62.586605    
    611000   0.98575574     18.025266      62.60532     
    612000   0.97058778     17.694995      62.670528    
    613000   0.94523622     18.103894      62.355049    
    614000   1.0159002      17.787525      62.354717    
    615000   1.0562407      18.432923      62.4718      
    616000   0.97832451     18.387151      62.159594    
    617000   1.0066821      18.086556      61.973127    
    618000   1.0002751      18.019509      61.783223    
    619000   0.98985257     17.589567      61.534677    
    620000   1.0075208      18.000629      61.403604    
    621000   1.0123362      17.528173      61.217752    
    622000   0.99538737     18.020315      61.080673    
    623000   0.99682724     18.61757       60.984767    
    624000   0.951113       18.23953       60.732973    
    625000   1.0345984      18.176928      60.512751    
    626000   1.0229425      17.914375      60.490182    
    627000   0.95901758     18.221684      60.372682    
    628000   1.0480923      18.214273      60.309156    
    629000   0.98542091     18.106713      60.3905      
    630000   1.010967       17.99522       60.242638    
    631000   1.0036802      18.501048      60.178253    
    632000   0.93269681     18.634733      60.033023    
    633000   1.020562       18.378524      59.987124    
    634000   0.96964227     18.253006      59.923787    
    635000   1.0213992      18.262238      59.740584    
    636000   1.0130114      18.192447      59.82578     
    637000   1.0037891      18.178117      59.751707    
    638000   0.97147088     17.835438      59.651712    
    639000   0.99013556     18.205105      59.450552    
    640000   0.98816555     17.65736       59.256632    
    641000   1.021388       18.307427      59.132585    
    642000   1.0319598      18.28103       59.040592    
    643000   0.99957869     18.373388      59.035716    
    644000   0.96535823     17.919604      58.850461    
    645000   1.0381166      18.548472      58.472484    
    646000   1.0048512      18.09234       58.381316    
    647000   1.0301539      17.855676      58.382002    
    648000   0.98371883     17.897641      58.19775     
    649000   0.99877192     17.574311      58.18842     
    650000   1.0191276      18.051368      58.239919    
    651000   0.98336988     17.898879      58.129259    
    652000   1.0198409      17.602412      57.729534    
    653000   0.99825532     17.747803      57.801987    
    654000   1.0144853      18.334313      57.723409    
    655000   1.0284513      18.101255      57.772105    
    656000   0.99779649     18.229928      57.670115    
    657000   1.0029615      18.043417      57.727822    
    658000   0.97040379     18.264598      57.542471    
    659000   0.99284494     17.483927      57.570199    
    660000   0.9999154      17.347005      57.60632     
    661000   0.97884082     18.458886      57.489057    
    662000   1.0114535      17.371088      57.303475    
    663000   0.99596001     18.746378      57.188772    
    664000   1.0146471      17.643546      56.898827    
    665000   1.0004319      17.53701       56.71503     
    666000   1.0008505      17.706749      56.958513    
    667000   0.99673221     17.863649      56.908751    
    668000   1.0146515      17.907896      56.711977    
    669000   0.96405696     17.652167      56.560062    
    670000   0.95984055     17.72993       56.536767    
    671000   0.9694046      18.736073      56.427278    
    672000   1.0043602      17.956171      56.140083    
    673000   1.0166784      18.114689      56.448901    
    674000   0.99421179     18.297993      56.482959    
    675000   0.98706894     17.897569      56.509698    
    676000   1.0324184      18.786936      56.335218    
    677000   0.99815552     18.69958       56.386281    
    678000   1.0028496      17.909713      56.172761    
    679000   1.0378661      18.283527      55.879698    
    680000   0.96625118     17.960427      55.580374    
    681000   0.95046524     17.668699      55.492162    
    682000   0.98296977     17.629158      55.348575    
    683000   0.99198786     17.699488      55.156069    
    684000   1.0093773      17.72776       54.847469    
    685000   1.0367769      17.93779       54.740844    
    686000   1.0003848      18.000274      54.728075    
    687000   0.97717035     17.979978      54.471305    
    688000   0.972554       18.04003       54.43596     
    689000   1.0426916      18.42354       54.255763    
    690000   0.99885535     17.794661      54.261498    
    691000   0.98940493     18.182025      54.238975    
    692000   0.98608078     18.005034      53.820409    
    693000   1.0040473      18.00131       53.763435    
    694000   0.98733992     17.955967      53.319343    
    695000   0.99631261     17.667103      53.102138    
    696000   1.0000703      17.604305      52.850055    
    697000   0.97908092     17.91295       52.627371    
    698000   1.0137528      17.7818        52.606741    
    699000   1.0033439      18.695886      52.703286    
    700000   0.99543338     17.854899      52.759507    
    701000   1.0538793      18.15619       52.697029    
    702000   0.98954499     18.086037      52.591138    
    703000   0.97583709     17.594863      52.522359    
    704000   1.0517417      18.091303      52.54886     
    705000   1.0339326      17.965529      52.341509    
    706000   0.98857956     17.748813      52.167126    
    707000   1.038735       17.886492      51.836909    
    708000   1.0008952      17.78623       51.947302    
    709000   0.96003089     17.592065      52.068328    
    710000   1.0424128      18.609849      51.98418     
    711000   0.99135712     18.650911      51.768413    
    712000   0.99182201     17.824013      51.763036    
    713000   0.99970008     17.959501      51.870719    
    714000   0.98433284     17.57346       51.916018    
    715000   1.0031257      17.232429      51.704263    
    716000   1.0590785      17.828787      51.721457    
    717000   1.0111515      18.041089      51.789487    
    718000   1.0090948      18.118103      51.54218     
    719000   0.96550247     18.189567      51.528935    
    720000   1.0023162      17.767081      51.230292    
    721000   0.9804118      18.234744      51.269799    
    722000   1.0092842      17.418455      51.051225    
    723000   0.9732107      17.591269      50.749847    
    724000   0.99644358     17.782043      50.72462     
    725000   0.96324876     17.722547      50.685982    
    726000   1.0255498      17.780015      50.626095    
    727000   1.0469333      18.538673      50.632131    
    728000   1.0149443      17.697747      50.508875    
    729000   0.9819757      17.358495      50.459757    
    730000   1.0472059      18.278964      50.386934    
    731000   1.0023631      17.667633      50.317186    
    732000   0.98499129     17.697424      50.213126    
    733000   1.0145179      18.222158      50.082021    
    734000   1.0011394      18.274158      49.844641    
    735000   0.97539473     17.317413      49.678794    
    736000   1.0450435      17.374356      49.636923    
    737000   1.0328324      18.062926      49.25414     
    738000   1.0403         18.187497      49.06377     
    739000   1.0161416      18.276265      48.993957    
    740000   1.0185517      17.989398      48.96439     
    741000   0.98705706     17.628413      48.816845    
    742000   1.0414835      18.031551      48.724494    
    743000   0.99099953     18.099854      48.543027    
    744000   0.96477406     17.682345      48.244206    
    745000   1.0048263      17.379711      48.183359    
    746000   0.9846026      17.235547      47.784833    
    747000   0.99835509     18.295         47.547788    
    748000   0.99372696     18.171714      47.543505    
    749000   0.98931322     17.595985      47.681785    
    750000   0.98857728     17.564503      47.485932    
    751000   1.0078849      18.195571      47.32492     
    752000   0.98195802     17.835113      47.019029    
    753000   0.96504264     17.337592      47.31337     
    754000   0.99438619     17.773128      47.114712    
    755000   0.98385128     17.926327      46.80253     
    756000   0.9976433      18.367304      46.480504    
    757000   0.97684838     18.211607      46.348601    
    758000   1.0078052      18.363055      46.325675    
    759000   1.0069859      18.287359      46.145341    
    760000   0.94104129     17.954364      45.975768    
    761000   1.0437614      17.933158      45.953521    
    762000   1.0001014      17.570211      46.096747    
    763000   0.97070432     17.735015      46.014849    
    764000   1.0012125      17.623024      45.927521    
    765000   1.0189575      17.542575      45.735065    
    766000   1.0106168      17.297514      45.568257    
    767000   0.99617709     17.356698      45.558824    
    768000   1.0465716      17.878416      45.361455    
    769000   0.95085099     17.550596      45.300655    
    770000   1.0130491      18.01397       45.125497    
    771000   0.97424773     17.955244      45.021091    
    772000   0.99499217     17.90162       45.090688    
    773000   0.97106934     17.936022      44.806921    
    774000   1.0397844      17.282278      44.616473    
    775000   1.0029118      18.010239      44.487138    
    776000   1.0009253      18.004119      44.489936    
    777000   0.98500226     18.53534       44.152786    
    778000   0.97233113     17.631745      44.19608     
    779000   1.0205463      18.300934      44.154087    
    780000   1.0048425      17.582834      44.083831    
    781000   1.0057272      17.870492      44.230252    
    782000   0.98942346     17.793993      44.015435    
    783000   1.0164019      18.046962      44.12022     
    784000   1.0144821      18.095529      44.098197    
    785000   1.0133759      18.517041      44.081412    
    786000   1.0228204      17.800994      43.693616    
    787000   1.0024202      17.908482      43.350554    
    788000   0.93866545     17.701898      43.34374     
    789000   1.0264003      17.95264       43.178244    
    790000   1.0069051      18.436863      43.516584    
    791000   0.96087934     17.436664      43.440104    
    792000   1.0243875      17.97069       43.317347    
    793000   1.0127092      17.974134      43.468236    
    794000   1.0256882      18.06915       43.310951    
    795000   1.0388484      18.183628      43.297463    
    796000   1.0129448      17.815882      43.357963    
    797000   0.96403862     18.1127        43.176106    
    798000   0.97716946     18.102989      42.873675    
    799000   0.99648387     17.755065      42.83323     
    800000   1.0279264      17.751425      42.885941    
    801000   0.98192847     17.956539      42.581768    
    802000   1.0049149      17.920782      42.593542    
    803000   1.0096013      17.710107      42.610323    
    804000   0.99529547     17.886754      42.420154    
    805000   0.99442257     16.845908      42.198003    
    806000   1.0224194      17.261298      41.956311    
    807000   1.0365247      17.982156      41.772395    
    808000   0.98556187     18.118361      41.524376    
    809000   1.0759284      17.50626       41.338929    
    810000   0.97053596     17.577015      41.059504    
    811000   1.0009326      17.79242       40.940358    
    812000   0.9915408      17.470711      41.027996    
    813000   0.97021923     17.457911      40.823431    
    814000   0.97090454     17.540377      41.014178    
    815000   1.0287386      17.444631      40.875192    
    816000   1.0434644      17.990614      40.755577    
    817000   1.0324529      18.053627      40.579878    
    818000   1.0016386      17.761763      40.568369    
    819000   1.0196004      17.888207      40.692343    
    820000   1.00806        18.009114      40.474857    
    821000   1.023776       18.065338      40.374401    
    822000   0.96937473     18.033081      40.410842    
    823000   0.98574926     17.928463      40.575302    
    824000   1.0092399      17.895396      40.764867    
    825000   1.0182278      17.8711        40.9759      
    826000   0.97703825     17.734313      40.839459    
    827000   1.0057136      18.082375      41.036436    
    828000   1.0540137      17.837993      40.912545    
    829000   1.0098791      17.637621      40.776024    
    830000   0.93128388     17.833701      40.793071    
    831000   0.95344538     17.605546      40.582232    
    832000   1.0100994      17.869453      40.341659    
    833000   1.0088386      17.843392      40.252304    
    834000   0.99445593     17.674194      40.254825    
    835000   1.034212       17.300835      40.107681    
    836000   0.94699922     17.877353      39.950488    
    837000   0.99713667     17.712246      39.927526    
    838000   0.95679255     17.166619      40.021828    
    839000   0.97161153     17.970388      40.047014    
    840000   1.0160421      18.028195      39.896188    
    841000   0.97752516     18.013678      39.69841     
    842000   1.0387412      17.749675      39.792106    
    843000   1.0395669      17.766887      39.700603    
    844000   1.0313623      17.862911      39.666245    
    845000   1.0014141      17.720577      39.659737    
    846000   1.0270693      18.348908      39.61198     
    847000   0.99936952     17.667307      39.375306    
    848000   1.0454021      17.764232      39.397784    
    849000   0.97795431     17.417641      39.524757    
    850000   0.96931867     17.61646       39.527595    
    851000   0.97606277     18.193776      39.429177    
    852000   0.97985838     18.008078      39.118998    
    853000   0.97219761     17.752317      38.968988    
    854000   0.97659607     17.38803       38.912614    
    855000   0.9659629      17.436598      38.908426    
    856000   1.0342113      18.359053      38.791277    
    857000   0.94931931     17.560721      38.619001    
    858000   0.98931669     17.432694      38.552353    
    859000   1.0315108      17.638139      38.422339    
    860000   0.99149817     17.976026      38.381894    
    861000   0.98033978     17.526546      38.181584    
    862000   1.0196294      18.002409      38.116218    
    863000   0.94661813     17.48251       37.985657    
    864000   0.95259573     17.289441      37.994469    
    865000   1.0166788      17.982023      37.871213    
    866000   1.0112356      17.931732      37.668839    
    867000   0.98743928     17.447847      37.603982    
    868000   1.0059237      18.327135      37.344425    
    869000   1.0081403      17.573545      37.158953    
    870000   0.9673894      17.93835       37.194843    
    871000   1.0022162      17.893243      37.141842    
    872000   1.0050092      17.483329      36.838096    
    873000   1.0224758      17.989222      36.877008    
    874000   1.023778       18.118387      36.925924    
    875000   1.0166387      17.718853      36.964451    
    876000   0.98241987     17.45521       36.926925    
    877000   1.0496713      17.913567      36.779512    
    878000   1.0227264      17.867831      36.750767    
    879000   1.009573       17.610866      36.531357    
    880000   0.98833225     17.529915      36.311735    
    881000   1.0507955      17.755559      36.22039     
    882000   0.91334346     18.433363      36.349674    
    883000   0.99515816     17.871234      36.22301     
    884000   1.0110059      17.643225      36.084919    
    885000   1.0036131      18.586791      36.070667    
    886000   0.98060677     17.325156      35.96911     
    887000   1.0079722      17.811432      35.841054    
    888000   0.98951597     17.476231      35.815724    
    889000   0.96803945     16.726511      35.666175    
    890000   0.96265306     18.169608      35.571513    
    891000   1.0337819      17.974372      35.277539    
    892000   1.0547255      18.006826      35.324324    
    893000   1.0115846      18.102728      35.245129    
    894000   1.0092018      18.204761      35.001786    
    895000   0.94848264     17.64939       34.896768    
    896000   0.99286735     17.897687      34.92848     
    897000   0.99077062     17.516819      34.85708     
    898000   0.93747172     17.270749      35.038657    
    899000   0.98993993     17.264904      35.302777    
    900000   1.029906       18.363773      35.080448    
    901000   0.99783639     18.095699      35.14786     
    902000   0.99619497     17.533965      35.15621     
    903000   0.95873413     17.714894      34.984766    
    904000   1.0067593      18.1588        34.862232    
    905000   1.0317963      18.163288      34.762683    
    906000   0.98955004     17.787309      34.685088    
    907000   0.9912453      18.237049      34.496471    
    908000   1.0099082      18.266314      34.589434    
    909000   1.0173214      17.857826      34.398786    
    910000   0.97584141     18.097426      34.052203    
    911000   0.95010011     17.668168      33.866586    
    912000   1.024872       17.997639      33.951101    
    913000   1.0399923      17.641224      33.935961    
    914000   0.99270218     17.884492      33.829498    
    915000   0.98092977     17.52153       33.586695    
    916000   1.0099298      17.401667      33.681415    
    917000   1.0075393      17.574426      33.483986    
    918000   0.98187005     17.828397      33.497351    
    919000   0.99925452     17.459427      33.238055    
    920000   0.98521837     17.156758      33.100179    
    921000   1.0157252      16.921346      32.97327     
    922000   0.96354771     17.805788      33.095575    
    923000   0.96441822     17.645258      33.030288    
    924000   0.95323149     17.813146      32.968533    
    925000   0.98353616     17.698181      33.055628    
    926000   0.98240551     17.545192      32.96031     
    927000   1.0050271      17.888701      32.925833    
    928000   0.99532516     17.546668      32.847526    
    929000   1.0501952      17.222347      32.707231    
    930000   1.0100793      17.929661      32.632978    
    931000   1.0287026      17.697772      32.298885    
    932000   0.97344172     17.006624      32.159848    
    933000   1.0593444      17.906318      31.963489    
    934000   0.98513129     17.762634      31.954054    
    935000   0.99822445     17.343241      31.919814    
    936000   0.95934344     17.707153      31.534013    
    937000   1.0532966      18.004341      31.290638    
    938000   1.0049589      17.574329      31.212563    
    939000   1.0119193      17.909326      31.145253    
    940000   1.0073316      17.707237      30.943782    
    941000   0.97904633     17.389421      30.75985     
    942000   0.99104636     17.332079      30.859109    
    943000   1.0034013      17.323157      30.635021    
    944000   0.99708182     17.652821      30.674638    
    945000   1.0135199      17.959739      30.589199    
    946000   0.99199832     17.491614      30.72996     
    947000   0.99407373     17.923684      30.54606     
    948000   0.96558962     18.206463      30.360801    
    949000   0.9678587      17.489012      30.33396     
    950000   0.99453905     17.47053       30.202633    
    951000   0.92304353     17.763993      30.139422    
    952000   0.99645857     17.83504       30.070134    
    953000   1.0300638      17.795902      29.890956    
    954000   1.0070323      17.752778      29.704942    
    955000   0.98667517     18.198435      29.453635    
    956000   1.0151873      17.979269      29.002644    
    957000   0.9606809      17.84981       28.797758    
    958000   1.0027374      17.709377      28.633081    
    959000   1.0221768      17.611187      28.532152    
    960000   0.98589317     18.111112      28.541681    
    961000   1.0367984      18.141577      28.434691    
    962000   0.96149785     17.605154      28.42383     
    963000   0.99486863     17.782314      28.298776    
    964000   0.97323078     17.607221      28.084665    
    965000   1.0287671      17.88097       27.775567    
    966000   0.99923696     17.672826      27.35131     
    967000   0.99356327     17.927416      27.420422    
    968000   1.0217623      17.297397      27.556989    
    969000   0.99656642     17.337477      27.486751    
    970000   1.0202295      17.967458      27.368848    
    971000   1.0614213      17.828799      27.152745    
    972000   0.9784068      17.595714      27.166728    
    973000   1.0339661      16.964401      26.979239    
    974000   1.0461359      17.030313      26.970651    
    975000   1.0049601      17.408542      27.242177    
    976000   0.98827072     17.099772      27.091681    
    977000   0.99686857     17.405744      27.180932    
    978000   1.0583184      17.851596      27.192252    
    979000   1.0226002      18.102065      26.934889    
    980000   1.0247037      16.74015       26.807189    
    981000   1.0144292      17.769754      26.699013    
    982000   0.95361427     17.203036      26.514014    
    983000   1.0579908      17.488476      26.495965    
    984000   0.96567574     17.894843      26.256423    
    985000   1.024247       17.752762      25.755188    
    986000   1.0534589      18.217647      25.436474    
    987000   1.0005188      18.035217      25.383147    
    988000   0.97551312     18.337461      25.320553    
    989000   1.031817       18.045369      25.229064    
    990000   0.98315075     17.764044      25.150706    
    991000   1.0222928      17.044416      24.704388    
    992000   0.99099713     17.704145      24.462447    
    993000   1.0076526      17.45092       24.268812    
    994000   1.026321       17.500159      23.962864    
    995000   0.99763171     17.939656      23.774911    
    996000   0.99988403     17.757249      23.648236    
    997000   0.99796702     17.792748      23.599073    
    998000   1.0258014      16.780252      23.314444    
    999000   1.0209055      17.817732      23.141897    
   1000000   1.0430304      17.860196      23.363421    
   1001000   0.98015761     17.43864       23.152482    
   1002000   0.96802354     17.746881      23.022612    
   1003000   1.0011301      17.491905      22.701493    
   1004000   0.98652338     17.279813      22.541443    
   1005000   1.0290789      18.148998      22.206324    
   1006000   0.95384513     17.609536      22.068563    
   1007000   1.0273769      17.646456      22.094738    
   1008000   1.0090747      16.980479      21.987814    
   1009000   1.0422774      18.154396      21.9101      
   1010000   0.99709665     17.245834      21.886156    
   1011000   0.99342271     17.60411       21.781943    
   1012000   1.0023817      17.502723      21.458985    
   1013000   0.98635919     17.295535      21.299729    
   1014000   0.99584872     17.400747      21.281463    
   1015000   1.0125248      17.624078      21.307318    
   1016000   0.91116616     16.727448      21.269501    
   1017000   0.94948767     18.236403      21.147862    
   1018000   1.0197845      17.643521      21.095177    
   1019000   1.0204117      17.771333      21.19767     
   1020000   0.99783957     17.508155      21.093626    
   1021000   0.96753067     17.729289      20.844444    
   1022000   0.95635432     17.390396      20.721474    
   1023000   0.99779028     17.637413      20.752027    
   1024000   0.9935565      17.997362      20.730991    
   1025000   1.0663111      17.759333      20.499442    
   1026000   1.0346367      17.698202      20.174846    
   1027000   0.99755072     17.254544      20.256644    
   1028000   0.98143816     16.935383      20.2222      
   1029000   1.0190833      17.419682      20.071163    
   1030000   0.95207874     17.650282      19.908067    
   1031000   0.99414678     17.150912      19.889651    
   1032000   1.0343403      17.941762      19.637784    
   1033000   0.98474144     17.653569      19.381236    
   1034000   0.98949535     17.368084      19.275592    
   1035000   1.0684711      17.700613      19.194643    
   1036000   0.97098085     17.458287      18.833979    
   1037000   1.0074838      17.621424      18.678938    
   1038000   1.0092532      17.38091       18.805982    
   1039000   0.97409839     17.952699      18.531306    
   1040000   0.96926286     17.082657      18.466963    
   1041000   1.0647393      18.520297      18.32827     
   1042000   0.99597255     17.268055      18.100758    
   1043000   1.062228       17.534809      18.039592    
   1044000   1.0416275      17.674848      18.052686    
   1045000   1.0043475      17.619847      17.806379    
   1046000   0.97792078     17.133246      17.775912    
   1047000   0.97383653     17.385857      17.560802    
   1048000   1.0208783      17.245799      17.515887    
   1049000   1.0431656      17.086607      17.662622    
   1050000   0.9526064      17.609739      17.52119     
   1051000   0.95024541     17.587396      17.307176    
   1052000   0.98908638     17.152785      17.351664    
   1053000   1.0426912      17.682224      17.028054    
   1054000   1.0003294      17.884602      16.883534    
   1055000   1.0145448      17.840915      16.859923    
   1056000   0.99462511     17.540625      16.742559    
   1057000   1.0320951      17.929657      16.479697    
   1058000   1.0266984      18.076435      16.613035    
   1059000   1.0757571      17.587575      16.430314    
   1060000   1.0044676      17.320392      16.252805    
   1061000   0.95536345     17.473002      16.111595    
   1062000   1.0443812      18.24396       16.047897    
   1063000   1.0440791      18.44564       15.990399    
   1064000   1.0167099      17.871078      15.75623     
   1065000   0.96868175     17.73332       15.395699    
   1066000   0.99860996     17.444789      15.137015    
   1067000   0.97134528     17.630384      14.880949    
   1068000   1.0341221      17.370276      14.868333    
   1069000   1.0214977      17.282947      14.97373     
   1070000   0.98085072     18.16271       15.044636    
   1071000   0.94680609     16.860879      15.049222    
   1072000   0.98165979     17.46912       14.943608    
   1073000   1.0122825      17.63133       14.812234    
   1074000   0.96769026     17.204146      14.794043    
   1075000   1.0161604      18.055194      14.651839    
   1076000   1.0696212      17.256877      14.574383    
   1077000   0.95880313     17.504946      14.707692    
   1078000   0.99430743     16.901626      14.690759    
   1079000   1.011688       17.035197      14.229183    
   1080000   0.96074156     17.249847      13.936025    
   1081000   1.0466222      17.591702      14.007602    
   1082000   0.97287875     17.345257      13.983944    
   1083000   0.989163       17.586612      13.641436    
   1084000   1.0132684      17.008481      13.566257    
   1085000   1.0235662      17.126864      13.143743    
   1086000   1.009674       17.358445      13.092763    
   1087000   0.97328384     17.995399      12.936497    
   1088000   1.0092103      17.970037      12.712432    
   1089000   0.9866638      17.453217      12.68566     
   1090000   0.99867695     17.434181      12.621752    
   1091000   0.95241896     17.393474      12.579394    
   1092000   0.97222809     17.360838      12.534306    
   1093000   0.9956726      16.739482      12.64722     
   1094000   1.0234283      17.655248      12.524281    
   1095000   1.0366748      17.602719      12.145468    
   1096000   1.0318031      17.699565      12.109906    
   1097000   1.0230137      17.226223      12.246606    
   1098000   0.9756635      16.89316       12.097843    
   1099000   0.95586022     17.539836      12.005432    
   1100000   0.94696019     17.579762      11.832492    
   1101000   1.0082386      17.460025      11.949774    
   1102000   0.96611432     17.17295       12.014625    
   1103000   1.027836       17.714472      11.93498     
   1104000   1.0164154      17.436976      11.928025    
   1105000   1.0496897      17.423988      11.89011     
   1106000   0.9901574      17.216139      11.677599    
   1107000   1.0158716      17.569527      11.581428    
   1108000   0.9982627      17.409106      11.328255    
   1109000   1.0405619      17.537154      11.223007    
   1110000   1.0421094      18.240404      11.086447    
   1111000   1.0005976      17.325401      10.884025    
   1112000   0.96421622     16.974709      10.803812    
   1113000   1.0162127      18.189977      11.006366    
   1114000   0.96287385     17.456085      10.815243    
   1115000   1.0049557      17.423866      10.855703    
   1116000   1.0354382      16.871324      10.631876    
   1117000   1.0329822      17.788671      10.457396    
   1118000   1.0407414      16.941896      10.281931    
   1119000   1.025173       17.296026      10.354355    
   1120000   1.0197592      17.239428      10.026356    
   1121000   1.0053687      17.184714      9.9352953    
   1122000   1.036858       17.387012      9.8031503    
   1123000   1.0273109      17.190105      9.6138876    
   1124000   0.9902602      17.483418      9.4337342    
   1125000   1.0212857      17.38346       9.2802435    
   1126000   1.0385923      17.455139      9.1143654    
   1127000   1.0441074      17.48935       8.9359939    
   1128000   0.99553783     17.079604      8.8374186    
   1129000   1.0649165      17.661087      8.6326921    
   1130000   1.0114171      17.554703      8.6068686    
   1131000   0.98040875     17.674534      8.5704804    
   1132000   0.98080637     16.634474      8.4414384    
   1133000   0.97868762     17.314194      8.3564052    
   1134000   1.0128005      18.14916       8.2804639    
   1135000   0.9915216      17.039572      8.1066371    
   1136000   1.0166473      16.841984      8.0247954    
   1137000   1.0204357      17.375422      8.0412923    
   1138000   1.0483259      17.434768      7.8505209    
   1139000   0.9749036      16.91905       7.9612813    
   1140000   0.99592993     17.058752      7.9414107    
   1141000   1.000318       16.608574      8.0369871    
   1142000   0.93203235     16.640866      8.079669     
   1143000   0.98295488     16.789022      8.0381483    
   1144000   1.0513498      17.599429      8.0235348    
   1145000   1.0001961      17.109185      7.8378436    
   1146000   1.0163486      16.819738      7.8277642    
   1147000   1.0338869      17.259923      7.6624071    
   1148000   0.99393071     16.760629      7.6297387    
   1149000   1.0091505      17.446325      7.3976296    
   1150000   1.0652249      17.726328      7.3145031    
   1151000   1.0180425      16.959488      7.1174228    
Fix halt condition for fix-id 3 met on step 1152000 with value 6.927605390063174 (src/fix_halt.cpp:237)
   1152000   1.0187296      17.283964      6.9276054    
Loop time of 1549.42 on 2 procs for 1052000 steps with 901 atoms

Performance: 586622.893 tau/day, 678.962 timesteps/s
121.1% CPU use with 1 MPI tasks x 2 OpenMP threads

MPI task timing breakdown:
Section |  min time  |  avg time  |  max time  |%varavg| %total
---------------------------------------------------------------
Pair    | 233.65     | 233.65     | 233.65     |   0.0 | 15.08
Bond    | 23.647     | 23.647     | 23.647     |   0.0 |  1.53
Neigh   | 1236.3     | 1236.3     | 1236.3     |   0.0 | 79.79
Comm    | 0.34869    | 0.34869    | 0.34869    |   0.0 |  0.02
Output  | 2.8467     | 2.8467     | 2.8467     |   0.0 |  0.18
Modify  | 48.988     | 48.988     | 48.988     |   0.0 |  3.16
Other   |            | 3.669      |            |       |  0.24

Nlocal:            901 ave         901 max         901 min
Histogram: 1 0 0 0 0 0 0 0 0 0
Nghost:              0 ave           0 max           0 min
Histogram: 1 0 0 0 0 0 0 0 0 0
Neighs:         178198 ave      178198 max      178198 min
Histogram: 1 0 0 0 0 0 0 0 0 0

Total # of neighbors = 178198
Ave neighs/atom = 197.77802
Ave special neighs/atom = 1.9977802
Neighbor list builds = 10161
Dangerous builds = 0

# This simulation is done
# Move onto the next one
clear
  using 2 OpenMP thread(s) per MPI task
package omp 0
using multi-threaded neighbor list subroutines
next f
jump SELF

###
# Reference paper:
# K. Kremer and G. S. Grest
# Dynamics of entangled linear polymer melts: A molecular-dynamics simulation
# J Chem Phys 92, 5057 (1990)

##################################
# MIHIR: for branched polymers
# LJ minimum first to expand and explore, then collapse
###

###
# Looping through the various tshaped polymers to simulate,
# define variables to switch through
#variable f index bb66nuc1bl33bn3d30tot100 bb133nuc1bl66bn3d30tot200 bb200nuc1bl100bn3d30tot300 bb266nuc1bl133bn3d30tot400 bb333nuc1bl166bn3d30tot500 bb400nuc1bl200bn3d30tot600 bb466nuc1bl233bn3d30tot700 bb533nuc1bl266bn3d30tot800 bb600nuc1bl300bn3d30tot900 bb666nuc1bl333bn3d30tot1000 bb733nuc1bl366bn3d30tot1100 bb800nuc1bl400bn3d30tot1200
variable f index bb333nuc1bl166bn3d30tot500 bb400nuc1bl200bn3d30tot600 bb466nuc1bl233bn3d30tot700 bb533nuc1bl266bn3d30tot800 bb600nuc1bl300bn3d30tot900 bb666nuc1bl333bn3d30tot1000 bb733nuc1bl366bn3d30tot1100 bb800nuc1bl400bn3d30tot1200
###


###
# Box and units  (use LJ units and periodic boundaries)
###

units lj
log tshaped/logs2/$f.log
log tshaped/logs2/bb666nuc1bl333bn3d30tot1000.log
