#atom_style bond #no stiffness
atom_style angle #with stiffness

boundary        p p p
###
# Pair interactions require lists of neighbours to be calculated
###

#neighbor 0.3 bin
neighbor 4 bin

neigh_modify every 1 delay 1 check yes
atom_modify sort 0 0
### Generate RESTART file, SPECIAL format, not a .txt file ###
### Useful if simulation crashes ###

restart 1000000 tshaped/restarts2/$f.restart
restart 1000000 tshaped/restarts2/bb666nuc1bl333bn3d30tot1000.restart
#############################



### READ "start" data file ###

read_data tshaped/$f.dat
read_data tshaped/bb666nuc1bl333bn3d30tot1000.dat
Reading data file ...
  orthogonal box = (-1000 -1000 -1000) to (1000 1000 1000)
  1 by 1 by 1 MPI processor grid
  reading atoms ...
  1000 atoms
  scanning bonds ...
  2 = max bonds/atom
  scanning angles ...
  3 = max angles/atom
  reading bonds ...
  999 bonds
  reading angles ...
  999 angles
Finding 1-2 1-3 1-4 neighbors ...
  special bond factors lj:    0        0        0       
  special bond factors coul:  0        0        0       
     3 = max # of 1-2 neighbors
     3 = max # of 1-3 neighbors
     6 = max # of 1-4 neighbors
     9 = max # of special neighbors
  special bonds CPU = 0.001 seconds
  read_data CPU = 0.069 seconds

######################

### READ "REstart" data file ###

######################



###
# Define groups (atom type 1 is group 'all')
###
group all type 1
1000 atoms in group all


###
# Dump configs - "simple dumpings"
###

###
# Dump configs + box coords
###

dump   1   all   custom   1000  tshaped/trjs2/$f.lammpstrj  id  x y z  ix iy iz
dump   1   all   custom   1000  tshaped/trjs2/bb666nuc1bl333bn3d30tot1000.lammpstrj  id  x y z  ix iy iz
dump_modify   1   format line "%d %.5f %.5f %.5f %d %d %d"

########################################################################


###################################################################
# Stiffness term
#
# E = K * (1+cos(theta)), K>0
#
angle_style   cosine
#change this coefficient to change stiffness (e.g. 1,5,10)
angle_coeff   1 1.0
###################################################################

###################################################################
# Pair interaction between non-bonded atoms
#
#  Lennard-Jones 12-6 potential with cutoff:
#  potential E=4epsilon[ (sigma/r)^12 - (sigma/r)^6]  for r<r_cut
#
#  1.12246 = 2^(1/6) is the minimum of the potential


pair_style      lj/cut 1.12246152962189
#pair_style      lj/cut 3

#
#  pair_modify shift yes adds a constant to the potential such

#  that E(r_cut)=0. Forces remains unchanged.
#

pair_modify     shift yes

#
#  pair_coeff for lj/cut, specify 4:
#    * atom type interacting with
#    * atom type
#    * epsilon (energy units)
#    * sigma (distance units)
#

pair_coeff      1 1 1.0 1.0
###################################################################

###################################################################
# Pair interaction between non-bonded atoms
#
#  soft potential, for PUSHING apart overlapping atoms
#  potential E=A*(1 + cos(pi*r/r_c))
#
#  1.12246 = 2^(1/6) is the cut-off r_c

#pair_style     soft 1.12246152962189

#
#  pair_coeff for soft, specify 3:
#    * atom type interacting with
#    * atom type
#    * A
#
#

#pair_coeff      1 1 100.0
###################################################################

###################################################################
# Pair interaction between bonded atoms
#
# Fene potential + Lennard Jones 12-6:

#
#  E= - 0.5 K R0^2 ln[ 1- (r/R0)^2]
#     + 4epsilon[ (sigma/r)^12 - (sigma/r)^6] + epsilon
#

bond_style   fene


#
# For style fene, specify:
#   * bond type
#   * K (energy/distance^2)
#   * R0 (distance)
#   * epsilon (energy)  (LJ component)
#   * sigma (distance)  (LJ component)
#


special_bonds fene #<=== I M P O R T A N T (new command)
Finding 1-2 1-3 1-4 neighbors ...
  special bond factors lj:    0        1        1       
  special bond factors coul:  0        1        1       
     3 = max # of 1-2 neighbors
     9 = max # of special neighbors
  special bonds CPU = 0.000 seconds

bond_coeff   1   30   2   1.0   1.0


###################################################

###################################################################
# Pair interaction between bonded atoms
#
# Harmonic potential:
#
#  E= K * (R-R0)^2
#

#bond_style   harmonic

#
# For style harmonic, specify:
#   * bond type
#   * K (energy/distance^2)
#   * R0 (distance)
#

#bond_coeff   1   60.0   1.0
#bond_coeff   2   harmonic 0.1   1.0

###################################################
compute 1 all gyration
variable rog equal c_1
#compute 2 all coord/atom cutoff 1.1

#dump 2 all custom 10000 contact_number.dump id c_2


###
# Set up fixes
###
thermo_style   custom   step  temp enthalpy c_1
fix 1 all nve   ###NVE ensemble

fix 2 all   langevin   1.0 1.0 1.0  778655   ###Langevin integrator Tstart Tstop 1/friction rndseed


##### Sample thermodynamic info  (temperature, energy, pressure, etc.) #####
thermo 1000









############################################################################

###
# set timestep of integrator

timestep 0.01

###
# run integration for a number of steps
###
#run 0
#variable r equal c_1
#if "$r < 63.1" then "quit 1"

# lj potential minimum, cause molecule to explore
run 100000
Generated 0 of 0 mixed pair_coeff terms from geometric mixing rule
Last active /omp style is angle_style cosine/omp
Neighbor list info ...
  update: every = 1 steps, delay = 1 steps, check = yes
  max neighbors/atom: 2000, page size: 100000
  master list distance cutoff = 5.1224615
  ghost atom cutoff = 5.1224615
  binsize = 2.5612308, bins = 781 781 781
  1 neighbor lists, perpetual/occasional/extra = 1 0 0
  (1) pair lj/cut/omp, perpetual
      attributes: half, newton on, omp
      pair build: half/bin/newton/omp
      stencil: half/bin/3d
      bin: standard
WARNING: Communication cutoff 5.12246152962189 is shorter than a bond length based estimate of 5.455. This may lead to errors. (src/comm.cpp:723)
Per MPI rank memory allocation (min/avg/max) = 1860 | 1860 | 1860 Mbytes
   Step          Temp         Enthalpy         c_1      
         0   0              13.311897      170.62068    
      1000   1.0388863      18.156696      170.30292    
      2000   1.0185849      18.462472      170.02083    
      3000   1.0044391      18.135857      169.904      
      4000   1.0260004      18.379554      169.56813    
      5000   1.0274197      18.697906      169.21722    
      6000   1.0014128      18.299927      168.886      
      7000   1.0174561      18.790462      168.45141    
      8000   0.98751664     18.310001      168.02683    
      9000   1.025192       18.565088      167.74874    
     10000   0.99578635     18.467534      167.42678    
     11000   0.98672493     18.348653      167.06815    
     12000   1.0111376      18.946738      166.67635    
     13000   1.0056471      19.011084      166.68655    
     14000   0.96138578     18.526024      166.4151     
     15000   0.9842212      18.271397      166.39108    
     16000   0.95808358     18.876689      166.12465    
     17000   1.0043983      19.171034      165.85973    
     18000   0.98341118     19.136083      165.37454    
     19000   1.0247761      19.016155      165.04049    
     20000   1.0452629      19.54206       164.95046    
     21000   0.97139556     18.610453      164.55747    
     22000   1.0014117      19.054807      164.61602    
     23000   0.97364313     19.176975      164.29889    
     24000   1.0077886      19.150048      163.87982    
     25000   0.99637873     18.888734      163.41282    
     26000   1.0192821      19.483703      163.28387    
     27000   0.97654432     18.96669       163.23979    
     28000   1.0359869      18.808071      162.92044    
     29000   0.96069607     18.695143      162.24693    
     30000   1.0341202      19.395169      162.00832    
     31000   0.9319854      18.656922      161.75027    
     32000   1.0115451      18.702595      161.69003    
     33000   1.0392101      19.621283      161.1558     
     34000   0.98400353     19.121765      160.95706    
     35000   0.95141145     19.318328      160.78557    
     36000   0.9884987      19.002323      160.37386    
     37000   0.98697015     19.131696      160.30945    
     38000   0.97587217     19.617309      159.90053    
     39000   1.0015684      19.251869      159.8267     
     40000   0.96596331     19.725156      159.70511    
     41000   1.0015665      19.304674      159.28056    
     42000   1.0335013      19.288569      158.73927    
     43000   1.0018419      19.14012       158.34894    
     44000   0.97079515     19.531859      158.27286    
     45000   0.95236044     18.910953      158.18536    
     46000   1.0143656      19.283167      158.07681    
     47000   0.99782649     19.785166      157.94332    
     48000   1.0407444      19.333639      157.63685    
     49000   1.0012743      18.92779       157.4586     
     50000   0.97543391     19.476566      157.49187    
     51000   1.0336122      19.552736      157.49921    
     52000   1.0018089      19.333284      157.30531    
     53000   0.95143909     19.139365      156.86866    
     54000   0.98847986     19.218682      156.53023    
     55000   1.0169414      19.411524      156.04829    
     56000   1.0211888      19.584932      155.70363    
     57000   1.0169554      19.387242      155.41346    
     58000   1.0238241      19.833831      155.08628    
     59000   0.99166962     19.441932      155.10254    
     60000   0.99385341     19.478595      154.77435    
     61000   1.0245084      19.475374      154.61223    
     62000   0.97722321     19.100514      154.49705    
     63000   0.9894496      19.570168      154.21072    
     64000   0.99211129     19.08534       154.0428     
     65000   1.0609879      19.496779      153.9939     
     66000   0.97947766     19.15056       154.10333    
     67000   1.0048435      19.458766      153.87437    
     68000   0.9774712      19.46859       153.59411    
     69000   1.0192718      19.647085      153.35166    
     70000   1.0385338      19.872507      153.07308    
     71000   0.97890723     19.519666      152.96344    
     72000   0.99480928     19.763637      152.95169    
     73000   0.98563608     19.8869        152.85354    
     74000   0.98960639     19.182519      152.80631    
     75000   1.0049048      19.44704       152.85297    
     76000   0.93696267     19.537456      152.66523    
     77000   0.97487795     19.551473      152.23608    
     78000   1.0146497      19.765966      152.10804    
     79000   1.0229618      19.47358       152.10767    
     80000   0.97717152     19.22877       152.11568    
     81000   1.0191347      19.506801      151.8905     
     82000   0.96835662     19.708459      151.73337    
     83000   0.97325175     19.745093      151.3505     
     84000   1.014714       19.268644      151.48732    
     85000   1.0048601      20.311495      151.333      
     86000   1.0064408      20.014365      151.08667    
     87000   1.0395561      19.753793      150.73982    
     88000   1.0052173      19.468003      150.47681    
     89000   0.96212639     19.785193      150.43861    
     90000   0.95557514     19.192503      150.36252    
     91000   0.998623       19.462292      150.13118    
     92000   1.0177818      19.409036      149.9261     
     93000   0.96158932     19.997136      149.79919    
     94000   0.9793075      19.562704      149.6842     
     95000   0.98173666     20.018463      149.64448    
     96000   1.034904       19.725279      149.29057    
     97000   0.9927021      19.383013      148.98723    
     98000   0.93412966     19.935364      148.75688    
     99000   1.0030627      19.956234      148.63633    
    100000   1.005895       19.63103       148.26867    
Loop time of 300.929 on 2 procs for 100000 steps with 1000 atoms

Performance: 287111.205 tau/day, 332.305 timesteps/s
102.9% CPU use with 1 MPI tasks x 2 OpenMP threads

MPI task timing breakdown:
Section |  min time  |  avg time  |  max time  |%varavg| %total
---------------------------------------------------------------
Pair    | 0.8767     | 0.8767     | 0.8767     |   0.0 |  0.29
Bond    | 1.9465     | 1.9465     | 1.9465     |   0.0 |  0.65
Neigh   | 293.32     | 293.32     | 293.32     |   0.0 | 97.47
Comm    | 0.025406   | 0.025406   | 0.025406   |   0.0 |  0.01
Output  | 0.23292    | 0.23292    | 0.23292    |   0.0 |  0.08
Modify  | 4.2369     | 4.2369     | 4.2369     |   0.0 |  1.41
Other   |            | 0.2933     |            |       |  0.10

Nlocal:           1000 ave        1000 max        1000 min
Histogram: 1 0 0 0 0 0 0 0 0 0
Nghost:              0 ave           0 max           0 min
Histogram: 1 0 0 0 0 0 0 0 0 0
Neighs:           5122 ave        5122 max        5122 min
Histogram: 1 0 0 0 0 0 0 0 0 0

Total # of neighbors = 5122
Ave neighs/atom = 5.122
Ave special neighs/atom = 1.998
Neighbor list builds = 1060
Dangerous builds = 0

# Replace lj potential, now collapse
pair_style      lj/cut 3

# Cutoff simul when gyration under 5
# Variable created with equal requires v_ + 'name'
fix 3 all halt 1000 v_rog < 7

run 5000000
Generated 0 of 0 mixed pair_coeff terms from geometric mixing rule
Last active /omp style is angle_style cosine/omp
Per MPI rank memory allocation (min/avg/max) = 1860 | 1860 | 1860 Mbytes
   Step          Temp         Enthalpy         c_1      
    100000   1.005895       19.139607      148.26867    
    101000   1.0326819      19.308218      148.06605    
    102000   1.0181878      18.937276      147.99917    
    103000   1.0136433      20.010075      147.78438    
    104000   1.0010333      19.075378      147.71264    
    105000   1.0130787      18.95317       147.41506    
    106000   0.98119057     18.980524      147.42317    
    107000   1.0179975      19.287917      147.07532    
    108000   0.99809246     19.11283       146.90034    
    109000   0.98330617     19.346056      146.86762    
    110000   1.0263386      19.638741      146.6761     
    111000   0.98949006     19.287708      146.4715     
    112000   1.0007247      19.606615      146.53761    
    113000   0.97677229     19.27631       146.23059    
    114000   0.96339476     19.109516      145.85221    
    115000   0.95763188     19.544594      145.62616    
    116000   1.0204499      19.235367      145.46259    
    117000   0.96744562     19.644839      145.4047     
    118000   0.97256574     19.063469      145.43393    
    119000   1.0003422      19.135589      145.11629    
    120000   1.0308255      19.358805      144.99021    
    121000   1.0064014      18.689608      144.91288    
    122000   0.98998477     19.108329      144.72054    
    123000   0.99052619     18.93614       144.4094     
    124000   0.94572294     19.113046      144.14475    
    125000   1.0054226      19.221124      143.94401    
    126000   1.0273363      19.178414      143.51757    
    127000   0.99103466     19.383687      143.37865    
    128000   1.0219033      19.133317      143.12017    
    129000   1.0258057      19.331316      142.8536     
    130000   1.0138538      19.222083      142.46163    
    131000   0.99266564     18.710637      142.20843    
    132000   0.97370215     18.816625      141.98063    
    133000   0.98947128     19.435773      141.99024    
    134000   0.97706831     19.237428      141.78627    
    135000   1.0113951      19.383593      141.54063    
    136000   0.94131636     19.08147       141.44868    
    137000   1.0218122      19.372205      141.15011    
    138000   1.0125146      19.291507      141.05592    
    139000   0.96035581     19.467317      141.06323    
    140000   0.9701667      19.320491      141.06312    
    141000   0.99520451     19.623842      140.92248    
    142000   1.0003131      19.596856      140.59378    
    143000   1.0034582      19.239506      140.52187    
    144000   1.0525278      19.88795       140.54264    
    145000   1.0256613      19.216256      140.60165    
    146000   1.0344444      19.729934      140.41247    
    147000   1.0042694      19.166585      140.49623    
    148000   1.0372928      19.268098      140.55095    
    149000   1.0295113      19.512576      140.35213    
    150000   1.02812        19.244374      140.3037     
    151000   1.0061699      19.509466      140.04595    
    152000   1.0127104      19.201098      140.06121    
    153000   1.0319396      19.377363      139.7949     
    154000   0.95012085     19.273321      139.9253     
    155000   1.0208521      19.065827      139.94217    
    156000   1.0221754      19.126125      139.90461    
    157000   1.015873       19.258119      139.5974     
    158000   0.983051       18.830743      139.33819    
    159000   1.0770176      19.307298      139.12543    
    160000   1.0033542      19.54621       138.9462     
    161000   0.99431414     18.937841      138.79297    
    162000   1.0012952      19.390704      138.48131    
    163000   0.9995425      18.79033       138.1687     
    164000   0.9801123      18.766106      137.92401    
    165000   1.0335078      19.417119      137.79752    
    166000   0.99662445     18.616904      137.4286     
    167000   1.0052138      19.308225      137.22843    
    168000   0.98646722     18.981537      137.11966    
    169000   0.9730283      18.856382      136.76246    
    170000   1.0505366      19.344568      136.4901     
    171000   0.9944386      19.175789      136.27043    
    172000   1.0206406      18.808089      136.15418    
    173000   0.99528882     18.491423      135.69862    
    174000   0.99761814     18.950535      135.67609    
    175000   0.98263767     19.476371      135.28949    
    176000   0.98468988     19.420502      135.03459    
    177000   0.97290027     18.874377      134.94785    
    178000   0.98751864     19.127024      134.80588    
    179000   1.0146934      18.777441      134.79216    
    180000   1.0428152      19.046231      134.56444    
    181000   1.0359827      18.966306      134.3464     
    182000   0.92569666     19.073272      134.08364    
    183000   1.0198709      19.49309       134.08667    
    184000   1.0031593      19.420378      133.99785    
    185000   1.0221269      19.315551      134.0807     
    186000   0.99561703     19.098517      133.98419    
    187000   1.009651       18.832427      133.88087    
    188000   1.0224617      18.874359      133.90883    
    189000   0.97527415     18.875148      133.80545    
    190000   1.0210645      19.285633      133.50733    
    191000   1.0004137      19.093919      133.32855    
    192000   0.99059546     19.069797      133.20394    
    193000   0.96983982     19.30261       133.19775    
    194000   1.0314301      18.74968       133.04444    
    195000   0.96564269     18.837487      132.9312     
    196000   1.0097579      19.08951       132.90584    
    197000   1.0212992      19.223949      132.92051    
    198000   0.96825498     18.240722      132.65851    
    199000   0.96912994     18.985556      132.60879    
    200000   0.9654438      18.832149      132.43272    
    201000   0.97217358     19.265236      132.26145    
    202000   0.98425169     18.79274       132.33456    
    203000   0.98569789     19.301311      132.31422    
    204000   1.0094642      18.644799      132.16902    
    205000   0.99563253     19.0807        132.17256    
    206000   1.009168       18.990986      132.09972    
    207000   1.01292        18.765411      131.99932    
    208000   1.0085392      19.026587      131.71567    
    209000   0.98939256     19.407628      131.5611     
    210000   1.0175421      19.47349       131.49337    
    211000   1.0206119      18.955342      131.51006    
    212000   1.0083875      19.668064      131.34261    
    213000   1.0156893      19.022789      130.94174    
    214000   0.99761093     19.142665      130.60955    
    215000   1.0443551      18.927512      130.39424    
    216000   0.98477956     19.48651       130.13238    
    217000   0.99223052     18.617727      130.04512    
    218000   1.0588488      18.904414      130.10721    
    219000   0.97624241     19.599888      129.82805    
    220000   1.009931       19.065232      129.74218    
    221000   1.014877       19.229618      129.48945    
    222000   0.97556244     19.131543      129.39374    
    223000   1.0037839      19.499938      129.22155    
    224000   0.98873398     18.873047      129.05705    
    225000   0.9866451      19.113131      128.97665    
    226000   1.0119284      18.722239      128.80987    
    227000   1.0181895      18.7903        128.76351    
    228000   0.99680935     18.999178      128.32219    
    229000   1.0091214      19.606091      128.26836    
    230000   1.0072315      19.072343      128.25131    
    231000   0.99984903     19.270492      128.09414    
    232000   0.99632231     18.934113      127.74043    
    233000   1.0259096      19.116454      127.44876    
    234000   0.99157626     19.466357      127.00338    
    235000   1.0222797      18.483494      127.03564    
    236000   1.0448063      18.825418      126.91322    
    237000   0.98345857     19.146966      126.72224    
    238000   1.0117792      18.929963      126.85122    
    239000   1.0072106      18.697653      126.64061    
    240000   1.0479087      18.697474      126.35311    
    241000   1.033191       19.160779      126.05993    
    242000   0.97846326     19.025048      125.90301    
    243000   0.98302707     19.156928      125.82967    
    244000   1.0060491      18.659041      125.5667     
    245000   1.0524872      18.925173      125.48167    
    246000   1.0237009      19.193884      125.38786    
    247000   1.0124461      18.923799      125.36687    
    248000   1.0274831      18.900465      125.36123    
    249000   0.99789475     19.256908      125.49454    
    250000   1.0072104      19.320023      125.3349     
    251000   0.97468301     18.94109       125.38341    
    252000   1.0070744      19.29976       125.16666    
    253000   0.9995677      18.617604      125.22923    
    254000   0.94973403     18.644466      125.1636     
    255000   1.0088941      19.547771      125.11395    
    256000   0.95746532     18.669167      124.93367    
    257000   0.97197989     19.005963      124.75771    
    258000   0.96476999     18.99779       124.67826    
    259000   1.0183868      18.919145      124.66091    
    260000   0.96439544     18.777512      124.41644    
    261000   1.0244295      19.083925      124.17083    
    262000   1.0003719      18.822684      124.0087     
    263000   0.99998864     18.659277      123.83109    
    264000   1.0327307      18.362746      123.74487    
    265000   1.0039929      18.873381      123.59418    
    266000   1.0506513      18.797708      123.35541    
    267000   1.0064541      18.965105      123.35906    
    268000   0.99824955     19.130055      123.32084    
    269000   0.98265929     18.305668      123.38596    
    270000   0.9463627      19.202407      123.32555    
    271000   0.99807581     18.659617      123.15932    
    272000   1.009493       19.649806      122.95799    
    273000   1.0464423      19.199198      122.65384    
    274000   1.0044195      18.959702      122.64826    
    275000   0.99171735     18.627237      122.6575     
    276000   1.0455563      19.288832      122.74906    
    277000   0.97603808     18.393769      122.5968     
    278000   1.0173457      18.799736      122.60913    
    279000   0.97944886     18.976208      122.53878    
    280000   1.0147511      19.123653      122.80572    
    281000   0.99980504     18.983983      122.65594    
    282000   1.0114963      19.359619      122.50696    
    283000   1.0032253      19.149474      122.19493    
    284000   0.99467241     18.395005      121.95725    
    285000   1.0084424      18.726294      121.68979    
    286000   0.98514196     18.908947      121.85372    
    287000   0.97270924     18.772072      121.81737    
    288000   1.0148981      19.302773      121.56118    
    289000   1.0126326      18.752647      121.18485    
    290000   1.0057513      18.254144      121.25553    
    291000   0.96574702     19.532465      121.00901    
    292000   1.0295043      19.115851      120.77637    
    293000   1.0098451      19.146454      120.7127     
    294000   1.0382821      19.075163      120.90602    
    295000   0.98198492     19.182027      120.66122    
    296000   1.021765       19.009042      120.54713    
    297000   1.0349648      18.817847      120.34368    
    298000   1.0586653      18.850504      120.26037    
    299000   1.0223186      18.589896      120.19823    
    300000   1.0071319      19.010931      120.20973    
    301000   1.0113605      18.695107      120.08103    
    302000   1.0261506      18.826703      120.01235    
    303000   1.0364616      19.525528      119.88648    
    304000   0.99277585     18.46134       119.607      
    305000   1.03758        19.254665      119.47425    
    306000   1.0099984      18.798993      119.66441    
    307000   0.99926865     19.070622      119.25145    
    308000   1.0003283      18.701194      118.82274    
    309000   1.0209401      19.00288       118.57637    
    310000   1.0228189      19.378608      118.45245    
    311000   0.98721243     19.053903      118.3308     
    312000   1.0528015      18.770929      118.13203    
    313000   1.0030297      18.932217      117.96364    
    314000   1.024754       18.914503      117.88497    
    315000   1.0179736      19.243027      117.58802    
    316000   0.98996438     19.137604      117.52886    
    317000   1.0192223      18.930382      117.50997    
    318000   1.0196663      18.624515      117.64533    
    319000   0.95563587     18.674109      117.55683    
    320000   0.95849598     19.094924      117.48466    
    321000   1.0395206      19.043603      117.14289    
    322000   0.982939       19.25311       117.1728     
    323000   1.0154961      18.86113       117.26082    
    324000   1.0109645      18.861132      117.07713    
    325000   0.98067295     19.299709      116.73735    
    326000   1.0176437      18.971459      116.60276    
    327000   1.0153954      18.688272      116.48671    
    328000   1.0192465      18.988728      116.47881    
    329000   1.0158053      19.204253      116.14712    
    330000   0.96281989     18.755079      116.08503    
    331000   1.0103503      18.918599      116.06812    
    332000   1.0143404      18.328234      115.97805    
    333000   0.9949743      18.456996      116.03323    
    334000   0.96225182     18.3924        115.89407    
    335000   1.0327165      18.708434      115.83643    
    336000   0.97630502     18.675263      115.75743    
    337000   1.0082897      18.649844      115.58502    
    338000   0.98167482     18.783399      115.34189    
    339000   0.985219       18.637592      115.28507    
    340000   1.0344596      18.886122      115.27015    
    341000   0.9896047      19.009637      114.9257     
    342000   1.0025684      18.368782      114.92116    
    343000   0.99657332     19.076002      114.76702    
    344000   0.96299474     19.268574      114.94347    
    345000   1.0098241      18.776667      114.80347    
    346000   1.0132141      18.941262      114.49918    
    347000   0.98070818     18.661653      114.33649    
    348000   0.99991149     18.947024      114.16773    
    349000   1.0015109      18.488677      113.99377    
    350000   0.95966974     18.320497      113.88241    
    351000   0.99919563     19.097759      113.94882    
    352000   1.0261874      18.800706      114.06003    
    353000   0.9792946      18.483082      114.01891    
    354000   1.0075153      18.08641       113.79713    
    355000   0.99198722     18.509157      113.55748    
    356000   0.98093977     18.27605       113.27546    
    357000   0.98889709     18.860977      112.98856    
    358000   0.97940601     18.405818      112.84132    
    359000   1.0387347      19.236294      112.72089    
    360000   0.9807197      18.475711      112.45677    
    361000   1.0354404      19.190796      112.33708    
    362000   0.9788692      18.891412      111.99041    
    363000   1.0282969      19.207369      111.76524    
    364000   0.94367378     18.71654       111.82007    
    365000   1.0196824      18.817102      111.91291    
    366000   1.0498432      18.498144      111.86312    
    367000   1.0073556      18.306357      111.71677    
    368000   0.95531483     18.787987      111.52238    
    369000   0.97134775     18.80744       111.37361    
    370000   0.98233707     19.023312      111.29199    
    371000   0.98323065     19.010582      111.11849    
    372000   0.98252855     19.244104      111.1977     
    373000   0.98791085     18.464866      110.97423    
    374000   1.0008664      18.746225      110.84337    
    375000   0.99868347     18.713665      110.69974    
    376000   1.0164957      18.989479      110.55435    
    377000   0.99818133     18.211634      110.17806    
    378000   1.0187317      19.137386      110.0106     
    379000   1.0299047      19.225005      109.81186    
    380000   0.99112372     18.661613      109.7279     
    381000   1.0009362      18.93958       109.71966    
    382000   1.0086591      19.031033      109.67016    
    383000   0.99292278     18.934843      109.42929    
    384000   0.96233875     18.570288      109.61671    
    385000   0.96528741     19.150968      109.48762    
    386000   1.0096907      18.876596      109.28209    
    387000   0.97836032     18.593775      109.23206    
    388000   0.97888805     18.690793      109.08462    
    389000   0.99759493     19.317059      108.91482    
    390000   0.99999912     18.748527      108.76851    
    391000   0.98703404     18.630365      108.71723    
    392000   0.99077444     18.684427      108.70005    
    393000   1.0029422      18.443117      108.42822    
    394000   1.0010833      18.718039      108.3584     
    395000   0.99263153     18.785115      108.3611     
    396000   0.96106324     18.991952      108.45353    
    397000   0.99810722     18.724056      108.30126    
    398000   1.017625       18.952758      108.07722    
    399000   0.97865183     18.843658      107.78004    
    400000   1.0236888      18.977247      107.63742    
    401000   1.0045418      18.874714      107.56811    
    402000   1.0622099      18.721339      107.58607    
    403000   1.0376933      18.656445      107.26453    
    404000   0.99459182     18.974186      107.32293    
    405000   1.0363656      18.530442      107.16929    
    406000   0.9555692      18.656668      106.98476    
    407000   0.9572075      18.759869      106.64496    
    408000   1.0152385      18.618898      106.58075    
    409000   1.0201767      18.945048      106.3816     
    410000   1.0094386      18.428768      106.23946    
    411000   0.99070961     19.375085      106.16622    
    412000   0.94547191     18.700483      106.24426    
    413000   1.031516       19.081872      106.09762    
    414000   0.94733962     18.733981      105.98714    
    415000   1.0489346      18.550422      105.75545    
    416000   0.95658306     18.663628      105.59792    
    417000   0.98349974     18.530595      105.41607    
    418000   1.011719       18.842535      105.36946    
    419000   0.95187346     18.563021      105.57399    
    420000   0.99869429     18.904786      105.5278     
    421000   0.96558467     18.630834      105.48837    
    422000   1.0439992      18.708168      105.33201    
    423000   1.0358657      19.036018      105.39113    
    424000   0.98378451     18.669072      105.17718    
    425000   1.0213796      18.770662      105.09934    
    426000   1.0083902      18.596567      105.1292     
    427000   1.0009821      19.087629      105.13042    
    428000   0.96536117     18.726265      104.87475    
    429000   1.0659517      18.633054      104.68907    
    430000   1.0177542      18.615935      104.42809    
    431000   1.0199776      18.403926      104.1641     
    432000   1.0108279      18.775442      104.11646    
    433000   0.97738599     18.514541      104.12585    
    434000   0.98798865     18.829046      104.11857    
    435000   0.9670191      18.871166      103.87511    
    436000   0.9736124      18.919353      103.85715    
    437000   1.0428673      17.962579      103.83516    
    438000   1.038668       18.679931      103.69169    
    439000   1.0719823      18.853191      103.46641    
    440000   0.95983992     18.636258      103.66173    
    441000   0.92887581     18.304132      103.55666    
    442000   1.0359207      18.469189      103.7067     
    443000   0.93471478     18.43654       103.67277    
    444000   1.0134153      18.975246      103.43353    
    445000   0.94180064     18.501481      103.25438    
    446000   1.0098979      18.781549      103.09726    
    447000   0.99964699     18.370126      102.93561    
    448000   0.99101368     18.788007      102.81869    
    449000   0.99820375     18.937625      102.56142    
    450000   1.0151785      18.890956      102.55071    
    451000   1.0166201      17.901984      102.27686    
    452000   0.9888482      18.616904      102.04757    
    453000   0.9639878      18.344099      101.93926    
    454000   0.99115858     18.752097      101.85152    
    455000   1.0125732      18.620599      101.71182    
    456000   1.0127122      18.67765       101.52696    
    457000   0.99941708     18.716983      101.58257    
    458000   1.0034078      18.326886      101.47605    
    459000   0.96867865     18.74798       101.29663    
    460000   1.0095212      18.596679      101.05092    
    461000   1.0017238      18.222617      100.91213    
    462000   1.0273118      18.833528      100.84471    
    463000   0.99035279     18.636641      100.43542    
    464000   0.97534005     18.637931      100.38751    
    465000   0.97110915     18.301756      100.01737    
    466000   0.96659377     18.476649      100.06904    
    467000   1.0248586      18.710321      99.680296    
    468000   1.0080695      18.783108      99.585497    
    469000   0.98508677     18.365901      99.532269    
    470000   1.013271       18.286184      99.472091    
    471000   0.99584542     18.25424       99.547715    
    472000   0.98445326     18.497256      99.421693    
    473000   0.96393521     18.939063      99.17163     
    474000   0.9972269      18.854471      99.013017    
    475000   0.94652496     18.18958       99.043463    
    476000   1.0303257      18.367305      98.766802    
    477000   1.0247621      18.554758      98.561367    
    478000   1.0096135      18.601263      98.281894    
    479000   1.0189835      18.316998      98.038323    
    480000   0.99429848     18.410223      97.871482    
    481000   1.0239831      18.54607       97.671889    
    482000   1.0145608      18.771759      97.300775    
    483000   1.0265702      19.054768      97.166658    
    484000   1.0266001      19.204584      97.139       
    485000   0.97087823     18.843646      97.05547     
    486000   1.0091141      18.502195      96.878785    
    487000   1.0235707      18.549482      96.709494    
    488000   0.9970676      18.379552      96.70108     
    489000   0.98313207     18.082245      96.638011    
    490000   1.0381695      19.085672      96.70656     
    491000   0.9971019      18.896929      96.565218    
    492000   1.0551967      18.479769      96.611668    
    493000   0.99152599     18.542076      96.545558    
    494000   1.0203718      18.838583      96.338502    
    495000   0.97218567     18.177473      96.515096    
    496000   1.0153031      18.478117      96.720598    
    497000   0.97443383     18.663571      96.615707    
    498000   1.019063       18.322429      96.388897    
    499000   1.0348426      19.144092      96.259295    
    500000   1.0537498      18.859459      95.954272    
    501000   0.98957723     19.056176      95.924592    
    502000   1.0186511      18.331339      95.696565    
    503000   0.96827417     18.618843      95.623579    
    504000   0.99961899     18.379071      95.319935    
    505000   0.97595105     18.444496      95.301904    
    506000   1.0035309      18.433971      95.372555    
    507000   0.99367922     19.27641       95.371044    
    508000   1.0068771      18.18219       95.333524    
    509000   0.98425431     17.924655      95.238639    
    510000   1.0475005      18.602747      94.961552    
    511000   0.96994613     18.548065      94.775177    
    512000   1.0168521      18.752795      94.869911    
    513000   0.9712941      18.115258      94.767914    
    514000   0.96704985     17.996386      94.978386    
    515000   1.015985       18.610183      95.048594    
    516000   1.0576254      18.42821       94.817658    
    517000   1.0063463      18.289514      94.672086    
    518000   0.95962888     18.003459      94.771713    
    519000   1.0082816      18.600924      94.596953    
    520000   0.98319127     18.230363      94.410983    
    521000   0.93656396     18.616663      94.377853    
    522000   0.99691693     18.439333      94.175494    
    523000   0.97637481     18.225163      94.035166    
    524000   1.0384165      18.345341      93.824227    
    525000   1.0106815      18.826262      93.672753    
    526000   0.95612436     18.309302      93.572915    
    527000   1.00486        18.263837      93.447886    
    528000   0.98199404     19.151868      93.40238     
    529000   1.026763       18.573909      93.126424    
    530000   1.0006724      18.770401      92.89449     
    531000   0.95557222     18.274865      92.610876    
    532000   0.97136695     17.687576      92.246713    
    533000   0.9688692      18.155852      91.985096    
    534000   0.96402347     18.245228      91.839004    
    535000   1.0127589      18.654182      91.738029    
    536000   0.98135094     18.40577       91.341324    
    537000   1.0259489      17.720251      91.378598    
    538000   1.0193492      18.341334      91.171042    
    539000   1.0020221      18.364492      91.250186    
    540000   1.0246133      18.169451      91.443846    
    541000   0.94533573     18.326742      91.428933    
    542000   1.0027295      17.840659      91.304117    
    543000   0.9955325      18.586756      91.380328    
    544000   1.0191576      18.148458      91.422004    
    545000   1.0028958      18.21845       91.000985    
    546000   1.0249996      17.855485      90.827701    
    547000   1.0003017      18.218643      90.816661    
    548000   0.96325267     18.177025      90.611951    
    549000   0.97262929     18.14829       90.361616    
    550000   1.0524003      18.370156      90.262065    
    551000   0.98290424     18.239739      89.884809    
    552000   0.96259161     18.288264      89.773173    
    553000   1.0162439      18.17601       89.731257    
    554000   1.0163016      18.262556      89.814408    
    555000   1.0096241      18.545768      89.633881    
    556000   0.99049579     18.34708       89.631923    
    557000   1.0564849      18.826265      89.400193    
    558000   0.99933136     19.006722      89.295401    
    559000   1.0582833      18.650139      89.238994    
    560000   1.0193969      18.563906      89.069181    
    561000   1.0285678      18.358428      89.22429     
    562000   0.93632931     18.47895       89.050511    
    563000   0.99019457     18.217379      88.980047    
    564000   0.99821516     18.336282      88.929776    
    565000   0.9767174      18.276472      89.005299    
    566000   1.0315608      18.480523      88.672928    
    567000   1.080849       18.45764       88.516055    
    568000   0.98117703     18.405837      88.46802     
    569000   1.0367838      18.222742      88.40518     
    570000   1.0020525      18.02725       88.33623     
    571000   1.0080175      18.536906      88.234446    
    572000   0.98156755     18.008722      88.107679    
    573000   1.0423031      18.223137      88.028486    
    574000   0.95101664     18.211         87.853727    
    575000   0.97615126     18.036861      87.709922    
    576000   0.98413297     18.661143      87.475239    
    577000   0.96773339     18.744165      87.268483    
    578000   0.98757709     18.196128      87.277143    
    579000   1.0316042      19.080598      86.898664    
    580000   0.98690755     18.164324      86.796584    
    581000   1.049135       18.440085      87.011177    
    582000   1.0132215      18.754539      86.901829    
    583000   1.0309361      17.985044      86.811759    
    584000   0.97222669     18.163319      86.6646      
    585000   1.0560538      18.533937      86.441503    
    586000   1.0206411      18.463512      86.42284     
    587000   0.99040017     18.675441      86.291207    
    588000   0.95784256     18.272736      86.090896    
    589000   0.96347439     17.985362      85.960708    
    590000   1.0251216      18.308607      85.859863    
    591000   1.0137665      18.764822      85.810296    
    592000   1.0449632      19.290608      85.768376    
    593000   1.0169291      18.342923      85.628085    
    594000   0.96108975     18.069315      85.474464    
    595000   1.0217355      18.779352      85.372843    
    596000   0.99728727     18.647512      85.275185    
    597000   0.99499838     18.289692      85.306938    
    598000   1.0346099      18.500192      85.181434    
    599000   1.0196353      18.317345      84.951642    
    600000   1.0100637      18.132048      84.879704    
    601000   1.0221628      18.282932      84.832001    
    602000   0.98836475     18.526901      84.596238    
    603000   1.0266364      19.054033      84.563584    
    604000   1.0349781      17.70179       84.276884    
    605000   1.0347059      18.629437      83.922731    
    606000   0.95856318     17.865366      83.843627    
    607000   0.97774334     18.037399      83.809643    
    608000   1.0048304      18.161841      83.448131    
    609000   1.0306997      18.071302      83.387027    
    610000   1.0204537      18.449539      83.559313    
    611000   0.98446723     18.26832       83.554143    
    612000   0.96778611     18.63046       83.202305    
    613000   1.0082163      17.963947      83.11929     
    614000   1.0174976      18.412592      82.959136    
    615000   1.0052547      18.775417      82.774011    
    616000   1.0054062      18.61561       82.523851    
    617000   1.0070065      17.939738      82.301718    
    618000   1.0266227      18.105054      82.090953    
    619000   0.96364696     18.564471      81.973412    
    620000   0.99729064     17.931853      81.944317    
    621000   1.0191718      18.302663      81.829279    
    622000   1.0290375      18.845029      81.981956    
    623000   0.97991269     18.34305       82.014253    
    624000   1.0081362      18.289415      81.813955    
    625000   0.99151291     18.159323      81.902106    
    626000   1.0125093      18.211573      81.928973    
    627000   0.98292109     17.965311      81.722877    
    628000   1.0276895      18.28316       81.417675    
    629000   0.9955778      18.626285      81.277083    
    630000   1.0061247      18.805667      80.955943    
    631000   0.963743       17.794976      80.709213    
    632000   1.0371999      17.832405      80.561702    
    633000   1.0042377      18.637334      80.506427    
    634000   1.0330099      18.428586      80.349379    
    635000   0.99899451     18.51936       80.233676    
    636000   0.9481819      18.28717       80.016823    
    637000   0.98502104     17.880238      79.826951    
    638000   0.99476185     18.190104      79.632232    
    639000   1.0325126      18.092886      79.558488    
    640000   1.000801       18.64433       79.312116    
    641000   0.97396727     18.839648      79.179504    
    642000   0.99928524     18.205834      78.908247    
    643000   0.98078316     17.984463      78.78986     
    644000   0.98600198     18.175874      78.560167    
    645000   1.0138215      18.118603      78.64201     
    646000   1.0320709      18.219664      78.592725    
    647000   1.0577773      18.288341      78.714437    
    648000   1.012601       17.96798       78.527684    
    649000   1.0079951      18.710993      78.478116    
    650000   0.99585807     18.488865      78.488453    
    651000   0.99312645     18.107204      78.416292    
    652000   1.0202281      18.507289      78.20912     
    653000   0.96219111     17.962442      78.049575    
    654000   0.98217425     18.859363      78.03129     
    655000   0.99987301     18.373975      77.885828    
    656000   1.009008       18.704008      77.823372    
    657000   1.0605194      18.554639      77.625331    
    658000   1.005179       18.572579      77.368445    
    659000   1.0109515      18.015359      77.101141    
    660000   1.0083892      19.19738       76.94262     
    661000   0.93895649     18.69646       76.780806    
    662000   1.0222318      18.470753      76.736767    
    663000   1.015549       18.252596      76.623897    
    664000   1.0065286      18.479601      76.741771    
    665000   1.0148358      18.187527      76.693455    
    666000   0.99705243     18.40542       76.629889    
    667000   1.0142697      18.3883        76.449043    
    668000   0.99969574     18.353376      76.264577    
    669000   0.9465206      18.178874      76.194382    
    670000   0.95168319     18.186766      76.176136    
    671000   0.99494053     18.279883      75.946252    
    672000   0.95828323     17.801607      75.805575    
    673000   1.0683851      18.056366      75.716276    
    674000   0.99517823     18.456075      75.532873    
    675000   1.0269193      17.859639      75.155857    
    676000   1.0170227      18.113581      75.238607    
    677000   1.0107441      18.825268      75.006602    
    678000   0.9627898      18.017971      75.138153    
    679000   0.99701424     17.198346      74.85057     
    680000   1.0063161      18.419609      74.80659     
    681000   1.0426346      18.32315       74.931984    
    682000   1.0666174      18.631788      74.773148    
    683000   0.97129098     18.482217      74.874613    
    684000   1.0028354      18.402412      74.680738    
    685000   0.96266424     18.022021      74.639924    
    686000   0.98701309     17.720353      74.536878    
    687000   0.97726431     18.015039      74.517018    
    688000   1.025459       17.904221      74.358043    
    689000   0.95123319     17.79152       74.347078    
    690000   1.0139356      18.285112      74.0445      
    691000   0.993192       18.017551      73.873182    
    692000   0.96882459     18.443273      73.813162    
    693000   0.99458832     18.170077      73.794638    
    694000   1.0095591      18.102476      73.934686    
    695000   1.0278273      18.203122      73.762714    
    696000   1.0116309      17.736771      73.503727    
    697000   1.0077392      17.87194       73.343477    
    698000   1.0118873      17.900147      73.213031    
    699000   1.0217645      18.577813      73.073076    
    700000   1.0104837      18.340836      72.894965    
    701000   0.98883478     18.338968      72.78439     
    702000   1.0084418      18.338482      72.658209    
    703000   0.9907616      17.544534      72.554371    
    704000   0.99990002     17.85667       72.589206    
    705000   1.0179944      18.49013       72.320609    
    706000   1.0420897      18.403175      71.992546    
    707000   1.0420522      18.408928      71.395437    
    708000   1.041626       18.265224      71.405307    
    709000   1.0215591      18.277534      71.369487    
    710000   1.0210425      18.246054      71.176406    
    711000   1.017226       18.801497      71.026926    
    712000   1.0151422      17.862519      70.877649    
    713000   0.98673709     18.312641      70.497203    
    714000   1.0397202      18.353457      70.518977    
    715000   0.95349289     18.179638      70.691803    
    716000   0.97681001     18.349582      70.522264    
    717000   0.97723165     18.532914      70.515819    
    718000   1.0125152      18.030023      70.491124    
    719000   0.97657118     17.879865      70.321163    
    720000   0.99369729     17.854619      70.302628    
    721000   0.95580827     18.090116      70.151127    
    722000   1.0046966      18.62038       70.015717    
    723000   1.026063       17.984411      70.03749     
    724000   1.0906242      18.274617      70.039003    
    725000   0.98073174     18.74593       69.975379    
    726000   0.97202314     18.152252      70.078977    
    727000   0.97423773     17.981         69.994139    
    728000   1.0596313      18.254784      70.128684    
    729000   1.0083376      18.243344      70.162307    
    730000   1.0319972      18.044901      70.193695    
    731000   0.98673443     18.409562      69.944503    
    732000   0.97580481     18.159891      69.802908    
    733000   0.97112332     17.836645      69.670647    
    734000   1.0392516      18.02735       69.541906    
    735000   0.99531702     18.044927      69.397389    
    736000   0.99083613     18.258201      69.15937     
    737000   0.99012586     17.853228      68.954368    
    738000   1.0119768      17.961514      68.640655    
    739000   1.0129182      17.821993      68.626236    
    740000   1.0391933      18.418486      68.303444    
    741000   0.97844412     17.741421      68.183913    
    742000   0.973809       18.104573      67.99455     
    743000   1.0222192      18.367528      67.717217    
    744000   0.9938807      18.506705      67.692057    
    745000   1.0510421      17.708222      67.664268    
    746000   1.0152657      18.294639      67.598239    
    747000   1.0178092      17.625025      67.843527    
    748000   0.96242555     18.27772       67.843913    
    749000   0.99331351     18.733491      68.056507    
    750000   1.0089505      18.315205      67.966446    
    751000   0.95823545     18.026945      67.792287    
    752000   0.98468564     18.145586      67.696325    
    753000   0.97231185     18.607903      67.341117    
    754000   1.0321652      18.301475      67.514237    
    755000   0.98064555     17.559823      67.354018    
    756000   0.96473303     17.972629      67.283664    
    757000   1.0004152      18.027725      67.044084    
    758000   0.99396262     17.647884      66.979623    
    759000   1.0489106      18.362083      66.743888    
    760000   1.0262502      18.104124      66.621604    
    761000   0.99066776     17.801255      66.323203    
    762000   1.0041576      18.293658      66.019083    
    763000   0.98593282     17.524038      65.769768    
    764000   1.0152784      18.451736      65.877946    
    765000   0.96537244     17.64258       65.776267    
    766000   1.0117143      18.017731      65.921544    
    767000   0.99827023     18.482235      65.732954    
    768000   1.008965       17.867569      65.398404    
    769000   1.0145492      17.937377      65.349851    
    770000   0.99062293     17.965257      65.348544    
    771000   1.0235913      18.030513      65.265118    
    772000   0.97839031     17.635071      65.081092    
    773000   1.0102144      18.337822      64.992623    
    774000   0.999911       17.456947      64.852973    
    775000   0.99257637     18.495267      64.703121    
    776000   1.0250263      17.911917      64.504673    
    777000   1.0103304      17.697592      64.359754    
    778000   1.0108326      18.103821      64.249739    
    779000   0.9673875      17.555778      64.184438    
    780000   1.0382546      18.058376      64.122318    
    781000   0.99329877     18.00921       63.946589    
    782000   0.96458421     17.833626      63.858368    
    783000   1.0566396      18.35033       63.881067    
    784000   1.0119551      18.034018      63.726302    
    785000   0.99671505     17.812558      63.792889    
    786000   1.0115912      17.869011      63.863026    
    787000   1.0115861      17.563754      63.855678    
    788000   1.0187582      18.328946      63.76769     
    789000   0.99880716     18.121217      63.710534    
    790000   1.0008475      17.935592      63.677676    
    791000   0.9952852      17.807405      63.631943    
    792000   0.99056084     18.128275      63.35022     
    793000   0.98747483     18.036472      63.336038    
    794000   0.98569919     18.169727      63.1757      
    795000   1.028755       17.38427       63.110898    
    796000   0.99500049     18.098147      62.833555    
    797000   1.0558786      18.052805      63.165627    
    798000   0.95228455     18.066911      63.092517    
    799000   0.99297552     18.391795      63.002527    
    800000   1.0224152      18.167722      62.866875    
    801000   1.0018117      17.873131      62.594636    
    802000   0.94311198     18.124061      62.761145    
    803000   1.0340288      18.01347       62.520895    
    804000   0.96890073     17.937135      62.571317    
    805000   1.0262207      18.480958      62.401066    
    806000   0.98526657     18.199462      62.576354    
    807000   1.0165798      18.314632      62.457011    
    808000   1.0295177      18.074477      62.425219    
    809000   1.0396124      18.720631      62.349574    
    810000   1.0053959      18.159759      62.189788    
    811000   0.94977618     17.926616      62.046756    
    812000   1.0298752      17.886602      61.953988    
    813000   0.99050018     17.942199      61.719072    
    814000   1.0019721      17.729826      61.634333    
    815000   1.0183754      18.378799      61.48212     
    816000   0.97659633     17.884128      61.369573    
    817000   1.0241801      18.589179      61.174235    
    818000   0.99588404     17.805019      61.058996    
    819000   1.0230424      18.147206      61.077571    
    820000   1.0337869      18.075387      60.667921    
    821000   1.0067415      18.271981      60.42504     
    822000   0.98525136     17.612772      60.276316    
    823000   1.014817       17.551137      60.227789    
    824000   1.0154177      17.899763      59.72089     
    825000   0.98875679     18.020802      59.910619    
    826000   1.0267842      18.073153      59.707696    
    827000   1.020885       18.38437       59.416974    
    828000   1.0237402      18.353064      59.050456    
    829000   0.95554419     17.853466      58.83838     
    830000   1.0217004      17.519397      58.75686     
    831000   0.97559385     18.217428      58.744645    
    832000   1.0413498      18.439573      58.758886    
    833000   0.98309271     18.005089      58.698983    
    834000   0.98334162     18.332863      58.656774    
    835000   1.0086441      17.498861      58.574265    
    836000   1.022643       18.209083      58.742192    
    837000   1.0079623      18.009885      58.554457    
    838000   0.9878771      17.596776      58.214338    
    839000   0.99739835     18.000174      57.795289    
    840000   0.95146106     18.328308      57.909425    
    841000   1.0058663      18.253727      57.824473    
    842000   0.98947579     18.154308      57.709302    
    843000   1.0353296      18.449215      57.592936    
    844000   0.99412542     18.110131      57.576837    
    845000   0.97162744     17.844844      57.267429    
    846000   1.0010746      17.948781      57.325326    
    847000   0.98480149     17.597051      57.484706    
    848000   1.0226102      18.403755      57.318727    
    849000   1.0241473      17.579561      57.248469    
    850000   0.991674       17.728818      57.106314    
    851000   1.0188391      17.618835      57.010376    
    852000   0.9927505      18.383515      56.871068    
    853000   1.0669525      18.836036      56.73702     
    854000   1.0047784      17.688335      56.783884    
    855000   0.99843563     17.772516      56.730167    
    856000   1.0290793      18.084266      56.601711    
    857000   0.98938        18.013083      56.561167    
    858000   0.95866429     17.765804      56.427315    
    859000   0.98052643     17.929493      56.201174    
    860000   1.000238       17.659647      56.003083    
    861000   1.007247       18.414358      55.666671    
    862000   1.0395265      18.285612      55.48967     
    863000   1.0020293      18.067378      55.101876    
    864000   0.99026771     17.530631      55.175319    
    865000   1.086813       18.054761      55.267756    
    866000   0.97540193     17.908593      55.062454    
    867000   0.98510232     17.96053       55.013413    
    868000   1.0227291      17.79343       55.274749    
    869000   0.97677156     17.9022        55.208559    
    870000   0.95208107     17.788294      55.064158    
    871000   1.0220773      17.96661       54.90776     
    872000   0.95958237     17.705071      54.851985    
    873000   1.001255       17.007804      54.61674     
    874000   0.96251098     17.966417      54.274369    
    875000   0.94320966     17.516997      54.162166    
    876000   0.96480927     17.688907      53.966365    
    877000   0.98596097     18.182853      53.468967    
    878000   1.0244976      17.938765      53.659199    
    879000   1.0094833      17.219544      53.46829     
    880000   0.98455814     18.371008      53.408379    
    881000   0.95553794     18.008391      53.086438    
    882000   1.0052358      17.880076      52.943577    
    883000   1.0167034      18.028295      52.81558     
    884000   0.99982318     17.986646      52.784081    
    885000   1.0076268      17.931794      52.505271    
    886000   1.0438107      18.121725      52.289934    
    887000   1.0138267      18.292141      52.294865    
    888000   0.98185818     17.973024      52.549916    
    889000   0.96762744     17.643465      52.399439    
    890000   0.9678945      17.830749      52.232013    
    891000   0.97731323     17.0136        52.469883    
    892000   1.0267373      18.180668      52.51007     
    893000   0.98563199     17.453533      52.766083    
    894000   1.0080537      18.161727      52.669276    
    895000   0.99399466     17.330232      52.613832    
    896000   1.0610244      17.346563      52.694376    
    897000   0.98985702     17.534476      52.715951    
    898000   1.0449644      17.400688      52.732612    
    899000   0.98233863     18.031688      52.596445    
    900000   0.9769761      18.097536      52.319288    
    901000   1.0057127      17.859455      52.405321    
    902000   0.97675266     18.185674      52.479996    
    903000   1.0082776      18.346223      52.191741    
    904000   0.99367751     17.819429      52.242977    
    905000   1.0088613      17.686423      52.221492    
    906000   0.99492889     18.622686      52.146161    
    907000   0.97211573     17.434937      52.016428    
    908000   0.97709649     17.66183       51.690642    
    909000   0.97645        17.802021      51.491543    
    910000   1.021583       17.753967      51.188738    
    911000   0.98917203     18.240229      50.859399    
    912000   0.96992901     17.628323      50.607343    
    913000   0.98371092     18.009049      50.558812    
    914000   1.003942       18.130309      50.469126    
    915000   0.97984138     17.559738      50.561506    
    916000   1.0104644      17.989404      50.506565    
    917000   1.0206054      18.233722      50.082927    
    918000   0.98856531     18.18556       49.737664    
    919000   0.98464751     17.674321      49.617218    
    920000   1.0511048      17.933879      49.655361    
    921000   1.0396849      17.909759      49.652849    
    922000   1.0009909      18.140559      49.796366    
    923000   0.99850119     17.882788      49.643826    
    924000   0.99860439     18.164369      49.492225    
    925000   0.97775582     16.921101      49.547749    
    926000   1.0398994      18.106373      49.42254     
    927000   0.99194799     17.275194      49.382336    
    928000   0.99342009     17.918963      49.327529    
    929000   0.99476558     18.142716      49.137702    
    930000   1.0106902      17.633045      48.962989    
    931000   0.98409835     18.107401      48.739018    
    932000   1.0063797      18.168232      48.728032    
    933000   0.9885087      17.610015      48.194354    
    934000   1.0032243      17.683941      48.103091    
    935000   1.0071413      17.737044      48.09113     
    936000   1.018829       17.73779       47.855501    
    937000   1.0024495      18.168448      47.83301     
    938000   0.96814685     17.89166       47.798631    
    939000   1.0124801      18.080254      47.481782    
    940000   1.0645096      18.43624       47.432365    
    941000   1.0030056      17.775348      47.229377    
    942000   0.97987489     18.188712      47.018182    
    943000   1.0122715      17.766558      46.995572    
    944000   1.0082759      18.238224      46.853119    
    945000   0.99862721     17.536575      46.631       
    946000   0.98841511     17.722731      46.518156    
    947000   0.99717399     17.623387      46.427822    
    948000   1.0187693      18.390024      46.446503    
    949000   0.97913755     17.761621      46.520121    
    950000   0.98448171     17.776324      46.269031    
    951000   1.0194161      17.665003      46.080235    
    952000   1.0002919      18.183771      46.036892    
    953000   0.98742038     17.911614      45.90982     
    954000   0.98430263     17.581788      45.858217    
    955000   1.0327908      18.181456      45.941921    
    956000   0.97060141     18.057005      45.959787    
    957000   1.0207259      17.893257      45.639798    
    958000   0.98824343     17.922297      45.618034    
    959000   0.93007581     17.7358        45.643147    
    960000   1.0048901      18.1357        45.630989    
    961000   1.0320895      17.872668      45.349032    
    962000   0.96931631     18.022372      45.17071     
    963000   1.0198394      18.092367      45.127144    
    964000   0.9649497      17.43609       45.001123    
    965000   0.97042375     17.900846      44.797784    
    966000   0.99893427     18.211617      44.848729    
    967000   1.0127568      18.619736      44.949981    
    968000   0.97481043     17.626278      44.908868    
    969000   1.0469489      17.512449      44.809421    
    970000   0.99049879     17.999532      44.692049    
    971000   1.0076443      17.663135      44.449356    
    972000   0.99541702     17.452821      44.368649    
    973000   1.0026649      17.727374      44.278968    
    974000   0.98727395     17.677024      44.090197    
    975000   1.0065428      18.075275      43.952011    
    976000   1.0169681      17.598215      43.70663     
    977000   0.9924056      18.414721      43.489883    
    978000   1.0433896      17.98602       43.475965    
    979000   0.97646734     17.769309      43.597015    
    980000   0.99944108     17.668815      43.422913    
    981000   0.98311198     17.719348      43.353871    
    982000   0.99433524     17.736256      43.117706    
    983000   1.0131674      18.42904       43.032894    
    984000   1.0592964      17.897341      42.997591    
    985000   1.0535564      18.050369      43.1122      
    986000   1.0088419      17.245511      43.022219    
    987000   0.98572823     18.007769      43.080459    
    988000   1.0056961      17.776118      42.899058    
    989000   0.92670821     17.142315      42.790169    
    990000   1.0127041      17.207983      42.795514    
    991000   1.0028461      17.772049      42.636161    
    992000   0.97104362     18.081744      42.453121    
    993000   1.0637616      17.706375      42.389341    
    994000   0.98174629     17.85402       42.175866    
    995000   0.98452188     17.615452      42.036734    
    996000   0.99617543     17.371464      42.035789    
    997000   1.0035616      17.623451      42.055357    
    998000   1.0053219      17.987467      41.947738    
    999000   0.98829608     17.694024      41.764349    
   1000000   1.0119574      17.281672      41.790537    
   1001000   1.0386452      17.650037      41.817169    
   1002000   1.0322908      17.63498       41.55442     
   1003000   0.98502406     17.61771       41.428037    
   1004000   0.9724857      17.742955      41.311097    
   1005000   0.97429345     16.889         41.163903    
   1006000   0.97052797     17.263832      40.824059    
   1007000   0.97345844     17.133972      40.701547    
   1008000   1.0024741      18.11086       40.776812    
   1009000   1.0221068      17.726888      40.759225    
   1010000   0.99041773     17.352741      40.682181    
   1011000   1.0119102      17.634377      40.708774    
   1012000   0.98879677     17.679176      40.773045    
   1013000   1.0250621      17.859583      40.790883    
   1014000   1.0077723      17.310203      40.8453      
   1015000   1.0263166      18.127884      40.707588    
   1016000   0.99817815     18.13106       40.600123    
   1017000   1.0156125      17.785642      40.444888    
   1018000   1.0016096      17.587016      40.710964    
   1019000   1.0102302      17.668403      40.640367    
   1020000   1.0046501      17.792105      40.513132    
   1021000   1.019882       17.58636       40.629188    
   1022000   1.0230463      17.847094      40.489304    
   1023000   0.98697774     17.654053      40.524407    
   1024000   0.98874369     17.91263       40.638281    
   1025000   1.0185168      17.389351      40.634914    
   1026000   1.0022137      17.816176      40.24906     
   1027000   0.99571062     17.669425      40.129308    
   1028000   1.0321094      17.906142      40.234769    
   1029000   0.99122295     17.258037      40.075584    
   1030000   0.99494634     17.316817      40.206409    
   1031000   0.99853858     17.487484      39.777333    
   1032000   0.97596029     17.622183      39.680695    
   1033000   0.99711314     17.487492      39.544654    
   1034000   1.0105029      18.108755      39.48019     
   1035000   1.0296023      18.091501      39.441542    
   1036000   0.99167705     17.839306      39.485551    
   1037000   1.013016       17.600838      39.466919    
   1038000   1.0043486      18.294071      39.721637    
   1039000   0.99095773     17.65746       39.528363    
   1040000   0.97010309     17.719956      39.249702    
   1041000   1.0149         17.566837      38.974649    
   1042000   0.99876654     17.439307      38.849857    
   1043000   1.0086525      17.070828      38.745614    
   1044000   1.0598138      17.552416      38.820689    
   1045000   1.0231885      17.480721      38.586261    
   1046000   1.0303451      18.25238       38.698505    
   1047000   1.0036127      17.313428      38.570624    
   1048000   1.0199563      17.691706      38.622594    
   1049000   0.97667646     17.914014      38.686402    
   1050000   0.96944588     17.983742      38.854754    
   1051000   1.0001393      17.334744      38.694666    
   1052000   1.0452014      17.932361      38.556385    
   1053000   1.0181785      17.984798      38.530546    
   1054000   1.0089928      17.628439      38.504111    
   1055000   1.0251644      17.188655      38.46769     
   1056000   0.95505311     17.612666      38.599736    
   1057000   1.0069228      17.504012      38.420662    
   1058000   0.9901535      17.6101        38.369248    
   1059000   1.0278906      18.256429      38.306154    
   1060000   1.0137084      17.373485      38.265686    
   1061000   0.96910721     17.100189      38.216364    
   1062000   0.99708549     17.536494      38.029551    
   1063000   0.99981935     17.778293      38.106262    
   1064000   1.0002482      18.265982      37.783225    
   1065000   0.98623376     17.755955      37.806742    
   1066000   0.99951448     17.04321       37.781267    
   1067000   0.98189256     17.434102      37.567747    
   1068000   0.99594493     18.022954      37.440493    
   1069000   0.99696015     17.49549       37.239922    
   1070000   1.0010439      17.921995      37.086592    
   1071000   0.99911506     17.364615      37.079296    
   1072000   1.0049885      17.715063      36.958223    
   1073000   1.0030474      17.884605      36.886907    
   1074000   0.96276682     17.655166      36.803959    
   1075000   0.95371592     17.583435      36.896836    
   1076000   1.0103207      17.551313      36.832142    
   1077000   1.0004218      17.679731      36.448711    
   1078000   1.0061162      17.167842      36.27664     
   1079000   1.0005919      18.323349      36.010825    
   1080000   0.98892141     17.847114      35.928587    
   1081000   0.982273       17.558963      35.585831    
   1082000   0.9894622      17.924162      35.391064    
   1083000   1.0218946      17.626055      35.01537     
   1084000   0.97124112     17.548597      35.022861    
   1085000   1.0409811      17.392349      35.082477    
   1086000   0.99431213     17.444939      34.877184    
   1087000   0.99648723     17.996695      34.978238    
   1088000   0.98179782     17.598985      34.785507    
   1089000   0.99305295     17.013104      34.777421    
   1090000   0.98782506     17.476724      34.410595    
   1091000   0.96266053     17.447506      34.2561      
   1092000   1.0052987      17.202764      34.117193    
   1093000   1.0551648      18.225441      34.096086    
   1094000   1.0057637      17.695391      33.919242    
   1095000   1.0470251      17.5364        33.721517    
   1096000   1.0639388      18.085176      33.70739     
   1097000   1.017844       17.355387      33.516929    
   1098000   0.99758376     17.505263      33.485205    
   1099000   1.0406585      17.581603      33.425064    
   1100000   0.98297167     16.973781      33.25689     
   1101000   0.97089018     17.64235       33.079136    
   1102000   1.0058182      17.238593      32.965209    
   1103000   0.98472024     18.149544      32.950216    
   1104000   1.0010306      17.53597       32.899936    
   1105000   1.0357474      17.186366      32.762124    
   1106000   0.9331239      17.558152      32.720577    
   1107000   1.0146468      17.629053      32.776612    
   1108000   0.99560145     17.038551      32.904072    
   1109000   0.9881617      18.008385      32.668693    
   1110000   0.97151604     17.281436      32.856236    
   1111000   0.99350202     17.570349      32.875076    
   1112000   1.0165694      17.553546      32.809445    
   1113000   1.0162826      18.12424       32.659156    
   1114000   1.0406859      17.677089      32.610575    
   1115000   1.0085271      17.623384      32.726541    
   1116000   0.98351627     17.749105      32.640785    
   1117000   1.0073493      17.897495      32.537765    
   1118000   1.031632       17.682306      32.493999    
   1119000   0.95827617     17.585098      32.410712    
   1120000   0.99414943     17.605766      32.399741    
   1121000   0.96527026     18.048736      32.085966    
   1122000   0.9860483      18.011045      32.058244    
   1123000   0.96434427     17.494273      31.978253    
   1124000   0.96421452     17.33383       31.973911    
   1125000   1.0001483      17.459077      31.818221    
   1126000   0.96631824     18.150407      31.709236    
   1127000   1.0074739      18.002898      31.719152    
   1128000   1.024093       17.243055      31.602052    
   1129000   1.0433557      17.330509      31.431535    
   1130000   0.99747954     17.252079      31.209767    
   1131000   0.98416484     17.850453      31.046989    
   1132000   0.98092678     17.332465      30.871893    
   1133000   0.98702538     17.973345      30.756908    
   1134000   1.029961       17.361469      30.434116    
   1135000   0.99547487     17.405657      30.328084    
   1136000   0.98985948     17.193079      30.033413    
   1137000   1.0135441      17.954691      29.896205    
   1138000   0.96607218     17.371765      29.618034    
   1139000   0.98959356     17.266782      29.553187    
   1140000   0.98312131     17.56116       29.33393     
   1141000   1.0012894      17.723774      29.234072    
   1142000   1.0238425      17.807281      29.240621    
   1143000   1.0406473      17.347032      29.250609    
   1144000   0.96256602     17.304738      29.169899    
   1145000   1.0069037      17.893524      28.99784     
   1146000   1.0169069      17.530614      28.979623    
   1147000   0.98580676     17.658142      28.846115    
   1148000   0.98457117     17.883359      28.871284    
   1149000   1.0601457      17.781155      28.757807    
   1150000   0.98884777     17.852571      28.872791    
   1151000   1.0226065      18.226592      28.676989    
   1152000   1.0082601      17.467009      28.459714    
   1153000   0.98883524     18.060912      28.428535    
   1154000   1.0139121      17.439641      28.51578     
   1155000   1.0265436      17.284203      28.749483    
   1156000   1.0422772      17.522314      28.625971    
   1157000   1.001544       17.349634      28.614266    
   1158000   1.0074873      17.253836      28.679112    
   1159000   0.97741185     17.577459      28.771951    
   1160000   1.0135502      17.619954      28.68685     
   1161000   1.0165592      17.647682      28.348248    
   1162000   0.95070545     17.351109      28.417687    
   1163000   1.0491666      17.493135      28.268352    
   1164000   0.96322935     17.522877      28.242548    
   1165000   1.0079864      17.043448      28.189468    
   1166000   1.0017079      17.552463      28.042247    
   1167000   0.96808618     17.735827      28.032965    
   1168000   0.97683514     17.411401      27.885449    
   1169000   1.0151577      18.146029      27.835985    
   1170000   0.96102975     17.195083      27.638312    
   1171000   0.97978302     16.946937      27.434306    
   1172000   1.0121136      16.834348      27.272195    
   1173000   0.95999313     17.603958      27.147376    
   1174000   1.0273028      17.556009      27.024178    
   1175000   1.0073081      17.345069      26.858241    
   1176000   0.96806084     17.441828      26.743353    
   1177000   1.0278585      17.239135      26.822994    
   1178000   0.95678079     17.538634      26.777577    
   1179000   0.99396355     17.566291      26.611784    
   1180000   0.98868184     17.586152      26.34265     
   1181000   1.0221579      17.829736      26.367681    
   1182000   1.03521        17.42181       26.426672    
   1183000   1.0034416      17.864812      26.164153    
   1184000   0.95824834     17.84904       26.153612    
   1185000   1.0455516      17.661863      25.980123    
   1186000   1.0324048      17.048867      25.856267    
   1187000   0.98307825     17.3501        25.747406    
   1188000   1.0138634      17.540789      25.681316    
   1189000   1.023529       17.626937      25.681515    
   1190000   1.0002956      17.829939      25.237641    
   1191000   0.97728061     17.159894      25.232765    
   1192000   1.0152993      17.467035      25.11817     
   1193000   1.0223204      17.369733      24.884895    
   1194000   0.97853008     17.231605      24.805687    
   1195000   0.99086655     17.86692       24.892438    
   1196000   0.99209411     16.823686      24.839555    
   1197000   0.98065623     17.517641      24.849662    
   1198000   0.99655615     17.943626      24.541546    
   1199000   0.96138521     17.476233      24.448352    
   1200000   0.9936767      17.454058      24.308365    
   1201000   1.0056441      17.261122      24.167769    
   1202000   0.98719532     16.783077      23.945226    
   1203000   1.0098778      17.80632       23.753135    
   1204000   1.014449       17.286436      23.362921    
   1205000   0.98218569     17.258001      23.275989    
   1206000   0.98748255     17.408228      23.044408    
   1207000   0.99381748     17.664045      23.004695    
   1208000   1.0069541      17.682801      22.783184    
   1209000   1.0069371      17.798344      22.690496    
   1210000   1.0068688      17.908968      22.937075    
   1211000   0.97637881     17.551016      23.178252    
   1212000   0.96618427     17.454068      23.138035    
   1213000   1.029878       17.689337      23.030761    
   1214000   0.98010717     17.643438      22.930196    
   1215000   0.99656574     17.566157      22.784269    
   1216000   0.99422828     17.855991      22.582521    
   1217000   0.98267061     17.550741      22.27465     
   1218000   0.97113756     17.167116      22.062916    
   1219000   0.99935167     17.420053      21.84746     
   1220000   0.99367059     17.500304      21.667724    
   1221000   1.0301637      17.77298       21.297206    
   1222000   0.94248289     17.612635      21.149512    
   1223000   0.98598823     17.268193      21.137938    
   1224000   1.004273       17.157207      21.180697    
   1225000   0.93743475     17.405249      20.920683    
   1226000   0.99857109     17.274295      20.683142    
   1227000   0.97434875     17.098353      20.773948    
   1228000   0.97776199     17.434126      20.572077    
   1229000   1.0003389      17.158809      20.359725    
   1230000   0.98333528     17.4718        20.140865    
   1231000   1.0275459      17.456509      20.163132    
   1232000   0.98649505     17.338339      20.360569    
   1233000   0.99717854     17.719885      20.15306     
   1234000   1.0004539      16.664268      20.144803    
   1235000   0.99431265     18.011592      19.99837     
   1236000   0.96760215     17.333936      19.811239    
   1237000   1.0027073      17.402528      19.601408    
   1238000   0.99699979     17.116978      19.693743    
   1239000   1.0083258      17.528266      19.472836    
   1240000   1.031706       17.395217      19.342107    
   1241000   0.97657984     17.275258      19.219698    
   1242000   0.99225604     17.482074      19.206843    
   1243000   0.97214908     17.398452      19.16628     
   1244000   1.0181625      17.54826       19.107856    
   1245000   1.0194403      17.245276      19.059652    
   1246000   0.99949619     16.846459      18.7735      
   1247000   1.0120585      17.758334      18.649321    
   1248000   1.035874       17.249731      18.427027    
   1249000   1.0783382      17.157949      18.417002    
   1250000   0.98081333     17.725982      18.473979    
   1251000   0.9949206      18.122801      18.476691    
   1252000   1.0127541      16.839738      18.524924    
   1253000   1.0157665      17.103125      18.411806    
   1254000   1.0013036      17.700835      18.446947    
   1255000   1.0105847      17.180412      18.214318    
   1256000   0.99434971     17.367872      18.022689    
   1257000   1.0338067      17.383729      18.123681    
   1258000   1.0225578      17.360445      17.902098    
   1259000   0.99648423     17.142727      18.049127    
   1260000   1.0311634      17.519363      17.794105    
   1261000   1.0091745      17.593146      17.806737    
   1262000   1.0078963      17.583329      17.837573    
   1263000   1.0363168      17.393703      17.765445    
   1264000   1.014612       16.94394       17.570178    
   1265000   0.99843111     17.490857      17.525296    
   1266000   0.96248066     17.716986      17.468115    
   1267000   0.99897935     17.512684      17.250599    
   1268000   0.97342202     17.588549      17.015984    
   1269000   0.97848056     17.122884      16.888601    
   1270000   1.0254312      17.087964      16.625761    
   1271000   1.0169543      17.127215      16.304065    
   1272000   1.0286821      17.197196      16.029411    
   1273000   1.0189901      17.538061      16.048736    
   1274000   0.99028535     17.731638      16.088521    
   1275000   1.0267871      17.564382      16.047089    
   1276000   1.0122622      16.67112       15.969124    
   1277000   0.94469351     17.156153      15.784124    
   1278000   0.95674689     17.167519      15.870966    
   1279000   0.99473522     17.573328      15.648166    
   1280000   0.98005729     17.087087      15.676591    
   1281000   0.98606839     17.485067      15.784501    
   1282000   0.96739486     17.147271      15.451058    
   1283000   0.99234924     16.963025      15.554752    
   1284000   0.99238183     16.979983      15.219795    
   1285000   0.99000746     18.405705      15.077433    
   1286000   1.0021688      17.037847      14.756144    
   1287000   1.019806       17.723022      14.730454    
   1288000   0.9739877      17.591522      14.42572     
   1289000   1.0270478      17.997635      14.293913    
   1290000   0.98085589     16.926221      14.253803    
   1291000   1.0159558      17.746958      14.138483    
   1292000   0.99749476     17.868123      14.295479    
   1293000   1.0272637      17.051059      14.198251    
   1294000   0.98983151     17.200612      14.015109    
   1295000   1.0157016      16.99551       13.798341    
   1296000   0.99104389     16.883189      13.612009    
   1297000   1.01873        16.795099      13.643093    
   1298000   1.0205743      16.618515      13.900527    
   1299000   0.97382068     17.329531      13.796886    
   1300000   1.0010762      16.948056      13.743308    
   1301000   1.011437       17.187013      13.684096    
   1302000   0.9664079      17.058972      13.388434    
   1303000   1.0205603      17.224388      13.271895    
   1304000   0.94128561     17.330259      13.155836    
   1305000   1.0186061      17.284518      12.985081    
   1306000   1.0192467      17.554615      12.931096    
   1307000   1.0162884      16.710969      12.954167    
   1308000   0.98754174     16.812146      13.130913    
   1309000   1.0085976      17.38264       12.848823    
   1310000   0.99425782     17.170132      12.731331    
   1311000   0.97260414     16.838443      12.676626    
   1312000   0.95397273     17.58329       12.784911    
   1313000   1.0156356      17.818453      12.640086    
   1314000   1.0307131      17.048416      12.768029    
   1315000   1.0054879      17.561038      12.658913    
   1316000   1.0046955      17.421474      12.636873    
   1317000   1.0223004      17.157065      12.439551    
   1318000   0.98341562     16.910897      12.305993    
   1319000   1.007905       16.855361      12.283535    
   1320000   1.0260961      17.562909      12.151234    
   1321000   0.97102126     16.365391      12.06008     
   1322000   0.9885647      17.339505      11.888637    
   1323000   1.0326074      16.993169      11.620162    
   1324000   0.98625402     17.044559      11.55616     
   1325000   0.98263183     17.068398      11.644064    
   1326000   1.0117859      17.595771      11.240686    
   1327000   0.97650556     17.296726      10.993947    
   1328000   0.99745889     16.834912      10.95478     
   1329000   0.95687684     17.187682      10.959346    
   1330000   0.97748328     17.037877      10.889813    
   1331000   1.0165065      17.026932      10.91936     
   1332000   0.97644287     16.465235      11.042885    
   1333000   0.95658895     16.725673      11.014914    
   1334000   0.99568293     17.257842      11.049072    
   1335000   0.94614948     16.944542      10.959976    
   1336000   0.97878181     17.184036      10.751057    
   1337000   1.0421509      16.961086      10.712938    
   1338000   0.98829899     17.004881      10.446085    
   1339000   1.0077672      17.205026      10.256694    
   1340000   1.0328084      17.150286      10.17945     
   1341000   0.99237994     17.495527      10.336534    
   1342000   1.0050897      17.622896      10.306614    
   1343000   0.9816657      16.698628      10.5157      
   1344000   0.98841444     17.786696      10.647779    
   1345000   1.0420195      17.132839      10.479787    
   1346000   1.0164956      17.276292      10.39434     
   1347000   1.0379226      17.429723      10.217602    
   1348000   0.96746362     17.207363      9.848105     
   1349000   0.99714602     17.302898      9.7512972    
   1350000   0.9919412      17.46937       9.6714492    
   1351000   1.0374057      17.125166      9.658484     
   1352000   0.94489365     17.35099       9.4666954    
   1353000   1.0367097      17.116771      9.4237246    
   1354000   1.000207       17.134987      9.3755455    
   1355000   1.023907       17.423502      9.1555338    
   1356000   1.0243272      17.053063      9.0708318    
   1357000   0.96463455     16.91916       9.1285001    
   1358000   0.9674631      17.571508      9.0861244    
   1359000   1.0063137      16.804821      8.9467821    
   1360000   0.97596245     16.827913      8.8293694    
   1361000   1.0005874      17.202285      8.6741436    
   1362000   0.97518282     16.910611      8.4781253    
   1363000   1.0066987      17.130549      8.3520914    
   1364000   1.0467741      16.807651      8.2600561    
   1365000   1.0071806      16.835932      8.0172109    
   1366000   1.0075724      16.770858      7.8860501    
   1367000   0.9926717      17.170844      7.7730657    
   1368000   1.0121836      17.114489      7.8178992    
   1369000   1.0241808      17.320336      7.6791337    
   1370000   0.99748566     17.472337      7.5522367    
   1371000   1.0077108      17.04708       7.3886077    
   1372000   1.0281145      17.172962      7.1929772    
   1373000   0.98930782     17.255288      7.0525459    
Fix halt condition for fix-id 3 met on step 1374000 with value 6.978093067667887 (src/fix_halt.cpp:237)
   1374000   1.0330201      17.298607      6.9780931    
Loop time of 1954 on 2 procs for 1274000 steps with 1000 atoms

Performance: 563324.775 tau/day, 651.996 timesteps/s
119.7% CPU use with 1 MPI tasks x 2 OpenMP threads

MPI task timing breakdown:
Section |  min time  |  avg time  |  max time  |%varavg| %total
---------------------------------------------------------------
Pair    | 278.83     | 278.83     | 278.83     |   0.0 | 14.27
Bond    | 26.194     | 26.194     | 26.194     |   0.0 |  1.34
Neigh   | 1585.2     | 1585.2     | 1585.2     |   0.0 | 81.13
Comm    | 0.40767    | 0.40767    | 0.40767    |   0.0 |  0.02
Output  | 3.1569     | 3.1569     | 3.1569     |   0.0 |  0.16
Modify  | 55.709     | 55.709     | 55.709     |   0.0 |  2.85
Other   |            | 4.489      |            |       |  0.23

Nlocal:           1000 ave        1000 max        1000 min
Histogram: 1 0 0 0 0 0 0 0 0 0
Nghost:              0 ave           0 max           0 min
Histogram: 1 0 0 0 0 0 0 0 0 0
Neighs:         209891 ave      209891 max      209891 min
Histogram: 1 0 0 0 0 0 0 0 0 0

Total # of neighbors = 209891
Ave neighs/atom = 209.891
Ave special neighs/atom = 1.998
Neighbor list builds = 12405
Dangerous builds = 0

# This simulation is done
# Move onto the next one
clear
  using 2 OpenMP thread(s) per MPI task
package omp 0
using multi-threaded neighbor list subroutines
next f
jump SELF

###
# Reference paper:
# K. Kremer and G. S. Grest
# Dynamics of entangled linear polymer melts: A molecular-dynamics simulation
# J Chem Phys 92, 5057 (1990)

##################################
# MIHIR: for branched polymers
# LJ minimum first to expand and explore, then collapse
###

###
# Looping through the various tshaped polymers to simulate,
# define variables to switch through
#variable f index bb66nuc1bl33bn3d30tot100 bb133nuc1bl66bn3d30tot200 bb200nuc1bl100bn3d30tot300 bb266nuc1bl133bn3d30tot400 bb333nuc1bl166bn3d30tot500 bb400nuc1bl200bn3d30tot600 bb466nuc1bl233bn3d30tot700 bb533nuc1bl266bn3d30tot800 bb600nuc1bl300bn3d30tot900 bb666nuc1bl333bn3d30tot1000 bb733nuc1bl366bn3d30tot1100 bb800nuc1bl400bn3d30tot1200
variable f index bb333nuc1bl166bn3d30tot500 bb400nuc1bl200bn3d30tot600 bb466nuc1bl233bn3d30tot700 bb533nuc1bl266bn3d30tot800 bb600nuc1bl300bn3d30tot900 bb666nuc1bl333bn3d30tot1000 bb733nuc1bl366bn3d30tot1100 bb800nuc1bl400bn3d30tot1200
###


###
# Box and units  (use LJ units and periodic boundaries)
###

units lj
log tshaped/logs2/$f.log
log tshaped/logs2/bb733nuc1bl366bn3d30tot1100.log
