#atom_style bond #no stiffness
atom_style angle #with stiffness

boundary        p p p
###
# Pair interactions require lists of neighbours to be calculated
###

#neighbor 0.3 bin
neighbor 4 bin

neigh_modify every 1 delay 1 check yes
atom_modify sort 0 0
### Generate RESTART file, SPECIAL format, not a .txt file ###
### Useful if simulation crashes ###

restart 1000000 tshaped/restarts2/$f.restart
restart 1000000 tshaped/restarts2/bb800nuc1bl400bn3d30tot1200.restart
#############################



### READ "start" data file ###

read_data tshaped/$f.dat
read_data tshaped/bb800nuc1bl400bn3d30tot1200.dat
Reading data file ...
  orthogonal box = (-1000 -1000 -1000) to (1000 1000 1000)
  1 by 1 by 1 MPI processor grid
  reading atoms ...
  1201 atoms
  scanning bonds ...
  2 = max bonds/atom
  scanning angles ...
  3 = max angles/atom
  reading bonds ...
  1200 bonds
  reading angles ...
  1200 angles
Finding 1-2 1-3 1-4 neighbors ...
  special bond factors lj:    0        0        0       
  special bond factors coul:  0        0        0       
     3 = max # of 1-2 neighbors
     3 = max # of 1-3 neighbors
     6 = max # of 1-4 neighbors
     9 = max # of special neighbors
  special bonds CPU = 0.001 seconds
  read_data CPU = 0.077 seconds

######################

### READ "REstart" data file ###

######################



###
# Define groups (atom type 1 is group 'all')
###
group all type 1
1201 atoms in group all


###
# Dump configs - "simple dumpings"
###

###
# Dump configs + box coords
###

dump   1   all   custom   1000  tshaped/trjs2/$f.lammpstrj  id  x y z  ix iy iz
dump   1   all   custom   1000  tshaped/trjs2/bb800nuc1bl400bn3d30tot1200.lammpstrj  id  x y z  ix iy iz
dump_modify   1   format line "%d %.5f %.5f %.5f %d %d %d"

########################################################################


###################################################################
# Stiffness term
#
# E = K * (1+cos(theta)), K>0
#
angle_style   cosine
#change this coefficient to change stiffness (e.g. 1,5,10)
angle_coeff   1 1.0
###################################################################

###################################################################
# Pair interaction between non-bonded atoms
#
#  Lennard-Jones 12-6 potential with cutoff:
#  potential E=4epsilon[ (sigma/r)^12 - (sigma/r)^6]  for r<r_cut
#
#  1.12246 = 2^(1/6) is the minimum of the potential


pair_style      lj/cut 1.12246152962189
#pair_style      lj/cut 3

#
#  pair_modify shift yes adds a constant to the potential such

#  that E(r_cut)=0. Forces remains unchanged.
#

pair_modify     shift yes

#
#  pair_coeff for lj/cut, specify 4:
#    * atom type interacting with
#    * atom type
#    * epsilon (energy units)
#    * sigma (distance units)
#

pair_coeff      1 1 1.0 1.0
###################################################################

###################################################################
# Pair interaction between non-bonded atoms
#
#  soft potential, for PUSHING apart overlapping atoms
#  potential E=A*(1 + cos(pi*r/r_c))
#
#  1.12246 = 2^(1/6) is the cut-off r_c

#pair_style     soft 1.12246152962189

#
#  pair_coeff for soft, specify 3:
#    * atom type interacting with
#    * atom type
#    * A
#
#

#pair_coeff      1 1 100.0
###################################################################

###################################################################
# Pair interaction between bonded atoms
#
# Fene potential + Lennard Jones 12-6:

#
#  E= - 0.5 K R0^2 ln[ 1- (r/R0)^2]
#     + 4epsilon[ (sigma/r)^12 - (sigma/r)^6] + epsilon
#

bond_style   fene


#
# For style fene, specify:
#   * bond type
#   * K (energy/distance^2)
#   * R0 (distance)
#   * epsilon (energy)  (LJ component)
#   * sigma (distance)  (LJ component)
#


special_bonds fene #<=== I M P O R T A N T (new command)
Finding 1-2 1-3 1-4 neighbors ...
  special bond factors lj:    0        1        1       
  special bond factors coul:  0        1        1       
     3 = max # of 1-2 neighbors
     9 = max # of special neighbors
  special bonds CPU = 0.000 seconds

bond_coeff   1   30   2   1.0   1.0


###################################################

###################################################################
# Pair interaction between bonded atoms
#
# Harmonic potential:
#
#  E= K * (R-R0)^2
#

#bond_style   harmonic

#
# For style harmonic, specify:
#   * bond type
#   * K (energy/distance^2)
#   * R0 (distance)
#

#bond_coeff   1   60.0   1.0
#bond_coeff   2   harmonic 0.1   1.0

###################################################
compute 1 all gyration
variable rog equal c_1
#compute 2 all coord/atom cutoff 1.1

#dump 2 all custom 10000 contact_number.dump id c_2


###
# Set up fixes
###
thermo_style   custom   step  temp enthalpy c_1
fix 1 all nve   ###NVE ensemble

fix 2 all   langevin   1.0 1.0 1.0  778655   ###Langevin integrator Tstart Tstop 1/friction rndseed


##### Sample thermodynamic info  (temperature, energy, pressure, etc.) #####
thermo 1000









############################################################################

###
# set timestep of integrator

timestep 0.01

###
# run integration for a number of steps
###
#run 0
#variable r equal c_1
#if "$r < 63.1" then "quit 1"

# lj potential minimum, cause molecule to explore
run 100000
Generated 0 of 0 mixed pair_coeff terms from geometric mixing rule
Last active /omp style is angle_style cosine/omp
Neighbor list info ...
  update: every = 1 steps, delay = 1 steps, check = yes
  max neighbors/atom: 2000, page size: 100000
  master list distance cutoff = 5.1224615
  ghost atom cutoff = 5.1224615
  binsize = 2.5612308, bins = 781 781 781
  1 neighbor lists, perpetual/occasional/extra = 1 0 0
  (1) pair lj/cut/omp, perpetual
      attributes: half, newton on, omp
      pair build: half/bin/newton/omp
      stencil: half/bin/3d
      bin: standard
WARNING: Communication cutoff 5.12246152962189 is shorter than a bond length based estimate of 5.455. This may lead to errors. (src/comm.cpp:723)
Per MPI rank memory allocation (min/avg/max) = 1860 | 1860 | 1860 Mbytes
   Step          Temp         Enthalpy         c_1      
         0   0              13.383339      200.28121    
      1000   1.0530098      18.928172      199.97314    
      2000   1.0029741      18.426498      199.86571    
      3000   1.0537601      18.582501      199.4743     
      4000   0.97539482     19.118197      199.2996     
      5000   0.99961504     19.052789      199.15006    
      6000   1.0167         18.51697       199.01548    
      7000   1.0190472      18.545141      198.79322    
      8000   0.9969054      18.930252      198.54783    
      9000   1.0237596      18.958065      198.32025    
     10000   1.0128151      18.95619       198.00961    
     11000   1.013466       19.375801      197.70256    
     12000   1.0150084      18.811745      197.54173    
     13000   1.0033421      19.046619      197.19173    
     14000   1.0243533      18.674555      196.90043    
     15000   1.0112672      19.184005      196.60497    
     16000   1.027875       19.502888      196.36627    
     17000   1.0026134      18.900227      196.10532    
     18000   1.006233       18.741117      195.83109    
     19000   0.99133918     19.269625      195.61957    
     20000   1.0433903      18.999184      195.42035    
     21000   0.99574369     18.861508      195.15896    
     22000   0.99531248     18.558082      194.89509    
     23000   1.0036836      18.954187      194.64995    
     24000   0.98599518     18.966251      194.34734    
     25000   1.030083       19.522656      194.13353    
     26000   1.0021491      19.064252      193.89194    
     27000   0.962513       19.378222      193.53344    
     28000   1.0233318      19.136321      193.16921    
     29000   0.98830578     19.077053      192.82182    
     30000   1.0146614      19.142589      192.5703     
     31000   0.98684242     19.30924       192.24624    
     32000   1.003605       19.143979      192.03179    
     33000   1.0012092      18.733294      191.92799    
     34000   1.0252942      19.078865      191.70267    
     35000   1.0236327      19.436267      191.58273    
     36000   0.99085643     19.414588      191.48672    
     37000   1.014108       18.933166      191.33738    
     38000   0.9721979      19.168616      191.22483    
     39000   1.0240009      19.289658      191.0489     
     40000   1.011511       19.45203       190.97541    
     41000   0.99242702     19.587864      190.88884    
     42000   0.95226214     19.156723      190.95551    
     43000   0.94588617     19.353568      190.83448    
     44000   1.0280082      19.375592      190.74612    
     45000   0.98674751     19.497793      190.5396     
     46000   1.056002       19.806259      190.62797    
     47000   1.0244701      19.546691      190.57484    
     48000   1.0406862      19.394936      190.34396    
     49000   1.0038734      19.574912      189.97863    
     50000   0.97998543     19.375672      189.92951    
     51000   0.98011093     19.390793      189.67115    
     52000   1.0391141      20.024231      189.38385    
     53000   0.99476823     19.197831      189.28756    
     54000   1.0113959      19.689429      189.13987    
     55000   0.99181537     19.088921      188.88707    
     56000   1.0066147      19.179519      188.70142    
     57000   0.94380931     19.104413      188.38634    
     58000   1.0053769      19.35382       188.26013    
     59000   0.96182588     19.308253      188.02973    
     60000   1.0045618      19.038599      188.11224    
     61000   0.99856971     19.093226      187.96908    
     62000   0.98428584     19.305977      187.9997     
     63000   1.0216504      19.172735      187.65175    
     64000   1.0061062      19.747403      187.27268    
     65000   0.99742701     19.354414      186.9468     
     66000   1.0356392      19.632093      186.88106    
     67000   0.98854572     19.467549      186.54029    
     68000   1.0487372      20.106645      186.37047    
     69000   0.97551828     19.41876       185.99769    
     70000   0.98668186     19.298047      185.79884    
     71000   0.97314528     19.542908      185.51104    
     72000   0.98750668     19.229882      185.48446    
     73000   1.0013899      19.699025      185.32258    
     74000   0.99370023     19.265407      185.09391    
     75000   0.99729345     19.40775       184.98137    
     76000   0.99127292     19.065884      184.75981    
     77000   1.0032239      18.928166      184.56225    
     78000   1.0135324      19.386072      184.52663    
     79000   0.98380064     19.716318      184.1924     
     80000   0.9663183      19.126549      184.13399    
     81000   0.98548224     19.505135      184.24966    
     82000   0.97099847     19.586559      184.06919    
     83000   0.93829253     19.2472        183.89993    
     84000   0.99287514     19.393345      183.6909     
     85000   0.99457986     19.698998      183.6133     
     86000   1.0052924      19.481877      183.31839    
     87000   0.97353328     19.560303      183.41627    
     88000   0.96512496     19.461168      183.35185    
     89000   0.99943753     19.921693      183.23617    
     90000   1.0358056      20.215559      182.96902    
     91000   0.98847856     19.554042      182.81533    
     92000   1.0431166      19.278108      182.66364    
     93000   1.0096116      19.771964      182.35171    
     94000   1.054015       19.905815      181.95249    
     95000   1.0165994      19.951933      181.81331    
     96000   1.0246353      19.982459      181.80833    
     97000   0.99213805     19.143997      181.78073    
     98000   0.96037719     19.568888      181.87096    
     99000   1.0021957      19.698619      181.98075    
    100000   0.98609546     20.147787      181.79138    
Loop time of 453.51 on 2 procs for 100000 steps with 1201 atoms

Performance: 190514.042 tau/day, 220.502 timesteps/s
102.3% CPU use with 1 MPI tasks x 2 OpenMP threads

MPI task timing breakdown:
Section |  min time  |  avg time  |  max time  |%varavg| %total
---------------------------------------------------------------
Pair    | 1.0832     | 1.0832     | 1.0832     |   0.0 |  0.24
Bond    | 2.398      | 2.398      | 2.398      |   0.0 |  0.53
Neigh   | 444.24     | 444.24     | 444.24     |   0.0 | 97.96
Comm    | 0.035607   | 0.035607   | 0.035607   |   0.0 |  0.01
Output  | 0.29084    | 0.29084    | 0.29084    |   0.0 |  0.06
Modify  | 5.061      | 5.061      | 5.061      |   0.0 |  1.12
Other   |            | 0.3981     |            |       |  0.09

Nlocal:           1201 ave        1201 max        1201 min
Histogram: 1 0 0 0 0 0 0 0 0 0
Nghost:              0 ave           0 max           0 min
Histogram: 1 0 0 0 0 0 0 0 0 0
Neighs:           6182 ave        6182 max        6182 min
Histogram: 1 0 0 0 0 0 0 0 0 0

Total # of neighbors = 6182
Ave neighs/atom = 5.1473772
Ave special neighs/atom = 1.9983347
Neighbor list builds = 1092
Dangerous builds = 0

# Replace lj potential, now collapse
pair_style      lj/cut 3

# Cutoff simul when gyration under 5
# Variable created with equal requires v_ + 'name'
fix 3 all halt 1000 v_rog < 7

run 5000000
Generated 0 of 0 mixed pair_coeff terms from geometric mixing rule
Last active /omp style is angle_style cosine/omp
Per MPI rank memory allocation (min/avg/max) = 1860 | 1860 | 1860 Mbytes
   Step          Temp         Enthalpy         c_1      
    100000   0.98609546     19.638947      181.79138    
    101000   0.98561412     18.976736      181.48254    
    102000   0.94714495     19.038033      181.1963     
    103000   0.9970706      19.657932      180.88421    
    104000   1.0244502      18.979961      180.69117    
    105000   0.97861949     19.313648      180.48306    
    106000   1.022976       19.147097      180.34556    
    107000   1.0301734      19.246091      180.30832    
    108000   1.0234681      18.979982      180.06934    
    109000   1.0220919      19.069577      179.85427    
    110000   0.99049048     19.270366      179.6387     
    111000   0.98406187     19.50291       179.64287    
    112000   1.0106331      19.398123      179.53323    
    113000   0.9928753      19.393784      179.45813    
    114000   1.0187413      19.562512      179.24015    
    115000   1.0170243      19.343666      179.03702    
    116000   0.95420357     18.817658      178.90141    
    117000   0.99984749     19.680351      178.72376    
    118000   0.9840168      19.648195      178.33428    
    119000   0.97406882     19.020618      178.18897    
    120000   0.99051174     19.383577      178.09119    
    121000   0.99456005     19.321027      177.98861    
    122000   1.0162602      18.865393      177.9288     
    123000   1.0377216      19.448917      177.89076    
    124000   1.0166617      19.108644      177.61367    
    125000   1.0284755      18.857545      177.29132    
    126000   1.0251316      18.822411      177.28363    
    127000   1.0302256      19.186368      177.25266    
    128000   0.9880891      19.223526      177.10403    
    129000   0.98471066     19.170977      176.96335    
    130000   0.98859962     19.172624      176.55387    
    131000   0.98491335     19.049997      176.64836    
    132000   0.99992951     19.272794      176.72925    
    133000   0.95992159     19.142946      176.51033    
    134000   0.99335286     19.042394      176.23758    
    135000   1.016667       19.31815       175.82235    
    136000   1.0296681      19.6251        175.57563    
    137000   1.0086967      18.955942      175.46452    
    138000   1.0111837      19.159321      175.4566     
    139000   0.97767827     18.996536      175.30497    
    140000   0.98762428     19.522466      175.45966    
    141000   0.99459741     19.601756      175.33334    
    142000   1.0031571      19.515476      175.10127    
    143000   1.0091015      19.33343       174.97595    
    144000   0.98816866     18.9402        174.7996     
    145000   1.0047199      19.059929      174.66699    
    146000   0.98869013     18.889797      174.44068    
    147000   0.98983545     18.941622      174.17518    
    148000   0.95335264     18.985211      173.97864    
    149000   1.0266044      19.374857      173.90405    
    150000   0.97959139     19.335985      173.905      
    151000   1.0052108      18.984626      173.94217    
    152000   1.0152949      19.164033      173.92302    
    153000   0.99720942     19.021161      173.65155    
    154000   1.0477189      19.05112       173.43168    
    155000   1.0205086      18.958061      173.53943    
    156000   1.0125457      19.299818      173.43514    
    157000   1.0400621      18.94122       173.24669    
    158000   0.97779882     18.755212      173.19958    
    159000   1.0101854      19.255221      172.95535    
    160000   1.0366708      19.435864      173.02356    
    161000   1.0321641      19.368953      172.64724    
    162000   1.0221764      19.20889       172.48676    
    163000   1.0724697      19.06583       171.95749    
    164000   0.9908594      19.179985      171.87703    
    165000   0.97003133     19.037588      171.79138    
    166000   1.0057761      18.896221      171.63672    
    167000   0.99671941     18.722739      171.50316    
    168000   0.97361156     18.694535      171.48658    
    169000   0.99798835     19.624806      171.28636    
    170000   1.018819       19.000231      171.1501     
    171000   0.99168539     19.365656      171.20368    
    172000   0.96784845     18.765046      171.07018    
    173000   1.0370732      19.122281      170.96386    
    174000   0.98873949     18.953166      170.91283    
    175000   0.99062338     19.033865      170.65238    
    176000   1.0100766      19.482197      170.61575    
    177000   0.99855936     19.128286      170.57667    
    178000   0.99682559     18.883852      170.64344    
    179000   1.0049261      19.194191      170.42604    
    180000   0.99305486     19.23904       170.30806    
    181000   0.99341248     19.162706      170.35912    
    182000   1.0325789      19.260701      170.51114    
    183000   1.0206628      19.130504      170.31854    
    184000   0.99051883     18.830309      170.16242    
    185000   1.0188002      19.233019      169.96172    
    186000   0.96069265     18.849719      169.66179    
    187000   1.0252339      19.059699      169.35993    
    188000   1.0002426      18.884678      169.24567    
    189000   1.0220548      19.322103      169.18729    
    190000   1.0218052      18.795943      168.83007    
    191000   1.0100111      18.901459      168.66937    
    192000   1.0349         18.907344      168.66046    
    193000   0.9950609      18.802427      168.59529    
    194000   0.99354469     18.845963      168.31394    
    195000   1.0228318      19.047873      168.21785    
    196000   0.97575595     19.503511      167.97776    
    197000   1.0062819      19.396454      167.68777    
    198000   0.98667339     19.080157      167.53379    
    199000   0.99154968     18.965325      167.53277    
    200000   0.98708886     18.901899      167.49762    
    201000   1.0156939      19.489662      167.3266     
    202000   0.99887073     19.177846      167.16121    
    203000   0.95686302     18.602316      166.95695    
    204000   0.98965788     18.594403      166.84175    
    205000   1.0253989      18.934621      166.86711    
    206000   0.98615207     19.209989      166.5921     
    207000   1.0027531      18.631122      166.56393    
    208000   0.96055906     18.772385      166.3689     
    209000   1.0298895      19.529038      166.01542    
    210000   0.97899692     19.244963      166.0412     
    211000   0.99964176     18.714309      165.81727    
    212000   0.99922866     18.956581      165.70751    
    213000   0.99434356     19.034127      165.60546    
    214000   0.98654123     19.261575      165.55434    
    215000   1.0135529      18.93195       165.51458    
    216000   1.0115631      19.122894      165.56412    
    217000   1.0662545      18.884084      165.55622    
    218000   0.99101719     18.779664      165.27232    
    219000   1.029202       18.976894      165.15059    
    220000   0.99629069     18.832984      165.11951    
    221000   1.0090626      19.068521      165.1337     
    222000   1.003053       18.462991      165.00122    
    223000   0.98828876     18.788982      164.92078    
    224000   0.99940162     19.191777      164.66238    
    225000   0.98852117     18.603211      164.54555    
    226000   1.0101764      19.25873       164.1842     
    227000   1.033005       18.909405      164.09652    
    228000   0.98298112     18.921368      164.00797    
    229000   0.92826676     19.199859      163.81652    
    230000   1.0365226      19.229287      163.80534    
    231000   1.0202418      19.23521       163.71304    
    232000   0.98019184     18.851555      163.70732    
    233000   0.99268216     18.8662        163.52426    
    234000   1.0268905      19.003519      163.34471    
    235000   0.96021493     18.83401       163.12862    
    236000   0.97109571     18.777184      163.03401    
    237000   0.99705051     19.126284      162.96081    
    238000   0.99460484     19.15739       162.7086     
    239000   1.0091019      19.312126      162.29644    
    240000   0.98784709     19.107555      161.92536    
    241000   1.0086902      18.72099       161.90816    
    242000   0.99643732     18.852373      161.77847    
    243000   0.98546716     18.72957       161.69729    
    244000   0.96432323     19.1254        161.55308    
    245000   0.98471247     19.414235      161.51347    
    246000   0.99916351     19.275172      161.51466    
    247000   0.99788982     18.866318      161.3487     
    248000   1.0111095      19.346191      161.19636    
    249000   1.010977       18.979176      161.22093    
    250000   0.94373911     18.231381      160.7939     
    251000   0.95317234     18.672247      160.6462     
    252000   0.98934266     18.733918      160.72347    
    253000   1.0037921      18.665814      160.53479    
    254000   1.0204626      19.004975      160.30546    
    255000   0.99274149     19.162856      160.1379     
    256000   1.0039723      18.959825      160.16063    
    257000   1.0188855      19.108933      160.21209    
    258000   1.0065205      18.840466      160.0435     
    259000   0.99310964     19.080109      159.78602    
    260000   0.97244799     19.13081       159.67111    
    261000   0.97848936     18.684291      159.53477    
    262000   1.0011009      18.891406      159.35074    
    263000   0.98315107     18.741942      159.37027    
    264000   1.006116       19.151271      159.1617     
    265000   1.0049166      19.384477      159.12836    
    266000   0.96974346     18.850812      158.7774     
    267000   0.98560347     19.131595      158.46164    
    268000   1.0337548      19.011075      158.2171     
    269000   1.0244543      19.25735       157.88881    
    270000   0.99806055     19.065727      157.55928    
    271000   1.0666633      19.176642      157.40198    
    272000   1.0384977      19.04001       157.27335    
    273000   1.0146936      18.956019      157.30725    
    274000   0.96422635     18.820979      157.1828     
    275000   0.97848751     19.295477      156.95367    
    276000   0.97780766     19.142225      156.79392    
    277000   1.0046421      19.199907      156.58389    
    278000   1.0364698      19.150969      156.43301    
    279000   1.0313304      19.507744      156.32829    
    280000   1.0570873      19.553087      156.23836    
    281000   0.96283679     18.832725      156.30173    
    282000   1.018858       19.398505      156.1112     
    283000   1.0209156      19.341375      155.96331    
    284000   1.0161279      19.087809      156.03805    
    285000   0.99015676     18.828147      155.75775    
    286000   1.0252981      19.021857      155.62325    
    287000   1.0102909      18.85354       155.35168    
    288000   0.98965848     18.890018      155.24788    
    289000   1.0197544      19.011026      155.08812    
    290000   0.98672476     18.658214      154.977      
    291000   1.013599       19.457493      155.01127    
    292000   0.992511       19.183604      154.93855    
    293000   0.98547971     19.195206      154.84869    
    294000   0.98245944     18.993009      154.70215    
    295000   1.0131805      19.2328        154.68849    
    296000   1.0095524      18.618145      154.80485    
    297000   1.015088       18.953189      154.77333    
    298000   0.97793287     19.381055      154.62021    
    299000   0.9286834      18.535564      154.64103    
    300000   1.0063887      19.539499      154.66672    
    301000   1.0121829      18.982441      154.40494    
    302000   0.98339459     18.835146      154.26385    
    303000   0.94789169     18.893445      154.15812    
    304000   1.0224358      19.036925      154.20464    
    305000   1.0000206      19.35351       154.00175    
    306000   1.000826       19.508336      153.72342    
    307000   0.95695938     18.869574      153.42065    
    308000   0.99703362     18.889826      153.19911    
    309000   1.0447371      19.118158      153.18525    
    310000   1.0361461      18.920677      152.78962    
    311000   1.0231047      18.88895       152.78373    
    312000   0.97575978     19.059577      152.58453    
    313000   1.0018997      19.156343      152.70366    
    314000   0.96388975     18.647179      152.35344    
    315000   0.99542192     19.200896      152.19501    
    316000   0.97203883     19.133382      152.21128    
    317000   1.0070501      19.155288      151.94339    
    318000   1.0261744      18.589415      151.66354    
    319000   0.98451198     19.048694      151.60137    
    320000   1.0006282      19.051314      151.55902    
    321000   0.98220105     18.936566      151.31259    
    322000   0.94748112     18.98733       151.19711    
    323000   0.99978316     19.164894      151.05742    
    324000   0.98822288     18.594269      150.97224    
    325000   0.95178129     18.634666      150.80115    
    326000   1.0081313      19.083668      150.867      
    327000   0.96397055     19.487626      150.95942    
    328000   1.0285421      18.752659      150.88579    
    329000   1.0283378      19.098414      150.96644    
    330000   1.0008624      19.133526      151.03961    
    331000   1.0066822      18.88239       150.91414    
    332000   0.96345499     18.934825      150.71915    
    333000   0.9736794      18.571697      150.58196    
    334000   0.99615969     19.422688      150.3943     
    335000   0.99918985     18.633379      150.01347    
    336000   1.0015117      18.572032      149.66934    
    337000   0.99114133     19.075771      149.49751    
    338000   1.0163301      18.833576      149.455      
    339000   0.99718115     18.944528      149.47727    
    340000   1.0193792      18.882186      149.1945     
    341000   1.0075342      18.955077      149.19122    
    342000   1.008895       18.91226       148.99811    
    343000   0.98527902     19.105441      148.77083    
    344000   1.0398065      19.181894      148.72668    
    345000   0.96839829     18.841488      148.67113    
    346000   0.98000639     18.687089      148.63116    
    347000   1.0043683      19.018554      148.55071    
    348000   0.99300574     19.07293       148.32899    
    349000   0.9744963      18.496799      148.15506    
    350000   0.97212758     18.944869      148.31166    
    351000   1.0044385      18.872332      148.03195    
    352000   0.98100047     18.728998      148.14842    
    353000   0.97286436     18.784996      148.09201    
    354000   0.99772137     18.810136      148.02471    
    355000   0.98530138     18.846922      147.99288    
    356000   0.9807438      18.66996       147.78559    
    357000   0.98707344     19.066626      147.53449    
    358000   0.99010505     18.893917      147.32582    
    359000   0.98146861     18.733911      147.16916    
    360000   1.0422349      19.086241      147.04163    
    361000   1.0266836      18.615788      147.0321     
    362000   0.99367601     18.663197      146.80679    
    363000   0.99731216     18.813674      146.81063    
    364000   1.0213211      18.832277      146.79433    
    365000   1.0094566      18.903216      146.58131    
    366000   0.95719833     19.039761      146.54817    
    367000   0.95715637     18.50848       146.46403    
    368000   1.0035831      19.070839      146.51235    
    369000   0.99897945     18.727764      146.40985    
    370000   1.0316047      18.794791      146.14047    
    371000   0.98425671     18.850167      145.92912    
    372000   0.99268432     18.44493       145.981      
    373000   0.99812956     19.007712      145.86933    
    374000   0.96104341     18.753115      145.6136     
    375000   1.0260093      19.19447       145.6231     
    376000   1.0354923      19.112148      145.46902    
    377000   0.99207942     19.144708      145.53143    
    378000   1.0329498      19.213473      145.54655    
    379000   1.0144572      18.785364      145.56701    
    380000   0.96743352     18.687059      145.60094    
    381000   0.9979645      18.518113      145.50333    
    382000   1.0262045      19.156764      145.56654    
    383000   1.0232679      19.001641      145.31934    
    384000   0.9880139      18.428209      145.00858    
    385000   1.010174       19.193327      144.81092    
    386000   1.0079725      19.222832      144.77358    
    387000   0.99445795     18.580213      144.7062     
    388000   0.99995596     18.793816      144.50251    
    389000   0.9978789      18.721903      144.31061    
    390000   1.0116596      19.080435      144.2473     
    391000   1.0095707      18.869549      143.97829    
    392000   1.0045303      18.889614      143.75661    
    393000   1.0324307      18.631042      143.66955    
    394000   0.99905682     18.632688      143.51866    
    395000   0.99172938     18.350456      143.31863    
    396000   1.0321727      18.619756      143.26147    
    397000   1.0459501      18.637353      143.12665    
    398000   0.98186373     18.744548      142.88223    
    399000   1.0486485      19.003732      142.57282    
    400000   0.99327082     19.048284      142.61902    
    401000   0.95111549     18.487604      142.42909    
    402000   0.98358017     18.96989       142.20281    
    403000   1.0299617      18.898709      142.08346    
    404000   1.006695       19.060957      141.94561    
    405000   0.98044711     18.900163      141.73132    
    406000   1.007265       19.205723      141.67013    
    407000   1.0033338      18.519504      141.38868    
    408000   0.96038854     18.884178      141.16087    
    409000   1.0309592      19.296798      141.03915    
    410000   1.0416731      19.021776      140.89972    
    411000   1.0067256      19.332616      140.77237    
    412000   0.97131689     18.768554      140.83942    
    413000   0.9629688      18.263753      140.70562    
    414000   1.0173465      19.262194      140.69837    
    415000   0.99038293     18.545706      140.75924    
    416000   0.97877789     18.737548      140.62771    
    417000   0.98712821     18.917284      140.50307    
    418000   0.97192907     18.467732      140.50168    
    419000   0.9876516      18.889975      140.31308    
    420000   0.9940786      18.586199      139.99631    
    421000   1.0135872      18.593118      139.79993    
    422000   0.97048168     19.141982      139.69758    
    423000   0.96902072     19.088466      139.56972    
    424000   1.0024385      19.100904      139.56614    
    425000   1.0251575      18.782914      139.39239    
    426000   1.0047629      18.549725      139.44653    
    427000   0.95902157     18.345458      139.13245    
    428000   0.99318673     18.970736      139.16684    
    429000   0.99402694     18.810423      139.03152    
    430000   0.99658422     18.903967      138.76812    
    431000   0.98715727     18.985352      138.67748    
    432000   1.0029663      18.953744      138.50047    
    433000   0.99101776     19.164581      138.33375    
    434000   1.0367585      18.262162      138.09034    
    435000   1.0061571      18.738006      137.93872    
    436000   1.0455375      18.818399      137.66038    
    437000   1.0190243      18.941896      137.69273    
    438000   1.0075425      18.724283      137.53472    
    439000   1.0157226      18.770571      137.41342    
    440000   1.0098329      18.754633      137.37096    
    441000   0.98256389     18.075303      136.98786    
    442000   1.0244488      18.915518      136.84348    
    443000   0.95265634     18.880005      136.60097    
    444000   0.98434617     19.29635       136.33992    
    445000   1.0296254      18.837352      136.2121     
    446000   1.0039853      18.92502       136.1459     
    447000   0.96133571     18.886155      136.07457    
    448000   0.94961519     18.445775      136.04433    
    449000   0.96884823     18.542304      135.83984    
    450000   1.0038091      18.622099      135.82429    
    451000   0.95888136     18.928703      135.64538    
    452000   0.98213165     19.05217       135.34496    
    453000   0.96839251     19.03481       135.21439    
    454000   0.95744076     19.225376      135.23755    
    455000   0.99750531     18.768861      135.03232    
    456000   1.0271865      18.906885      134.90612    
    457000   1.0473528      18.93278       134.88184    
    458000   1.0160247      18.295703      134.8553     
    459000   1.0176098      18.55943       134.69768    
    460000   1.0190274      19.130525      134.51612    
    461000   0.98772628     18.860151      134.42283    
    462000   0.99515536     18.868454      134.29337    
    463000   1.0205707      18.955175      134.30019    
    464000   0.9767531      18.699823      134.18193    
    465000   1.0141592      18.674267      134.15487    
    466000   1.0229897      18.63875       133.94698    
    467000   1.0225868      19.282535      133.938      
    468000   1.0063835      19.048925      133.90837    
    469000   1.048925       18.857034      133.5952     
    470000   0.99215882     18.677235      133.4165     
    471000   1.0071814      18.965839      133.51119    
    472000   0.99577094     18.456566      133.40511    
    473000   0.98741239     18.737715      133.35502    
    474000   0.98407162     18.791791      133.30156    
    475000   1.0012415      18.470466      133.25084    
    476000   1.0011436      18.795495      133.00037    
    477000   1.0337608      18.907715      132.81189    
    478000   1.0268982      18.452855      132.52156    
    479000   0.97333022     18.427245      132.4253     
    480000   0.98668621     18.446908      132.36234    
    481000   0.99405281     18.694466      132.26843    
    482000   1.0333378      19.254056      132.22956    
    483000   0.99544646     18.566053      131.8028     
    484000   1.0138017      18.705173      131.45931    
    485000   1.002602       18.778521      131.1302     
    486000   0.99533795     18.631648      131.07951    
    487000   0.94511903     18.072058      130.86585    
    488000   1.0393476      18.181807      130.89322    
    489000   0.99556456     18.608937      130.79391    
    490000   1.0060557      18.940455      130.7439     
    491000   1.0285382      19.047589      130.57164    
    492000   1.0329328      18.640571      130.45946    
    493000   1.0061145      18.761478      130.27871    
    494000   1.0170449      18.801933      129.8906     
    495000   1.0145127      18.957791      129.79725    
    496000   1.0005322      19.210243      129.93748    
    497000   1.0010166      18.707892      129.77454    
    498000   1.0030571      18.632409      129.65172    
    499000   0.99724175     18.6863        129.42511    
    500000   0.99493221     18.474377      129.2257     
    501000   0.99597443     19.275741      129.2449     
    502000   1.0351134      18.490901      129.23681    
    503000   0.99593264     18.629441      129.12284    
    504000   0.98296032     18.525829      129.28868    
    505000   0.99908731     18.909181      129.15673    
    506000   0.98274244     18.142782      129.13785    
    507000   1.0030769      18.672081      128.99756    
    508000   1.0275719      18.867225      128.86605    
    509000   1.0343816      18.434406      129.03764    
    510000   1.0271403      18.887236      128.83689    
    511000   1.0229063      18.546836      128.80159    
    512000   1.0241423      19.128748      128.85682    
    513000   0.99186281     18.905979      128.74324    
    514000   0.9847352      18.198671      128.54047    
    515000   0.97895467     18.43294       128.55124    
    516000   0.99379488     18.807902      128.5418     
    517000   0.97073123     18.670599      128.33695    
    518000   1.0199814      18.696171      128.41617    
    519000   1.0472027      18.617647      128.60197    
    520000   1.0109227      18.703305      128.47634    
    521000   0.99223642     18.49443       128.11857    
    522000   0.99695275     18.295168      128.06535    
    523000   0.99830229     18.86063       128.09652    
    524000   0.97849674     19.115291      128.04134    
    525000   1.0065953      19.009057      127.98193    
    526000   0.97579703     18.521239      127.99453    
    527000   1.0146358      18.566969      127.59547    
    528000   1.0195537      18.583639      127.43681    
    529000   1.0244599      18.456526      127.41449    
    530000   1.0202774      18.861267      127.40228    
    531000   0.99535508     18.731716      127.22997    
    532000   1.0453003      19.320855      126.87215    
    533000   0.97689414     18.288489      126.88979    
    534000   0.98525471     18.733154      126.6963     
    535000   1.0229819      18.769173      126.80346    
    536000   0.98560087     18.012203      126.71625    
    537000   0.98793329     19.105261      126.39607    
    538000   1.0006088      18.722236      126.22363    
    539000   1.004643       19.031759      125.99386    
    540000   1.0048305      18.757941      125.78773    
    541000   0.97828859     18.753563      125.71436    
    542000   0.98590409     19.312328      125.53659    
    543000   0.99082536     18.685386      125.58298    
    544000   0.99336173     18.530036      125.6337     
    545000   1.0195646      18.523056      125.71747    
    546000   0.96870044     18.127064      125.57459    
    547000   0.97897695     18.300171      125.58475    
    548000   1.0161666      18.704299      125.4159     
    549000   0.98445835     18.384106      125.33934    
    550000   0.98751002     18.702457      125.32745    
    551000   0.96851512     18.619671      125.10784    
    552000   1.0111421      19.259209      124.92134    
    553000   1.026666       19.239862      124.86151    
    554000   1.0141722      18.781604      124.87401    
    555000   1.0061667      19.260276      124.91515    
    556000   1.0099699      18.751032      124.62072    
    557000   1.0213775      18.840955      124.48707    
    558000   0.98282399     18.369425      124.31181    
    559000   0.98918736     18.237006      124.29212    
    560000   1.0157798      18.328156      124.10259    
    561000   1.0089127      18.695237      124.01442    
    562000   1.0112847      19.381002      123.90108    
    563000   1.0013706      18.195066      123.6559     
    564000   0.99305534     18.462996      123.21913    
    565000   0.96367494     18.761601      123.00451    
    566000   0.99283426     18.642496      123.00367    
    567000   1.0055278      18.474484      122.83549    
    568000   1.0282932      19.215876      122.73959    
    569000   0.98039987     18.717975      122.59072    
    570000   1.0024288      19.356025      122.55891    
    571000   1.0164786      18.946117      122.60246    
    572000   0.97635628     18.507481      122.39557    
    573000   1.0143567      18.13128       122.18267    
    574000   1.0372703      18.179081      122.10986    
    575000   0.99679629     18.579176      122.13417    
    576000   0.96002898     18.599521      122.12607    
    577000   1.0309733      18.597084      122.05913    
    578000   1.0174362      18.457166      122.05932    
    579000   0.98000641     18.193424      121.94033    
    580000   1.0206096      19.241023      121.72045    
    581000   1.010866       18.433294      121.73518    
    582000   1.0052122      18.947409      121.5371     
    583000   0.99874231     18.663737      121.61522    
    584000   0.97910297     18.395357      121.73399    
    585000   1.0146019      18.851622      121.724      
    586000   1.0171937      18.667037      121.73175    
    587000   0.98818507     18.53861       121.59392    
    588000   1.0117192      18.955845      121.2508     
    589000   0.95619128     18.725763      121.04413    
    590000   1.0018429      18.63687       120.87544    
    591000   0.9951697      18.754241      120.89465    
    592000   1.0415647      18.787743      120.66645    
    593000   0.98488005     18.364326      120.60531    
    594000   1.0223776      18.436608      120.60422    
    595000   1.0384987      18.503244      120.60887    
    596000   0.99888869     18.648965      120.51353    
    597000   0.98670563     18.738684      120.25672    
    598000   1.0319039      18.858646      120.33983    
    599000   1.0268439      18.73749       120.29469    
    600000   0.98863977     18.581896      120.14092    
    601000   1.0001408      18.404462      120.16718    
    602000   0.98523309     18.067663      120.19372    
    603000   1.000518       18.718882      120.1718     
    604000   1.026861       18.382263      120.01908    
    605000   0.9866554      18.429568      119.87098    
    606000   1.0148974      18.594875      119.66515    
    607000   0.99873369     18.665381      119.45064    
    608000   0.98964048     18.828054      119.3941     
    609000   0.97599495     18.451079      119.24743    
    610000   1.0063587      17.814568      119.18268    
    611000   1.0078214      18.42421       118.87362    
    612000   1.0018265      18.155453      118.76893    
    613000   1.0273191      19.08732       118.55516    
    614000   0.99574025     18.55198       118.503      
    615000   0.99799002     18.51789       118.48244    
    616000   1.0385438      18.709666      118.25072    
    617000   0.9982985      18.165887      117.91633    
    618000   0.9965646      18.790181      117.70287    
    619000   1.0473945      18.322541      117.6079     
    620000   1.011115       18.468574      117.32858    
    621000   0.95867004     18.027321      117.37063    
    622000   0.96938854     18.591013      117.29207    
    623000   0.97699973     18.726558      117.28123    
    624000   1.0514248      18.194437      117.18188    
    625000   1.0244791      18.359224      117.029      
    626000   0.98418778     18.314181      116.97752    
    627000   0.98596165     18.306196      116.90666    
    628000   1.0197003      18.25034       116.72451    
    629000   1.0141421      18.595292      116.42663    
    630000   1.0072962      18.597192      116.58729    
    631000   1.0426425      18.769823      116.2616     
    632000   0.98579589     18.605288      116.17936    
    633000   0.98447327     18.852419      116.19918    
    634000   1.0067369      18.509036      116.02997    
    635000   1.0082731      18.350912      116.19602    
    636000   0.99084956     18.767485      116.18215    
    637000   1.0188544      18.278592      116.21604    
    638000   1.0089994      18.736201      116.24656    
    639000   1.0391994      18.73118       116.33164    
    640000   0.98591156     18.224456      116.25988    
    641000   0.96855525     18.430139      115.94873    
    642000   1.0343019      17.986815      115.83738    
    643000   0.96327638     17.965255      115.88319    
    644000   0.96442004     18.282809      115.64354    
    645000   1.0123067      18.151447      115.58127    
    646000   0.9991758      18.928893      115.72007    
    647000   0.9663775      18.524843      115.68953    
    648000   0.96734239     18.76151       115.58524    
    649000   1.0295239      18.926075      115.48631    
    650000   0.9841761      18.283737      115.623      
    651000   1.0456871      18.329052      115.42843    
    652000   1.0178392      18.783167      115.27712    
    653000   0.96892303     18.272171      115.20244    
    654000   0.99873842     18.672264      115.05421    
    655000   0.96909263     18.186874      114.86496    
    656000   1.0171522      18.201002      114.7206     
    657000   1.0195501      18.75196       114.59528    
    658000   1.0261493      18.204347      114.46279    
    659000   0.98039716     18.409897      114.45378    
    660000   1.0419507      18.617954      114.1325     
    661000   0.97752897     18.413968      113.90906    
    662000   1.0128132      18.254963      113.69454    
    663000   1.018342       18.796463      113.68103    
    664000   0.98759579     18.259797      113.49128    
    665000   1.0089258      18.156211      113.34603    
    666000   0.98728074     18.311848      113.36976    
    667000   1.0007156      18.506469      113.21177    
    668000   0.98948298     17.996206      113.07875    
    669000   0.97704108     18.503994      112.96942    
    670000   0.97235697     18.700787      112.79498    
    671000   1.0098174      18.14559       112.67719    
    672000   1.0177787      18.618624      112.35389    
    673000   1.0209859      19.105008      112.169      
    674000   0.99135476     18.730639      112.27615    
    675000   0.96696968     18.506285      111.73917    
    676000   1.0078223      18.639193      111.70599    
    677000   1.0006913      18.423996      111.67393    
    678000   1.0266347      18.334682      111.56942    
    679000   1.0082544      18.201477      111.39732    
    680000   1.0196994      18.463161      111.31907    
    681000   1.030194       18.208532      111.43535    
    682000   1.0264084      18.040325      111.50356    
    683000   1.0026988      18.676568      111.26297    
    684000   1.0134361      18.18146       111.08126    
    685000   0.98257993     18.268266      111.02307    
    686000   0.98985802     18.651445      110.92798    
    687000   0.98260846     18.259349      111.01186    
    688000   1.0351806      18.185169      110.85451    
    689000   0.99631031     18.424309      110.71655    
    690000   1.0539373      18.50952       110.66958    
    691000   1.0340604      18.197981      110.5161     
    692000   1.0425804      18.314521      110.42542    
    693000   1.0315748      17.927719      110.2335     
    694000   1.0041392      18.386127      110.21372    
    695000   0.98295319     17.695681      110.08887    
    696000   1.0567848      19.010292      109.85664    
    697000   1.0174697      18.773951      109.93391    
    698000   0.98088106     18.70696       109.77807    
    699000   0.98162217     18.162969      109.84952    
    700000   1.0084339      18.236117      109.80258    
    701000   1.0309843      18.012172      109.85322    
    702000   1.0218928      18.280787      109.76303    
    703000   0.9876252      18.614062      109.66804    
    704000   0.99404065     18.587641      109.70554    
    705000   0.96801397     18.40429       109.87011    
    706000   0.97570992     18.037749      109.81534    
    707000   0.99615387     18.06825       109.80363    
    708000   1.0098964      18.591469      109.9684     
    709000   0.9838472      18.158039      109.92467    
    710000   1.0170232      18.488158      109.75967    
    711000   0.99972021     18.57449       109.52336    
    712000   1.0065572      18.778951      109.35955    
    713000   1.0174559      18.697943      109.35112    
    714000   0.99781303     18.73929       109.18003    
    715000   1.0225963      18.48739       109.10376    
    716000   1.0175421      18.128909      109.0181     
    717000   1.001253       18.15378       109.05952    
    718000   1.0137386      18.705153      108.85194    
    719000   0.98998778     18.530822      108.80786    
    720000   1.0065768      18.752209      108.76377    
    721000   0.98372782     18.251652      108.57325    
    722000   0.99753336     18.360537      108.578      
    723000   1.0154424      18.365899      108.68263    
    724000   0.97490742     18.44689       108.45869    
    725000   0.98839908     18.156281      108.61822    
    726000   1.0175281      18.63423       108.42669    
    727000   1.0198513      18.33483       108.36709    
    728000   0.98497312     18.048945      108.26201    
    729000   1.0006105      18.728819      108.28011    
    730000   0.97705931     18.252288      108.263      
    731000   1.0102883      18.67373       108.20917    
    732000   1.0266553      18.24735       108.10802    
    733000   0.9943898      18.843296      107.79149    
    734000   0.95489354     18.074565      107.72772    
    735000   1.0293095      18.824299      107.80849    
    736000   1.0496131      18.399078      107.73667    
    737000   1.0302557      18.081338      107.69425    
    738000   0.972718       18.258496      107.54471    
    739000   0.95890549     18.438927      107.25592    
    740000   0.9956156      18.264946      107.09495    
    741000   0.98361136     17.831556      107.05802    
    742000   1.0125495      18.568579      107.1283     
    743000   0.97408962     18.229023      107.04172    
    744000   1.0151112      17.902276      106.86553    
    745000   0.99083662     18.346906      106.70758    
    746000   1.0004602      18.342095      106.74894    
    747000   0.99440774     18.242476      106.65617    
    748000   0.98632949     18.56543       106.80878    
    749000   0.98193981     18.058978      106.81046    
    750000   1.0083669      18.149206      106.91989    
    751000   1.0205073      18.803243      106.60376    
    752000   1.0054788      18.06458       106.50973    
    753000   1.0289456      18.902443      106.4477     
    754000   1.0055646      18.12855       106.38724    
    755000   1.0207607      18.565992      106.18593    
    756000   1.0091866      18.4971        106.03649    
    757000   1.005367       18.035414      106.04017    
    758000   1.0156996      18.193821      106.04564    
    759000   1.0370714      18.525447      105.82709    
    760000   0.95701989     18.465614      105.63057    
    761000   1.0503984      18.621199      105.74232    
    762000   0.97333371     18.796256      105.53612    
    763000   0.99724441     17.857313      105.28425    
    764000   1.0390801      18.869786      105.14834    
    765000   0.96211588     18.160776      105.02934    
    766000   0.97891496     18.171119      104.99136    
    767000   1.0132403      18.45547       104.9254     
    768000   1.0320775      18.342773      104.73999    
    769000   0.97723175     18.366796      104.58541    
    770000   1.0138542      18.698645      104.62909    
    771000   1.0286491      18.384446      104.4791     
    772000   1.0058506      18.564851      104.3163     
    773000   1.0047631      18.609674      104.30878    
    774000   1.0062145      18.051006      104.1039     
    775000   0.97314829     18.577951      104.08683    
    776000   0.97154173     17.781832      103.96378    
    777000   0.99813591     18.23965       103.85175    
    778000   1.0162791      18.19717       103.73445    
    779000   1.0180933      18.324588      103.4407     
    780000   0.99465571     18.235544      103.25265    
    781000   0.99482452     18.182181      103.16397    
    782000   0.99610262     18.149912      102.98458    
    783000   1.0205843      17.807471      102.93685    
    784000   1.0103659      18.014096      102.94205    
    785000   1.0306024      18.229674      102.91207    
    786000   0.96824765     17.715814      102.83595    
    787000   0.98762605     18.660411      102.62372    
    788000   0.95253143     18.323529      102.4748     
    789000   1.0077555      18.115489      102.27734    
    790000   1.043969       17.834861      102.0697     
    791000   0.98255959     18.442458      101.88986    
    792000   1.0019693      18.121608      101.78539    
    793000   0.98643678     18.021459      101.68512    
    794000   0.98348885     18.452956      101.68468    
    795000   0.96371044     18.619591      101.54551    
    796000   0.97140521     18.619237      101.37721    
    797000   1.004174       19.015948      101.27384    
    798000   0.96434705     17.981075      101.22797    
    799000   0.97508253     17.979623      100.98572    
    800000   1.0184732      17.938571      101.2468     
    801000   1.0056347      18.518613      101.32272    
    802000   1.0102213      17.870024      101.2228     
    803000   1.0049177      18.094845      101.17844    
    804000   0.98938161     18.132832      101.12642    
    805000   1.0000854      18.744189      101.17106    
    806000   0.98969656     18.382556      101.24195    
    807000   1.0213363      18.682423      100.98268    
    808000   0.98938055     18.889302      100.7967     
    809000   1.0170529      18.392814      100.76248    
    810000   1.0504191      18.359222      100.90778    
    811000   0.98265087     18.275403      100.74677    
    812000   0.98951764     17.984789      100.46425    
    813000   0.99519795     18.688036      100.32464    
    814000   1.0192399      18.32313       100.44032    
    815000   0.99810529     18.291279      100.42843    
    816000   0.99222845     17.912634      100.42391    
    817000   0.95984857     17.943162      100.61177    
    818000   1.0388203      18.208428      100.34547    
    819000   0.98691258     18.242525      100.41449    
    820000   0.97827821     18.716807      100.18473    
    821000   0.97474646     18.195168      99.882724    
    822000   1.0213385      17.772437      99.639368    
    823000   0.96211417     18.135356      99.54851     
    824000   0.98533321     18.231838      99.368979    
    825000   1.0232969      18.120378      99.224471    
    826000   0.97090109     18.029835      99.367583    
    827000   1.0148239      18.194302      99.382052    
    828000   0.9942738      18.369143      99.179495    
    829000   1.0024234      18.333147      99.04528     
    830000   0.98430019     17.805714      98.961061    
    831000   1.0000078      18.050619      98.853497    
    832000   1.0562713      18.772771      98.707837    
    833000   0.99398981     18.143558      98.767159    
    834000   0.98329875     17.921054      98.671364    
    835000   0.97072519     18.362081      98.57626     
    836000   0.98610871     18.25252       98.695228    
    837000   1.0127886      18.321767      98.665405    
    838000   1.0164206      18.266611      98.565495    
    839000   1.0088813      18.236563      98.540448    
    840000   1.006678       18.018697      98.447509    
    841000   1.00897        18.402809      98.314853    
    842000   0.99958372     18.060509      98.362827    
    843000   0.98379711     18.121004      98.169588    
    844000   0.99660425     18.246539      98.229472    
    845000   1.0235176      18.569248      98.048128    
    846000   0.98956161     17.949678      97.954727    
    847000   1.014022       18.171036      97.964287    
    848000   1.0036775      18.510725      97.604861    
    849000   0.96054603     17.94704       97.554765    
    850000   1.0284069      18.305318      97.390627    
    851000   0.95168775     18.021608      97.313112    
    852000   1.0011496      18.533888      97.219717    
    853000   1.0432355      18.442609      97.268528    
    854000   1.0108571      18.426852      97.083656    
    855000   1.0273399      18.238006      97.066923    
    856000   1.0229899      18.454373      96.991997    
    857000   1.0230839      18.166542      96.619545    
    858000   1.0217751      18.437959      96.574239    
    859000   1.0398726      18.177472      96.554252    
    860000   1.0211732      18.063613      96.493922    
    861000   0.99364167     17.932321      96.055125    
    862000   1.0325982      18.198406      95.853671    
    863000   1.0203258      18.403365      95.770352    
    864000   0.97684192     17.889062      95.756036    
    865000   1.0122206      17.959527      96.032879    
    866000   0.96942829     17.878156      96.01575     
    867000   1.0406216      18.270812      95.950566    
    868000   0.98748607     18.179291      95.818602    
    869000   1.0108896      18.269835      95.600681    
    870000   0.95212192     18.100718      95.64558     
    871000   0.99010435     18.394417      95.406401    
    872000   0.99212326     18.473221      95.449779    
    873000   1.0120179      18.128604      95.412852    
    874000   1.0334414      18.307974      95.326933    
    875000   0.98961233     18.233135      95.274641    
    876000   0.9919785      18.486128      95.116559    
    877000   0.95922258     18.673478      94.947838    
    878000   0.97119842     18.227358      94.775234    
    879000   0.99408165     17.893076      94.741429    
    880000   0.98894607     18.452562      94.833254    
    881000   1.0225608      18.326527      94.506154    
    882000   0.99796664     18.259813      94.289834    
    883000   0.976597       18.426787      94.3957      
    884000   0.99905668     17.892952      94.285293    
    885000   1.025061       18.957552      94.371085    
    886000   1.026087       18.224504      94.094523    
    887000   1.0249157      17.992714      93.930936    
    888000   1.0394186      18.4934        93.955416    
    889000   0.97581276     17.410838      93.832574    
    890000   1.0083309      17.856957      93.72513     
    891000   0.98663186     17.646743      93.656464    
    892000   1.0042331      18.581637      93.399989    
    893000   1.0260374      18.607836      93.299439    
    894000   0.98287841     17.642438      93.18937     
    895000   1.0349346      18.456802      93.382272    
    896000   1.0133411      18.453202      93.250633    
    897000   1.0247822      18.009651      93.276       
    898000   0.98064459     18.314713      93.00396     
    899000   0.99509783     17.843194      92.782945    
    900000   1.0242821      17.89845       92.639543    
    901000   0.98655        17.708628      92.465791    
    902000   1.0306628      18.044999      92.376936    
    903000   0.98635989     18.268456      92.415572    
    904000   0.98590115     18.039883      92.587841    
    905000   0.99115696     17.601885      92.694003    
    906000   1.0146612      18.314799      92.653998    
    907000   1.0003134      18.507099      92.596317    
    908000   1.0442846      18.287373      92.612699    
    909000   0.95720825     18.481856      92.388233    
    910000   1.0270918      18.465254      92.439221    
    911000   1.0479964      18.47472       92.319151    
    912000   1.0061233      18.518772      92.180529    
    913000   1.0268841      17.938317      92.110068    
    914000   0.98125767     17.970017      91.851276    
    915000   1.0227194      18.203172      91.553788    
    916000   1.0052963      18.429497      91.400868    
    917000   0.98420002     17.988449      91.349893    
    918000   0.95594529     18.013235      91.125258    
    919000   1.037995       17.8794        90.976797    
    920000   1.002889       18.572967      90.964999    
    921000   0.98143793     18.220808      90.983847    
    922000   0.99156748     17.956065      90.962331    
    923000   1.0431312      18.389828      90.845463    
    924000   1.0151552      18.098869      90.851634    
    925000   1.0130453      17.708401      90.799607    
    926000   0.99008512     17.78371       90.839896    
    927000   1.0040556      18.178788      90.705539    
    928000   1.0222961      18.079246      90.836662    
    929000   0.99957057     18.318586      90.615927    
    930000   1.0083005      18.499192      90.283432    
    931000   1.0145333      18.26379       90.037429    
    932000   1.0039361      18.267897      89.736714    
    933000   1.0133773      18.378118      89.785608    
    934000   1.0138635      17.980725      89.787228    
    935000   1.0065398      18.258956      89.770415    
    936000   1.0054408      18.474974      89.946623    
    937000   1.0096335      18.514157      90.152413    
    938000   0.96958511     17.733059      89.923198    
    939000   0.99526827     18.272771      89.678073    
    940000   1.0022586      17.516579      89.401299    
    941000   1.0090691      17.787256      89.376494    
    942000   1.0000307      17.736206      89.308349    
    943000   0.97901778     18.047157      89.335676    
    944000   1.0049347      17.482004      89.175703    
    945000   0.94819505     17.733757      89.113214    
    946000   0.99548686     17.953349      88.986276    
    947000   0.98138952     17.990573      88.825305    
    948000   0.9897765      17.936175      88.705487    
    949000   0.98565034     18.066081      88.752622    
    950000   1.0092838      17.82514       88.558876    
    951000   1.0199556      17.708753      88.209783    
    952000   0.99147037     18.327277      88.184016    
    953000   0.98143839     17.648663      88.144493    
    954000   0.97409134     18.289966      88.154701    
    955000   0.97611295     18.269098      88.054862    
    956000   0.98778965     18.328094      87.678575    
    957000   0.95669648     17.916648      87.720489    
    958000   0.98789306     18.03059       87.701815    
    959000   1.0145307      17.817591      87.550876    
    960000   1.0404209      17.843172      87.57446     
    961000   1.0037335      17.693679      87.583655    
    962000   1.0296906      17.743807      87.47298     
    963000   1.0154419      18.043325      87.219141    
    964000   1.00137        17.874237      87.140331    
    965000   0.95793932     17.444975      87.08716     
    966000   1.0013101      17.896881      86.921494    
    967000   0.99398597     18.212292      86.805315    
    968000   1.0179967      17.622036      86.763169    
    969000   1.0222103      18.065161      86.48216     
    970000   1.0323189      18.125347      86.447787    
    971000   0.98799869     17.741236      86.508723    
    972000   1.0472138      18.855975      86.507577    
    973000   1.0029986      17.876514      86.723023    
    974000   1.0014212      18.123357      86.696699    
    975000   0.99881401     18.03114       86.53678     
    976000   0.99091705     18.755951      86.495669    
    977000   0.98101462     17.506931      86.532996    
    978000   1.0461413      17.823434      86.821133    
    979000   0.99849577     18.090793      86.455913    
    980000   0.93986468     18.144296      86.204342    
    981000   1.0139525      18.185335      86.070648    
    982000   0.95459228     17.569331      85.840221    
    983000   0.98337849     17.903019      85.598615    
    984000   1.0017128      18.248101      85.435206    
    985000   1.0183338      17.971821      85.29868     
    986000   1.019216       17.932032      85.312515    
    987000   0.97612472     18.051408      85.152131    
    988000   0.95476038     18.035221      84.937532    
    989000   0.99946371     17.947371      84.825525    
    990000   1.0580598      18.18381       84.950624    
    991000   0.99675106     17.72815       84.847471    
    992000   0.9951757      17.598484      84.843234    
    993000   0.99899484     18.197297      84.888638    
    994000   0.98494651     18.102599      84.716018    
    995000   0.98266545     17.307433      84.540822    
    996000   1.0094287      17.875178      84.20019     
    997000   0.9822888      18.356856      83.911361    
    998000   1.0011125      17.835919      83.709686    
    999000   0.99048649     18.316815      83.477154    
   1000000   1.006392       18.398972      83.138383    
   1001000   0.99674736     18.201076      83.019287    
   1002000   0.98979646     18.249746      82.745193    
   1003000   0.99744635     17.356796      82.880781    
   1004000   1.0125323      18.22586       83.00152     
   1005000   1.003181       17.800734      83.025795    
   1006000   1.0026077      17.532039      82.975632    
   1007000   1.0072549      18.056134      82.975165    
   1008000   1.0292476      17.611559      82.782506    
   1009000   0.9894699      18.338278      82.75268     
   1010000   0.97315914     18.035105      82.478284    
   1011000   0.99328758     18.013692      82.426977    
   1012000   1.0167843      17.835065      82.245558    
   1013000   0.97888243     17.927341      82.247837    
   1014000   1.0123019      17.731213      81.993349    
   1015000   0.96617528     18.201635      81.794424    
   1016000   1.017616       18.028573      81.62836     
   1017000   0.98081746     18.171128      81.451681    
   1018000   0.9973934      18.117339      81.54885     
   1019000   1.0378277      18.27403       81.414216    
   1020000   0.99014349     18.174816      81.458223    
   1021000   1.0150162      18.153877      81.315137    
   1022000   0.97133066     17.709698      81.152597    
   1023000   1.0118444      18.119844      81.196802    
   1024000   0.96748596     17.805112      81.030571    
   1025000   1.0025273      17.792121      81.172802    
   1026000   1.0010586      18.07289       81.120602    
   1027000   0.97911664     17.79741       81.109457    
   1028000   1.0351408      17.985739      80.971879    
   1029000   0.9660472      17.853071      80.583178    
   1030000   1.0576567      17.788937      80.317269    
   1031000   1.0117776      17.663154      80.256445    
   1032000   0.98870486     17.581567      80.096166    
   1033000   1.0433928      18.250937      80.102034    
   1034000   1.0074788      17.875327      80.06165     
   1035000   0.99513918     18.069385      80.134936    
   1036000   1.0376384      18.245339      79.842498    
   1037000   1.0033029      17.910933      79.925602    
   1038000   1.0475695      18.061417      80.006125    
   1039000   1.0603039      18.017021      79.869731    
   1040000   1.0204183      17.606086      79.925789    
   1041000   1.0129335      17.494347      80.155572    
   1042000   0.97511752     17.901321      80.091413    
   1043000   1.0148926      18.212261      80.20863     
   1044000   0.99736795     17.826383      79.928768    
   1045000   0.99995211     17.834559      79.840191    
   1046000   0.99540354     18.382437      79.766994    
   1047000   1.0220566      17.888027      79.619402    
   1048000   1.0058555      18.132971      79.552666    
   1049000   0.99225707     17.569587      79.483759    
   1050000   1.0261598      17.549074      79.518917    
   1051000   1.0030848      17.749185      79.580588    
   1052000   0.97963659     18.176744      79.496961    
   1053000   1.0138232      17.390879      79.379509    
   1054000   0.97131094     17.916083      79.173612    
   1055000   1.0145309      17.983529      79.161571    
   1056000   0.95847567     17.7749        79.171528    
   1057000   0.98935971     17.845071      79.030011    
   1058000   1.0096422      18.040378      78.793949    
   1059000   1.0026884      18.069934      78.590647    
   1060000   0.98358555     18.116073      78.470328    
   1061000   1.0079607      17.85461       78.347285    
   1062000   0.95977856     18.235919      78.316166    
   1063000   0.94991708     17.924895      78.463961    
   1064000   0.99149618     18.004929      78.366349    
   1065000   1.0048392      17.805851      78.277334    
   1066000   0.96609964     17.685145      77.970473    
   1067000   1.0341793      17.993224      78.078312    
   1068000   0.99634549     18.057584      77.915757    
   1069000   0.98801259     17.439391      77.846182    
   1070000   0.99471762     17.919602      77.917897    
   1071000   0.98568904     17.959403      77.759213    
   1072000   0.99962659     17.133271      77.466174    
   1073000   1.0005763      17.619398      77.472354    
   1074000   0.98954707     18.572748      77.350188    
   1075000   0.97064228     17.61354       77.319666    
   1076000   0.94502713     17.806779      77.390612    
   1077000   0.99554597     18.206621      77.382028    
   1078000   1.0036943      17.781873      77.240776    
   1079000   1.0278694      18.375173      77.147406    
   1080000   0.98352028     17.540671      76.988201    
   1081000   0.97874946     18.070656      76.623467    
   1082000   1.0164393      17.82606       76.56893     
   1083000   0.96732488     17.455769      76.667617    
   1084000   1.0157642      18.71088       76.537037    
   1085000   1.0348988      18.045329      76.305801    
   1086000   0.9490932      17.702         76.201894    
   1087000   0.97309995     17.629989      76.271624    
   1088000   0.98810872     17.687617      76.46346     
   1089000   0.99931498     17.773373      76.387405    
   1090000   1.0095824      17.601888      76.454548    
   1091000   1.0072046      17.708879      76.24521     
   1092000   0.99776806     18.122889      76.221621    
   1093000   1.004532       17.668156      76.105823    
   1094000   0.98188999     17.646294      75.917253    
   1095000   0.99518962     18.076443      75.932877    
   1096000   0.98753733     18.472299      75.800325    
   1097000   0.99881509     18.071525      75.647849    
   1098000   0.96196688     18.060436      75.56304     
   1099000   0.96903236     17.92057       75.502735    
   1100000   1.0091332      17.346123      75.51222     
   1101000   0.97110855     18.516938      75.616963    
   1102000   0.99169793     17.901941      75.39269     
   1103000   0.99189636     18.15355       75.304419    
   1104000   0.9742312      17.65819       75.142428    
   1105000   1.0110505      17.848932      75.068788    
   1106000   1.0173157      18.231372      75.236553    
   1107000   0.95676339     18.098357      75.166542    
   1108000   0.95139302     18.020075      75.073787    
   1109000   1.0107004      18.121972      74.869005    
   1110000   1.0206162      17.910032      74.817025    
   1111000   0.99993849     17.977141      74.639368    
   1112000   1.0113151      17.62346       74.385718    
   1113000   1.0063115      17.97706       74.159093    
   1114000   0.99636704     18.161902      74.083884    
   1115000   1.0110696      17.916771      73.980839    
   1116000   0.99385534     17.781329      73.935685    
   1117000   0.97851116     17.930108      73.773722    
   1118000   0.97836213     18.04861       73.649231    
   1119000   0.98328175     17.627773      73.545745    
   1120000   1.0013279      17.924213      73.298533    
   1121000   0.99874122     17.573349      73.273262    
   1122000   0.9975137      17.417632      73.262416    
   1123000   1.0279929      17.985663      73.507667    
   1124000   1.0342643      18.255281      73.352535    
   1125000   0.99214446     18.274657      73.151222    
   1126000   1.0406177      18.121105      72.916616    
   1127000   1.0400865      18.481467      72.787353    
   1128000   0.97866864     18.075422      72.649469    
   1129000   0.98952222     18.313988      72.589624    
   1130000   1.0465896      17.694922      72.513733    
   1131000   0.9728842      18.009187      72.344522    
   1132000   1.0085742      18.117433      72.650574    
   1133000   1.0104854      18.136516      72.505915    
   1134000   1.0063265      18.133302      72.633451    
   1135000   1.0216438      18.722741      72.508714    
   1136000   0.97604472     17.741207      72.368189    
   1137000   1.0219799      17.746202      72.157488    
   1138000   0.99419041     17.956065      72.095477    
   1139000   0.99736319     17.770782      71.978432    
   1140000   1.0291778      17.991902      71.676729    
   1141000   1.0056042      17.759181      71.556524    
   1142000   0.96877365     17.515121      71.518667    
   1143000   0.97033338     18.179908      71.249227    
   1144000   1.0165846      17.864151      71.039495    
   1145000   0.99055853     17.968782      70.814627    
   1146000   1.0243907      18.458123      70.920921    
   1147000   1.0134528      18.559945      70.889857    
   1148000   0.98767985     17.806079      70.755631    
   1149000   1.0041223      18.27696       70.749638    
   1150000   0.99343218     18.156734      70.682354    
   1151000   0.99251089     17.708557      70.545381    
   1152000   0.97969003     17.44516       70.398327    
   1153000   1.0028413      17.870368      70.14818     
   1154000   1.0389253      17.564966      69.813493    
   1155000   0.98210985     18.356159      69.640751    
   1156000   1.0188884      18.088398      69.393855    
   1157000   0.99963329     17.550959      69.333382    
   1158000   0.9866568      17.801927      69.287765    
   1159000   1.0188264      18.020863      69.098843    
   1160000   0.99437438     17.922177      69.038713    
   1161000   0.99506595     17.581416      68.817236    
   1162000   0.97058335     17.439554      68.750505    
   1163000   1.0045033      17.84284       68.576272    
   1164000   1.002533       17.614248      68.446948    
   1165000   0.96924417     18.328701      68.343465    
   1166000   1.0189629      17.61354       68.318732    
   1167000   1.0225401      17.229307      68.302273    
   1168000   0.98316606     18.263463      68.606629    
   1169000   0.96743541     18.047884      68.40481     
   1170000   0.98601885     18.127545      68.321604    
   1171000   0.97976303     17.907336      68.220309    
   1172000   0.97029727     17.933661      68.080156    
   1173000   0.99327421     17.463003      67.899183    
   1174000   1.0109156      17.809976      67.827939    
   1175000   1.0036706      17.583851      67.622002    
   1176000   0.95596456     17.393233      67.629512    
   1177000   1.0308707      17.963674      67.457592    
   1178000   1.0146605      18.327784      67.320233    
   1179000   0.98746284     17.307488      67.208058    
   1180000   1.0102196      17.986049      67.029916    
   1181000   1.0208916      17.803287      67.026874    
   1182000   1.0084028      17.533724      66.867396    
   1183000   1.0185957      17.985479      66.76082     
   1184000   1.0147301      18.116683      66.703359    
   1185000   1.0050408      17.686845      66.910929    
   1186000   1.0353791      17.859456      67.058164    
   1187000   0.9496307      17.065462      66.862866    
   1188000   0.98302377     18.110718      66.839048    
   1189000   0.9830859      17.810653      66.818476    
   1190000   0.99005549     17.652852      66.618348    
   1191000   0.99391324     17.995958      66.46856     
   1192000   0.98131901     17.466509      66.420051    
   1193000   0.99954398     17.548076      66.536167    
   1194000   1.0068452      17.887325      66.522445    
   1195000   0.96356677     18.004973      66.401927    
   1196000   0.97157773     17.666733      66.226989    
   1197000   0.98144705     17.99834       66.129832    
   1198000   1.0033285      17.329737      66.0591      
   1199000   1.0048961      18.046683      65.875796    
   1200000   1.0175288      17.363808      65.76235     
   1201000   1.0084239      17.431767      65.703857    
   1202000   0.98337338     17.923607      65.54242     
   1203000   0.97120967     17.807194      65.514423    
   1204000   1.0324775      18.185212      65.401097    
   1205000   1.0064528      18.065635      65.367018    
   1206000   1.0012096      17.9166        65.41929     
   1207000   1.0063267      17.902236      65.425399    
   1208000   1.0132969      17.615744      65.296352    
   1209000   1.0143848      17.66342       65.296402    
   1210000   1.0183686      18.043264      65.298534    
   1211000   0.99633956     17.57255       65.152677    
   1212000   0.93606924     17.599674      64.958628    
   1213000   1.0120601      17.492381      64.675582    
   1214000   1.0408306      17.958093      64.440764    
   1215000   1.0186585      17.88349       64.188098    
   1216000   0.99539642     17.820528      64.10992     
   1217000   1.0052939      17.878826      63.997557    
   1218000   0.98623633     18.030579      63.880758    
   1219000   1.0450753      17.724329      63.853362    
   1220000   1.0097126      18.4467        63.736185    
   1221000   1.0231312      17.887134      63.817666    
   1222000   1.0288135      17.819984      63.739344    
   1223000   1.0231546      17.581643      63.684024    
   1224000   1.0337055      17.836562      63.657164    
   1225000   0.98093921     17.738286      63.288794    
   1226000   1.0255916      18.027981      63.177227    
   1227000   0.99718862     17.43013       63.114399    
   1228000   1.0009419      17.676528      63.058756    
   1229000   1.0148658      17.758652      62.932012    
   1230000   1.0223543      17.981869      62.984983    
   1231000   1.0015085      18.263846      62.808385    
   1232000   1.0296545      17.998916      62.582631    
   1233000   1.0196098      18.023241      62.456284    
   1234000   1.0140897      17.747614      62.349828    
   1235000   1.0127254      17.838336      62.225059    
   1236000   1.0043305      17.38163       61.958389    
   1237000   1.0082883      17.629578      62.020187    
   1238000   1.0371789      18.006205      62.070775    
   1239000   0.98775548     17.491561      61.953513    
   1240000   1.0212147      18.023307      61.903263    
   1241000   1.0188654      18.140665      61.901839    
   1242000   0.96936121     17.914477      61.843434    
   1243000   1.02722        18.027409      61.798733    
   1244000   1.0156321      18.093863      61.602368    
   1245000   1.0350897      18.064944      61.589921    
   1246000   1.0019131      17.912166      61.542523    
   1247000   0.96994176     17.883202      61.515659    
   1248000   0.98029273     18.046102      61.279872    
   1249000   0.99594386     17.846674      61.348149    
   1250000   0.9833723      17.79538       61.272364    
   1251000   0.99556737     17.994722      61.44674     
   1252000   1.005533       18.424956      61.434212    
   1253000   1.026513       17.751017      61.272141    
   1254000   0.9927177      17.727464      61.401088    
   1255000   1.0140781      17.253734      61.395703    
   1256000   0.99206306     17.571073      61.46294     
   1257000   1.016623       18.166531      61.324649    
   1258000   1.0035441      18.031212      61.304162    
   1259000   0.96106686     17.811687      61.172092    
   1260000   0.97252949     17.716111      60.984004    
   1261000   0.98766143     17.480817      60.984924    
   1262000   0.99033553     17.477193      60.975222    
   1263000   0.98516431     17.568589      60.846364    
   1264000   0.99411714     17.581134      60.884536    
   1265000   1.0120088      17.842898      60.829922    
   1266000   1.0177399      17.826514      60.592132    
   1267000   0.99206288     17.340124      60.480171    
   1268000   1.0376984      18.233259      60.424338    
   1269000   0.99868904     17.888581      60.360449    
   1270000   1.0449132      18.689247      60.168818    
   1271000   1.0054483      17.872534      60.289235    
   1272000   0.96074589     17.848036      60.271986    
   1273000   0.99956649     17.727763      60.175282    
   1274000   1.0296251      17.843806      60.032399    
   1275000   0.97371647     17.750157      59.952127    
   1276000   0.99946329     17.640559      59.894063    
   1277000   0.97020651     18.232045      59.739092    
   1278000   1.0134576      17.991816      59.474113    
   1279000   0.99984777     17.362269      59.144829    
   1280000   0.95555171     17.474058      58.983293    
   1281000   1.0392346      18.173085      58.990344    
   1282000   0.9799016      17.365474      58.923267    
   1283000   1.0081662      17.805438      58.780074    
   1284000   1.0157257      18.118985      58.622153    
   1285000   0.97011197     18.100239      58.691203    
   1286000   1.0309343      17.790981      58.551789    
   1287000   1.0224499      18.015277      58.629011    
   1288000   1.037121       17.389792      58.442955    
   1289000   1.0273896      17.729566      58.301924    
   1290000   0.98918441     17.631029      58.213969    
   1291000   0.99275453     17.437733      58.116491    
   1292000   1.0548913      18.091544      57.741634    
   1293000   1.0321451      17.808382      57.632835    
   1294000   1.0137166      18.004127      57.67304     
   1295000   1.0308941      17.86715       57.682169    
   1296000   0.96122352     17.954844      57.521452    
   1297000   1.009063       18.072305      57.38758     
   1298000   0.99527495     17.817008      57.248581    
   1299000   0.97418573     17.307683      57.035677    
   1300000   1.0143404      17.552543      56.8557      
   1301000   1.0370454      18.103809      56.750822    
   1302000   1.0020442      18.334603      56.849539    
   1303000   0.98239129     17.373932      56.732833    
   1304000   1.0163141      17.931455      56.810763    
   1305000   0.95941723     17.720235      56.788489    
   1306000   1.0147854      17.644829      56.743317    
   1307000   0.97763817     18.02225       56.618555    
   1308000   1.0175399      17.490114      56.528043    
   1309000   1.0533532      17.806031      56.358905    
   1310000   1.0139148      17.381863      56.269581    
   1311000   1.0001839      17.363357      56.207935    
   1312000   1.0162451      17.641546      56.005628    
   1313000   0.97168206     17.637026      56.006024    
   1314000   0.9876082      17.653427      55.854619    
   1315000   1.0055828      17.567316      55.752247    
   1316000   0.98379231     17.676233      55.81284     
   1317000   0.99259514     17.612829      55.65987     
   1318000   0.99320868     18.230855      55.549505    
   1319000   1.0273051      17.968133      55.595551    
   1320000   0.99407073     17.691776      55.480599    
   1321000   0.98005943     17.874741      55.340179    
   1322000   0.98940364     18.372387      55.124874    
   1323000   1.0206415      18.013952      55.044479    
   1324000   1.0227601      18.046502      54.958467    
   1325000   0.99386741     17.810535      54.899456    
   1326000   1.0001723      17.48423       54.795178    
   1327000   0.98323047     17.94908       54.659027    
   1328000   1.0261063      18.010066      54.651344    
   1329000   1.0292864      17.961777      54.611857    
   1330000   0.99642063     17.870272      54.227675    
   1331000   0.98743868     17.335154      53.953858    
   1332000   1.0077342      18.067601      53.900115    
   1333000   1.0311941      17.88497       53.657386    
   1334000   0.99361359     17.699524      53.55026     
   1335000   0.98317684     17.307251      53.294349    
   1336000   1.0360055      17.850191      53.161807    
   1337000   1.001999       17.56606       53.083265    
   1338000   0.98872732     17.691374      53.028348    
   1339000   1.0046044      18.017993      52.946017    
   1340000   1.0133789      17.429639      52.721267    
   1341000   1.0215217      18.062637      52.497501    
   1342000   0.98611447     17.344984      52.440442    
   1343000   1.0021842      17.980741      52.39035     
   1344000   1.0128125      17.707314      52.413608    
   1345000   0.95820053     17.308763      52.228699    
   1346000   0.98027118     18.102623      52.287264    
   1347000   0.97236025     17.614536      52.212938    
   1348000   1.0050931      17.591184      52.1508      
   1349000   1.0056576      17.761459      52.192554    
   1350000   1.0067248      17.082521      52.037421    
   1351000   1.006795       18.174441      51.958043    
   1352000   1.0295578      17.982354      51.8198      
   1353000   1.0204049      18.070021      51.733296    
   1354000   1.0378366      17.634486      51.590147    
   1355000   1.0160744      18.058452      51.560376    
   1356000   0.98788599     17.223457      51.569557    
   1357000   0.98111414     17.342955      51.461707    
   1358000   1.0260425      17.016947      51.315798    
   1359000   0.99479107     17.909057      51.305027    
   1360000   0.98536145     17.922356      51.106857    
   1361000   0.99034513     17.574124      51.167724    
   1362000   0.96358666     16.995626      51.147256    
   1363000   0.99502666     17.58228       50.984455    
   1364000   0.97470935     17.772573      50.867336    
   1365000   1.0113364      17.99185       50.736724    
   1366000   0.97307083     17.70193       50.680731    
   1367000   0.99355424     17.336936      50.648782    
   1368000   1.0015126      17.887487      50.547108    
   1369000   1.0259675      17.966402      50.271772    
   1370000   0.993831       17.564097      50.391679    
   1371000   0.98104057     17.835754      50.304031    
   1372000   1.0082286      17.631748      50.528948    
   1373000   1.0002115      17.700271      50.497992    
   1374000   0.98007398     18.029073      50.461298    
   1375000   1.0196928      17.69961       50.322285    
   1376000   0.98808427     17.638721      50.089154    
   1377000   0.95694717     17.425015      49.894649    
   1378000   1.0023891      17.62947       49.922378    
   1379000   1.0051286      17.582512      49.900278    
   1380000   1.0188937      17.633543      49.738535    
   1381000   1.0269986      17.885026      49.771822    
   1382000   1.0338657      17.735122      49.842335    
   1383000   0.99111629     17.691214      49.647866    
   1384000   1.0222308      18.092198      49.789976    
   1385000   1.0343437      17.456746      49.966081    
   1386000   1.0188108      17.645815      49.765052    
   1387000   0.98744836     17.701783      49.675615    
   1388000   0.98291082     17.607811      49.691478    
   1389000   1.0124828      17.805145      49.874224    
   1390000   1.0170707      17.304493      49.928311    
   1391000   0.9980805      17.165646      49.680792    
   1392000   1.0471471      17.942578      49.750184    
   1393000   0.97760827     17.433485      49.734299    
   1394000   0.99610437     18.428975      49.661503    
   1395000   1.0389588      17.346714      49.625784    
   1396000   0.97228516     17.6524        49.496173    
   1397000   0.99236944     17.62854       49.377526    
   1398000   0.99018389     16.969942      49.283431    
   1399000   1.010145       17.530521      49.085832    
   1400000   1.0125233      17.307878      49.014505    
   1401000   0.98161901     17.344704      48.809072    
   1402000   1.0269267      17.726565      48.657772    
   1403000   1.0318654      17.613263      48.817086    
   1404000   0.97969677     17.760985      48.690383    
   1405000   1.0079956      17.452029      48.748667    
   1406000   1.0038453      17.961456      48.755715    
   1407000   0.95687727     17.391855      48.55653     
   1408000   0.93795414     17.784478      48.632618    
   1409000   0.99733835     17.609581      48.527287    
   1410000   0.99178019     18.031605      48.540244    
   1411000   1.0077933      18.012238      48.379975    
   1412000   0.99180138     17.549301      48.244453    
   1413000   0.96577912     17.036908      48.316414    
   1414000   1.0032358      18.18947       48.186203    
   1415000   1.0056343      18.063746      47.870563    
   1416000   1.0150217      17.597243      47.817904    
   1417000   1.0152058      17.941459      47.69597     
   1418000   1.0071834      17.317742      47.519072    
   1419000   0.99787992     17.307378      47.501216    
   1420000   0.99977502     18.067698      47.407435    
   1421000   1.0359606      17.587053      47.344318    
   1422000   1.0291409      17.645815      47.234349    
   1423000   0.98893484     17.230981      47.16072     
   1424000   0.97092374     17.343644      47.123207    
   1425000   0.97765759     17.277691      47.324465    
   1426000   0.99472874     17.369382      47.2205      
   1427000   0.98107481     17.663939      47.163719    
   1428000   1.0495149      17.260396      46.683454    
   1429000   0.9949245      17.616735      46.591412    
   1430000   0.99532724     17.506573      46.439973    
   1431000   1.0377581      17.834681      46.315648    
   1432000   1.0038019      17.495973      46.238698    
   1433000   0.97882853     17.771039      46.036391    
   1434000   1.0130711      18.27941       46.115018    
   1435000   0.96609288     17.221338      46.342074    
   1436000   0.95665373     17.622463      46.316756    
   1437000   1.0164765      17.873755      46.367234    
   1438000   0.99418825     17.096969      46.027686    
   1439000   1.0007689      17.66093       45.804155    
   1440000   0.97390864     17.524385      45.797808    
   1441000   1.0138332      17.866337      45.708953    
   1442000   1.0098331      17.711965      45.419151    
   1443000   1.0500426      17.060995      45.215627    
   1444000   0.97388119     17.230865      45.006075    
   1445000   1.0007685      17.728701      44.952715    
   1446000   1.02792        17.660579      44.846737    
   1447000   1.0086497      17.72386       44.86756     
   1448000   0.99330578     17.31439       44.902472    
   1449000   1.0437503      17.347064      44.902828    
   1450000   0.98311494     17.108492      44.855622    
   1451000   0.98631766     17.308563      44.69464     
   1452000   1.0259605      17.454875      44.550114    
   1453000   1.008704       17.658804      44.576019    
   1454000   1.0344683      17.532335      44.47209     
   1455000   1.0036097      17.202966      44.500433    
   1456000   0.97835071     17.548729      44.638291    
   1457000   1.0080811      18.059107      44.603319    
   1458000   0.9871586      17.219063      44.305315    
   1459000   0.97988101     17.573397      44.348413    
   1460000   0.95193763     16.816922      44.284755    
   1461000   1.0269083      17.402353      44.325856    
   1462000   0.97878027     17.597611      44.293539    
   1463000   0.96219412     17.523421      44.137998    
   1464000   0.97432862     17.088878      44.124885    
   1465000   1.0312206      17.252724      44.108281    
   1466000   1.0159858      17.413332      43.883383    
   1467000   0.95346647     17.621588      43.598975    
   1468000   1.0270188      17.508154      43.497876    
   1469000   1.0303084      17.755696      43.319444    
   1470000   1.016          17.406992      43.180333    
   1471000   0.9654604      17.505598      43.168443    
   1472000   0.98223285     17.507209      42.908502    
   1473000   1.0223393      17.200922      42.860771    
   1474000   1.0004391      17.882793      42.787785    
   1475000   1.0059053      17.695325      42.618273    
   1476000   0.99000585     17.128765      42.768424    
   1477000   1.0204515      17.672848      42.631597    
   1478000   0.99780542     17.890337      42.704922    
   1479000   1.0187517      17.658916      42.690854    
   1480000   1.0174014      17.793676      42.685929    
   1481000   1.0121439      17.733834      42.380706    
   1482000   1.0057478      17.445751      42.332905    
   1483000   1.038497       17.64086       42.210368    
   1484000   0.98919672     17.13727       42.303511    
   1485000   0.97137861     18.233086      42.196207    
   1486000   1.0333181      17.584459      42.295401    
   1487000   0.94498637     17.327321      42.227351    
   1488000   1.0414744      17.94679       42.016919    
   1489000   0.96300614     17.884094      41.925448    
   1490000   0.98979241     17.143526      41.548404    
   1491000   0.9975955      17.744175      41.615688    
   1492000   1.0123112      17.798831      41.425343    
   1493000   1.0089627      17.44679       41.349729    
   1494000   1.0117355      17.635206      41.437027    
   1495000   1.0094134      17.392542      41.428641    
   1496000   1.0000342      17.704869      41.486238    
   1497000   1.0021301      17.180099      41.426363    
   1498000   1.0009154      17.109761      41.44638     
   1499000   1.0023006      17.817798      41.629832    
   1500000   0.99552676     17.897193      41.393854    
   1501000   0.98173678     17.704097      40.963577    
   1502000   1.0054935      18.039059      40.932141    
   1503000   1.003447       17.530913      40.671573    
   1504000   1.0012992      17.419235      40.496234    
   1505000   1.0561618      18.098825      40.332802    
   1506000   1.0196959      17.609167      40.23143     
   1507000   0.9991469      17.593874      40.081127    
   1508000   0.97402118     17.320644      40.014573    
   1509000   0.99274824     17.698986      39.891927    
   1510000   0.952396       17.82911       40.053551    
   1511000   0.9975123      17.275166      39.934901    
   1512000   1.0043839      17.57463       39.84152     
   1513000   0.99699227     16.932736      39.845249    
   1514000   1.0287201      17.849654      39.806634    
   1515000   1.0015563      17.458196      39.738136    
   1516000   1.0021698      18.115226      39.706986    
   1517000   1.0130705      17.434919      39.818322    
   1518000   0.96192763     17.498012      39.863811    
   1519000   1.0023447      17.632152      39.544714    
   1520000   1.0150922      17.796858      39.554833    
   1521000   1.0299573      17.913569      39.478693    
   1522000   0.94065843     17.781295      39.4602      
   1523000   1.0199751      17.532048      39.428563    
   1524000   1.0227792      17.812344      39.23057     
   1525000   1.037525       17.629398      39.09085     
   1526000   1.0089071      17.251231      38.930471    
   1527000   1.0332171      17.401363      38.786052    
   1528000   1.0229639      17.617863      38.702258    
   1529000   0.93471061     16.867749      38.77924     
   1530000   1.0020969      17.568492      38.840308    
   1531000   1.0218295      18.079576      38.477052    
   1532000   0.97798726     17.727771      38.237326    
   1533000   1.013331       17.604834      38.063197    
   1534000   1.0140226      17.665551      37.87071     
   1535000   1.0005938      17.504131      37.908744    
   1536000   1.0236409      17.287877      37.771995    
   1537000   1.0150286      17.154301      37.611992    
   1538000   0.98254619     17.385868      37.411654    
   1539000   1.001221       17.297927      37.32176     
   1540000   0.98476377     17.364291      37.295913    
   1541000   1.026864       17.648661      37.135139    
   1542000   0.94616847     16.90216       37.27043     
   1543000   1.0102373      17.605431      37.190339    
   1544000   0.98628954     17.20515       37.168339    
   1545000   0.97021397     17.153399      36.961128    
   1546000   1.0041505      17.231146      36.929091    
   1547000   0.94710174     17.508693      36.740074    
   1548000   0.99051266     17.584974      36.607161    
   1549000   1.0363865      17.66439       36.450452    
   1550000   0.99265553     17.186068      36.456866    
   1551000   1.014738       17.351708      36.292339    
   1552000   0.96090231     17.50691       36.198987    
   1553000   1.0338927      17.825289      36.080744    
   1554000   0.98981057     17.49548       36.037996    
   1555000   0.99096069     17.449017      36.018119    
   1556000   1.041982       17.775568      36.120331    
   1557000   0.99022191     17.700353      35.929807    
   1558000   0.98954351     17.622029      35.789773    
   1559000   0.96679688     17.478276      35.721386    
   1560000   0.99574096     17.132622      35.791459    
   1561000   1.0219462      17.844467      35.812568    
   1562000   1.0199806      18.015729      35.67084     
   1563000   1.0096836      17.557501      35.638976    
   1564000   0.95902653     17.496562      35.674255    
   1565000   0.99609098     17.028098      35.686856    
   1566000   0.96659035     16.971295      35.513315    
   1567000   1.0098256      17.49238       35.335048    
   1568000   1.0040172      17.902598      35.331811    
   1569000   0.99122463     17.357281      35.252659    
   1570000   0.96803974     17.241906      35.218605    
   1571000   0.98206268     17.630579      35.0571      
   1572000   0.99245743     17.302586      35.045603    
   1573000   0.96813986     17.206421      34.937625    
   1574000   0.99430571     17.632099      34.716567    
   1575000   1.0500398      18.239331      34.681759    
   1576000   1.0023629      17.183121      34.609552    
   1577000   0.97276722     17.389246      34.586628    
   1578000   1.0064687      17.580903      34.472077    
   1579000   1.001928       17.581694      34.548633    
   1580000   1.0274777      17.910912      34.285653    
   1581000   1.0055917      18.123968      34.170109    
   1582000   1.0223323      17.473101      34.2152      
   1583000   0.99754237     17.576017      33.947493    
   1584000   0.9722971      17.244726      34.120584    
   1585000   1.0287628      17.759899      33.908174    
   1586000   1.0029052      17.973979      33.708059    
   1587000   0.97272464     17.638798      33.713131    
   1588000   1.0350477      17.470992      33.742253    
   1589000   0.99181184     18.043403      33.764817    
   1590000   0.96870331     17.60879       33.659836    
   1591000   0.98568041     17.54908       33.410113    
   1592000   0.97830257     17.652563      33.348693    
   1593000   0.97961353     17.851469      33.193076    
   1594000   1.0368204      17.320859      33.289171    
   1595000   0.98062421     17.673042      33.419153    
   1596000   1.0105076      17.384503      33.217506    
   1597000   1.0113362      17.651642      33.027483    
   1598000   1.0121921      17.369831      32.692978    
   1599000   1.0174197      17.663695      32.537452    
   1600000   0.97689933     17.406808      32.310785    
   1601000   1.0108452      17.740655      32.379937    
   1602000   1.0054506      17.802172      32.369735    
   1603000   1.0466415      17.574775      32.649446    
   1604000   1.0076047      17.461402      32.722829    
   1605000   0.98511113     17.404819      32.661103    
   1606000   0.98207464     17.724882      32.585068    
   1607000   1.0425251      17.157113      32.646461    
   1608000   0.97993913     17.291089      32.433745    
   1609000   1.0121787      17.364163      32.343447    
   1610000   1.0000204      17.173977      32.334961    
   1611000   0.98834774     17.371132      32.387129    
   1612000   0.97774182     17.247434      32.400915    
   1613000   0.98607814     16.953948      32.099051    
   1614000   1.044298       18.15448       32.0214      
   1615000   0.97396159     17.038395      32.16406     
   1616000   1.0013792      17.512098      32.171699    
   1617000   0.95820471     17.805875      32.109507    
   1618000   1.0064447      17.620271      32.077807    
   1619000   1.0049988      17.603101      32.150939    
   1620000   1.0255335      17.257055      32.001544    
   1621000   0.92630694     17.40347       31.863665    
   1622000   0.99119361     17.422351      31.710588    
   1623000   1.002266       17.410324      31.532538    
   1624000   0.98458533     17.401399      31.45433     
   1625000   1.0132511      17.516672      31.554997    
   1626000   0.9986772      17.162815      31.422934    
   1627000   0.99113646     17.7502        31.267998    
   1628000   0.98927329     17.820461      31.275476    
   1629000   1.0083985      16.851728      31.010664    
   1630000   0.98843057     17.257141      30.929221    
   1631000   1.0071374      17.260709      30.831494    
   1632000   1.0631953      17.015216      30.696493    
   1633000   0.99678857     17.410347      30.600083    
   1634000   0.98031891     17.523101      30.242989    
   1635000   0.97594369     16.7033        30.192264    
   1636000   1.0050302      17.581597      29.93344     
   1637000   1.0227455      17.630149      29.772859    
   1638000   1.0181879      17.439441      29.823113    
   1639000   1.0326627      17.58369       29.77362     
   1640000   1.0150336      17.668699      29.856732    
   1641000   0.99025265     17.297403      29.819898    
   1642000   1.034438       17.500594      29.577301    
   1643000   0.98347251     17.196465      29.325947    
   1644000   1.029947       17.40655       29.069275    
   1645000   0.99844587     17.214776      29.153555    
   1646000   0.99355969     17.344224      29.076271    
   1647000   1.0016985      17.559513      29.066625    
   1648000   0.97728713     16.954021      29.080393    
   1649000   0.99708128     17.100756      28.940295    
   1650000   1.0048701      17.214944      28.761428    
   1651000   0.97785446     17.284549      28.665151    
   1652000   1.0135757      17.209844      28.635016    
   1653000   1.0423798      17.727489      28.591228    
   1654000   0.97017559     17.205639      28.554106    
   1655000   0.98066732     17.188979      28.542019    
   1656000   0.98058103     16.962218      28.544172    
   1657000   1.0390472      17.791162      28.368228    
   1658000   1.0501201      17.89742       28.517658    
   1659000   1.0001011      18.228723      28.290698    
   1660000   0.96897263     16.696508      28.292693    
   1661000   1.0073565      17.62165       28.292743    
   1662000   1.0111996      17.820747      28.149136    
   1663000   0.97865441     17.645699      28.02656     
   1664000   1.0466847      17.48319       27.881295    
   1665000   0.9856402      17.224268      27.974493    
   1666000   0.9918487      17.124031      27.896733    
   1667000   0.99656079     17.008428      27.540241    
   1668000   1.0251914      17.656676      27.461126    
   1669000   1.0108645      17.330667      27.330032    
   1670000   1.0182749      17.592024      27.440958    
   1671000   0.98612346     17.135071      27.519274    
   1672000   1.0401552      17.260596      27.420642    
   1673000   0.9772772      17.264379      27.285852    
   1674000   1.0086886      17.741759      27.168463    
   1675000   1.0026569      17.603355      27.256864    
   1676000   0.95899101     16.834976      27.342923    
   1677000   0.99203633     17.143998      27.3689      
   1678000   0.98690994     17.105024      27.341352    
   1679000   0.95465204     17.915401      27.319627    
   1680000   1.0686838      17.276066      27.278169    
   1681000   0.99836773     16.668416      27.216975    
   1682000   0.97773947     17.330491      27.032707    
   1683000   0.9908384      17.550857      26.859023    
   1684000   0.98628802     17.141596      26.604064    
   1685000   1.0396882      17.763388      26.606724    
   1686000   0.9702384      17.70303       26.69408     
   1687000   0.99487775     16.737769      26.57636     
   1688000   1.0054574      17.253241      26.579093    
   1689000   1.0033296      17.190743      26.584087    
   1690000   0.986711       17.610322      26.412778    
   1691000   1.0272982      17.466737      26.462263    
   1692000   1.0366487      17.179074      26.547051    
   1693000   1.0149095      16.996527      26.574775    
   1694000   1.028722       17.309713      26.804163    
   1695000   0.95664382     17.812645      26.765279    
   1696000   1.0135621      18.016113      26.707417    
   1697000   0.95465577     17.535136      26.595071    
   1698000   1.030568       17.677081      26.471475    
   1699000   0.9981465      17.384887      26.627747    
   1700000   0.96705673     17.389438      26.740791    
   1701000   0.95351961     17.115172      26.778547    
   1702000   0.98117615     17.382281      26.648329    
   1703000   1.0182067      17.503444      26.351544    
   1704000   1.0139755      17.243592      26.185433    
   1705000   0.98761428     17.678563      26.179372    
   1706000   0.99531467     17.750826      26.199251    
   1707000   1.0034321      16.933384      26.214434    
   1708000   0.96358967     17.08106       26.180004    
   1709000   0.97646685     17.030958      25.91782     
   1710000   1.0238193      17.824496      25.757625    
   1711000   1.0555393      17.20783       25.62392     
   1712000   0.9901665      16.950244      25.65816     
   1713000   1.0184118      17.42816       25.661266    
   1714000   0.99349472     17.419815      25.505539    
   1715000   0.95562237     17.074126      25.189427    
   1716000   0.99679963     17.472901      24.975182    
   1717000   1.0638855      17.530777      24.843449    
   1718000   0.99242478     17.029435      24.545254    
   1719000   1.0002043      17.49163       24.446632    
   1720000   0.99458409     17.177691      24.306082    
   1721000   1.010582       16.936521      24.071169    
   1722000   0.96583429     17.228902      24.043366    
   1723000   0.9926192      16.837307      24.100741    
   1724000   0.97321237     16.956547      23.878723    
   1725000   0.98202483     17.000646      23.999066    
   1726000   0.99564787     17.590757      23.915696    
   1727000   1.004125       17.304537      23.761642    
   1728000   0.96469709     17.399597      23.574954    
   1729000   1.0020542      16.802819      23.737961    
   1730000   1.01276        17.225327      23.78718     
   1731000   1.015768       17.191806      23.834435    
   1732000   0.99743178     17.053985      23.71856     
   1733000   1.0129362      17.750033      23.538513    
   1734000   1.0030531      17.480972      23.348626    
   1735000   0.99197241     18.021341      23.411836    
   1736000   0.95783384     17.371052      23.404281    
   1737000   0.97698729     17.576349      23.319622    
   1738000   0.99561387     17.534334      23.379803    
   1739000   1.0035311      17.263251      23.302311    
   1740000   1.0138733      17.561246      23.37845     
   1741000   1.0176373      17.721291      23.316047    
   1742000   1.0240273      17.511058      23.042692    
   1743000   0.99696347     17.0841        23.016401    
   1744000   0.98940635     17.74865       23.000402    
   1745000   0.99593861     17.231133      22.866262    
   1746000   1.012178       17.240489      22.651275    
   1747000   1.0475323      17.244793      22.544519    
   1748000   0.99832159     17.88594       22.435997    
   1749000   1.0128544      17.396911      22.349684    
   1750000   0.97754831     16.837475      22.339801    
   1751000   0.99924733     17.175638      22.168209    
   1752000   0.99460689     17.237709      22.006214    
   1753000   0.97810338     17.098975      22.054438    
   1754000   1.0436646      17.086554      22.029253    
   1755000   1.0040648      17.246371      21.891057    
   1756000   1.0176176      17.575677      21.839232    
   1757000   0.99470878     17.388568      21.729435    
   1758000   1.0029947      17.884487      21.684591    
   1759000   1.0463576      17.395204      21.460256    
   1760000   1.0496003      17.318503      21.309421    
   1761000   0.99530908     16.99163       21.262579    
   1762000   1.01702        17.448518      21.117628    
   1763000   0.99171593     17.139428      20.945217    
   1764000   1.0193551      17.269396      20.704993    
   1765000   1.0027252      17.754013      20.622931    
   1766000   0.97839999     17.270277      20.519665    
   1767000   1.0184766      17.262643      20.63978     
   1768000   1.0400157      17.692717      20.551928    
   1769000   1.0120968      17.137982      20.590383    
   1770000   1.011848       17.414223      20.55009     
   1771000   0.98861609     17.448109      20.642849    
   1772000   0.97757076     17.411656      20.491917    
   1773000   1.0134556      16.758909      20.389357    
   1774000   0.97018408     17.543401      20.044126    
   1775000   1.0051125      17.363496      19.892514    
   1776000   0.99967727     17.061259      19.854631    
   1777000   0.98337838     17.063858      19.661927    
   1778000   1.0211909      17.423515      19.934581    
   1779000   1.0061146      17.708027      19.945427    
   1780000   0.99923349     17.164108      20.096712    
   1781000   1.0107966      18.002111      20.087247    
   1782000   1.005605       17.308441      19.872958    
   1783000   0.99080017     17.199665      19.907495    
   1784000   1.0307017      16.941399      19.89246     
   1785000   0.9878709      17.05925       19.826128    
   1786000   1.0164974      17.81689       19.800889    
   1787000   1.009039       17.085038      19.805893    
   1788000   1.0297514      17.614049      19.778797    
   1789000   0.94749039     17.114577      19.770424    
   1790000   1.0326422      17.475973      19.529003    
   1791000   1.0150867      17.452973      19.609919    
   1792000   1.0051636      16.645894      19.629376    
   1793000   0.98800569     17.360457      19.710426    
   1794000   1.0043251      17.854322      19.607447    
   1795000   0.99101206     16.846184      19.420333    
   1796000   0.98211648     17.407955      19.518001    
   1797000   0.98610948     17.566972      19.508348    
   1798000   0.96908039     16.981427      19.589831    
   1799000   0.99660627     17.589189      19.468554    
   1800000   0.97344055     17.151149      19.368896    
   1801000   0.98419176     17.401937      19.316379    
   1802000   1.0026527      17.227006      19.083605    
   1803000   1.0009175      17.216457      19.116579    
   1804000   0.96524687     16.823866      18.963392    
   1805000   1.0073063      17.321807      18.88041     
   1806000   0.96481149     17.019242      18.689493    
   1807000   0.98580941     16.672373      18.748531    
   1808000   1.0038261      17.606404      18.634697    
   1809000   0.99491472     17.066684      18.635234    
   1810000   1.0536166      17.035791      18.416518    
   1811000   1.0251016      17.429485      18.268105    
   1812000   0.98749198     17.340083      18.285667    
   1813000   1.0111595      17.504679      18.527995    
   1814000   0.99137189     16.79211       18.536727    
   1815000   1.0139757      17.459288      18.703407    
   1816000   0.9899123      17.621764      18.658438    
   1817000   0.99408061     16.730721      18.58823     
   1818000   1.0086052      17.202503      18.51711     
   1819000   1.0179398      17.344444      18.6733      
   1820000   0.98830691     17.127935      18.600768    
   1821000   0.98217        17.139095      18.805776    
   1822000   0.96788055     17.738921      18.849871    
   1823000   1.0270865      17.409844      18.733517    
   1824000   0.98424168     16.986256      18.64732     
   1825000   1.0298701      17.330293      18.432627    
   1826000   0.97415788     16.920053      18.361539    
   1827000   1.0217022      17.141213      18.362595    
   1828000   0.98507065     17.070379      18.232257    
   1829000   0.98875618     17.211285      18.333283    
   1830000   0.96719085     17.462741      18.300376    
   1831000   0.98269605     17.161865      18.213739    
   1832000   0.98767778     17.576296      17.973448    
   1833000   1.0249611      17.753859      17.855549    
   1834000   1.0141421      17.306727      17.717071    
   1835000   0.95996463     17.164101      17.842465    
   1836000   0.99120737     17.214659      17.86162     
   1837000   0.98598457     16.947177      17.707508    
   1838000   0.97008842     17.449926      17.64778     
   1839000   1.0163754      17.546868      17.548298    
   1840000   0.98947761     17.093915      17.483244    
   1841000   1.0003623      17.03817       17.578606    
   1842000   1.0172513      17.065113      17.663411    
   1843000   0.97643411     17.455143      17.488753    
   1844000   1.0288664      17.093193      17.321749    
   1845000   0.99164891     17.253776      17.207442    
   1846000   0.95588763     17.388751      17.269589    
   1847000   1.0085118      17.366621      17.338697    
   1848000   1.0186829      16.970377      17.508605    
   1849000   1.0144724      17.415624      17.4462      
   1850000   1.0306143      17.321475      17.25034     
   1851000   0.98750973     17.384921      17.219345    
   1852000   0.97994162     17.589446      17.089001    
   1853000   1.0446488      17.463943      16.989428    
   1854000   0.99617391     17.353227      16.939606    
   1855000   0.99429841     17.229034      16.696134    
   1856000   0.96736668     17.017786      16.554043    
   1857000   0.98348243     17.517806      16.552993    
   1858000   1.0097661      16.813914      16.572077    
   1859000   1.0207988      17.530134      16.524151    
   1860000   1.0253766      17.455522      16.519882    
   1861000   1.0280814      17.269178      16.417292    
   1862000   1.0490841      17.466475      16.488943    
   1863000   0.96636191     16.680179      16.36891     
   1864000   0.9948047      17.75228       16.547524    
   1865000   0.99370887     17.195258      16.368775    
   1866000   0.99714052     17.900545      15.994894    
   1867000   1.0193927      17.423484      16.035232    
   1868000   0.99477026     17.537524      16.235709    
   1869000   0.954917       17.443216      16.321395    
   1870000   0.98042892     17.246902      16.395781    
   1871000   0.98470916     16.887962      16.320448    
   1872000   1.0026873      17.218359      16.405312    
   1873000   0.97003263     16.993767      16.250103    
   1874000   0.97856041     16.960713      16.273552    
   1875000   0.96787652     17.012121      16.125471    
   1876000   1.0152695      17.148298      15.983296    
   1877000   0.95163445     16.974891      15.979586    
   1878000   0.98380822     16.96711       15.752933    
   1879000   1.0210897      17.14785       15.598798    
   1880000   1.0390176      17.761214      15.502915    
   1881000   1.0277645      16.735077      15.227931    
   1882000   1.0303188      17.214344      15.228508    
   1883000   1.0142698      17.350976      15.064259    
   1884000   1.0185017      16.943067      15.043942    
   1885000   1.0336394      17.623029      15.124898    
   1886000   0.98202103     17.327133      14.688963    
   1887000   1.0160082      16.761883      14.576873    
   1888000   1.0075696      16.972024      14.511288    
   1889000   0.99626023     17.34821       14.511844    
   1890000   0.98986615     16.449912      14.466566    
   1891000   1.0462988      16.745614      14.293246    
   1892000   0.99961571     17.163767      14.364013    
   1893000   1.0064261      17.572449      14.337797    
   1894000   1.0248173      17.218459      14.343462    
   1895000   0.99933652     16.813333      14.230236    
   1896000   0.97734548     17.321551      14.170014    
   1897000   0.98589283     16.684433      14.097121    
   1898000   0.99722547     17.071905      13.976673    
   1899000   1.0406178      17.642107      13.844475    
   1900000   0.98133698     16.631749      13.742677    
   1901000   1.0115543      17.170369      13.737455    
   1902000   0.98793549     17.531095      13.68778     
   1903000   0.94378594     16.876583      13.868649    
   1904000   0.96695979     16.720961      13.705454    
   1905000   1.0140591      17.089175      13.593294    
   1906000   1.0157934      16.898387      13.581781    
   1907000   1.0664215      16.929525      13.747246    
   1908000   0.99975347     17.234879      13.795736    
   1909000   1.015311       17.521893      13.827524    
   1910000   0.94592937     17.21536       14.034603    
   1911000   1.0240617      16.703199      13.922199    
   1912000   1.0201251      16.79713       13.597685    
   1913000   1.0162742      17.021318      13.483492    
   1914000   1.0453317      17.253693      13.424309    
   1915000   0.99307242     17.206413      13.424778    
   1916000   0.98568829     16.811989      13.573578    
   1917000   1.0199296      17.249388      13.719964    
   1918000   1.0027709      17.314514      13.759611    
   1919000   0.97482757     16.883465      13.774748    
   1920000   1.021989       17.034906      13.740544    
   1921000   1.0132837      16.535022      13.67048     
   1922000   0.98830335     17.237392      13.821112    
   1923000   1.0060176      16.486227      13.759477    
   1924000   0.9780119      17.356442      13.651693    
   1925000   1.0290247      17.787894      13.487744    
   1926000   0.95409842     17.156736      13.364269    
   1927000   0.99239148     17.589062      13.177606    
   1928000   0.99633518     16.444179      13.354583    
   1929000   0.99709957     16.778129      13.250116    
   1930000   1.0049642      17.164458      13.107433    
   1931000   1.0578563      17.450516      13.056484    
   1932000   0.99991206     16.780102      12.968035    
   1933000   0.97521908     16.99346       12.872446    
   1934000   1.0043909      16.713276      12.65376     
   1935000   0.98969861     16.423326      12.687329    
   1936000   0.99309806     16.9048        12.560991    
   1937000   1.0079681      17.214825      12.529823    
   1938000   0.9914126      17.589069      12.450614    
   1939000   0.97228508     16.842486      12.501131    
   1940000   1.006744       16.773621      12.290867    
   1941000   0.9943499      16.655479      12.15136     
   1942000   1.0514944      17.549411      12.106227    
   1943000   0.96956904     16.985716      12.079024    
   1944000   1.0120277      16.880279      11.927063    
   1945000   1.0089753      16.94225       11.679655    
   1946000   1.0031748      16.693051      11.5339      
   1947000   1.0109372      17.538731      11.219811    
   1948000   0.97982026     17.475517      11.182894    
   1949000   0.97447779     17.157652      10.867161    
   1950000   0.99539208     17.10466       10.790625    
   1951000   1.0117332      16.901858      10.590333    
   1952000   1.0550402      17.478008      10.384134    
   1953000   1.0287995      16.722621      10.478644    
   1954000   1.0041584      17.009741      10.37588     
   1955000   0.95416728     17.034397      10.360158    
   1956000   0.98872551     16.736014      10.346157    
   1957000   1.0218237      17.05342       10.253063    
   1958000   1.0175306      16.986866      10.253712    
   1959000   0.97266751     16.74416       10.03186     
   1960000   1.0164782      17.419161      9.9713847    
   1961000   0.98482344     17.349788      9.8505909    
   1962000   1.0300014      17.317705      9.765136     
   1963000   0.94139763     17.151993      9.5349733    
   1964000   0.96335433     16.316108      9.6155908    
   1965000   0.98078351     17.42665       9.5192131    
   1966000   0.97752383     16.51973       9.4662541    
   1967000   0.99293269     16.764935      9.4981009    
   1968000   0.97578163     17.021483      9.2461877    
   1969000   1.0048335      17.470266      9.2095369    
   1970000   1.0077896      16.441755      9.198893     
   1971000   1.0503236      17.326548      9.1459936    
   1972000   0.99671813     17.095753      9.0604706    
   1973000   0.97761363     17.307234      9.1797208    
   1974000   0.96450043     16.627777      9.1936271    
   1975000   1.026091       17.010877      9.1797284    
   1976000   0.97086418     16.834469      9.0809244    
   1977000   0.97890227     16.791644      9.0143301    
   1978000   1.0441889      17.706287      9.1048691    
   1979000   1.0212044      17.557253      8.9355836    
   1980000   1.0232396      16.948112      8.7811035    
   1981000   0.98923604     16.728316      8.7851885    
   1982000   1.0241195      17.742163      8.5187694    
   1983000   0.9770699      16.808546      8.4629863    
   1984000   1.0046362      16.981494      8.3990087    
   1985000   0.99146687     16.850343      8.0799622    
   1986000   0.9556149      16.787888      7.9393533    
   1987000   1.0079966      16.972076      7.7158826    
   1988000   0.97166412     16.471173      7.6263179    
   1989000   1.002727       16.545035      7.2661829    
   1990000   0.99851233     16.495476      7.3084086    
   1991000   1.0564755      16.856686      7.0841558    
Fix halt condition for fix-id 3 met on step 1992000 with value 6.885441069908613 (src/fix_halt.cpp:237)
   1992000   1.0125766      17.178506      6.8854411    
Loop time of 3662.1 on 2 procs for 1892000 steps with 1201 atoms

Performance: 446380.069 tau/day, 516.644 timesteps/s
122.2% CPU use with 1 MPI tasks x 2 OpenMP threads

MPI task timing breakdown:
Section |  min time  |  avg time  |  max time  |%varavg| %total
---------------------------------------------------------------
Pair    | 612.51     | 612.51     | 612.51     |   0.0 | 16.73
Bond    | 51.554     | 51.554     | 51.554     |   0.0 |  1.41
Neigh   | 2875.4     | 2875.4     | 2875.4     |   0.0 | 78.52
Comm    | 0.79447    | 0.79447    | 0.79447    |   0.0 |  0.02
Output  | 5.8882     | 5.8882     | 5.8882     |   0.0 |  0.16
Modify  | 107.04     | 107.04     | 107.04     |   0.0 |  2.92
Other   |            | 8.897      |            |       |  0.24

Nlocal:           1201 ave        1201 max        1201 min
Histogram: 1 0 0 0 0 0 0 0 0 0
Nghost:              0 ave           0 max           0 min
Histogram: 1 0 0 0 0 0 0 0 0 0
Neighs:         288736 ave      288736 max      288736 min
Histogram: 1 0 0 0 0 0 0 0 0 0

Total # of neighbors = 288736
Ave neighs/atom = 240.41299
Ave special neighs/atom = 1.9983347
Neighbor list builds = 18565
Dangerous builds = 0

# This simulation is done
# Move onto the next one
clear
  using 2 OpenMP thread(s) per MPI task
package omp 0
using multi-threaded neighbor list subroutines
next f
jump SELF

Total wall time: 4:23:49
