#atom_style bond #no stiffness
atom_style angle #with stiffness

boundary        p p p
###
# Pair interactions require lists of neighbours to be calculated
###

#neighbor 0.3 bin
neighbor 4 bin

neigh_modify every 1 delay 1 check yes
atom_modify sort 0 0
### Generate RESTART file, SPECIAL format, not a .txt file ###
### Useful if simulation crashes ###

restart 1000000 nuc5branch4/restarts3/$f.restart
restart 1000000 nuc5branch4/restarts3/bb337nuc5bl56bn4d30tot900.restart
#############################



### READ "start" data file ###

read_data nuc5branch4/$f.dat
read_data nuc5branch4/bb337nuc5bl56bn4d30tot900.dat
Reading data file ...
  orthogonal box = (-1000 -1000 -1000) to (1000 1000 1000)
  1 by 1 by 1 MPI processor grid
  reading atoms ...
  897 atoms
  scanning bonds ...
  3 = max bonds/atom
  scanning angles ...
  6 = max angles/atom
  reading bonds ...
  896 bonds
  reading angles ...
  910 angles
Finding 1-2 1-3 1-4 neighbors ...
  special bond factors lj:    0        0        0       
  special bond factors coul:  0        0        0       
     4 = max # of 1-2 neighbors
     4 = max # of 1-3 neighbors
     8 = max # of 1-4 neighbors
    12 = max # of special neighbors
  special bonds CPU = 0.001 seconds
  read_data CPU = 0.078 seconds

######################

### READ "REstart" data file ###

######################



###
# Define groups (atom type 1 is group 'all')
###
group all type 1
897 atoms in group all


###
# Dump configs - "simple dumpings"
###

###
# Dump configs + box coords
###

dump   1   all   custom   1000  nuc5branch4/trjs3/$f.lammpstrj  id  x y z  ix iy iz
dump   1   all   custom   1000  nuc5branch4/trjs3/bb337nuc5bl56bn4d30tot900.lammpstrj  id  x y z  ix iy iz
dump_modify   1   format line "%d %.5f %.5f %.5f %d %d %d"

########################################################################


###################################################################
# Stiffness term
#
# E = K * (1+cos(theta)), K>0
#
angle_style   cosine
#change this coefficient to change stiffness (e.g. 1,5,10)
angle_coeff   1 1.0
###################################################################

###################################################################
# Pair interaction between non-bonded atoms
#
#  Lennard-Jones 12-6 potential with cutoff:
#  potential E=4epsilon[ (sigma/r)^12 - (sigma/r)^6]  for r<r_cut
#
#  1.12246 = 2^(1/6) is the minimum of the potential


pair_style      lj/cut 1.12246152962189
#pair_style      lj/cut 3

#
#  pair_modify shift yes adds a constant to the potential such

#  that E(r_cut)=0. Forces remains unchanged.
#

pair_modify     shift yes

#
#  pair_coeff for lj/cut, specify 4:
#    * atom type interacting with
#    * atom type
#    * epsilon (energy units)
#    * sigma (distance units)
#

pair_coeff      1 1 1.0 1.0
###################################################################

###################################################################
# Pair interaction between non-bonded atoms
#
#  soft potential, for PUSHING apart overlapping atoms
#  potential E=A*(1 + cos(pi*r/r_c))
#
#  1.12246 = 2^(1/6) is the cut-off r_c

#pair_style     soft 1.12246152962189

#
#  pair_coeff for soft, specify 3:
#    * atom type interacting with
#    * atom type
#    * A
#
#

#pair_coeff      1 1 100.0
###################################################################

###################################################################
# Pair interaction between bonded atoms
#
# Fene potential + Lennard Jones 12-6:

#
#  E= - 0.5 K R0^2 ln[ 1- (r/R0)^2]
#     + 4epsilon[ (sigma/r)^12 - (sigma/r)^6] + epsilon
#

bond_style   fene


#
# For style fene, specify:
#   * bond type
#   * K (energy/distance^2)
#   * R0 (distance)
#   * epsilon (energy)  (LJ component)
#   * sigma (distance)  (LJ component)
#


special_bonds fene #<=== I M P O R T A N T (new command)
Finding 1-2 1-3 1-4 neighbors ...
  special bond factors lj:    0        1        1       
  special bond factors coul:  0        1        1       
     4 = max # of 1-2 neighbors
    12 = max # of special neighbors
  special bonds CPU = 0.000 seconds

bond_coeff   1   30   2   1.0   1.0


###################################################

###################################################################
# Pair interaction between bonded atoms
#
# Harmonic potential:
#
#  E= K * (R-R0)^2
#

#bond_style   harmonic

#
# For style harmonic, specify:
#   * bond type
#   * K (energy/distance^2)
#   * R0 (distance)
#

#bond_coeff   1   60.0   1.0
#bond_coeff   2   harmonic 0.1   1.0

###################################################
compute 1 all gyration
variable rog equal c_1
#compute 2 all coord/atom cutoff 1.1

#dump 2 all custom 10000 contact_number.dump id c_2


###
# Set up fixes
###
thermo_style   custom   step  temp enthalpy c_1
fix 1 all nve   ###NVE ensemble

fix 2 all   langevin   1.0 1.0 1.0  158102   ###Langevin integrator Tstart Tstop 1/friction rndseed


##### Sample thermodynamic info  (temperature, energy, pressure, etc.) #####
thermo 1000









############################################################################

###
# set timestep of integrator

timestep 0.01

###
# run integration for a number of steps
###
#run 0
#variable r equal c_1
#if "$r < 63.1" then "quit 1"

# lj potential minimum, cause molecule to explore
run 100000
Generated 0 of 0 mixed pair_coeff terms from geometric mixing rule
Last active /omp style is angle_style cosine/omp
Neighbor list info ...
  update: every = 1 steps, delay = 1 steps, check = yes
  max neighbors/atom: 2000, page size: 100000
  master list distance cutoff = 5.1224615
  ghost atom cutoff = 5.1224615
  binsize = 2.5612308, bins = 781 781 781
  1 neighbor lists, perpetual/occasional/extra = 1 0 0
  (1) pair lj/cut/omp, perpetual
      attributes: half, newton on, omp
      pair build: half/bin/newton/omp
      stencil: half/bin/3d
      bin: standard
WARNING: Communication cutoff 5.12246152962189 is shorter than a bond length based estimate of 5.455. This may lead to errors. (src/comm.cpp:723)
Per MPI rank memory allocation (min/avg/max) = 1862 | 1862 | 1862 Mbytes
   Step          Temp         Enthalpy         c_1      
         0   0              13.25608       66.792436    
      1000   1.045429       18.351537      66.108257    
      2000   1.0034954      18.9537        65.386755    
      3000   0.97447086     19.49048       64.826612    
      4000   0.99019577     19.213833      64.478002    
      5000   0.96522496     19.366675      63.994876    
      6000   0.99752478     19.625544      63.316868    
      7000   1.0295991      19.655038      63.117842    
      8000   0.97402219     19.392133      62.570096    
      9000   1.046404       19.758664      62.262956    
     10000   1.0574707      20.416027      61.847476    
     11000   1.0000504      19.779146      61.443418    
     12000   0.9686849      20.413279      60.966109    
     13000   0.99654421     19.960566      60.67497     
     14000   1.0272283      20.015424      60.37705     
     15000   1.0487621      20.46586       59.915756    
     16000   1.0356161      20.170753      60.008917    
     17000   0.97260676     20.137709      59.736209    
     18000   1.011559       20.264354      59.613987    
     19000   1.0516796      20.384967      59.57233     
     20000   0.98580054     20.005086      59.431136    
     21000   0.99239534     20.030763      59.169205    
     22000   1.0221412      20.016773      58.977728    
     23000   1.0173131      19.926291      58.704313    
     24000   1.0091742      20.610725      58.300465    
     25000   1.0102555      20.364563      57.959388    
     26000   1.045378       20.329229      58.195768    
     27000   1.0151007      20.258491      57.852653    
     28000   0.96749904     20.150468      57.634324    
     29000   1.0490366      20.418813      57.522863    
     30000   1.0339761      20.343177      57.384557    
     31000   1.047098       20.64261       57.365883    
     32000   0.97453007     20.34962       57.477225    
     33000   0.97514193     21.107671      57.329127    
     34000   0.97122958     20.606664      57.171136    
     35000   0.97723124     20.194033      56.787109    
     36000   0.99502146     20.327254      56.628127    
     37000   0.94443001     19.757574      56.622531    
     38000   1.0049324      20.563764      56.760734    
     39000   0.97262562     20.049143      56.694942    
     40000   1.0343229      20.478201      56.670375    
     41000   0.99110991     20.605654      56.305622    
     42000   1.068382       20.144107      56.161117    
     43000   1.0198139      20.230232      56.06222     
     44000   0.97004557     20.552563      56.212181    
     45000   1.0112342      20.815944      56.267296    
     46000   1.010842       20.022859      56.298501    
     47000   0.99102728     20.495301      56.231801    
     48000   0.97907054     20.229696      56.104049    
     49000   1.0002125      20.842217      56.16219     
     50000   0.9615103      20.675029      56.02594     
     51000   0.94903728     20.328164      55.740525    
     52000   0.99759082     20.097339      55.491758    
     53000   1.0176735      20.54791       55.503928    
     54000   0.97540711     20.152297      55.366685    
     55000   1.0389227      20.889168      55.229795    
     56000   1.0095157      20.902814      55.11816     
     57000   1.0206238      19.746143      54.725585    
     58000   0.9978826      20.499076      54.846222    
     59000   1.0064809      20.457293      54.598463    
     60000   1.0150742      20.468679      54.507758    
     61000   1.0215452      19.925375      54.629939    
     62000   1.0091213      20.051511      54.605737    
     63000   0.97691622     20.019895      54.37141     
     64000   0.9913931      20.504775      54.444812    
     65000   1.018236       20.177692      54.532803    
     66000   0.98744543     20.514571      54.436142    
     67000   0.9787674      20.306461      54.636774    
     68000   0.98219476     20.107814      54.76564     
     69000   0.96482794     20.40928       54.717594    
     70000   1.0447129      20.064421      54.593805    
     71000   1.047595       20.699261      54.793066    
     72000   1.0086922      20.723736      54.597057    
     73000   0.98641368     19.93959       54.307773    
     74000   1.0441382      20.213436      54.230166    
     75000   1.0035425      20.318308      53.9752      
     76000   0.98181934     20.379101      53.851773    
     77000   0.98011695     20.707709      53.811789    
     78000   1.0038539      20.976539      53.590391    
     79000   0.98191574     20.477604      53.342961    
     80000   0.99686148     20.445747      53.231681    
     81000   0.93053225     20.070925      53.155561    
     82000   1.0065974      20.38804       53.189819    
     83000   1.015414       20.82486       53.074403    
     84000   1.0043178      21.05546       53.049177    
     85000   0.95457038     20.583022      52.914353    
     86000   1.0299111      20.237838      52.570755    
     87000   1.0385817      20.376333      52.680881    
     88000   0.98735063     20.182155      52.820023    
     89000   1.0138783      20.282042      52.868424    
     90000   1.0552233      20.788479      52.924174    
     91000   1.0171011      20.416793      52.725598    
     92000   1.0438911      20.533372      52.501314    
     93000   0.95893978     20.58645       52.507076    
     94000   0.99025662     20.79839       52.320623    
     95000   0.98251064     20.889294      52.66528     
     96000   0.98725655     20.924623      52.724592    
     97000   0.94264967     20.136095      52.501733    
     98000   0.99117121     20.75547       52.303505    
     99000   1.0112025      20.226373      52.475455    
    100000   0.98714496     20.393122      52.466483    
Loop time of 515.981 on 2 procs for 100000 steps with 897 atoms

Performance: 167448.041 tau/day, 193.806 timesteps/s
101.9% CPU use with 1 MPI tasks x 2 OpenMP threads

MPI task timing breakdown:
Section |  min time  |  avg time  |  max time  |%varavg| %total
---------------------------------------------------------------
Pair    | 1.3505     | 1.3505     | 1.3505     |   0.0 |  0.26
Bond    | 2.0619     | 2.0619     | 2.0619     |   0.0 |  0.40
Neigh   | 507.7      | 507.7      | 507.7      |   0.0 | 98.39
Comm    | 0.036927   | 0.036927   | 0.036927   |   0.0 |  0.01
Output  | 0.27944    | 0.27944    | 0.27944    |   0.0 |  0.05
Modify  | 4.2131     | 4.2131     | 4.2131     |   0.0 |  0.82
Other   |            | 0.3435     |            |       |  0.07

Nlocal:            897 ave         897 max         897 min
Histogram: 1 0 0 0 0 0 0 0 0 0
Nghost:              0 ave           0 max           0 min
Histogram: 1 0 0 0 0 0 0 0 0 0
Neighs:           8351 ave        8351 max        8351 min
Histogram: 1 0 0 0 0 0 0 0 0 0

Total # of neighbors = 8351
Ave neighs/atom = 9.309922
Ave special neighs/atom = 1.9977703
Neighbor list builds = 1177
Dangerous builds = 0

# Replace lj potential, now collapse
pair_style      lj/cut 3

# Cutoff simul when gyration under 10
# Variable created with equal requires v_ + 'name'
fix 3 all halt 1000 v_rog < 7

run 3000000
Generated 0 of 0 mixed pair_coeff terms from geometric mixing rule
Last active /omp style is angle_style cosine/omp
Per MPI rank memory allocation (min/avg/max) = 1862 | 1862 | 1862 Mbytes
   Step          Temp         Enthalpy         c_1      
    100000   0.98714496     19.517724      52.466483    
    101000   1.0631315      19.564361      52.374703    
    102000   1.0234368      19.19694       51.960443    
    103000   1.0174343      18.832051      51.611562    
    104000   1.0038883      18.801822      51.286435    
    105000   1.0235488      18.766859      51.016259    
    106000   0.97342897     18.316625      51.042288    
    107000   0.97820861     18.633036      51.023157    
    108000   1.0614082      18.952641      50.959048    
    109000   1.0095775      19.040612      50.815455    
    110000   0.98074641     17.96845       50.724988    
    111000   0.96645983     17.925569      50.499932    
    112000   0.95882368     18.104492      50.310967    
    113000   0.98502273     18.245788      50.164685    
    114000   1.0218788      18.259049      50.165597    
    115000   0.95256888     18.282784      49.948306    
    116000   1.0020459      18.066392      49.822774    
    117000   0.96699294     17.778961      49.606091    
    118000   0.98799032     18.485502      49.354545    
    119000   1.0275724      18.31244       49.182449    
    120000   1.0480976      18.081811      49.013188    
    121000   0.99147679     18.273254      48.829665    
    122000   0.98924102     18.031006      48.595547    
    123000   0.97442566     17.792593      48.452284    
    124000   1.0258267      18.252513      48.264465    
    125000   1.0222805      18.148648      48.108961    
    126000   1.0382364      18.376492      47.794258    
    127000   0.97815674     18.24375       47.67104     
    128000   0.98796647     17.76232       47.735848    
    129000   0.9788202      17.654129      47.812966    
    130000   1.0505519      17.870561      47.849075    
    131000   0.9913001      17.660527      47.632844    
    132000   0.96539701     18.039144      47.726197    
    133000   0.9801124      18.193789      47.416075    
    134000   1.0320083      17.921625      47.368845    
    135000   1.0576789      18.394729      47.067173    
    136000   0.98073871     18.058075      46.597434    
    137000   1.0325569      18.287854      46.343954    
    138000   1.0384858      17.960301      46.501011    
    139000   0.99729009     17.667937      46.175304    
    140000   1.0063072      17.767957      46.214934    
    141000   1.0059724      18.237571      46.134777    
    142000   1.0152411      17.886862      46.153153    
    143000   1.0412704      17.680384      46.227561    
    144000   1.016971       17.784703      45.966343    
    145000   1.0353033      18.553198      45.99157     
    146000   0.98828739     17.969868      45.996469    
    147000   0.99234058     18.05825       45.728043    
    148000   1.0283638      18.142325      45.654195    
    149000   0.971179       18.412687      45.314232    
    150000   1.0317834      17.633472      45.180068    
    151000   0.98007921     18.035609      44.937116    
    152000   1.0449383      18.158921      44.856997    
    153000   1.0425277      17.684335      44.667757    
    154000   0.9710855      18.062567      44.651616    
    155000   1.0135595      17.769184      44.315505    
    156000   1.0307398      18.337653      44.095731    
    157000   1.0138318      17.574789      44.081902    
    158000   1.0028177      17.718421      43.915804    
    159000   1.0369007      18.177864      43.790048    
    160000   0.97713566     18.13131       44.121737    
    161000   1.0111054      18.529966      43.972797    
    162000   1.0378149      17.958022      43.886554    
    163000   0.98913905     17.90168       43.99563     
    164000   1.0466653      18.168454      43.93763     
    165000   0.99440394     17.89841       43.812719    
    166000   1.0119787      17.498459      43.551364    
    167000   0.97541466     17.771316      43.462375    
    168000   1.0057506      17.901415      43.457177    
    169000   1.0429728      17.755936      43.144649    
    170000   0.99530293     17.258945      43.090101    
    171000   1.0137312      18.31088       43.324621    
    172000   1.0006961      18.452837      43.260227    
    173000   0.99848182     18.254822      43.227571    
    174000   0.99560705     18.285039      43.213444    
    175000   0.99376109     17.529288      43.446265    
    176000   1.0151423      18.330656      43.133318    
    177000   0.98222456     17.221312      42.580323    
    178000   1.0090042      18.099867      42.634593    
    179000   0.97774284     17.997641      42.460279    
    180000   1.0151189      17.843219      42.40443     
    181000   1.0158453      18.393528      42.417687    
    182000   0.99556201     17.990235      42.218162    
    183000   0.94965643     17.683725      42.150075    
    184000   0.99586378     18.296703      42.134302    
    185000   0.99525275     17.323597      42.164278    
    186000   1.007388       17.58115       41.93556     
    187000   1.0353361      18.283176      41.644649    
    188000   0.97370012     17.758196      41.790219    
    189000   1.0258253      18.006904      41.595785    
    190000   0.97095976     17.719999      41.537561    
    191000   0.97190533     18.252296      41.414602    
    192000   1.0271668      17.909087      41.320528    
    193000   1.0015592      17.783534      41.054222    
    194000   1.0330506      18.238783      41.265236    
    195000   1.0138065      17.547463      41.200122    
    196000   1.0188198      17.537496      41.010382    
    197000   1.0489445      18.46208       41.002323    
    198000   0.99702837     18.407381      41.1035      
    199000   0.99825276     18.02417       41.058665    
    200000   0.99083208     17.06881       41.090061    
    201000   0.98873607     17.555409      41.219981    
    202000   1.0049024      18.541771      41.204823    
    203000   1.0070166      17.724025      40.871078    
    204000   0.9822043      17.828307      40.468149    
    205000   0.96508162     17.280453      40.431186    
    206000   1.0321055      17.820008      40.166991    
    207000   1.023921       18.301922      40.364725    
    208000   1.0121566      18.254784      40.097382    
    209000   0.9913858      17.974812      39.993587    
    210000   1.0185647      18.367121      40.026384    
    211000   1.0140414      17.337987      39.930121    
    212000   0.96446235     17.74503       40.016004    
    213000   1.0132575      17.737595      39.705257    
    214000   0.98528369     18.165635      39.33449     
    215000   0.96855739     17.755007      39.284565    
    216000   1.0093914      17.592808      39.349544    
    217000   0.98844883     17.912355      39.125587    
    218000   0.98206526     17.188379      38.985672    
    219000   1.0028018      18.004716      38.60385     
    220000   1.0006959      17.814062      38.578848    
    221000   1.0217465      18.245026      38.443378    
    222000   0.97975365     17.838044      38.51559     
    223000   0.9804647      18.331005      38.669616    
    224000   0.97733062     17.890402      38.569642    
    225000   0.95545665     17.472669      38.554959    
    226000   1.0156026      17.851719      38.606264    
    227000   1.0123251      17.845945      38.504721    
    228000   0.99887105     18.078178      38.45596     
    229000   0.97529096     18.191954      38.384743    
    230000   0.97119008     17.448352      38.629515    
    231000   0.97191245     17.701045      38.605772    
    232000   1.0173916      18.131384      38.663032    
    233000   1.0409127      18.241226      38.622005    
    234000   1.0086683      18.516845      38.597849    
    235000   1.0461943      18.015102      38.499725    
    236000   0.97577536     18.224257      38.767907    
    237000   1.0030797      18.09444       38.778402    
    238000   0.98576278     17.48534       38.663368    
    239000   1.0520864      18.086185      38.480728    
    240000   0.96795979     17.672475      38.575328    
    241000   1.0387308      17.936453      38.612771    
    242000   1.0039407      17.875378      38.344676    
    243000   0.99463882     18.158385      38.354323    
    244000   1.0124573      18.054858      38.078561    
    245000   1.063063       18.030213      37.984736    
    246000   0.9732707      18.092499      38.01258     
    247000   1.0141899      17.735688      37.964856    
    248000   1.0130897      17.698357      37.727469    
    249000   1.0085199      18.02699       37.475277    
    250000   0.99021809     17.813214      37.382536    
    251000   1.0006422      17.393667      37.177085    
    252000   1.0246181      17.987701      36.996242    
    253000   0.98718382     17.49489       36.972708    
    254000   0.99217368     18.508403      36.744003    
    255000   0.99182953     17.165146      36.480644    
    256000   0.98572591     17.493916      36.552103    
    257000   0.95503172     18.023758      36.366281    
    258000   0.98798409     17.369235      36.419711    
    259000   0.98775268     18.16496       36.162385    
    260000   0.97898742     17.410246      36.176149    
    261000   0.97336681     17.526428      36.114077    
    262000   1.0057995      17.227214      36.109247    
    263000   0.96816333     18.293314      35.972359    
    264000   1.024693       17.602657      35.994401    
    265000   1.0380932      18.235503      35.875643    
    266000   1.0303303      18.088308      35.80841     
    267000   0.97186128     17.799651      35.6835      
    268000   0.98717757     17.225043      35.438629    
    269000   0.97291856     17.962766      35.30889     
    270000   0.97819719     17.682419      35.423578    
    271000   0.98808819     17.601217      35.475399    
    272000   1.0229447      18.520396      35.356669    
    273000   1.0316273      17.711958      35.40187     
    274000   0.99659358     17.992727      35.401412    
    275000   0.98235615     17.832381      35.253637    
    276000   0.99351454     17.875213      35.352298    
    277000   0.97339416     17.593161      35.236077    
    278000   0.98522621     17.775814      35.156278    
    279000   0.99019003     17.512556      35.117435    
    280000   0.99673031     17.644659      34.803328    
    281000   0.94225276     17.617208      34.612321    
    282000   0.99524439     17.408866      34.808289    
    283000   1.0198733      17.642944      34.699575    
    284000   1.0396942      17.441535      34.470031    
    285000   0.96233118     18.049565      34.344324    
    286000   0.95831298     18.095803      34.148832    
    287000   1.0106098      17.57276       33.875537    
    288000   0.96007095     18.028739      33.637309    
    289000   1.0342828      17.814328      33.512345    
    290000   1.0379928      17.794599      33.501523    
    291000   0.9995718      16.948194      33.514716    
    292000   1.0294488      18.190067      33.510951    
    293000   1.0265182      17.669267      33.562899    
    294000   1.0367936      18.279627      33.535862    
    295000   1.0112075      17.711467      33.293927    
    296000   0.98163633     17.927433      33.181004    
    297000   0.98835842     17.725926      33.075468    
    298000   0.98290671     17.448305      32.852383    
    299000   1.0309086      17.425116      32.73672     
    300000   0.97835113     17.656628      32.91238     
    301000   1.0119695      17.067113      32.501362    
    302000   0.9635403      17.242013      32.203584    
    303000   1.0296865      17.434418      31.813412    
    304000   0.95097154     17.665153      31.598959    
    305000   1.0155148      17.560008      31.559452    
    306000   1.041656       18.265549      31.53375     
    307000   0.9827536      17.736804      31.161729    
    308000   1.0051309      17.94458       31.319216    
    309000   1.0051992      18.137301      31.207581    
    310000   1.0217245      17.391017      31.004429    
    311000   0.9592613      18.006569      30.915366    
    312000   0.9954532      17.406088      30.813826    
    313000   0.98825566     17.315282      30.800808    
    314000   0.99457068     17.601484      30.855165    
    315000   1.0095107      17.648575      30.714573    
    316000   1.0181961      17.604103      30.701043    
    317000   1.0052881      17.839156      30.698291    
    318000   0.99567306     18.039189      30.687395    
    319000   1.0013097      17.5273        30.401908    
    320000   1.0056892      17.584757      30.331369    
    321000   0.99725399     17.466247      30.218136    
    322000   0.98708799     17.99983       30.174803    
    323000   1.0041421      18.04727       30.021968    
    324000   1.0328778      17.939383      30.019969    
    325000   0.99275982     18.196465      30.09024     
    326000   0.94744758     17.62104       29.911684    
    327000   1.0507409      17.847903      29.829831    
    328000   0.97362271     17.214424      29.679533    
    329000   0.98443019     17.887303      29.575411    
    330000   1.0164967      17.600272      29.458226    
    331000   0.9567754      17.342479      29.478129    
    332000   0.96513116     17.40709       29.429335    
    333000   0.96312132     17.754699      29.202069    
    334000   1.0239566      17.728313      29.033432    
    335000   1.0396907      17.443967      28.985393    
    336000   0.97897352     17.449817      28.826383    
    337000   1.0308299      16.876265      28.726405    
    338000   0.98127049     17.145161      28.66754     
    339000   1.0327517      17.859204      28.771482    
    340000   1.0055338      17.660996      28.740519    
    341000   1.0185848      16.679359      28.689801    
    342000   1.0157735      18.031122      28.597164    
    343000   0.93174633     17.598689      28.64302     
    344000   1.0210922      17.660719      28.409577    
    345000   1.037138       17.395109      28.40612     
    346000   0.97475854     17.50465       28.141279    
    347000   1.0337236      17.610089      28.032727    
    348000   1.0015926      17.7172        28.044754    
    349000   0.95497701     17.484948      27.921377    
    350000   0.98166486     17.598333      27.893887    
    351000   1.0153946      17.972675      28.008994    
    352000   1.0088851      17.75341       28.045574    
    353000   1.0144813      17.698292      27.936787    
    354000   1.0746176      17.622088      27.98045     
    355000   0.98432894     17.355473      27.956196    
    356000   0.98280145     18.021326      27.927485    
    357000   0.99886371     17.620386      27.81313     
    358000   1.0157189      17.278389      27.872647    
    359000   1.0214832      17.570643      27.519259    
    360000   0.9456105      17.203211      27.429801    
    361000   0.96728879     17.076672      27.277125    
    362000   1.0171929      17.532315      27.236431    
    363000   0.98097685     17.488162      27.477365    
    364000   1.0278892      17.994458      27.288422    
    365000   0.96509701     17.360525      27.119026    
    366000   1.0365241      17.457589      26.952304    
    367000   1.0094624      17.586347      27.045797    
    368000   1.0312959      17.442811      27.027356    
    369000   1.0084193      17.561855      27.078957    
    370000   1.0312535      17.174313      26.895698    
    371000   0.99803709     17.445854      26.855125    
    372000   1.0189618      16.95213       26.847662    
    373000   1.0035838      17.672737      26.728613    
    374000   0.97183467     17.855257      26.66342     
    375000   1.0457571      17.585117      26.783347    
    376000   0.99989878     17.602934      26.594179    
    377000   0.92077899     17.427739      26.638728    
    378000   1.0139305      16.886692      26.438137    
    379000   1.0278179      17.28512       26.196426    
    380000   0.99865158     17.758969      26.258375    
    381000   0.99573925     17.181397      26.053258    
    382000   0.98458893     17.148074      25.893653    
    383000   0.96957658     17.410313      25.858284    
    384000   0.93927186     17.355768      25.727518    
    385000   1.0444237      17.493696      25.764642    
    386000   0.94445669     17.113754      25.652214    
    387000   1.0302464      17.089197      25.652379    
    388000   0.98527382     16.966126      25.75083     
    389000   0.97242257     16.967585      25.803143    
    390000   0.98120878     17.129829      25.682505    
    391000   1.0158075      17.790915      25.664052    
    392000   1.0262089      17.726406      25.708058    
    393000   0.99053285     17.229159      25.503285    
    394000   0.97025205     17.143161      25.557125    
    395000   1.0371554      17.349654      25.409443    
    396000   1.0186019      17.778847      25.256355    
    397000   0.95111578     17.34818       25.214598    
    398000   0.96222102     17.128344      25.161946    
    399000   0.99396835     17.812127      25.20275     
    400000   1.0052649      17.936748      25.093398    
    401000   1.0156007      17.758802      24.887889    
    402000   0.99486093     17.359299      24.894955    
    403000   1.0352911      17.281391      24.548384    
    404000   0.98887249     17.460956      24.293995    
    405000   0.99715492     18.090388      24.473613    
    406000   1.0068832      17.614823      24.530803    
    407000   0.9978822      17.23538       24.595428    
    408000   0.99397028     17.283715      24.746754    
    409000   0.98081403     17.509267      24.873954    
    410000   0.93684154     17.201157      24.787692    
    411000   0.98327783     17.622281      24.743332    
    412000   1.0035713      18.384469      24.396499    
    413000   0.97740212     18.067668      24.348142    
    414000   1.0151284      17.533739      24.320302    
    415000   0.98806936     18.183312      24.060429    
    416000   0.97066834     17.24545       24.114943    
    417000   0.98489156     17.296768      23.949167    
    418000   0.99617009     17.428421      23.664841    
    419000   1.0224442      17.028977      23.314023    
    420000   0.98615855     17.623221      23.212893    
    421000   0.95256813     17.459153      23.110337    
    422000   1.003821       16.639384      22.79894     
    423000   1.0469416      17.853042      22.615339    
    424000   1.0086185      17.525148      22.668992    
    425000   0.98667195     17.567474      22.530062    
    426000   0.94542071     17.299348      22.322632    
    427000   1.0147203      17.501591      22.433833    
    428000   0.99793337     17.500517      22.220112    
    429000   0.99485107     17.278918      22.108422    
    430000   0.99466968     17.453154      21.937562    
    431000   1.0212836      17.643317      22.062712    
    432000   1.05168        17.636939      21.893874    
    433000   1.043493       17.988572      21.894444    
    434000   0.95476572     17.695564      21.73907     
    435000   0.95123735     17.689342      21.6492      
    436000   0.98534045     17.112554      21.595458    
    437000   0.99718457     17.255483      21.321168    
    438000   0.97401736     17.276807      21.477009    
    439000   0.99090924     17.001391      21.444173    
    440000   0.986375       17.294181      21.27861     
    441000   1.0130793      17.705664      21.089308    
    442000   1.0118344      17.87485       20.967841    
    443000   1.0133731      17.411662      20.979933    
    444000   0.97175574     17.48245       20.724032    
    445000   1.0011812      17.592009      20.571818    
    446000   0.9888694      17.00892       20.39056     
    447000   1.0364175      17.956489      20.161217    
    448000   1.0296724      17.901472      19.844308    
    449000   0.98624281     17.591636      19.48086     
    450000   0.98721717     18.044509      19.537959    
    451000   1.0142246      17.664142      19.439739    
    452000   1.0329886      17.903996      19.32936     
    453000   1.0140611      17.568089      19.312124    
    454000   0.98781792     17.099923      19.250585    
    455000   0.96386646     17.260258      19.189722    
    456000   0.98048061     17.569388      19.185073    
    457000   0.98998133     16.886563      19.085012    
    458000   1.0101464      17.763087      19.094172    
    459000   1.0265467      17.437322      19.154425    
    460000   1.0200566      17.861205      19.231948    
    461000   0.98666645     17.056112      19.192589    
    462000   1.0039416      16.963678      19.123531    
    463000   1.0066231      17.72195       19.070168    
    464000   1.0152026      17.894975      18.965094    
    465000   0.98075906     17.148435      19.067018    
    466000   1.0685212      17.672581      19.135439    
    467000   0.95964982     17.004576      18.921717    
    468000   0.96413718     17.410322      18.887296    
    469000   1.0264665      17.092168      18.774369    
    470000   0.99463321     17.777493      18.641904    
    471000   0.95698926     17.285974      18.453297    
    472000   0.99165826     17.402531      18.221666    
    473000   0.99137347     17.19986       18.060874    
    474000   1.0287962      17.318999      17.945471    
    475000   0.98266189     17.286203      17.72683     
    476000   0.98753562     16.993211      17.488889    
    477000   0.97644698     17.125104      17.512298    
    478000   1.0311757      17.464086      17.584369    
    479000   1.0082182      17.584487      17.565273    
    480000   0.98780203     17.45985       17.182893    
    481000   1.0331933      17.252951      17.270502    
    482000   0.93196951     16.873617      17.009285    
    483000   1.0182936      17.216232      16.998391    
    484000   0.97469706     17.229788      16.902478    
    485000   1.0223179      17.018885      16.754776    
    486000   0.9690214      17.729061      16.496184    
    487000   1.0336361      18.109327      16.210287    
    488000   1.0471143      17.301805      16.325044    
    489000   0.95804618     16.739625      16.241146    
    490000   0.99624979     16.495758      16.393381    
    491000   1.0302335      17.775632      16.074141    
    492000   1.0340383      17.683947      15.974392    
    493000   0.97904914     18.180999      15.782478    
    494000   1.0266846      17.809621      15.378356    
    495000   1.0164737      17.961375      15.382623    
    496000   0.99955375     17.082518      15.454809    
    497000   1.0641362      17.596788      15.476744    
    498000   0.96944238     16.956969      15.556964    
    499000   1.0198023      17.675234      15.443065    
    500000   1.0259316      17.809651      15.26061     
    501000   0.98925554     17.554911      15.16956     
    502000   0.97661831     17.840809      15.348277    
    503000   1.0164894      17.523839      15.044736    
    504000   0.98109239     17.402283      14.824511    
    505000   1.0104525      17.520059      14.833345    
    506000   0.97575065     17.785531      14.909593    
    507000   0.95112373     17.88069       15.164138    
    508000   0.94339228     17.090174      15.029507    
    509000   0.98695582     17.436717      15.073662    
    510000   1.0002158      17.862505      14.825429    
    511000   1.0270155      17.333456      14.793516    
    512000   1.0077867      17.478918      14.735308    
    513000   0.9753541      16.887851      14.41476     
    514000   1.0564244      17.322404      14.459089    
    515000   0.98504677     17.45469       14.396032    
    516000   1.0120597      16.729368      14.394668    
    517000   1.0066137      17.206124      14.303911    
    518000   1.023707       17.594919      14.295466    
    519000   0.98488999     17.447633      14.582426    
    520000   0.98812979     17.666598      14.282956    
    521000   1.027989       17.454548      14.372985    
    522000   1.0052648      17.383573      14.349579    
    523000   1.029845       17.727019      14.237005    
    524000   0.99157206     17.813489      14.163721    
    525000   1.0042677      17.592995      13.893929    
    526000   0.99646261     17.584774      13.888702    
    527000   1.0052842      17.182716      13.62241     
    528000   0.98650684     16.632683      13.681357    
    529000   0.99861022     17.493749      13.598767    
    530000   0.95845581     17.260545      13.546931    
    531000   1.0369943      17.653446      13.280483    
    532000   1.0219503      17.779468      13.167944    
    533000   0.97579209     17.443992      13.073564    
    534000   0.94531247     17.19499       12.896211    
    535000   0.96876271     17.091229      12.978007    
    536000   1.0606921      17.583716      12.789439    
    537000   1.0049625      17.126367      12.710031    
    538000   1.0150928      16.78022       12.782717    
    539000   1.0306791      18.094974      13.096737    
    540000   0.9511838      17.471025      12.852547    
    541000   0.98471848     17.042343      12.913132    
    542000   1.0249713      17.354527      12.885898    
    543000   0.98423746     17.564154      12.653334    
    544000   1.0202221      17.306291      12.61224     
    545000   1.0573258      17.288535      12.211484    
    546000   1.002704       16.886414      11.973578    
    547000   0.97703618     17.661001      11.954795    
    548000   1.0166459      18.042949      11.92434     
    549000   0.98763283     16.953799      11.664964    
    550000   1.0039779      17.962323      11.504867    
    551000   1.0122242      18.027254      11.50031     
    552000   0.97607146     17.565495      11.316119    
    553000   0.98771081     17.129662      11.381833    
    554000   0.97199386     16.885873      11.409621    
    555000   1.0022597      17.456194      11.049489    
    556000   1.0017201      17.492216      10.985012    
    557000   0.97839957     17.028914      10.820336    
    558000   1.0117386      17.038644      10.68004     
    559000   1.0008943      17.588018      10.563217    
    560000   1.0156271      17.368185      10.429194    
    561000   1.053105       17.686137      10.572463    
    562000   0.98816242     17.442963      10.582697    
    563000   0.99633464     17.618478      10.409581    
    564000   0.99080252     17.097949      10.649763    
    565000   1.0048194      16.870257      10.538065    
    566000   0.9991092      17.279391      10.467886    
    567000   1.0705522      17.610734      10.470426    
    568000   0.99873181     18.404645      10.622919    
    569000   0.99853373     16.9319        10.882543    
    570000   1.0080403      16.975244      10.855509    
    571000   0.9999389      16.744339      10.787231    
    572000   1.0049864      16.805843      10.74106     
    573000   0.95299714     17.268683      10.768498    
    574000   1.0084455      17.136431      10.710125    
    575000   1.0091588      16.906147      10.576759    
    576000   1.0401737      16.913806      10.347303    
    577000   1.0058905      17.231895      10.324679    
    578000   0.99174534     17.491038      10.452084    
    579000   1.0749722      17.652967      10.538295    
    580000   0.92615581     17.042212      10.343009    
    581000   1.0055019      17.105559      10.296608    
    582000   0.98349311     17.266381      10.216489    
    583000   0.99944504     17.447432      10.251136    
    584000   1.0093486      17.380195      10.268242    
    585000   0.98275192     17.633213      10.137831    
    586000   1.0649395      17.238827      10.13062     
    587000   0.94758868     17.153101      9.8903657    
    588000   0.95111547     17.542076      9.7513114    
    589000   0.96118618     16.892315      9.6327419    
    590000   0.98137064     17.147323      9.4401705    
    591000   0.99676438     17.262878      9.2135021    
    592000   0.94754621     17.286787      9.1259531    
    593000   0.97202814     16.412929      8.7376252    
    594000   0.97890986     16.689107      8.5807633    
    595000   1.0179841      17.578023      8.4410276    
    596000   0.96373501     17.293776      8.4792119    
    597000   1.0010083      17.115179      8.5465215    
    598000   1.0240829      16.670552      8.6393177    
    599000   1.0395962      17.42349       8.4653102    
    600000   1.0506807      16.868756      8.510789     
    601000   0.98888263     17.217806      8.4188644    
    602000   1.0412826      17.147772      8.3436368    
    603000   1.039415       16.938371      8.3264521    
    604000   0.98440294     17.180522      8.2439373    
    605000   1.0147975      17.170742      8.3180785    
    606000   1.0093091      16.92347       8.3780564    
    607000   1.0244022      16.792571      8.4868284    
    608000   0.98506389     17.177345      8.3520464    
    609000   0.94549577     16.687259      8.3196825    
    610000   0.99365195     16.896727      8.4362455    
    611000   0.99887666     17.378577      8.5636783    
    612000   1.0095415      17.917856      8.4324174    
    613000   1.0331168      16.766137      8.3340784    
    614000   0.96840394     16.929154      8.4006894    
    615000   0.97243415     16.99237       8.3478405    
    616000   0.96085178     17.096946      8.4137853    
    617000   0.99475202     16.328459      8.0692423    
    618000   1.0322263      17.320692      8.138857     
    619000   1.0041385      17.402664      7.8759019    
    620000   0.98538344     17.249751      7.8393656    
    621000   0.99299591     17.01136       7.8428374    
    622000   0.99300147     16.604541      7.7952795    
    623000   1.0064816      17.144137      7.5920358    
    624000   0.97771477     16.53488       7.4830718    
    625000   0.99951748     17.454771      7.2021814    
Fix halt condition for fix-id 3 met on step 626000 with value 6.902237185163995 (src/fix_halt.cpp:237)
    626000   0.97941637     17.543294      6.9022372    
Loop time of 864.19 on 2 procs for 526000 steps with 897 atoms

Performance: 525884.338 tau/day, 608.662 timesteps/s
123.6% CPU use with 1 MPI tasks x 2 OpenMP threads

MPI task timing breakdown:
Section |  min time  |  avg time  |  max time  |%varavg| %total
---------------------------------------------------------------
Pair    | 158.21     | 158.21     | 158.21     |   0.0 | 18.31
Bond    | 11.629     | 11.629     | 11.629     |   0.0 |  1.35
Neigh   | 667.08     | 667.08     | 667.08     |   0.0 | 77.19
Comm    | 0.20527    | 0.20527    | 0.20527    |   0.0 |  0.02
Output  | 1.4865     | 1.4865     | 1.4865     |   0.0 |  0.17
Modify  | 23.607     | 23.607     | 23.607     |   0.0 |  2.73
Other   |            | 1.969      |            |       |  0.23

Nlocal:            897 ave         897 max         897 min
Histogram: 1 0 0 0 0 0 0 0 0 0
Nghost:              0 ave           0 max           0 min
Histogram: 1 0 0 0 0 0 0 0 0 0
Neighs:         175697 ave      175697 max      175697 min
Histogram: 1 0 0 0 0 0 0 0 0 0

Total # of neighbors = 175697
Ave neighs/atom = 195.87179
Ave special neighs/atom = 1.9977703
Neighbor list builds = 4393
Dangerous builds = 0

# This simulation is done
# Move onto the next one
clear
  using 2 OpenMP thread(s) per MPI task
package omp 0
using multi-threaded neighbor list subroutines
next f
jump SELF

###
# Reference paper:
# K. Kremer and G. S. Grest
# Dynamics of entangled linear polymer melts: A molecular-dynamics simulation
# J Chem Phys 92, 5057 (1990)

##################################
# MIHIR: for branched polymers
# LJ minimum first to expand and explore, then collapse
###

###
# Looping through the various nuc5branch4 polymers to simulate,
# define variables to switch through
variable f index bb37nuc5bl6bn4d30tot100 bb75nuc5bl12bn4d30tot200 bb112nuc5bl18bn4d30tot300 bb150nuc5bl25bn4d30tot400 bb187nuc5bl31bn4d30tot500 bb225nuc5bl37bn4d30tot600 bb262nuc5bl43bn4d30tot700 bb300nuc5bl50bn4d30tot800 bb337nuc5bl56bn4d30tot900 bb375nuc5bl62bn4d30tot1000 bb412nuc5bl68bn4d30tot1100 bb450nuc5bl75bn4d30tot1200
# variable f index bb75nuc5bl12bn4d30tot200
# variable f index bb337nuc5bl56bn4d30tot900
###


###
# Box and units  (use LJ units and periodic boundaries)
###

units lj
log nuc5branch4/logs3/$f.log
log nuc5branch4/logs3/bb375nuc5bl62bn4d30tot1000.log
