#atom_style bond #no stiffness
atom_style angle #with stiffness

boundary        p p p
###
# Pair interactions require lists of neighbours to be calculated
###

#neighbor 0.3 bin
neighbor 4 bin

neigh_modify every 1 delay 1 check yes
atom_modify sort 0 0
### Generate RESTART file, SPECIAL format, not a .txt file ###
### Useful if simulation crashes ###

restart 1000000 nuc5branch4/restarts3/$f.restart
restart 1000000 nuc5branch4/restarts3/bb375nuc5bl62bn4d30tot1000.restart
#############################



### READ "start" data file ###

read_data nuc5branch4/$f.dat
read_data nuc5branch4/bb375nuc5bl62bn4d30tot1000.dat
Reading data file ...
  orthogonal box = (-1000 -1000 -1000) to (1000 1000 1000)
  1 by 1 by 1 MPI processor grid
  reading atoms ...
  993 atoms
  scanning bonds ...
  3 = max bonds/atom
  scanning angles ...
  6 = max angles/atom
  reading bonds ...
  992 bonds
  reading angles ...
  1006 angles
Finding 1-2 1-3 1-4 neighbors ...
  special bond factors lj:    0        0        0       
  special bond factors coul:  0        0        0       
     4 = max # of 1-2 neighbors
     4 = max # of 1-3 neighbors
     8 = max # of 1-4 neighbors
    12 = max # of special neighbors
  special bonds CPU = 0.001 seconds
  read_data CPU = 0.081 seconds

######################

### READ "REstart" data file ###

######################



###
# Define groups (atom type 1 is group 'all')
###
group all type 1
993 atoms in group all


###
# Dump configs - "simple dumpings"
###

###
# Dump configs + box coords
###

dump   1   all   custom   1000  nuc5branch4/trjs3/$f.lammpstrj  id  x y z  ix iy iz
dump   1   all   custom   1000  nuc5branch4/trjs3/bb375nuc5bl62bn4d30tot1000.lammpstrj  id  x y z  ix iy iz
dump_modify   1   format line "%d %.5f %.5f %.5f %d %d %d"

########################################################################


###################################################################
# Stiffness term
#
# E = K * (1+cos(theta)), K>0
#
angle_style   cosine
#change this coefficient to change stiffness (e.g. 1,5,10)
angle_coeff   1 1.0
###################################################################

###################################################################
# Pair interaction between non-bonded atoms
#
#  Lennard-Jones 12-6 potential with cutoff:
#  potential E=4epsilon[ (sigma/r)^12 - (sigma/r)^6]  for r<r_cut
#
#  1.12246 = 2^(1/6) is the minimum of the potential


pair_style      lj/cut 1.12246152962189
#pair_style      lj/cut 3

#
#  pair_modify shift yes adds a constant to the potential such

#  that E(r_cut)=0. Forces remains unchanged.
#

pair_modify     shift yes

#
#  pair_coeff for lj/cut, specify 4:
#    * atom type interacting with
#    * atom type
#    * epsilon (energy units)
#    * sigma (distance units)
#

pair_coeff      1 1 1.0 1.0
###################################################################

###################################################################
# Pair interaction between non-bonded atoms
#
#  soft potential, for PUSHING apart overlapping atoms
#  potential E=A*(1 + cos(pi*r/r_c))
#
#  1.12246 = 2^(1/6) is the cut-off r_c

#pair_style     soft 1.12246152962189

#
#  pair_coeff for soft, specify 3:
#    * atom type interacting with
#    * atom type
#    * A
#
#

#pair_coeff      1 1 100.0
###################################################################

###################################################################
# Pair interaction between bonded atoms
#
# Fene potential + Lennard Jones 12-6:

#
#  E= - 0.5 K R0^2 ln[ 1- (r/R0)^2]
#     + 4epsilon[ (sigma/r)^12 - (sigma/r)^6] + epsilon
#

bond_style   fene


#
# For style fene, specify:
#   * bond type
#   * K (energy/distance^2)
#   * R0 (distance)
#   * epsilon (energy)  (LJ component)
#   * sigma (distance)  (LJ component)
#


special_bonds fene #<=== I M P O R T A N T (new command)
Finding 1-2 1-3 1-4 neighbors ...
  special bond factors lj:    0        1        1       
  special bond factors coul:  0        1        1       
     4 = max # of 1-2 neighbors
    12 = max # of special neighbors
  special bonds CPU = 0.000 seconds

bond_coeff   1   30   2   1.0   1.0


###################################################

###################################################################
# Pair interaction between bonded atoms
#
# Harmonic potential:
#
#  E= K * (R-R0)^2
#

#bond_style   harmonic

#
# For style harmonic, specify:
#   * bond type
#   * K (energy/distance^2)
#   * R0 (distance)
#

#bond_coeff   1   60.0   1.0
#bond_coeff   2   harmonic 0.1   1.0

###################################################
compute 1 all gyration
variable rog equal c_1
#compute 2 all coord/atom cutoff 1.1

#dump 2 all custom 10000 contact_number.dump id c_2


###
# Set up fixes
###
thermo_style   custom   step  temp enthalpy c_1
fix 1 all nve   ###NVE ensemble

fix 2 all   langevin   1.0 1.0 1.0  158102   ###Langevin integrator Tstart Tstop 1/friction rndseed


##### Sample thermodynamic info  (temperature, energy, pressure, etc.) #####
thermo 1000









############################################################################

###
# set timestep of integrator

timestep 0.01

###
# run integration for a number of steps
###
#run 0
#variable r equal c_1
#if "$r < 63.1" then "quit 1"

# lj potential minimum, cause molecule to explore
run 100000
Generated 0 of 0 mixed pair_coeff terms from geometric mixing rule
Last active /omp style is angle_style cosine/omp
Neighbor list info ...
  update: every = 1 steps, delay = 1 steps, check = yes
  max neighbors/atom: 2000, page size: 100000
  master list distance cutoff = 5.1224615
  ghost atom cutoff = 5.1224615
  binsize = 2.5612308, bins = 781 781 781
  1 neighbor lists, perpetual/occasional/extra = 1 0 0
  (1) pair lj/cut/omp, perpetual
      attributes: half, newton on, omp
      pair build: half/bin/newton/omp
      stencil: half/bin/3d
      bin: standard
WARNING: Communication cutoff 5.12246152962189 is shorter than a bond length based estimate of 5.455. This may lead to errors. (src/comm.cpp:723)
Per MPI rank memory allocation (min/avg/max) = 1862 | 1862 | 1862 Mbytes
   Step          Temp         Enthalpy         c_1      
         0   0              13.254201      73.911025    
      1000   0.966655       18.391668      73.16226     
      2000   1.0021658      19.379059      72.533916    
      3000   1.0076366      19.172406      72.134284    
      4000   1.0039001      19.261729      71.851171    
      5000   0.97653081     19.297176      71.546959    
      6000   0.99103766     19.544561      70.986557    
      7000   0.97784682     19.812037      70.766475    
      8000   0.9524825      19.436672      70.374903    
      9000   0.97234323     20.066817      70.141474    
     10000   1.011256       19.982285      69.869745    
     11000   1.0285077      20.10674       69.583523    
     12000   0.98861171     20.076235      69.429704    
     13000   0.99944828     20.08927       69.175205    
     14000   0.98337706     20.345657      68.946095    
     15000   0.99885028     19.93924       68.827316    
     16000   0.97099929     19.532524      68.851248    
     17000   1.0188844      20.227025      68.747758    
     18000   1.0045384      20.062054      68.480473    
     19000   1.017054       19.645242      68.340836    
     20000   0.9745688      19.885856      67.980877    
     21000   0.99761899     20.007609      67.960207    
     22000   1.0049652      19.746551      67.632369    
     23000   1.0190296      20.300756      67.340731    
     24000   0.95465427     20.180073      66.930726    
     25000   1.0405117      20.417856      66.483517    
     26000   1.0132638      20.249401      65.977735    
     27000   1.0151549      20.105858      66.023151    
     28000   0.95167559     20.368652      65.977587    
     29000   1.021703       20.748219      65.822689    
     30000   1.0071563      19.987309      65.632378    
     31000   1.0076421      20.118458      65.633857    
     32000   1.025489       20.090183      65.31312     
     33000   1.0089409      20.734668      65.206956    
     34000   0.956349       19.610879      65.24075     
     35000   1.0003969      20.266089      65.130984    
     36000   0.97790354     19.798091      64.903293    
     37000   1.0269838      20.408031      64.874635    
     38000   1.0035666      20.482125      64.817277    
     39000   1.0329583      20.380379      64.687032    
     40000   1.0129965      21.035649      64.491021    
     41000   0.99018374     20.358422      64.537221    
     42000   1.0357502      20.271162      64.317637    
     43000   1.0267018      20.877829      64.057555    
     44000   1.0246475      20.381187      63.567343    
     45000   0.96508505     19.94654       63.55297     
     46000   1.0076915      20.655862      63.498835    
     47000   1.048051       20.342451      63.296968    
     48000   1.0259689      20.418012      63.167141    
     49000   1.0046864      20.725824      63.11322     
     50000   1.0090593      20.446559      62.947198    
     51000   1.0163395      20.090091      62.975568    
     52000   0.9580092      20.256483      62.996365    
     53000   0.95295414     20.471531      62.696229    
     54000   1.0238683      20.87671       62.52125     
     55000   1.0054318      20.228144      62.251584    
     56000   1.0191266      20.857505      61.978583    
     57000   1.0301516      20.385555      61.694777    
     58000   1.0052295      20.296671      61.46767     
     59000   0.9998282      20.346793      61.436634    
     60000   0.94872857     20.721758      61.275138    
     61000   1.0036441      20.43896       60.879202    
     62000   1.0195236      20.41016       60.882231    
     63000   0.9944611      20.874544      60.844924    
     64000   0.99267669     20.58263       60.754669    
     65000   1.0077313      20.160418      60.70621     
     66000   0.95512456     20.151528      60.754926    
     67000   0.99231006     20.424332      60.760408    
     68000   1.0032236      20.264155      60.59795     
     69000   1.0488818      20.401071      60.514833    
     70000   0.96567292     20.861279      60.218309    
     71000   1.0170411      20.637947      60.070356    
     72000   0.98743607     20.037745      60.011404    
     73000   0.99510314     19.675346      59.821198    
     74000   1.0080682      20.72112       59.84479     
     75000   0.98075919     20.454901      59.779306    
     76000   0.99858981     20.680316      59.759669    
     77000   0.9798456      20.484765      59.526216    
     78000   0.95356122     20.353832      59.474398    
     79000   1.0087551      21.082971      59.750411    
     80000   1.0011973      20.356863      59.62689     
     81000   0.99029287     20.491228      59.651749    
     82000   0.98695132     20.395893      59.497139    
     83000   1.0060286      20.320037      59.475856    
     84000   0.98056019     20.179517      59.334792    
     85000   1.0019746      20.299968      59.104808    
     86000   1.0018555      20.810582      59.147322    
     87000   0.96387121     20.50677       59.405446    
     88000   0.95252211     20.124079      59.486613    
     89000   1.0387148      20.504077      59.193479    
     90000   1.0594763      20.397388      59.150971    
     91000   1.0400214      20.340194      58.991386    
     92000   0.9923508      20.521336      58.916046    
     93000   1.0179815      20.54828       58.928999    
     94000   0.98668962     20.565514      58.754865    
     95000   1.0139273      20.408757      58.587802    
     96000   1.0015959      20.474558      58.61028     
     97000   1.0065284      19.955102      58.592945    
     98000   1.002085       20.321112      58.605968    
     99000   0.98926755     20.053204      58.349104    
    100000   0.98751727     20.39308       58.325347    
Loop time of 432.813 on 2 procs for 100000 steps with 993 atoms

Performance: 199624.422 tau/day, 231.047 timesteps/s
102.4% CPU use with 1 MPI tasks x 2 OpenMP threads

MPI task timing breakdown:
Section |  min time  |  avg time  |  max time  |%varavg| %total
---------------------------------------------------------------
Pair    | 1.3796     | 1.3796     | 1.3796     |   0.0 |  0.32
Bond    | 2.1655     | 2.1655     | 2.1655     |   0.0 |  0.50
Neigh   | 424.1      | 424.1      | 424.1      |   0.0 | 97.99
Comm    | 0.034931   | 0.034931   | 0.034931   |   0.0 |  0.01
Output  | 0.2783     | 0.2783     | 0.2783     |   0.0 |  0.06
Modify  | 4.5113     | 4.5113     | 4.5113     |   0.0 |  1.04
Other   |            | 0.3431     |            |       |  0.08

Nlocal:            993 ave         993 max         993 min
Histogram: 1 0 0 0 0 0 0 0 0 0
Nghost:              0 ave           0 max           0 min
Histogram: 1 0 0 0 0 0 0 0 0 0
Neighs:           8437 ave        8437 max        8437 min
Histogram: 1 0 0 0 0 0 0 0 0 0

Total # of neighbors = 8437
Ave neighs/atom = 8.4964753
Ave special neighs/atom = 1.9979859
Neighbor list builds = 1183
Dangerous builds = 0

# Replace lj potential, now collapse
pair_style      lj/cut 3

# Cutoff simul when gyration under 10
# Variable created with equal requires v_ + 'name'
fix 3 all halt 1000 v_rog < 7

run 3000000
Generated 0 of 0 mixed pair_coeff terms from geometric mixing rule
Last active /omp style is angle_style cosine/omp
Per MPI rank memory allocation (min/avg/max) = 1862 | 1862 | 1862 Mbytes
   Step          Temp         Enthalpy         c_1      
    100000   0.98751727     19.508918      58.325347    
    101000   0.9606153      19.579638      58.328042    
    102000   1.0240815      19.689207      57.995679    
    103000   0.97274451     19.571099      57.865958    
    104000   1.0214278      19.621492      57.78391     
    105000   1.0088489      19.245522      57.619706    
    106000   1.0252474      19.274079      57.646449    
    107000   0.99930792     19.08495       57.310371    
    108000   0.99813186     19.320695      57.215637    
    109000   0.99395723     19.055765      57.006031    
    110000   1.0788499      18.596625      56.788614    
    111000   1.0087982      18.56689       56.856173    
    112000   0.95781033     18.537154      56.838564    
    113000   0.99075409     18.643199      56.564417    
    114000   1.0278839      19.016206      56.532442    
    115000   0.98230222     18.526942      56.337643    
    116000   0.96417842     18.274056      56.077632    
    117000   0.9906591      18.653126      55.855082    
    118000   0.97183834     18.497077      55.763873    
    119000   1.055646       18.299289      55.705441    
    120000   1.0139441      17.975601      55.616659    
    121000   1.0055368      18.756969      55.466794    
    122000   1.0629315      17.830381      55.366094    
    123000   1.0432032      18.347634      55.233865    
    124000   0.9695301      17.600933      55.030865    
    125000   1.0024999      17.990187      55.110223    
    126000   1.0098858      17.929079      54.943615    
    127000   0.98636502     17.994513      54.771515    
    128000   0.98039356     18.053037      54.559736    
    129000   1.0011869      18.512004      54.53744     
    130000   0.97693065     18.084083      54.424038    
    131000   0.94311182     18.213581      54.755209    
    132000   1.0347966      17.796046      54.855655    
    133000   0.98151812     17.604639      54.753634    
    134000   0.99143351     17.8267        54.546125    
    135000   0.98975396     18.306124      54.087094    
    136000   1.0038659      18.062722      54.003161    
    137000   0.98156816     17.420979      53.918015    
    138000   1.0098131      17.783309      53.721298    
    139000   1.0053772      17.629949      53.454461    
    140000   0.96273991     18.104452      53.505797    
    141000   1.0275277      18.412535      53.548591    
    142000   1.0233654      17.170861      53.29213     
    143000   1.0109085      17.909985      53.137426    
    144000   0.98043495     18.219625      53.244241    
    145000   0.99241502     17.610615      53.119746    
    146000   0.98654453     17.796765      52.876556    
    147000   1.0082218      18.167207      53.047523    
    148000   1.0089236      18.598687      52.996771    
    149000   0.99579545     17.508148      53.021079    
    150000   1.0009296      17.647102      52.966406    
    151000   1.0176843      17.550659      52.648295    
    152000   0.99758966     18.2357        52.424264    
    153000   1.038013       18.23338       52.024843    
    154000   0.98905048     17.715675      51.658784    
    155000   1.0089068      17.749887      51.438079    
    156000   1.0553242      17.902573      51.250406    
    157000   1.0320377      17.92761       51.061247    
    158000   1.0083673      17.747861      50.853938    
    159000   1.0510271      18.056083      50.586599    
    160000   0.99280656     17.413536      50.266491    
    161000   0.98243577     17.699805      50.100834    
    162000   1.06287        17.912453      50.048028    
    163000   0.98491894     17.67132       49.830621    
    164000   1.0161433      18.615307      49.779243    
    165000   1.0110905      17.511128      49.732807    
    166000   0.99093139     18.57716       49.587018    
    167000   1.0259812      18.639792      49.610954    
    168000   1.0024949      17.796218      49.564733    
    169000   0.98022272     18.280436      49.754007    
    170000   1.0029885      18.09736       49.689903    
    171000   1.049163       18.470562      49.691517    
    172000   0.97893766     17.668175      49.692071    
    173000   1.0265255      18.349827      49.782345    
    174000   1.0267787      17.907019      50.24407     
    175000   0.98292602     17.807595      50.042919    
    176000   1.0351351      18.414065      49.993348    
    177000   1.0317305      18.179878      49.90247     
    178000   0.99110869     17.374742      49.793119    
    179000   1.0198692      17.293876      49.574669    
    180000   1.0156585      17.892059      49.537393    
    181000   0.99379208     18.375607      49.52567     
    182000   0.97576173     17.771564      49.299803    
    183000   1.00736        17.887324      49.267616    
    184000   1.0153758      17.733068      49.195587    
    185000   0.98709615     18.086067      49.02319     
    186000   1.0091042      18.391228      48.959255    
    187000   0.98264304     18.055441      48.874073    
    188000   1.0204376      17.924898      48.676327    
    189000   1.0320714      17.641425      48.526188    
    190000   0.99285637     18.292459      48.236701    
    191000   1.0298725      18.037706      47.908196    
    192000   0.98020925     18.4449        47.673201    
    193000   0.97412544     17.812302      47.396768    
    194000   1.0482439      17.450707      47.259396    
    195000   0.97544763     18.591212      47.016222    
    196000   1.0201163      17.317137      46.883728    
    197000   1.0166543      17.546165      46.728108    
    198000   1.014661       17.637637      46.534457    
    199000   0.96106061     17.433256      46.456475    
    200000   1.0383081      17.990247      46.459874    
    201000   0.98256301     18.170496      46.448451    
    202000   1.0538505      17.592815      46.471173    
    203000   1.0464861      17.629801      46.331717    
    204000   0.99331886     17.455539      46.296707    
    205000   1.0244106      17.577417      46.348274    
    206000   1.0133538      17.821398      46.123064    
    207000   0.95074341     18.420329      46.194056    
    208000   1.0331727      18.098425      46.336281    
    209000   0.95822328     17.582314      46.009148    
    210000   0.9921899      17.831165      45.788589    
    211000   1.0254474      18.148242      45.594958    
    212000   0.99031578     17.939524      45.58154     
    213000   1.0280541      17.756115      45.488481    
    214000   1.0187465      17.701153      45.426485    
    215000   1.0153014      17.991204      45.120423    
    216000   1.0698228      18.153788      45.167633    
    217000   0.97769714     17.745692      45.114933    
    218000   0.97734099     17.706113      45.131957    
    219000   1.0644451      18.137466      45.264436    
    220000   1.0357871      17.280105      45.289763    
    221000   1.0161209      17.783721      45.156912    
    222000   0.96219319     17.541312      45.095205    
    223000   1.0066193      18.030502      44.985408    
    224000   0.97033323     18.268776      45.064541    
    225000   1.007655       17.3969        45.116499    
    226000   0.97200149     18.397957      45.060406    
    227000   0.95678303     17.570027      45.232411    
    228000   0.95899382     17.900499      45.300849    
    229000   0.94748954     17.642129      45.060101    
    230000   0.981077       17.732614      45.030464    
    231000   1.0135572      18.011809      44.74941     
    232000   1.0702075      18.098282      44.673545    
    233000   0.96583552     18.244183      44.754519    
    234000   0.96717413     17.796749      44.787198    
    235000   0.97519907     17.999175      44.487177    
    236000   0.96745516     17.431627      44.288016    
    237000   0.98812248     17.811116      44.108147    
    238000   0.98317819     18.026445      44.038842    
    239000   1.0049794      17.914951      43.941477    
    240000   0.96903315     18.109871      43.552081    
    241000   1.0498791      18.002724      43.537431    
    242000   1.075749       18.337127      43.524691    
    243000   0.99390928     18.262773      43.121322    
    244000   1.0235619      18.622966      42.975644    
    245000   1.0244412      18.09916       42.78998     
    246000   1.0240066      17.996999      42.893699    
    247000   0.96360778     18.214974      42.988633    
    248000   1.0296386      17.700899      42.993822    
    249000   1.0003         17.983642      42.861743    
    250000   1.003295       17.782985      42.816998    
    251000   1.0154735      18.119986      42.581643    
    252000   1.0121347      17.315273      42.449392    
    253000   1.0067892      17.87792       42.51453     
    254000   0.97825411     17.478518      42.484433    
    255000   1.0136617      17.8383        42.60747     
    256000   0.98005738     18.062371      42.392544    
    257000   1.00502        17.726328      42.31553     
    258000   1.0310057      17.687426      42.116058    
    259000   1.0291933      17.640759      42.063776    
    260000   0.99144611     18.640255      41.98852     
    261000   0.99034165     17.838321      42.009495    
    262000   1.0590522      18.348605      41.738943    
    263000   0.99603287     17.751863      41.716579    
    264000   1.0094711      17.968963      41.697884    
    265000   1.037675       18.298745      41.556494    
    266000   0.95900877     17.81138       41.536301    
    267000   0.98048603     18.007486      41.457654    
    268000   1.0363895      17.879208      41.399308    
    269000   1.0040689      17.520552      41.064292    
    270000   1.0011056      17.984595      41.070731    
    271000   0.97949882     17.141703      41.248287    
    272000   0.98354973     17.817599      41.191351    
    273000   0.96558447     17.372753      40.937803    
    274000   1.0303668      17.527607      40.86734     
    275000   0.99675465     17.677065      40.728194    
    276000   0.99864352     17.769473      40.72275     
    277000   1.031103       17.851937      40.406595    
    278000   1.0348267      18.034441      40.24135     
    279000   1.0129966      17.729376      40.043586    
    280000   1.0050552      17.37834       39.827107    
    281000   1.0242751      18.021542      39.671788    
    282000   1.0198786      18.068157      39.754775    
    283000   0.98224811     17.430522      39.723884    
    284000   1.0077139      17.492175      39.517852    
    285000   0.98358511     17.191419      39.300178    
    286000   0.95871304     17.332         39.246383    
    287000   1.0562076      17.384177      39.22606     
    288000   1.0194946      17.750638      39.301531    
    289000   0.99614978     17.43007       39.205404    
    290000   1.0100923      17.829215      39.036385    
    291000   1.0077794      17.817252      38.927508    
    292000   1.0505077      17.822512      38.856863    
    293000   1.0369691      18.072792      38.641438    
    294000   0.99790704     17.677129      38.56374     
    295000   0.97968549     17.548773      38.289562    
    296000   0.97988461     18.014511      38.183875    
    297000   0.99243958     17.831915      38.062879    
    298000   1.0142809      17.451772      38.173072    
    299000   1.0400036      17.869637      38.178333    
    300000   1.0308101      17.695444      37.973543    
    301000   0.98132541     17.546322      37.810678    
    302000   1.0153347      18.26231       37.883991    
    303000   1.012781       17.732617      37.638486    
    304000   0.9846613      17.173987      37.416595    
    305000   1.0059707      17.350184      37.263875    
    306000   1.0164755      17.981938      37.115979    
    307000   0.97071266     17.230963      36.92781     
    308000   0.98227164     18.035882      36.809497    
    309000   1.0032996      17.838813      36.605421    
    310000   0.9701339      18.201425      36.377067    
    311000   0.98101749     17.444806      36.293745    
    312000   1.0334303      17.58595       36.173818    
    313000   0.99573594     18.075815      35.992382    
    314000   0.99428819     17.646083      35.881998    
    315000   1.0517591      17.712958      35.635783    
    316000   0.98270416     17.612811      35.556457    
    317000   0.98545404     17.409432      35.382301    
    318000   0.99195427     17.165077      35.239439    
    319000   0.97637714     17.730443      35.276492    
    320000   1.0024133      17.576688      35.155533    
    321000   1.0307437      17.274256      34.91042     
    322000   1.0302456      17.833221      34.492634    
    323000   1.0024282      17.926447      34.330552    
    324000   1.0146621      17.676184      34.385632    
    325000   0.98528702     17.837085      34.555606    
    326000   0.96168843     17.4999        34.553898    
    327000   1.0232222      17.478477      34.542139    
    328000   0.9651231      17.340322      34.481396    
    329000   0.97681543     17.644888      34.411414    
    330000   1.0036696      17.871315      34.217712    
    331000   1.0475714      17.277668      34.12488     
    332000   0.99466796     17.629503      34.015042    
    333000   1.0484945      17.902575      33.883601    
    334000   0.97560307     17.618985      33.849856    
    335000   1.0050689      17.870116      33.859768    
    336000   1.047483       17.706626      33.812629    
    337000   1.0078732      17.261056      33.708948    
    338000   1.0075551      17.651809      33.547107    
    339000   0.98012809     17.390524      33.574088    
    340000   0.99352346     17.125605      33.554651    
    341000   1.0141152      17.386008      33.48744     
    342000   0.99277889     17.610922      33.349706    
    343000   0.99197862     17.232924      33.242809    
    344000   0.95461695     17.00568       33.060038    
    345000   0.99390385     17.914756      32.917796    
    346000   1.0176722      17.616236      32.98717     
    347000   0.98908369     18.055847      33.157812    
    348000   0.966777       17.704557      33.005181    
    349000   1.0108668      17.616409      32.998139    
    350000   1.0135777      17.043129      32.999998    
    351000   1.0313383      17.964287      32.819777    
    352000   1.0240135      17.516073      32.768426    
    353000   0.9696893      17.976497      32.663082    
    354000   1.0126134      17.37083       32.310031    
    355000   0.98723659     17.507332      32.22074     
    356000   0.96437534     17.014347      32.24116     
    357000   1.0203672      17.653635      32.095208    
    358000   1.0285011      17.649004      32.020592    
    359000   0.99309304     17.540804      31.909488    
    360000   0.95529679     17.556094      31.742077    
    361000   0.96533128     17.858399      31.807783    
    362000   1.0485675      17.752639      31.873374    
    363000   1.035841       18.090092      31.962042    
    364000   0.94890332     17.429871      31.817257    
    365000   0.97714262     17.690491      31.913978    
    366000   0.98278023     17.732468      31.936904    
    367000   0.99724538     17.348701      31.873697    
    368000   0.98722242     17.240226      31.806006    
    369000   1.0166665      17.403681      31.727296    
    370000   1.0056537      17.302807      31.632119    
    371000   0.94587568     17.153536      31.65547     
    372000   0.98549311     17.339683      31.644179    
    373000   1.013303       17.264887      31.646852    
    374000   1.023743       17.703238      31.627773    
    375000   0.96974593     17.940552      31.621044    
    376000   1.0202217      17.542298      31.522716    
    377000   0.95829777     17.316974      31.126553    
    378000   0.98072029     17.347421      31.141771    
    379000   0.98772306     17.081241      31.26084     
    380000   1.0151927      17.480864      31.237375    
    381000   1.0135929      17.482701      31.22937     
    382000   1.0123887      17.456546      31.17869     
    383000   1.0423977      17.658274      31.155212    
    384000   0.96518234     17.488776      31.134961    
    385000   0.98090829     18.510856      30.981142    
    386000   0.97858087     17.713511      30.585389    
    387000   0.99699802     17.341839      30.462851    
    388000   1.0302101      17.551525      30.635113    
    389000   1.0041282      17.24114       30.497552    
    390000   1.0070488      17.235023      30.411632    
    391000   0.973258       17.842754      29.902401    
    392000   1.0288031      17.685331      29.860289    
    393000   1.043691       17.600886      29.726144    
    394000   0.99676468     17.796405      29.382018    
    395000   0.96533531     17.297663      29.461759    
    396000   0.99129761     18.123187      29.452766    
    397000   1.0099709      17.427532      29.386785    
    398000   1.0075496      17.657177      29.328851    
    399000   1.0158007      17.711294      29.160848    
    400000   0.97862065     17.161806      28.729458    
    401000   0.98832969     17.530694      28.492258    
    402000   1.0108061      17.557973      28.302143    
    403000   1.0151493      17.969698      28.251951    
    404000   0.96506493     18.004633      28.36082     
    405000   1.0146828      17.309104      28.329682    
    406000   1.0030076      17.619361      28.154262    
    407000   1.0249945      17.655338      28.066304    
    408000   1.0141751      18.573347      28.063535    
    409000   1.0582675      18.052926      28.027788    
    410000   0.9618686      17.574324      28.088691    
    411000   0.95283075     17.382287      27.851311    
    412000   1.0123768      17.923598      27.790068    
    413000   1.0129959      17.892473      27.518254    
    414000   0.99225697     17.467773      27.678675    
    415000   1.0064652      17.884482      27.487288    
    416000   0.98581389     17.289894      27.404862    
    417000   1.0081317      17.717633      27.134482    
    418000   0.96912986     17.983588      27.140424    
    419000   0.96973417     17.104246      27.069654    
    420000   1.0286366      17.834458      27.009433    
    421000   0.98433662     17.881681      27.094765    
    422000   0.97370814     17.732186      26.937245    
    423000   0.98578386     16.775651      26.702227    
    424000   1.0574973      17.364186      26.293925    
    425000   1.060991       18.035947      26.252677    
    426000   0.99216212     17.305543      26.121461    
    427000   0.98733633     16.759899      26.055626    
    428000   0.99106319     17.129039      25.947323    
    429000   1.0390393      17.42778       25.793092    
    430000   1.0091923      17.232518      25.654299    
    431000   1.0000959      17.382616      25.580078    
    432000   0.9793191      17.012583      25.545505    
    433000   0.96538498     17.693807      25.554916    
    434000   1.0553561      17.26713       25.314076    
    435000   1.0013444      18.000044      25.204359    
    436000   0.94642746     17.892808      25.140356    
    437000   1.021635       17.182123      24.944966    
    438000   1.0576076      18.084558      24.661618    
    439000   1.0161549      17.37054       24.279402    
    440000   0.95847251     17.359041      24.121856    
    441000   1.0111606      17.88137       24.215093    
    442000   0.97101057     17.21657       23.854174    
    443000   1.0165089      17.309563      23.728485    
    444000   1.0283095      17.458241      23.616658    
    445000   1.0235391      17.310607      23.629932    
    446000   1.0093342      17.942055      23.614177    
    447000   0.98380509     17.873281      23.465998    
    448000   1.0252139      17.136882      23.474021    
    449000   0.98060923     17.67334       23.706573    
    450000   1.0505611      17.681083      23.64458     
    451000   1.0020681      17.644478      23.357708    
    452000   1.017495       17.470438      23.32013     
    453000   1.0421346      17.308569      23.485491    
    454000   0.97636468     17.043466      23.352492    
    455000   1.0090359      17.630673      23.194044    
    456000   1.0435833      17.005095      23.206701    
    457000   1.0150388      17.066938      23.332436    
    458000   1.0354125      17.279597      23.151421    
    459000   0.98323573     17.216076      23.18826     
    460000   1.0204976      17.393624      23.075116    
    461000   1.0099061      17.29984       23.321334    
    462000   1.0123381      17.841699      23.390729    
    463000   1.0025053      17.100497      23.484332    
    464000   0.98368582     17.700886      23.652867    
    465000   1.0029475      17.63655       23.586265    
    466000   0.97391809     17.222004      23.313221    
    467000   1.0003115      17.243606      23.047932    
    468000   1.064668       17.355007      22.744054    
    469000   0.9680553      16.541575      22.937561    
    470000   0.99338419     17.320301      22.991332    
    471000   1.0077047      17.492534      22.753434    
    472000   1.0042266      17.792425      22.502748    
    473000   0.98692201     17.474412      22.314174    
    474000   0.98475553     18.246841      22.331946    
    475000   1.0097544      16.893884      22.123266    
    476000   0.99547794     17.357502      22.091511    
    477000   1.0011935      17.45027       21.974529    
    478000   1.0226984      17.750498      21.944781    
    479000   1.0060033      17.305601      21.671216    
    480000   1.0468593      17.700135      21.818061    
    481000   1.0230317      17.005716      21.528309    
    482000   1.0224206      17.419153      21.512643    
    483000   1.0201295      17.273629      21.366144    
    484000   1.0381749      18.011457      21.309828    
    485000   0.98735618     17.795513      21.316786    
    486000   0.95737109     17.701452      21.314989    
    487000   0.99840716     17.419016      21.099308    
    488000   0.97271515     17.422406      20.967937    
    489000   1.0318338      17.86269       20.700348    
    490000   1.0370887      17.487431      20.611122    
    491000   0.96351304     17.667432      20.583543    
    492000   0.98779808     17.631255      20.528146    
    493000   0.99419395     17.26916       20.387565    
    494000   1.009945       17.337316      20.331913    
    495000   0.98027746     17.058862      20.311387    
    496000   0.99608244     17.011182      20.421711    
    497000   1.0430075      17.271189      20.547356    
    498000   0.97729051     17.576828      20.495553    
    499000   1.0264747      17.842198      20.481949    
    500000   1.0183202      17.422046      20.299297    
    501000   1.001043       17.453904      20.26259     
    502000   0.99425349     17.209267      20.602821    
    503000   0.9835597      17.040639      20.525994    
    504000   1.0085201      17.956028      20.464619    
    505000   0.99914448     17.034191      20.249581    
    506000   0.99778901     17.268172      20.110592    
    507000   1.0030277      17.559551      19.877428    
    508000   1.0152951      17.430818      19.579601    
    509000   1.0346383      17.562717      19.710906    
    510000   1.0184951      17.904149      19.516181    
    511000   0.9971203      17.22192       19.363205    
    512000   0.98912617     17.731326      19.224077    
    513000   0.96294679     18.112741      19.209277    
    514000   1.0097232      17.101502      19.074689    
    515000   0.99770292     18.13728       19.15345     
    516000   1.0049852      17.086581      18.990161    
    517000   1.0105244      17.426314      18.797047    
    518000   0.9997604      17.143707      18.670328    
    519000   1.0051917      17.754415      18.615552    
    520000   0.96059238     16.961013      18.529393    
    521000   0.99217194     16.98275       18.546113    
    522000   1.041341       17.420008      18.418114    
    523000   0.95919452     17.878225      18.320474    
    524000   0.98300172     17.277226      18.525505    
    525000   0.96473118     17.23949       18.436071    
    526000   1.0263836      17.641329      18.110591    
    527000   1.0046034      17.265557      17.946989    
    528000   1.0042209      17.301261      17.824208    
    529000   0.99257066     17.65006       17.630199    
    530000   1.0139637      17.046251      17.348331    
    531000   0.98608774     17.540708      17.196133    
    532000   1.0064258      17.369708      17.203185    
    533000   1.0070098      17.420429      17.242477    
    534000   0.99150722     17.110332      17.272589    
    535000   0.96259819     17.07196       17.370603    
    536000   0.9519429      17.42439       17.328627    
    537000   1.0770226      17.200201      17.307034    
    538000   1.032198       17.072243      17.271131    
    539000   1.0058427      17.151713      17.165959    
    540000   0.98455654     17.121924      16.980241    
    541000   0.97433083     17.695448      16.688012    
    542000   0.99127295     17.048796      16.632763    
    543000   1.0524366      18.019443      16.615433    
    544000   0.99320231     16.763127      16.629637    
    545000   1.0106626      16.685125      16.547407    
    546000   0.994932       17.003758      16.464024    
    547000   0.93422572     17.092894      16.303166    
    548000   0.95856559     17.324205      16.22457     
    549000   0.94830897     16.65906       16.169988    
    550000   0.97655199     16.79979       15.982224    
    551000   1.0110017      16.987434      15.918598    
    552000   1.0044747      16.391201      15.711308    
    553000   1.0321165      17.300328      15.674976    
    554000   1.0054114      17.414838      15.741162    
    555000   0.99211835     17.384369      15.637414    
    556000   0.95658474     17.388012      15.490409    
    557000   1.0182279      17.428461      15.431516    
    558000   1.0362831      17.263244      15.533226    
    559000   1.0407709      17.240184      15.554389    
    560000   1.0065227      17.493779      15.487297    
    561000   1.0015106      16.362402      15.208347    
    562000   1.0072867      16.721438      15.301054    
    563000   0.95308027     17.546992      15.172341    
    564000   1.0159255      17.285063      15.056805    
    565000   1.0253304      17.554959      14.851883    
    566000   0.95595327     16.82836       14.891621    
    567000   1.0038027      17.577885      15.119541    
    568000   1.0210081      17.451819      15.082761    
    569000   0.99931828     17.302251      15.205045    
    570000   0.99847195     16.650475      15.044691    
    571000   1.0365642      17.522827      15.052686    
    572000   0.990559       18.212451      14.893287    
    573000   1.0020604      17.405404      14.782467    
    574000   1.0206678      17.468962      14.722464    
    575000   0.97700861     16.799353      14.672614    
    576000   0.97366678     17.570307      14.554926    
    577000   0.99602865     16.656438      14.440794    
    578000   1.0002586      17.085585      14.447451    
    579000   0.9996797      17.249023      14.449702    
    580000   0.97062947     17.481771      14.645636    
    581000   0.98309515     16.894692      14.682821    
    582000   1.0039424      17.091147      14.639559    
    583000   1.0103183      17.202724      14.561635    
    584000   0.9605999      17.164877      14.472047    
    585000   1.0283182      16.994844      14.26857     
    586000   0.99956757     17.169167      14.025354    
    587000   0.98881355     16.730272      13.888693    
    588000   0.98591982     16.85728       14.050463    
    589000   1.0053853      17.645531      14.160657    
    590000   1.0248202      17.257873      14.51774     
    591000   1.0108345      17.743209      14.533977    
    592000   0.99745137     17.46275       14.440756    
    593000   1.0020585      17.388521      14.246791    
    594000   0.99214962     16.530966      14.03803     
    595000   0.97108543     17.63534       13.979266    
    596000   0.99826379     16.841393      13.678541    
    597000   0.98461284     17.0731        13.733823    
    598000   0.98662565     17.21779       13.770806    
    599000   0.99808445     17.138065      13.814559    
    600000   0.97788487     16.81384       13.702645    
    601000   0.9608586      17.338831      13.413927    
    602000   0.99782651     17.641054      13.155745    
    603000   0.98642104     17.416224      13.09819     
    604000   1.0040164      17.45289       12.810512    
    605000   0.96336851     17.267057      12.742492    
    606000   0.95179877     17.288301      12.631955    
    607000   1.0647515      16.830157      12.502161    
    608000   1.0100057      17.544052      12.393649    
    609000   0.98904763     16.764182      12.382653    
    610000   1.0192265      17.285563      12.274762    
    611000   0.9852122      17.400037      12.36565     
    612000   1.0375223      17.562305      12.30775     
    613000   0.98901297     16.735841      12.539282    
    614000   0.99460949     17.19545       12.347534    
    615000   0.94683511     17.103013      12.304505    
    616000   1.026804       17.207182      12.135952    
    617000   1.0607557      17.426355      12.010209    
    618000   1.0225568      17.273517      11.942117    
    619000   0.99231154     16.90445       11.73403     
    620000   1.0067819      16.952386      11.888804    
    621000   1.07834        17.305198      11.64889     
    622000   1.00498        17.413471      11.61526     
    623000   1.0104205      17.308173      11.250425    
    624000   0.99964704     17.47051       11.132418    
    625000   1.0127213      17.320374      10.970743    
    626000   1.0157225      17.055832      10.903516    
    627000   1.0048047      16.731548      10.753751    
    628000   0.98421771     16.967963      10.57077     
    629000   0.99712429     16.614414      10.550856    
    630000   0.99983515     17.587975      10.489111    
    631000   1.0035688      17.126451      10.456967    
    632000   1.0389495      17.558445      10.438555    
    633000   0.99282544     17.75652       10.336315    
    634000   1.023828       17.511504      10.455478    
    635000   0.99927766     17.400082      10.454154    
    636000   0.97449877     16.775572      10.400368    
    637000   1.0136962      16.840714      10.525499    
    638000   0.97293836     16.592935      10.438106    
    639000   0.98825642     17.128169      10.473638    
    640000   0.98730069     17.329866      10.470791    
    641000   1.0187671      17.749019      10.448184    
    642000   1.0035649      17.276729      10.563236    
    643000   0.997161       17.073975      10.590385    
    644000   1.0091801      17.576204      10.566764    
    645000   1.0171875      17.910807      10.492599    
    646000   1.0344166      17.333664      10.483034    
    647000   0.97136793     16.941652      10.494433    
    648000   0.97968577     16.872043      10.630935    
    649000   1.0130357      16.800246      10.495951    
    650000   1.0563046      17.657515      10.289897    
    651000   1.0236596      17.200498      10.311317    
    652000   1.0066735      17.147415      10.255339    
    653000   0.96936765     17.395908      9.984195     
    654000   0.98727645     16.994733      10.010045    
    655000   0.99596668     17.135472      9.9929196    
    656000   1.0247434      16.918036      9.9673235    
    657000   1.0221471      17.024825      10.081957    
    658000   1.0356339      17.17774       9.7969173    
    659000   1.0089139      16.290158      9.665858     
    660000   1.0184912      17.628499      9.8228806    
    661000   1.0032625      16.940658      9.9262658    
    662000   0.99642882     17.309233      9.8123914    
    663000   1.0539237      17.44809       9.6116235    
    664000   0.99135828     17.140398      9.367416     
    665000   0.95544243     17.347264      9.4258126    
    666000   1.0654033      17.630727      9.3331075    
    667000   1.0175896      16.766905      9.1588868    
    668000   0.98778573     17.358825      9.0721968    
    669000   1.0287428      17.161816      9.1804854    
    670000   0.97752356     16.764524      9.116517     
    671000   0.98274459     16.026577      9.0567696    
    672000   1.0139243      17.088003      8.9338752    
    673000   0.99761075     16.981542      8.9057841    
    674000   0.99342105     16.872006      8.9550684    
    675000   1.015842       17.254652      8.7505805    
    676000   0.98270627     16.986681      8.6594909    
    677000   1.0418216      17.432118      8.5738036    
    678000   1.0363182      16.879342      8.4967019    
    679000   1.0203529      17.524393      8.390595     
    680000   1.0064861      17.031838      8.3652228    
    681000   0.95175225     16.833229      8.3040378    
    682000   1.0399704      17.340775      8.3076026    
    683000   1.0068245      17.313188      8.3485376    
    684000   0.95430148     16.999726      8.3505993    
    685000   1.0170792      17.195849      8.4586719    
    686000   0.9657781      17.158797      8.4712369    
    687000   1.0367108      17.487008      8.4221921    
    688000   0.9768914      17.223388      8.2705187    
    689000   1.0030434      17.402377      8.2819817    
    690000   1.0206876      17.007538      8.3249691    
    691000   1.0154494      16.800915      8.3837491    
    692000   0.98613721     17.606714      8.3974407    
    693000   0.99608657     17.346179      8.2447422    
    694000   0.99328174     17.069166      8.09023      
    695000   0.95343265     16.959009      7.9178136    
    696000   0.96778451     16.396553      7.7216796    
    697000   0.99926397     17.169418      7.7113176    
    698000   1.0542106      17.304141      7.4896526    
    699000   1.0215069      16.4955        7.1401148    
Fix halt condition for fix-id 3 met on step 700000 with value 6.90794249087492 (src/fix_halt.cpp:237)
    700000   0.99401884     16.903209      6.9079425    
Loop time of 1175.64 on 2 procs for 600000 steps with 993 atoms

Performance: 440950.766 tau/day, 510.360 timesteps/s
126.6% CPU use with 1 MPI tasks x 2 OpenMP threads

MPI task timing breakdown:
Section |  min time  |  avg time  |  max time  |%varavg| %total
---------------------------------------------------------------
Pair    | 249.84     | 249.84     | 249.84     |   0.0 | 21.25
Bond    | 16.649     | 16.649     | 16.649     |   0.0 |  1.42
Neigh   | 871.9      | 871.9      | 871.9      |   0.0 | 74.16
Comm    | 0.30259    | 0.30259    | 0.30259    |   0.0 |  0.03
Output  | 1.8795     | 1.8795     | 1.8795     |   0.0 |  0.16
Modify  | 31.874     | 31.874     | 31.874     |   0.0 |  2.71
Other   |            | 3.19       |            |       |  0.27

Nlocal:            993 ave         993 max         993 min
Histogram: 1 0 0 0 0 0 0 0 0 0
Nghost:              0 ave           0 max           0 min
Histogram: 1 0 0 0 0 0 0 0 0 0
Neighs:         207731 ave      207731 max      207731 min
Histogram: 1 0 0 0 0 0 0 0 0 0

Total # of neighbors = 207731
Ave neighs/atom = 209.19537
Ave special neighs/atom = 1.9979859
Neighbor list builds = 5049
Dangerous builds = 0

# This simulation is done
# Move onto the next one
clear
  using 2 OpenMP thread(s) per MPI task
package omp 0
using multi-threaded neighbor list subroutines
next f
jump SELF

###
# Reference paper:
# K. Kremer and G. S. Grest
# Dynamics of entangled linear polymer melts: A molecular-dynamics simulation
# J Chem Phys 92, 5057 (1990)

##################################
# MIHIR: for branched polymers
# LJ minimum first to expand and explore, then collapse
###

###
# Looping through the various nuc5branch4 polymers to simulate,
# define variables to switch through
variable f index bb37nuc5bl6bn4d30tot100 bb75nuc5bl12bn4d30tot200 bb112nuc5bl18bn4d30tot300 bb150nuc5bl25bn4d30tot400 bb187nuc5bl31bn4d30tot500 bb225nuc5bl37bn4d30tot600 bb262nuc5bl43bn4d30tot700 bb300nuc5bl50bn4d30tot800 bb337nuc5bl56bn4d30tot900 bb375nuc5bl62bn4d30tot1000 bb412nuc5bl68bn4d30tot1100 bb450nuc5bl75bn4d30tot1200
# variable f index bb75nuc5bl12bn4d30tot200
# variable f index bb337nuc5bl56bn4d30tot900
###


###
# Box and units  (use LJ units and periodic boundaries)
###

units lj
log nuc5branch4/logs3/$f.log
log nuc5branch4/logs3/bb412nuc5bl68bn4d30tot1100.log
