#atom_style bond #no stiffness
atom_style angle #with stiffness

boundary        p p p
###
# Pair interactions require lists of neighbours to be calculated
###

#neighbor 0.3 bin
neighbor 4 bin

neigh_modify every 1 delay 1 check yes
atom_modify sort 0 0
### Generate RESTART file, SPECIAL format, not a .txt file ###
### Useful if simulation crashes ###

restart 1000000 nuc5branch4/restarts3/$f.restart
restart 1000000 nuc5branch4/restarts3/bb450nuc5bl75bn4d30tot1200.restart
#############################



### READ "start" data file ###

read_data nuc5branch4/$f.dat
read_data nuc5branch4/bb450nuc5bl75bn4d30tot1200.dat
Reading data file ...
  orthogonal box = (-1000 -1000 -1000) to (1000 1000 1000)
  1 by 1 by 1 MPI processor grid
  reading atoms ...
  1201 atoms
  scanning bonds ...
  3 = max bonds/atom
  scanning angles ...
  6 = max angles/atom
  reading bonds ...
  1200 bonds
  reading angles ...
  1214 angles
Finding 1-2 1-3 1-4 neighbors ...
  special bond factors lj:    0        0        0       
  special bond factors coul:  0        0        0       
     4 = max # of 1-2 neighbors
     4 = max # of 1-3 neighbors
     8 = max # of 1-4 neighbors
    12 = max # of special neighbors
  special bonds CPU = 0.003 seconds
  read_data CPU = 0.170 seconds

######################

### READ "REstart" data file ###

######################



###
# Define groups (atom type 1 is group 'all')
###
group all type 1
1201 atoms in group all


###
# Dump configs - "simple dumpings"
###

###
# Dump configs + box coords
###

dump   1   all   custom   1000  nuc5branch4/trjs3/$f.lammpstrj  id  x y z  ix iy iz
dump   1   all   custom   1000  nuc5branch4/trjs3/bb450nuc5bl75bn4d30tot1200.lammpstrj  id  x y z  ix iy iz
dump_modify   1   format line "%d %.5f %.5f %.5f %d %d %d"

########################################################################


###################################################################
# Stiffness term
#
# E = K * (1+cos(theta)), K>0
#
angle_style   cosine
#change this coefficient to change stiffness (e.g. 1,5,10)
angle_coeff   1 1.0
###################################################################

###################################################################
# Pair interaction between non-bonded atoms
#
#  Lennard-Jones 12-6 potential with cutoff:
#  potential E=4epsilon[ (sigma/r)^12 - (sigma/r)^6]  for r<r_cut
#
#  1.12246 = 2^(1/6) is the minimum of the potential


pair_style      lj/cut 1.12246152962189
#pair_style      lj/cut 3

#
#  pair_modify shift yes adds a constant to the potential such

#  that E(r_cut)=0. Forces remains unchanged.
#

pair_modify     shift yes

#
#  pair_coeff for lj/cut, specify 4:
#    * atom type interacting with
#    * atom type
#    * epsilon (energy units)
#    * sigma (distance units)
#

pair_coeff      1 1 1.0 1.0
###################################################################

###################################################################
# Pair interaction between non-bonded atoms
#
#  soft potential, for PUSHING apart overlapping atoms
#  potential E=A*(1 + cos(pi*r/r_c))
#
#  1.12246 = 2^(1/6) is the cut-off r_c

#pair_style     soft 1.12246152962189

#
#  pair_coeff for soft, specify 3:
#    * atom type interacting with
#    * atom type
#    * A
#
#

#pair_coeff      1 1 100.0
###################################################################

###################################################################
# Pair interaction between bonded atoms
#
# Fene potential + Lennard Jones 12-6:

#
#  E= - 0.5 K R0^2 ln[ 1- (r/R0)^2]
#     + 4epsilon[ (sigma/r)^12 - (sigma/r)^6] + epsilon
#

bond_style   fene


#
# For style fene, specify:
#   * bond type
#   * K (energy/distance^2)
#   * R0 (distance)
#   * epsilon (energy)  (LJ component)
#   * sigma (distance)  (LJ component)
#


special_bonds fene #<=== I M P O R T A N T (new command)
Finding 1-2 1-3 1-4 neighbors ...
  special bond factors lj:    0        1        1       
  special bond factors coul:  0        1        1       
     4 = max # of 1-2 neighbors
    12 = max # of special neighbors
  special bonds CPU = 0.001 seconds

bond_coeff   1   30   2   1.0   1.0


###################################################

###################################################################
# Pair interaction between bonded atoms
#
# Harmonic potential:
#
#  E= K * (R-R0)^2
#

#bond_style   harmonic

#
# For style harmonic, specify:
#   * bond type
#   * K (energy/distance^2)
#   * R0 (distance)
#

#bond_coeff   1   60.0   1.0
#bond_coeff   2   harmonic 0.1   1.0

###################################################
compute 1 all gyration
variable rog equal c_1
#compute 2 all coord/atom cutoff 1.1

#dump 2 all custom 10000 contact_number.dump id c_2


###
# Set up fixes
###
thermo_style   custom   step  temp enthalpy c_1
fix 1 all nve   ###NVE ensemble

fix 2 all   langevin   1.0 1.0 1.0  158102   ###Langevin integrator Tstart Tstop 1/friction rndseed


##### Sample thermodynamic info  (temperature, energy, pressure, etc.) #####
thermo 1000









############################################################################

###
# set timestep of integrator

timestep 0.01

###
# run integration for a number of steps
###
#run 0
#variable r equal c_1
#if "$r < 63.1" then "quit 1"

# lj potential minimum, cause molecule to explore
run 100000
Generated 0 of 0 mixed pair_coeff terms from geometric mixing rule
Last active /omp style is angle_style cosine/omp
Neighbor list info ...
  update: every = 1 steps, delay = 1 steps, check = yes
  max neighbors/atom: 2000, page size: 100000
  master list distance cutoff = 5.1224615
  ghost atom cutoff = 5.1224615
  binsize = 2.5612308, bins = 781 781 781
  1 neighbor lists, perpetual/occasional/extra = 1 0 0
  (1) pair lj/cut/omp, perpetual
      attributes: half, newton on, omp
      pair build: half/bin/newton/omp
      stencil: half/bin/3d
      bin: standard
WARNING: Communication cutoff 5.12246152962189 is shorter than a bond length based estimate of 5.455. This may lead to errors. (src/comm.cpp:723)
Per MPI rank memory allocation (min/avg/max) = 1862 | 1862 | 1862 Mbytes
   Step          Temp         Enthalpy         c_1      
         0   0              13.248526      91.380758    
      1000   0.95600075     18.559526      90.753464    
      2000   0.97251294     19.027788      90.263118    
      3000   0.96655691     19.115845      89.636142    
      4000   0.98043794     19.050108      89.29521     
      5000   1.0178604      19.34731       89.111114    
      6000   1.0123874      19.43319       88.693976    
      7000   0.95362892     19.267711      88.224294    
      8000   0.99316019     19.245157      87.944363    
      9000   0.98961677     19.643271      87.535614    
     10000   1.0083371      19.45288       87.158072    
     11000   0.98449903     19.564582      86.828617    
     12000   0.98456841     19.991174      86.531538    
     13000   0.96662599     20.08235       86.162036    
     14000   0.95216062     19.622394      86.015677    
     15000   1.001221       19.775962      85.611501    
     16000   1.0226732      19.729238      85.541673    
     17000   1.0229442      20.106162      85.36497     
     18000   0.98370664     20.229657      85.109546    
     19000   0.98269114     20.090103      85.008312    
     20000   0.98090939     19.968455      84.712901    
     21000   1.0078964      20.706864      84.521581    
     22000   0.99430929     19.591397      84.430411    
     23000   1.0364397      20.340558      84.475328    
     24000   1.0118875      19.874445      84.421464    
     25000   0.99042253     20.794351      84.19227     
     26000   0.96928933     20.16307       83.979332    
     27000   1.0413306      19.900594      83.901377    
     28000   0.98604135     19.454561      83.826094    
     29000   1.0325623      20.166789      83.577426    
     30000   0.92933332     19.539393      83.627008    
     31000   1.0142527      20.545292      83.625378    
     32000   1.0044367      20.066841      83.411595    
     33000   1.0021704      20.368606      83.323345    
     34000   1.0291552      20.540867      83.119427    
     35000   0.98878969     19.917972      82.960044    
     36000   1.0026934      19.933733      82.775298    
     37000   1.0040623      19.829641      82.458977    
     38000   1.0101506      19.82617       82.200145    
     39000   1.0004153      20.277981      82.122708    
     40000   0.98645102     20.247804      81.886265    
     41000   0.96987998     19.980725      81.74483     
     42000   0.97840953     20.507882      81.581411    
     43000   0.99872983     19.711034      81.576858    
     44000   1.0055391      20.076026      81.372266    
     45000   1.0209025      20.328153      81.340512    
     46000   0.98288702     20.293301      81.318545    
     47000   1.0044452      20.30778       81.18268     
     48000   0.98451405     19.937842      81.188563    
     49000   0.9853727      20.023034      81.030996    
     50000   1.048463       20.421632      80.906295    
     51000   1.0415219      20.325433      80.861832    
     52000   0.98110372     20.084906      80.668978    
     53000   1.0420292      20.653633      80.471338    
     54000   1.0576252      20.427311      80.534354    
     55000   1.0209627      20.223631      80.362771    
     56000   1.0038887      20.074774      80.247053    
     57000   1.0176405      20.443865      80.175341    
     58000   0.9882499      20.002909      80.219131    
     59000   1.0040847      20.145731      80.442119    
     60000   0.99969014     20.697867      80.315833    
     61000   0.99787066     20.115663      80.165897    
     62000   0.96604665     20.713947      79.994689    
     63000   1.0526201      20.451728      79.875575    
     64000   1.0240835      20.158274      79.85068     
     65000   1.0002281      20.617111      79.81856     
     66000   1.0188246      20.783828      79.914622    
     67000   1.0117976      20.111256      80.107688    
     68000   0.97178753     20.306623      80.11771     
     69000   0.97053934     20.468389      79.865165    
     70000   1.0015901      20.047439      79.855632    
     71000   1.0035703      20.315263      79.688803    
     72000   0.98415922     20.579855      79.753981    
     73000   0.98918906     20.275183      79.813696    
     74000   0.99779632     20.44173       79.477587    
     75000   1.0589336      20.476211      79.498055    
     76000   0.98002666     19.767001      79.327704    
     77000   1.0084701      20.150923      79.568464    
     78000   1.0062309      20.401916      79.393856    
     79000   1.0153391      20.594694      79.464671    
     80000   0.98859415     20.291476      79.365371    
     81000   1.0161867      20.436931      79.284972    
     82000   0.96871007     20.389626      79.183297    
     83000   0.99359553     20.149698      79.196729    
     84000   1.0317485      20.951343      79.343062    
     85000   1.001887       20.375339      79.196586    
     86000   0.99457249     20.625351      79.045244    
     87000   0.9855336      20.38126       78.887195    
     88000   1.0328556      20.466621      78.72416     
     89000   1.0077742      20.266708      78.684005    
     90000   1.0224188      20.461902      78.638881    
     91000   1.0022916      20.057898      78.74219     
     92000   0.97013997     20.140977      78.662495    
     93000   1.0155361      20.602606      78.747462    
     94000   1.0391281      20.343819      78.419588    
     95000   0.98962398     20.253688      78.272078    
     96000   0.98634913     20.419918      78.109555    
     97000   0.99445827     20.583377      78.07984     
     98000   1.0186029      20.283019      77.766102    
     99000   1.0010194      20.34106       77.575213    
    100000   1.0102097      20.914157      77.572958    
Loop time of 470.919 on 2 procs for 100000 steps with 1201 atoms

Performance: 183470.958 tau/day, 212.351 timesteps/s
103.1% CPU use with 1 MPI tasks x 2 OpenMP threads

MPI task timing breakdown:
Section |  min time  |  avg time  |  max time  |%varavg| %total
---------------------------------------------------------------
Pair    | 1.8606     | 1.8606     | 1.8606     |   0.0 |  0.40
Bond    | 3.2643     | 3.2643     | 3.2643     |   0.0 |  0.69
Neigh   | 458.1      | 458.1      | 458.1      |   0.0 | 97.28
Comm    | 0.047644   | 0.047644   | 0.047644   |   0.0 |  0.01
Output  | 0.35635    | 0.35635    | 0.35635    |   0.0 |  0.08
Modify  | 6.7919     | 6.7919     | 6.7919     |   0.0 |  1.44
Other   |            | 0.5034     |            |       |  0.11

Nlocal:           1201 ave        1201 max        1201 min
Histogram: 1 0 0 0 0 0 0 0 0 0
Nghost:              0 ave           0 max           0 min
Histogram: 1 0 0 0 0 0 0 0 0 0
Neighs:           9197 ave        9197 max        9197 min
Histogram: 1 0 0 0 0 0 0 0 0 0

Total # of neighbors = 9197
Ave neighs/atom = 7.6577852
Ave special neighs/atom = 1.9983347
Neighbor list builds = 1198
Dangerous builds = 0

# Replace lj potential, now collapse
pair_style      lj/cut 3

# Cutoff simul when gyration under 10
# Variable created with equal requires v_ + 'name'
fix 3 all halt 1000 v_rog < 7

run 3000000
Generated 0 of 0 mixed pair_coeff terms from geometric mixing rule
Last active /omp style is angle_style cosine/omp
Per MPI rank memory allocation (min/avg/max) = 1862 | 1862 | 1862 Mbytes
   Step          Temp         Enthalpy         c_1      
    100000   1.0102097      20.124136      77.572958    
    101000   1.0304405      19.875786      77.717414    
    102000   0.99053619     19.789378      77.900851    
    103000   0.985307       19.446212      77.814777    
    104000   1.0121598      19.776138      77.643471    
    105000   0.98604624     19.090372      77.581831    
    106000   1.0073227      19.794216      77.391632    
    107000   1.0136887      19.06148       77.337373    
    108000   1.031368       19.218298      77.15202     
    109000   0.98093812     18.80116       77.172948    
    110000   1.0034254      19.725177      76.711705    
    111000   1.0018498      18.874268      76.7671      
    112000   0.99334025     18.736641      76.604678    
    113000   1.039017       18.89004       76.390356    
    114000   1.0232708      18.705431      76.143654    
    115000   1.0341804      18.988872      75.937545    
    116000   1.0093188      19.197409      75.726263    
    117000   0.98843604     18.963245      75.611192    
    118000   1.01385        18.781633      75.566958    
    119000   0.95489031     19.114282      75.232954    
    120000   0.98614745     18.61383       74.949178    
    121000   0.99016409     19.263903      74.67172     
    122000   0.99720367     18.38482       74.43196     
    123000   0.98737524     18.940406      74.232848    
    124000   1.0236854      18.629986      74.121021    
    125000   0.96767671     18.683024      73.821334    
    126000   0.97126119     18.360818      73.533373    
    127000   0.99250606     18.492717      73.304289    
    128000   1.0029396      18.163826      73.27769     
    129000   1.0325765      18.666581      72.981668    
    130000   0.97863207     18.272898      72.772639    
    131000   1.0151396      18.87364       72.591209    
    132000   1.0390043      18.119525      72.315441    
    133000   0.99835749     18.277334      72.350294    
    134000   1.0030928      18.531338      72.315763    
    135000   1.0329592      18.429331      72.161731    
    136000   1.0131044      18.079672      72.139981    
    137000   1.0201451      18.37486       71.931026    
    138000   0.97907807     18.561194      71.903737    
    139000   0.99942605     18.247765      71.659088    
    140000   0.99090338     18.023105      71.578104    
    141000   1.00749        18.015603      71.478634    
    142000   0.99726573     17.836711      71.397901    
    143000   1.0291113      18.129936      71.364618    
    144000   1.0010397      18.550463      71.182814    
    145000   0.94146645     17.557449      71.018662    
    146000   1.000034       17.865154      71.171434    
    147000   1.02407        18.010332      70.900975    
    148000   1.0137555      17.962487      70.692547    
    149000   1.0215178      17.736862      70.606065    
    150000   0.99132529     18.253677      70.251095    
    151000   1.0645857      18.665429      70.279141    
    152000   1.0062353      18.013093      70.304918    
    153000   1.0005954      17.657292      70.112891    
    154000   0.98975776     17.602998      69.911214    
    155000   0.94425523     18.072658      69.446007    
    156000   0.98884183     18.083498      69.279666    
    157000   0.99677406     17.694082      69.317647    
    158000   1.005419       17.615011      69.306247    
    159000   0.98426403     17.77281       69.11597     
    160000   1.0341223      17.448406      68.884664    
    161000   0.98342073     17.727791      69.076886    
    162000   0.99601851     17.955266      69.048621    
    163000   0.99069837     17.694037      69.03743     
    164000   1.0983675      18.315625      68.996511    
    165000   0.99538094     18.268075      69.148484    
    166000   1.0281868      18.114985      68.816579    
    167000   0.98971509     18.202046      68.664518    
    168000   0.98936895     17.700641      68.705524    
    169000   1.0274799      18.283168      68.636811    
    170000   0.98904742     17.859944      68.581181    
    171000   0.99238138     17.383629      68.285327    
    172000   0.99842317     18.051988      68.114439    
    173000   0.98771002     17.845258      68.06054     
    174000   1.0355114      18.541442      68.045168    
    175000   1.0247479      18.001515      67.85195     
    176000   1.0136146      17.856074      67.767185    
    177000   0.98553525     17.582269      67.554027    
    178000   0.96998853     18.264525      67.397555    
    179000   1.0131082      17.414445      67.226678    
    180000   1.0093763      18.385555      67.050376    
    181000   0.99954904     17.681565      66.940294    
    182000   0.95807603     17.836697      66.834276    
    183000   0.99243863     17.556808      66.704902    
    184000   0.99470893     17.674435      66.673155    
    185000   1.0169936      17.610486      66.601609    
    186000   0.9965276      17.812373      66.47879     
    187000   1.0265095      18.246534      66.359255    
    188000   1.0100745      18.065971      66.350362    
    189000   0.9839549      17.804745      66.090696    
    190000   0.99379462     18.127263      65.912472    
    191000   0.98478654     17.965658      65.831458    
    192000   1.0299781      17.834382      65.926609    
    193000   0.95869024     17.672866      65.663406    
    194000   0.99338325     17.869845      65.49969     
    195000   1.0113335      17.969147      65.512479    
    196000   1.0038281      17.919095      65.545435    
    197000   1.024371       18.278859      65.182275    
    198000   1.0004769      17.974278      65.217267    
    199000   1.0087783      17.710272      65.055553    
    200000   1.0276651      17.163961      64.905948    
    201000   1.0046078      18.230139      64.76588     
    202000   0.96781475     17.643655      64.716325    
    203000   0.98061468     17.693893      64.551243    
    204000   0.98535662     17.617366      64.380754    
    205000   1.0218226      17.768722      64.361293    
    206000   0.95068666     17.409237      64.235014    
    207000   1.0352625      18.093425      64.175731    
    208000   1.0138899      17.522856      64.055208    
    209000   0.9455056      17.769401      63.904584    
    210000   1.0286522      17.885215      63.885165    
    211000   0.99974491     17.5806        63.808744    
    212000   1.0312269      17.705528      63.879299    
    213000   1.0247247      17.85764       63.66607     
    214000   1.0078128      17.699848      63.556495    
    215000   1.0158839      17.89228       63.608251    
    216000   1.0476584      17.638222      63.591468    
    217000   0.97211745     17.502796      63.421826    
    218000   1.0374238      17.527742      63.521192    
    219000   1.0186454      17.848757      63.506237    
    220000   1.0119275      17.80052       63.211464    
    221000   1.0072331      17.944589      63.218204    
    222000   0.99325868     17.866857      63.081848    
    223000   1.0110831      17.926936      63.183241    
    224000   0.98884736     17.827061      63.140178    
    225000   1.0130041      18.166345      62.988948    
    226000   1.0072329      17.827205      62.929272    
    227000   1.0021918      17.789367      62.932782    
    228000   0.97484287     17.514252      62.743247    
    229000   0.97661211     17.818671      62.968542    
    230000   1.0006298      18.092237      63.046299    
    231000   1.0094242      18.056594      63.053803    
    232000   0.97701936     18.292213      62.806442    
    233000   0.97074534     17.470113      62.648117    
    234000   0.99104674     18.022287      62.659232    
    235000   1.0083668      17.981545      62.63717     
    236000   0.96482585     17.889015      62.418132    
    237000   0.99448454     17.594799      62.451528    
    238000   0.99252955     17.987062      62.397915    
    239000   0.97152721     17.549121      62.362851    
    240000   1.0272844      18.078781      62.331212    
    241000   0.98459744     17.721518      62.35495     
    242000   1.0013839      18.534801      62.587822    
    243000   0.99767053     18.813839      62.507595    
    244000   0.97625614     17.893213      62.556755    
    245000   0.96727619     17.709611      62.479095    
    246000   1.0092787      18.035253      62.333792    
    247000   0.99402862     17.524881      62.345072    
    248000   0.98581208     18.411389      62.326085    
    249000   0.99045391     17.303935      62.355325    
    250000   0.96220348     17.695121      62.153321    
    251000   1.0571207      18.11928       61.909186    
    252000   0.99871861     17.590984      61.653272    
    253000   0.9950579      18.046485      61.545968    
    254000   1.003375       18.111749      61.729554    
    255000   1.002567       17.911547      61.638942    
    256000   0.98121199     17.223682      61.472615    
    257000   1.0105175      17.744504      61.406461    
    258000   1.0137238      17.698198      61.220854    
    259000   1.0177652      18.015798      61.29355     
    260000   0.98507311     17.775898      61.355719    
    261000   0.97529371     17.615432      61.284404    
    262000   0.9430189      17.468541      61.117013    
    263000   1.0207115      17.870134      60.973157    
    264000   0.98485587     17.626097      60.722207    
    265000   1.0170947      17.751377      60.644842    
    266000   1.0071902      18.223077      60.565817    
    267000   1.0131766      17.597089      60.567815    
    268000   1.0495171      18.30771       60.693749    
    269000   0.97088799     17.992963      60.851776    
    270000   0.95267552     17.611986      60.654956    
    271000   1.0410432      17.907358      60.510671    
    272000   1.0288241      17.659797      60.528163    
    273000   1.0028382      17.698547      60.428902    
    274000   1.0192929      18.74102       60.497971    
    275000   0.99433871     17.90629       60.481172    
    276000   0.98824117     17.773683      60.600441    
    277000   0.94118175     17.638294      60.380519    
    278000   1.0003051      17.7308        60.296474    
    279000   1.0221887      17.785134      60.338795    
    280000   0.99638815     17.828305      60.323372    
    281000   1.0166643      17.266977      60.328378    
    282000   1.0773651      17.954909      60.229235    
    283000   1.0215961      18.194142      60.117256    
    284000   1.0173812      17.534017      59.996748    
    285000   0.9843734      17.695612      59.805208    
    286000   1.0162659      18.408178      59.496287    
    287000   0.97224827     17.727904      59.27679     
    288000   1.0081354      17.316598      59.283066    
    289000   0.98955839     17.52542       59.289558    
    290000   1.0270108      17.395212      59.195209    
    291000   0.98114423     17.568761      59.212358    
    292000   0.97820464     17.257389      59.116289    
    293000   1.0057899      17.537085      59.090064    
    294000   1.0100697      17.894893      59.084471    
    295000   0.95636027     17.49475       59.200489    
    296000   0.97632374     17.767646      59.224857    
    297000   1.0220437      17.883159      58.999343    
    298000   1.0190613      18.061146      58.781505    
    299000   0.98714868     17.426966      58.801378    
    300000   0.99186586     18.002558      58.63258     
    301000   0.99824706     17.455527      58.580016    
    302000   1.0026863      18.078444      58.434514    
    303000   1.039761       18.11804       58.444252    
    304000   1.0064083      17.806801      58.287516    
    305000   0.98640479     18.360136      58.051549    
    306000   1.0002516      17.604296      57.82072     
    307000   1.0149338      17.854781      57.637441    
    308000   0.99033031     17.622869      57.493727    
    309000   0.99367996     17.573114      57.475053    
    310000   0.9964612      17.915031      57.469179    
    311000   1.0782378      17.940445      57.496423    
    312000   0.99220918     17.904393      57.441936    
    313000   1.0334509      17.594647      57.282299    
    314000   1.0421463      17.853841      57.405036    
    315000   1.0075312      18.25094       57.167166    
    316000   0.99708239     17.492244      57.174208    
    317000   1.005195       17.197936      57.115748    
    318000   1.0042711      18.140852      56.869541    
    319000   0.98152371     17.911635      56.78361     
    320000   1.0072497      18.015669      56.64384     
    321000   0.9613116      17.459666      56.46861     
    322000   0.99666548     17.860793      56.540315    
    323000   0.99843507     17.789042      56.480363    
    324000   1.0378054      17.647569      56.450351    
    325000   0.99885317     17.47782       56.463643    
    326000   0.99995036     17.452029      56.332716    
    327000   0.99252206     17.972521      56.092601    
    328000   0.94504892     17.424167      56.005912    
    329000   0.97483348     17.345666      56.000152    
    330000   1.021117       17.892323      55.939213    
    331000   1.0186636      17.258868      55.719105    
    332000   1.0358095      17.750506      55.674035    
    333000   0.95875563     17.798271      55.457996    
    334000   0.99804271     17.487644      55.501781    
    335000   0.96645057     17.538524      55.360453    
    336000   0.96502624     17.477852      55.323857    
    337000   1.0016813      17.517575      55.279901    
    338000   0.98097715     17.702797      55.252549    
    339000   0.98224359     17.626986      55.208831    
    340000   0.99731831     17.873996      54.897957    
    341000   1.0259226      18.130916      54.734815    
    342000   1.0133289      17.943673      54.744885    
    343000   0.98944262     17.704566      54.799763    
    344000   1.0201959      17.65855       54.921526    
    345000   0.99006424     17.831624      55.010298    
    346000   1.059743       18.28931       54.955545    
    347000   1.027928       17.894963      54.846394    
    348000   0.96841093     17.841455      54.748317    
    349000   0.99450974     18.121655      54.667737    
    350000   0.99522108     17.255099      54.823775    
    351000   1.0079868      17.911414      55.007823    
    352000   0.94858449     17.707367      54.97685     
    353000   1.0279396      17.34526       54.686391    
    354000   1.0133576      17.945176      54.484531    
    355000   0.97204262     17.722823      54.440811    
    356000   1.0023531      17.612283      54.202637    
    357000   1.0077647      18.024466      54.181364    
    358000   0.98920861     17.677876      53.840181    
    359000   0.99941817     17.851471      53.771569    
    360000   0.99859287     17.992505      53.722869    
    361000   0.98772407     17.911962      53.624449    
    362000   0.99091049     18.037423      53.804717    
    363000   0.9740167      17.920076      53.549642    
    364000   1.0177673      18.439643      53.554557    
    365000   0.95192636     17.967894      53.758293    
    366000   1.0350649      18.048522      53.540952    
    367000   0.97503835     17.708634      53.460615    
    368000   1.0257558      17.871713      53.4439      
    369000   1.0015987      17.862114      53.317177    
    370000   1.0196701      17.782389      53.222749    
    371000   1.0126041      17.702727      53.117193    
    372000   1.043525       17.512584      53.021722    
    373000   0.98035918     17.597816      53.030906    
    374000   0.97319212     17.37953       52.958187    
    375000   0.99803209     17.623531      52.827541    
    376000   0.98908575     17.590324      52.883196    
    377000   1.0076717      17.826866      52.770446    
    378000   0.99636604     17.801563      52.621864    
    379000   0.99285104     17.847308      52.517968    
    380000   1.013594       18.193083      52.305893    
    381000   0.97200047     17.731789      52.149653    
    382000   0.95484337     18.020738      52.083211    
    383000   0.99811341     18.035153      51.988129    
    384000   1.0126014      18.567217      51.837491    
    385000   0.97709482     17.275299      51.58838     
    386000   1.0105101      18.022429      51.674805    
    387000   0.99287857     17.379699      51.689585    
    388000   1.0289935      17.467805      51.627073    
    389000   1.0333234      17.957484      51.616131    
    390000   1.0009707      17.352056      51.617845    
    391000   1.0148699      17.822892      51.789057    
    392000   1.005814       17.798517      51.722231    
    393000   1.0276266      17.603661      51.649048    
    394000   0.98665365     17.346009      51.591784    
    395000   1.0183912      17.457743      51.601462    
    396000   1.0124338      17.687993      51.253054    
    397000   0.99347073     17.561056      51.123518    
    398000   1.0111329      18.243928      51.226714    
    399000   1.0458826      18.09197       51.17147     
    400000   1.0035469      17.372667      51.132299    
    401000   0.99560803     17.485773      51.194533    
    402000   1.0014326      17.249473      51.148388    
    403000   1.0442946      18.022961      51.144778    
    404000   1.0500543      17.881886      51.104674    
    405000   0.92348586     17.346348      51.02662     
    406000   0.9883305      17.231579      50.930829    
    407000   1.0031993      17.747756      50.775744    
    408000   1.000943       17.701697      50.53737     
    409000   1.0265976      17.728558      50.529939    
    410000   1.0100328      17.595399      50.574057    
    411000   0.96520127     17.687953      50.44482     
    412000   0.97212437     17.225612      50.472066    
    413000   1.0394929      17.828413      50.50715     
    414000   0.99619155     17.935586      50.510629    
    415000   1.0024272      17.606764      50.46505     
    416000   0.98043571     17.931443      50.338945    
    417000   0.99250036     17.511422      50.175674    
    418000   0.94248192     18.215931      50.090969    
    419000   0.98276035     17.458697      50.012888    
    420000   0.99626443     17.576773      49.965686    
    421000   1.0153091      18.040836      49.926189    
    422000   1.0103175      17.402731      49.791132    
    423000   1.0179514      17.58455       49.734096    
    424000   0.97641451     17.780882      49.671154    
    425000   1.0047456      17.174675      49.492914    
    426000   1.0278076      17.672149      49.398578    
    427000   1.0145834      17.259358      49.393914    
    428000   0.98002988     17.481546      49.572139    
    429000   1.0004959      17.193559      49.609341    
    430000   1.006144       17.546997      49.523554    
    431000   0.96896851     17.422876      49.496062    
    432000   0.9634686      17.046897      49.211211    
    433000   1.0044395      17.338251      48.984703    
    434000   1.0176871      17.557363      48.910172    
    435000   0.9452992      17.387953      48.839742    
    436000   1.0097917      17.320123      48.714732    
    437000   1.0098237      17.384819      48.782348    
    438000   0.98771031     17.645152      48.833386    
    439000   1.0052293      16.928558      48.730772    
    440000   1.0529403      17.260098      48.657197    
    441000   1.0141776      17.741417      48.803484    
    442000   0.96877046     17.181827      48.480996    
    443000   1.0362067      17.45848       48.370214    
    444000   0.99880745     17.173856      48.126962    
    445000   1.0127492      17.641064      48.087433    
    446000   0.96003067     17.702945      47.926981    
    447000   1.0217701      17.416703      47.726899    
    448000   1.0039958      17.297933      47.845783    
    449000   0.99479367     17.100823      47.922225    
    450000   1.0089843      16.900284      47.993791    
    451000   0.98700546     17.422346      47.93202     
    452000   1.0005792      17.648217      47.881516    
    453000   1.0472444      17.786016      47.780744    
    454000   1.0033653      17.760489      47.720781    
    455000   0.97847551     18.016766      47.533262    
    456000   0.99084461     17.491325      47.384799    
    457000   0.98300847     17.316033      47.211148    
    458000   1.0100557      17.680913      47.024504    
    459000   0.9551458      17.434244      47.071866    
    460000   1.038547       17.814102      46.779145    
    461000   1.0013003      17.363811      46.676662    
    462000   1.011411       17.259955      46.526229    
    463000   1.0217758      17.434164      46.506339    
    464000   0.98962986     17.502204      46.488905    
    465000   1.0050415      17.383544      46.496432    
    466000   1.0213689      17.329469      46.48268     
    467000   1.0196347      17.326409      46.415406    
    468000   1.0389892      17.293542      46.426834    
    469000   1.0109873      17.519121      46.573238    
    470000   1.0133002      17.586106      46.482292    
    471000   1.0112715      17.313764      46.247682    
    472000   1.0069402      17.388749      46.119442    
    473000   0.98004742     16.727493      46.152328    
    474000   0.97635638     17.329923      46.096136    
    475000   1.0154165      17.217705      46.00129     
    476000   1.0126003      17.469867      45.962056    
    477000   1.0114105      17.301394      45.890447    
    478000   0.99359791     17.386471      45.924828    
    479000   0.99855008     17.46373       45.962336    
    480000   1.0114888      17.417054      46.126434    
    481000   0.98662331     17.894913      46.043724    
    482000   0.99931876     17.858092      45.878593    
    483000   1.0300371      17.370284      45.825451    
    484000   0.98827445     18.060299      45.415714    
    485000   1.0230035      17.388984      45.51692     
    486000   0.96772064     17.930742      45.466471    
    487000   0.98306457     17.938541      45.408657    
    488000   1.0165153      17.888073      45.234162    
    489000   1.0115035      17.345573      45.048524    
    490000   1.0299819      17.622111      45.0178      
    491000   1.0146844      17.586812      45.085728    
    492000   1.0130318      17.612987      45.120455    
    493000   0.99142143     17.356317      45.419454    
    494000   1.0279179      17.079727      45.506453    
    495000   0.98867434     17.625714      45.496617    
    496000   1.0045446      17.678773      45.537138    
    497000   1.0271796      17.409037      45.400464    
    498000   1.0117325      17.369253      45.432751    
    499000   0.98849868     17.84218       45.456749    
    500000   1.0425147      17.493665      45.441223    
    501000   1.0091644      17.527382      45.203967    
    502000   0.98548631     17.500199      45.132993    
    503000   1.0210617      17.375269      45.152915    
    504000   0.99726967     16.847712      45.055147    
    505000   1.0000661      17.432392      44.932816    
    506000   0.97754797     17.403992      44.887162    
    507000   1.0310462      17.196672      44.732691    
    508000   0.99504309     17.340597      44.705231    
    509000   0.98027656     17.564048      44.601744    
    510000   1.0419689      17.48578       44.662232    
    511000   0.99335778     17.111531      44.653192    
    512000   1.0177483      17.803379      44.660346    
    513000   1.0279106      17.819588      44.617394    
    514000   0.98338649     17.98909       44.506112    
    515000   1.0057311      17.055039      44.346746    
    516000   0.98676434     17.250825      44.029291    
    517000   1.012223       17.417198      44.147854    
    518000   1.0073338      17.346398      44.082363    
    519000   0.99174985     17.560378      43.979082    
    520000   0.955218       17.165002      43.963393    
    521000   1.0102295      17.41409       43.985797    
    522000   1.0175224      17.045183      44.111297    
    523000   1.0585527      17.464609      44.080047    
    524000   1.01738        17.633137      43.881033    
    525000   0.93271237     17.215621      44.071989    
    526000   0.9558481      17.318429      44.029266    
    527000   0.97625508     17.024339      44.180874    
    528000   0.99627442     17.494511      44.325574    
    529000   1.0287706      17.492485      44.266985    
    530000   1.010636       16.630219      44.17805     
    531000   1.0118404      17.281934      43.930734    
    532000   1.0027663      17.401913      43.732149    
    533000   1.0505504      17.508595      43.494485    
    534000   1.0080171      17.045169      43.582587    
    535000   1.0064756      17.27916       43.634649    
    536000   0.93738282     17.422151      43.557378    
    537000   1.0295758      17.620242      43.440076    
    538000   1.0049069      17.756705      43.262055    
    539000   0.98937878     17.080356      43.119754    
    540000   1.0125122      17.765576      42.872733    
    541000   1.0270273      17.630711      42.728283    
    542000   1.0025258      16.828861      42.767522    
    543000   1.0210949      17.234246      42.6746      
    544000   1.0054501      17.433294      42.53431     
    545000   1.0006184      17.229001      42.352854    
    546000   0.99326997     16.705042      42.265004    
    547000   1.0400031      17.933255      42.362183    
    548000   0.99017864     17.678267      42.265299    
    549000   1.0211417      17.835691      42.189498    
    550000   0.96039081     17.335718      42.085406    
    551000   0.98956115     17.562654      42.306344    
    552000   1.0127941      17.788172      42.227705    
    553000   0.98899664     17.415729      42.131087    
    554000   0.97428921     17.097228      42.1306      
    555000   0.96452691     17.454526      41.900118    
    556000   1.0290999      17.683261      41.982159    
    557000   1.0097521      17.716041      41.919297    
    558000   0.97752089     17.844471      41.803826    
    559000   1.0219302      17.160214      41.726344    
    560000   1.0043001      17.606279      41.719529    
    561000   1.0290121      17.255254      41.6612      
    562000   1.0078053      17.058345      41.44371     
    563000   1.008119       17.37932       41.552643    
    564000   0.99925287     16.774204      41.47689     
    565000   0.96512063     17.166647      41.129094    
    566000   1.0177845      17.72404       41.092268    
    567000   1.0043084      17.300792      40.971625    
    568000   1.0339487      17.446419      41.04451     
    569000   1.0170745      17.1916        40.988462    
    570000   1.0497367      17.902151      40.783683    
    571000   0.99048547     17.44601       40.793276    
    572000   1.0116937      17.784622      40.834253    
    573000   0.9801433      17.777915      40.669393    
    574000   1.0398374      17.464409      40.461972    
    575000   0.96073372     17.16156       40.491907    
    576000   1.0486886      17.362779      40.530494    
    577000   0.99374704     17.563163      40.499312    
    578000   1.0142628      17.136549      40.33324     
    579000   1.0186513      17.541782      40.303345    
    580000   1.0093284      17.534609      40.054201    
    581000   1.0276417      17.252876      39.689383    
    582000   1.0171702      17.407829      39.603454    
    583000   0.98215442     16.736244      39.504387    
    584000   1.0306799      16.963006      39.477078    
    585000   0.99597476     17.237109      39.242968    
    586000   1.0230157      17.372227      38.939625    
    587000   1.0061625      17.547613      38.814341    
    588000   1.0089424      17.243477      38.557397    
    589000   1.0086509      17.455388      38.391834    
    590000   0.98957171     17.649482      38.470307    
    591000   0.97209068     17.524824      38.489923    
    592000   1.0195426      17.446946      38.519883    
    593000   1.0005581      17.462772      38.510654    
    594000   1.0016627      17.22416       38.707816    
    595000   1.0403598      17.576814      38.546316    
    596000   0.99928777     17.904987      38.435355    
    597000   0.99952684     17.967775      38.397876    
    598000   1.029412       17.46342       38.463741    
    599000   0.97041709     17.477746      38.448135    
    600000   1.0138838      17.665462      38.338366    
    601000   1.0123705      17.220396      38.304514    
    602000   0.9820335      17.755722      38.387475    
    603000   1.0023213      17.56304       38.253045    
    604000   0.96847814     17.11131       38.276352    
    605000   1.0484654      17.033561      38.048907    
    606000   0.98097014     17.161156      38.056895    
    607000   1.0060765      17.146244      38.131178    
    608000   1.0856973      17.60953       38.086376    
    609000   1.008828       17.421606      38.066971    
    610000   0.98036993     17.415305      37.961337    
    611000   1.0031616      17.221715      37.897012    
    612000   1.0208337      18.022086      37.762137    
    613000   1.0258858      17.455552      37.766812    
    614000   1.0140479      17.892676      37.715856    
    615000   1.028168       17.328035      37.778032    
    616000   0.97400182     17.417456      37.636682    
    617000   0.99536989     17.175747      37.628533    
    618000   0.97672732     17.509322      37.497385    
    619000   1.0048933      17.210876      37.532139    
    620000   1.0240022      17.451041      37.342941    
    621000   1.0376169      17.160067      37.50786     
    622000   1.0041323      17.428369      37.140241    
    623000   1.0155997      17.523716      37.007914    
    624000   1.0104042      16.995691      37.092696    
    625000   1.0002195      17.420008      36.933858    
    626000   0.95879746     17.789859      36.836637    
    627000   0.94392582     17.030864      36.607201    
    628000   0.98462472     16.834523      36.63053     
    629000   1.0087872      16.8504        36.740454    
    630000   1.0183817      17.640249      36.663711    
    631000   0.96607316     17.788971      36.404499    
    632000   0.99626001     17.432851      36.477651    
    633000   1.0018026      17.554294      36.236056    
    634000   1.021764       17.623926      35.996769    
    635000   1.025892       17.320056      36.128967    
    636000   1.021656       17.228414      35.933961    
    637000   0.96174627     17.148451      35.942868    
    638000   1.0106237      17.559633      35.772477    
    639000   1.0407377      17.888978      35.546274    
    640000   0.99036168     18.387894      35.546427    
    641000   1.0168397      17.070225      35.522809    
    642000   1.0156218      17.383197      35.53621     
    643000   1.0316386      17.091113      35.422617    
    644000   0.99457517     17.318841      35.409924    
    645000   1.0383747      17.017695      35.477147    
    646000   0.98881422     16.749083      35.373177    
    647000   0.98483626     17.006668      35.196619    
    648000   1.0154528      16.89392       35.186613    
    649000   1.056665       18.029053      35.112422    
    650000   0.99429512     17.501249      35.063467    
    651000   1.0100584      17.783578      34.895685    
    652000   1.0250564      18.074951      34.633458    
    653000   1.0092689      17.466398      34.704722    
    654000   0.9922874      16.713641      34.723748    
    655000   0.99458409     17.235771      34.598402    
    656000   1.0214605      18.11116       34.529495    
    657000   1.0453081      17.361853      34.209741    
    658000   1.0249607      17.370361      33.933769    
    659000   0.99801681     17.600185      33.881738    
    660000   1.020307       17.966631      33.973002    
    661000   0.99585955     17.518795      34.015897    
    662000   1.005004       17.11948       33.760154    
    663000   0.99313883     17.506934      33.692203    
    664000   1.0179275      17.198613      33.557728    
    665000   1.0080618      16.712921      33.347116    
    666000   1.0150148      16.907167      33.427328    
    667000   1.0209743      17.425037      33.47069     
    668000   0.96315566     17.38185       33.446899    
    669000   0.99741034     16.862436      33.138433    
    670000   0.96829937     17.166381      33.114582    
    671000   0.94075482     16.746822      33.165221    
    672000   0.98903704     16.804509      33.112067    
    673000   0.99768959     17.194961      33.046928    
    674000   0.98406189     17.654312      32.98541     
    675000   1.0228022      17.423776      32.99708     
    676000   1.032919       17.315838      32.986539    
    677000   0.98852738     16.760351      32.702023    
    678000   1.0047678      17.184299      32.473387    
    679000   1.0123427      17.364672      32.407768    
    680000   1.012259       17.311858      32.3271      
    681000   0.98537216     17.409484      32.362161    
    682000   0.9667011      17.409411      32.230559    
    683000   0.98603363     17.715391      32.020843    
    684000   0.99656402     17.396538      32.049477    
    685000   0.98423232     17.309292      32.033831    
    686000   0.99121524     17.72186       31.956955    
    687000   0.99121048     17.336955      31.843616    
    688000   1.0266904      17.272436      31.663517    
    689000   1.0180746      17.332287      31.709965    
    690000   1.0175146      17.079487      31.615321    
    691000   0.99718512     17.766279      31.547035    
    692000   0.99425622     17.234553      31.518528    
    693000   1.0166401      17.009801      31.437069    
    694000   0.98808743     17.509381      31.370319    
    695000   1.0043729      17.626411      31.470608    
    696000   0.98718428     18.011094      31.364418    
    697000   1.0034875      17.038556      31.245487    
    698000   1.0390976      17.248455      31.181645    
    699000   0.99139155     17.216553      30.903105    
    700000   0.97742545     17.305562      30.854768    
    701000   1.008488       17.693854      30.730363    
    702000   0.99311042     17.183206      30.677862    
    703000   1.0029049      17.591851      30.817491    
    704000   1.0019483      16.710294      30.685624    
    705000   1.024133       17.281183      30.650407    
    706000   0.99507811     16.889259      30.491698    
    707000   0.95804859     16.365406      30.416736    
    708000   0.96113928     17.038792      30.385098    
    709000   0.98226291     17.621608      30.463533    
    710000   1.0136393      17.652974      30.225423    
    711000   0.98993003     17.088087      30.003247    
    712000   0.99793244     17.371161      29.980835    
    713000   0.98830205     17.06764       29.960262    
    714000   1.0055624      17.586806      29.857669    
    715000   1.0180155      16.827471      29.837925    
    716000   0.9789563      17.278065      29.632302    
    717000   1.0667382      17.367472      29.617609    
    718000   0.99390929     17.73655       29.505427    
    719000   1.0042852      17.279831      29.661708    
    720000   0.98659884     16.884739      29.482381    
    721000   1.0134997      17.315272      29.301407    
    722000   0.97555411     16.633674      29.295408    
    723000   1.0016918      17.078052      29.291693    
    724000   0.97421887     17.384057      29.110384    
    725000   0.9981878      17.305269      29.113147    
    726000   1.0072364      17.681335      29.027677    
    727000   1.0024565      17.117171      28.903896    
    728000   1.0065782      17.618698      28.778003    
    729000   0.96874933     17.424977      28.944791    
    730000   1.0071644      17.355943      28.974318    
    731000   0.99928879     17.081338      28.820389    
    732000   0.99057551     17.390171      28.897965    
    733000   0.96996943     17.220526      28.828009    
    734000   1.0227852      17.86073       28.673284    
    735000   0.98820865     17.330376      28.543828    
    736000   0.99699227     17.315768      28.355611    
    737000   0.97428237     17.382772      28.430708    
    738000   0.96784182     17.557987      28.219842    
    739000   1.0045861      16.966554      28.025371    
    740000   1.0137364      17.451694      28.009748    
    741000   1.0132897      17.406603      27.930735    
    742000   1.0146607      17.286273      27.822891    
    743000   1.0000103      17.192561      27.645683    
    744000   1.0000028      17.30954       27.622784    
    745000   1.0152241      17.178269      27.561095    
    746000   1.015279       17.98248       27.487358    
    747000   0.98185796     17.351609      27.662093    
    748000   1.0181879      17.405538      27.757192    
    749000   0.97924294     17.000928      27.673771    
    750000   0.97570412     17.271696      27.79367     
    751000   0.99928263     16.78451       27.664681    
    752000   1.0279883      16.834432      27.676772    
    753000   0.94063431     17.424475      27.675037    
    754000   0.98774106     17.105219      27.644882    
    755000   0.99999059     17.032701      27.412372    
    756000   0.99571747     17.404546      27.145399    
    757000   1.0086959      17.324846      27.089597    
    758000   0.99729596     17.205386      27.018705    
    759000   1.0138647      17.028608      26.987277    
    760000   0.98460442     17.141222      27.045122    
    761000   0.93786386     17.332615      27.144474    
    762000   1.0145324      17.12079       27.065281    
    763000   0.9508719      16.857217      26.824724    
    764000   1.0166023      17.431519      26.747943    
    765000   0.98743876     17.049786      26.662846    
    766000   1.004463       17.271852      26.598726    
    767000   0.96271944     17.272636      26.474872    
    768000   1.0224619      17.482414      26.595298    
    769000   0.96280196     17.467169      26.463098    
    770000   0.98929237     17.118677      26.353164    
    771000   1.0150794      17.454832      26.348736    
    772000   0.98380829     17.406006      26.2861      
    773000   1.0121457      17.104642      26.287093    
    774000   1.0969521      17.460413      26.16761     
    775000   0.97983763     17.201528      26.088688    
    776000   0.97442065     17.557095      26.324174    
    777000   0.97814809     17.493058      26.218876    
    778000   0.99101894     16.822282      25.997133    
    779000   1.0138864      16.935798      25.7694      
    780000   0.99741769     17.215755      25.60334     
    781000   0.97500553     16.92765       25.381215    
    782000   1.0321382      17.454064      25.285778    
    783000   1.0386818      17.424543      25.354227    
    784000   0.97857095     17.398218      25.25822     
    785000   0.9981953      16.92598       25.222022    
    786000   1.0130965      18.18107       25.150066    
    787000   0.99572926     17.761613      25.059485    
    788000   1.0237309      17.398037      24.972757    
    789000   0.98650066     17.53353       24.905512    
    790000   1.0088083      17.094241      24.598256    
    791000   0.98005732     17.387501      24.587539    
    792000   1.0338255      16.813216      24.394544    
    793000   0.98336763     17.441882      24.368032    
    794000   1.0107223      17.303984      24.369403    
    795000   1.0474919      17.776312      24.412168    
    796000   1.0092413      17.695247      24.316136    
    797000   1.0268392      17.259079      24.330084    
    798000   1.0279812      16.62471       24.52913     
    799000   0.99652078     17.324839      24.401544    
    800000   0.9744883      17.160382      24.375225    
    801000   0.98831631     16.701036      24.275658    
    802000   0.9721002      17.231103      24.236911    
    803000   1.0390151      17.350105      24.212852    
    804000   1.0232224      17.84255       24.172764    
    805000   1.0074626      17.119331      24.302467    
    806000   0.98511638     16.939902      24.155738    
    807000   0.98728334     17.142654      24.023687    
    808000   1.0554442      17.448997      23.663763    
    809000   1.0010583      17.416025      23.429616    
    810000   1.0047243      17.383533      23.236666    
    811000   0.98964218     17.072749      23.024586    
    812000   0.99681866     16.830146      22.789244    
    813000   0.99392358     16.772386      22.673409    
    814000   1.0296368      17.310977      22.692163    
    815000   1.0560533      17.47839       22.473935    
    816000   0.9592926      17.083343      22.306279    
    817000   0.97612007     17.361093      22.36558     
    818000   1.0104094      17.626744      22.317965    
    819000   1.0237802      16.675706      22.19944     
    820000   0.98303625     17.796492      22.148318    
    821000   1.0584077      17.704551      22.190791    
    822000   0.99032911     17.408485      22.264246    
    823000   1.0348903      17.207347      22.113079    
    824000   1.0264416      17.565311      22.165893    
    825000   1.020401       17.688923      22.002519    
    826000   0.97789502     17.147929      22.007315    
    827000   1.0338437      17.265302      21.980552    
    828000   0.94087713     17.131968      21.959863    
    829000   1.0065686      17.101638      21.800463    
    830000   1.0138866      16.905663      21.773993    
    831000   1.0190116      17.183717      21.867036    
    832000   1.0436918      17.852462      21.481064    
    833000   1.0112756      17.215561      21.20257     
    834000   1.0181334      17.009403      21.056301    
    835000   1.0255062      17.159952      21.013       
    836000   0.99390698     17.190324      20.914884    
    837000   1.0259658      17.08038       20.885516    
    838000   1.0170354      17.518684      20.519525    
    839000   0.98346665     16.885335      20.315409    
    840000   1.0347164      16.597533      20.47617     
    841000   1.0169982      16.789549      20.504792    
    842000   0.98185684     17.635019      20.345804    
    843000   0.97804452     16.886738      20.29209     
    844000   0.99090219     17.081461      20.325155    
    845000   0.97891791     16.985305      20.14059     
    846000   1.0121299      17.709334      20.333796    
    847000   1.0193631      17.064252      20.487892    
    848000   1.0023943      17.460621      20.616107    
    849000   0.98972052     17.18283       20.518552    
    850000   1.014902       17.163527      20.418611    
    851000   0.99606091     17.259788      20.235977    
    852000   0.97663893     17.574536      20.256293    
    853000   0.99410734     16.887682      20.01017     
    854000   1.0102384      17.202173      20.085115    
    855000   0.97263152     16.922695      20.077811    
    856000   1.0051082      17.167864      19.787874    
    857000   1.0091241      17.230679      19.881377    
    858000   0.96002474     16.778299      19.699414    
    859000   1.0156508      17.166186      19.531259    
    860000   1.0062265      17.742745      19.619041    
    861000   1.0146464      17.647883      19.406656    
    862000   0.98535341     16.942827      19.28762     
    863000   1.0015602      17.085238      19.376968    
    864000   1.0400601      17.2613        19.62911     
    865000   0.98325971     17.090942      19.656934    
    866000   0.98106836     17.142555      19.622345    
    867000   1.0044053      17.325552      19.515853    
    868000   1.0059459      17.5265        19.565361    
    869000   0.95467558     16.658275      19.66098     
    870000   0.99347336     17.672174      19.404861    
    871000   0.99265918     16.856577      19.504452    
    872000   0.9733052      17.382977      19.301579    
    873000   1.0146603      17.537944      19.343475    
    874000   1.0078821      17.945837      19.180431    
    875000   1.0185646      17.376385      18.931581    
    876000   0.98568659     16.901932      18.92249     
    877000   1.0022811      17.24026       18.850757    
    878000   0.9781358      16.675241      18.739       
    879000   0.98619341     16.870394      18.580656    
    880000   1.0176904      17.365364      18.456346    
    881000   0.96807105     17.06874       18.457339    
    882000   1.0240017      16.699614      18.356289    
    883000   1.0387589      17.004742      18.248978    
    884000   0.99272253     17.199916      18.241869    
    885000   1.0025957      17.211185      18.214514    
    886000   0.99846972     17.053418      18.279675    
    887000   1.0320648      17.174305      18.296506    
    888000   1.0154955      17.449307      18.254424    
    889000   0.99261029     17.229331      18.125266    
    890000   1.0185914      17.389392      17.967236    
    891000   0.91979122     17.214403      17.8033      
    892000   1.0090226      16.360735      17.803039    
    893000   0.99271567     17.114458      17.570772    
    894000   1.0009508      16.995882      17.810779    
    895000   1.0081352      17.219048      17.732654    
    896000   1.0112555      17.223364      17.667813    
    897000   0.98651015     16.700015      17.731741    
    898000   0.99679866     16.707978      17.777184    
    899000   1.0061426      16.978712      17.612649    
    900000   0.9886206      17.144051      17.72085     
    901000   0.9895102      17.222503      17.852843    
    902000   0.99576309     16.824719      18.009707    
    903000   1.0133544      16.923154      17.925997    
    904000   1.0137858      17.162393      17.792781    
    905000   0.97939046     17.105734      17.728044    
    906000   1.046948       16.824731      17.634507    
    907000   0.98235767     16.519049      17.568273    
    908000   0.98099796     16.696913      17.409993    
    909000   0.98664502     16.817753      17.618166    
    910000   0.98816008     16.799367      17.669776    
    911000   1.0282442      16.712096      17.615844    
    912000   1.0432407      17.658227      17.383902    
    913000   1.0129621      17.095706      17.448993    
    914000   1.0317106      16.892663      17.468877    
    915000   0.99472117     16.776364      17.194844    
    916000   0.99150569     16.591791      17.273242    
    917000   0.96700911     17.586846      17.156423    
    918000   1.0261505      17.786268      17.116131    
    919000   0.9822861      17.392588      17.042912    
    920000   1.0322686      17.331117      16.955536    
    921000   1.0275062      17.110696      16.93765     
    922000   0.97803382     16.85023       16.750258    
    923000   1.0020276      17.266295      16.78185     
    924000   0.99812249     17.053027      16.672909    
    925000   1.0272799      16.446477      16.777799    
    926000   0.96390214     17.240523      16.566362    
    927000   0.98903942     17.219307      16.380632    
    928000   0.99105771     16.589171      16.122656    
    929000   1.0180073      16.876202      16.172486    
    930000   0.98606912     17.218009      16.216483    
    931000   1.0087868      16.816278      16.182412    
    932000   1.0004853      17.579443      16.216089    
    933000   1.0096347      17.042481      16.242833    
    934000   1.0391019      17.213711      16.317724    
    935000   0.99490289     17.09406       16.278279    
    936000   0.9518385      16.697491      16.185299    
    937000   1.0267731      17.321982      16.134148    
    938000   1.0066647      17.281379      15.920191    
    939000   1.0293272      16.850247      15.819157    
    940000   1.0067192      16.787869      15.909145    
    941000   0.98225141     17.519384      15.902929    
    942000   1.0160617      17.257609      15.931787    
    943000   1.0162943      17.030224      15.829372    
    944000   0.98995959     16.882179      15.739818    
    945000   1.0083204      16.960144      15.699191    
    946000   0.99834827     17.047135      15.521713    
    947000   0.98865213     16.602261      15.211538    
    948000   0.9506599      17.111949      15.161074    
    949000   0.96596735     16.91194       15.195038    
    950000   1.0567375      16.529482      15.123309    
    951000   0.99166304     16.843531      15.186163    
    952000   0.98154119     17.121436      15.20248     
    953000   1.0342503      17.582595      15.222299    
    954000   1.0168372      17.212142      15.175511    
    955000   1.0139121      17.117694      15.369028    
    956000   0.98536024     16.701407      15.25608     
    957000   1.019237       17.219741      15.121275    
    958000   0.98756231     16.889178      15.099186    
    959000   1.0344359      16.888583      15.051198    
    960000   1.0248846      16.832924      15.097181    
    961000   1.0110464      17.029631      14.96966     
    962000   1.018617       16.543054      14.894931    
    963000   0.98786541     17.190638      14.789234    
    964000   1.0002944      17.161453      14.695997    
    965000   0.99654051     17.478338      14.53245     
    966000   1.0191704      17.488278      14.447824    
    967000   0.94713554     17.002221      14.466968    
    968000   0.99338677     17.050981      14.277144    
    969000   0.96918886     17.287966      14.213178    
    970000   1.0116488      16.446994      14.180138    
    971000   1.0392929      16.991952      14.123797    
    972000   0.98077122     17.480572      14.230814    
    973000   1.0224816      17.306166      14.177091    
    974000   0.98710089     16.994641      14.210391    
    975000   1.0017466      16.580587      14.068886    
    976000   0.969348       17.391138      14.299003    
    977000   1.006402       16.645152      14.547211    
    978000   1.0333067      16.817544      14.505634    
    979000   1.0184147      16.842961      14.661486    
    980000   0.98672566     16.918312      14.637567    
    981000   0.99614061     17.071423      14.694153    
    982000   1.0208891      17.545861      14.483165    
    983000   1.0023898      17.028933      14.43368     
    984000   1.031236       16.862309      14.491654    
    985000   0.99714619     16.87544       14.464055    
    986000   0.93937314     17.290517      14.262396    
    987000   0.96618038     17.051324      14.253734    
    988000   1.0004471      16.950027      14.188485    
    989000   0.98324144     16.81915       14.257659    
    990000   1.0108891      16.886619      14.235635    
    991000   1.0092208      17.857988      14.227945    
    992000   0.93273876     16.956366      13.952463    
    993000   0.98578052     16.997222      14.040432    
    994000   0.98615007     16.699338      14.080983    
    995000   0.96268194     16.656982      13.79701     
    996000   1.0159679      16.704227      13.652593    
    997000   1.0026793      17.498599      13.481323    
    998000   0.95056219     16.874093      13.354614    
    999000   1.0027545      17.252012      13.360896    
   1000000   1.013753       17.321955      13.44853     
   1001000   1.0128077      17.188328      13.348897    
   1002000   0.98652631     16.960022      13.111442    
   1003000   0.99018222     16.994181      13.096194    
   1004000   0.97159524     16.698102      13.1249      
   1005000   1.0319537      17.500123      13.063869    
   1006000   1.0389083      16.772416      12.951465    
   1007000   1.0529087      17.289976      12.853806    
   1008000   0.94763763     16.950819      12.817289    
   1009000   1.0187508      16.841351      12.699681    
   1010000   0.98884484     17.302512      12.661914    
   1011000   0.99334952     16.91756       12.682008    
   1012000   1.0308676      16.933171      12.670757    
   1013000   0.99974872     17.43422       12.720019    
   1014000   1.0028776      17.066641      12.6435      
   1015000   0.9979497      16.710922      12.751815    
   1016000   1.0213371      16.918239      12.754006    
   1017000   1.0203043      17.408932      12.665623    
   1018000   0.9846287      17.184475      12.699733    
   1019000   0.99081495     16.986744      12.514235    
   1020000   0.97931144     17.037277      12.509021    
   1021000   1.0047371      16.89032       12.661793    
   1022000   0.9903059      17.287141      12.477012    
   1023000   1.0065152      17.358976      12.529953    
   1024000   0.96292453     16.536318      12.436446    
   1025000   1.0199863      17.48967       12.356401    
   1026000   1.0095021      17.399368      12.398832    
   1027000   1.0403618      17.08347       12.550981    
   1028000   0.98353927     17.705595      12.433018    
   1029000   0.98299651     16.870735      12.415927    
   1030000   1.0067245      17.178202      12.308687    
   1031000   0.98614943     16.682706      12.162657    
   1032000   1.0129387      17.220748      12.009548    
   1033000   0.99523225     17.173603      11.898826    
   1034000   1.0226853      16.699485      11.874701    
   1035000   0.97715339     17.088229      11.931174    
   1036000   1.0081283      16.665745      11.892135    
   1037000   1.003269       17.115646      11.660983    
   1038000   1.0353138      17.43494       11.801615    
   1039000   0.96082893     17.571873      11.699656    
   1040000   1.0039465      17.146926      11.717461    
   1041000   0.99712335     17.194629      11.725607    
   1042000   1.0430651      17.354717      11.417234    
   1043000   0.99534307     17.203389      11.404342    
   1044000   1.0181647      17.251332      11.37908     
   1045000   0.99033354     17.175244      11.481422    
   1046000   1.0134771      16.863206      11.506616    
   1047000   0.99441859     16.973528      11.482274    
   1048000   0.99072002     17.036978      11.323252    
   1049000   1.0106898      17.591371      11.328247    
   1050000   1.0122004      16.861267      11.30907     
   1051000   1.0053916      17.059193      11.268539    
   1052000   0.99408332     17.062028      11.059762    
   1053000   1.0442835      16.979671      11.134195    
   1054000   0.99571121     16.970546      11.201825    
   1055000   0.97658967     16.971051      11.042588    
   1056000   0.98048184     16.555651      10.942383    
   1057000   1.0010472      17.497827      11.049363    
   1058000   1.0124244      17.377258      10.957034    
   1059000   1.0154809      17.335781      10.96054     
   1060000   1.0079896      16.970379      10.862856    
   1061000   1.0380671      17.708636      10.634458    
   1062000   1.0050154      16.766267      10.623694    
   1063000   0.9722609      16.964074      10.529678    
   1064000   1.029292       16.683295      10.395299    
   1065000   1.0235927      17.091668      10.516636    
   1066000   1.0223992      17.741398      10.604745    
   1067000   0.99101359     17.196184      10.449853    
   1068000   1.0098492      16.634491      10.365937    
   1069000   1.0233806      17.213801      10.345239    
   1070000   1.0151044      16.856754      10.208187    
   1071000   1.0238031      17.227667      10.126458    
   1072000   1.0019531      17.06862       9.9102224    
   1073000   0.98003313     17.067185      9.7624837    
   1074000   0.99858937     16.933858      9.4843705    
   1075000   0.97808495     17.531764      9.1770603    
   1076000   1.0609693      17.05603       8.9649474    
   1077000   0.97563384     17.036303      9.0632862    
   1078000   0.98467152     17.542819      9.2060373    
   1079000   0.99273849     17.493154      9.2985215    
   1080000   1.004068       17.205224      9.1905679    
   1081000   1.0501693      17.062451      9.3227705    
   1082000   1.0019063      17.17267       9.2764562    
   1083000   0.99109575     17.169107      9.2602753    
   1084000   0.99551155     17.193401      9.2103744    
   1085000   0.9837706      16.723227      9.0978844    
   1086000   1.0184038      17.426324      9.1176075    
   1087000   1.0012186      17.029326      8.9490014    
   1088000   1.0421271      17.434589      9.0774771    
   1089000   0.98859732     16.804478      8.8796991    
   1090000   1.0040677      17.180324      8.6872713    
   1091000   0.99938326     16.687981      8.7131103    
   1092000   0.98921498     17.427731      8.5951398    
   1093000   0.96799753     16.604658      8.5425143    
   1094000   0.99907592     17.116236      8.4887444    
   1095000   0.98003363     17.672714      8.4657508    
   1096000   1.0255405      17.693728      8.6479559    
   1097000   0.98956472     16.4528        8.7020578    
   1098000   1.0454216      17.214482      8.8506879    
   1099000   0.97394952     16.799007      8.5086134    
   1100000   1.0399117      17.084813      8.217242     
   1101000   0.9631989      16.873108      7.9708303    
   1102000   1.0587643      16.870032      7.7999849    
   1103000   1.0079117      17.080005      7.7720563    
   1104000   1.0255057      16.632947      7.5918329    
   1105000   1.0049982      16.447316      7.2888648    
Fix halt condition for fix-id 3 met on step 1106000 with value 6.9108470864278475 (src/fix_halt.cpp:237)
   1106000   1.0182557      17.24274       6.9108471    
Loop time of 1550.58 on 2 procs for 1006000 steps with 1201 atoms

Performance: 560555.025 tau/day, 648.791 timesteps/s
133.8% CPU use with 1 MPI tasks x 2 OpenMP threads

MPI task timing breakdown:
Section |  min time  |  avg time  |  max time  |%varavg| %total
---------------------------------------------------------------
Pair    | 423.92     | 423.92     | 423.92     |   0.0 | 27.34
Bond    | 25.333     | 25.333     | 25.333     |   0.0 |  1.63
Neigh   | 1040.6     | 1040.6     | 1040.6     |   0.0 | 67.11
Comm    | 0.39824    | 0.39824    | 0.39824    |   0.0 |  0.03
Output  | 2.9009     | 2.9009     | 2.9009     |   0.0 |  0.19
Modify  | 53.167     | 53.167     | 53.167     |   0.0 |  3.43
Other   |            | 4.228      |            |       |  0.27

Nlocal:           1201 ave        1201 max        1201 min
Histogram: 1 0 0 0 0 0 0 0 0 0
Nghost:              0 ave           0 max           0 min
Histogram: 1 0 0 0 0 0 0 0 0 0
Neighs:         289648 ave      289648 max      289648 min
Histogram: 1 0 0 0 0 0 0 0 0 0

Total # of neighbors = 289648
Ave neighs/atom = 241.17236
Ave special neighs/atom = 1.9983347
Neighbor list builds = 8599
Dangerous builds = 0

# This simulation is done
# Move onto the next one
clear
  using 2 OpenMP thread(s) per MPI task
package omp 0
using multi-threaded neighbor list subroutines
next f
jump SELF

Total wall time: 3:29:46
