#atom_style bond #no stiffness
atom_style angle #with stiffness

boundary        p p p
###
# Pair interactions require lists of neighbours to be calculated
###

#neighbor 0.3 bin
neighbor 4 bin

neigh_modify every 1 delay 1 check yes
atom_modify sort 0 0
### Generate RESTART file, SPECIAL format, not a .txt file ###
### Useful if simulation crashes ###

restart 1000000 linear/restarts/$f.restart
restart 1000000 linear/restarts/bb100nuc0bl0bn0d30tot100.restart
#############################



### READ "start" data file ###

read_data linear/$f.dat
read_data linear/bb100nuc0bl0bn0d30tot100.dat
Reading data file ...
  orthogonal box = (-1000 -1000 -1000) to (1000 1000 1000)
  1 by 1 by 2 MPI processor grid
  reading atoms ...
  100 atoms
  scanning bonds ...
  1 = max bonds/atom
  scanning angles ...
  1 = max angles/atom
  reading bonds ...
  99 bonds
  reading angles ...
  98 angles
Finding 1-2 1-3 1-4 neighbors ...
  special bond factors lj:    0        0        0       
  special bond factors coul:  0        0        0       
     2 = max # of 1-2 neighbors
     2 = max # of 1-3 neighbors
     4 = max # of 1-4 neighbors
     6 = max # of special neighbors
  special bonds CPU = 0.001 seconds
  read_data CPU = 0.012 seconds

######################

### READ "REstart" data file ###

######################



###
# Define groups (atom type 1 is group 'all')
###
group all type 1
100 atoms in group all


###
# Dump configs - "simple dumpings"
###

###
# Dump configs + box coords
###

dump   1   all   custom   1000  linear/trjs/$f.lammpstrj  id  x y z  ix iy iz
dump   1   all   custom   1000  linear/trjs/bb100nuc0bl0bn0d30tot100.lammpstrj  id  x y z  ix iy iz
dump_modify   1   format line "%d %.5f %.5f %.5f %d %d %d"

########################################################################


###################################################################
# Stiffness term
#
# E = K * (1+cos(theta)), K>0
#
angle_style   cosine
#change this coefficient to change stiffness (e.g. 1,5,10)
angle_coeff   1 1.0
###################################################################

###################################################################
# Pair interaction between non-bonded atoms
#
#  Lennard-Jones 12-6 potential with cutoff:
#  potential E=4epsilon[ (sigma/r)^12 - (sigma/r)^6]  for r<r_cut
#
#  1.12246 = 2^(1/6) is the minimum of the potential


pair_style      lj/cut 1.12246152962189
#pair_style      lj/cut 3

#
#  pair_modify shift yes adds a constant to the potential such

#  that E(r_cut)=0. Forces remains unchanged.
#

pair_modify     shift yes

#
#  pair_coeff for lj/cut, specify 4:
#    * atom type interacting with
#    * atom type
#    * epsilon (energy units)
#    * sigma (distance units)
#

pair_coeff      1 1 1.0 1.0
###################################################################

###################################################################
# Pair interaction between non-bonded atoms
#
#  soft potential, for PUSHING apart overlapping atoms
#  potential E=A*(1 + cos(pi*r/r_c))
#
#  1.12246 = 2^(1/6) is the cut-off r_c

#pair_style     soft 1.12246152962189

#
#  pair_coeff for soft, specify 3:
#    * atom type interacting with
#    * atom type
#    * A
#
#

#pair_coeff      1 1 100.0
###################################################################

###################################################################
# Pair interaction between bonded atoms
#
# Fene potential + Lennard Jones 12-6:

#
#  E= - 0.5 K R0^2 ln[ 1- (r/R0)^2]
#     + 4epsilon[ (sigma/r)^12 - (sigma/r)^6] + epsilon
#

bond_style   fene


#
# For style fene, specify:
#   * bond type
#   * K (energy/distance^2)
#   * R0 (distance)
#   * epsilon (energy)  (LJ component)
#   * sigma (distance)  (LJ component)
#


special_bonds fene #<=== I M P O R T A N T (new command)
Finding 1-2 1-3 1-4 neighbors ...
  special bond factors lj:    0        1        1       
  special bond factors coul:  0        1        1       
     2 = max # of 1-2 neighbors
     6 = max # of special neighbors
  special bonds CPU = 0.000 seconds

bond_coeff   1   30   2   1.0   1.0


###################################################

###################################################################
# Pair interaction between bonded atoms
#
# Harmonic potential:
#
#  E= K * (R-R0)^2
#

#bond_style   harmonic

#
# For style harmonic, specify:
#   * bond type
#   * K (energy/distance^2)
#   * R0 (distance)
#

#bond_coeff   1   60.0   1.0
#bond_coeff   2   harmonic 0.1   1.0

###################################################
compute 1 all gyration
variable rog equal c_1
#compute 2 all coord/atom cutoff 1.1

#dump 2 all custom 10000 contact_number.dump id c_2


###
# Set up fixes
###
thermo_style   custom   step  temp enthalpy c_1
fix 1 all nve   ###NVE ensemble

fix 2 all   langevin   1.0 1.0 1.0  100103   ###Langevin integrator Tstart Tstop 1/friction rndseed


##### Sample thermodynamic info  (temperature, energy, pressure, etc.) #####
thermo 1000









############################################################################

###
# set timestep of integrator

timestep 0.01

###
# run integration for a number of steps
###
#run 0
#variable r equal c_1
#if "$r < 63.1" then "quit 1"

# lj potential minimum, cause molecule to explore
run 100000
Generated 0 of 0 mixed pair_coeff terms from geometric mixing rule
Last active /omp style is angle_style cosine/omp
Neighbor list info ...
  update: every = 1 steps, delay = 1 steps, check = yes
  max neighbors/atom: 2000, page size: 100000
  master list distance cutoff = 5.1224615
  ghost atom cutoff = 5.1224615
  binsize = 2.5612308, bins = 781 781 781
  1 neighbor lists, perpetual/occasional/extra = 1 0 0
  (1) pair lj/cut/omp, perpetual
      attributes: half, newton on, omp
      pair build: half/bin/newton/omp
      stencil: half/bin/3d
      bin: standard
WARNING: Communication cutoff 5.12246152962189 is shorter than a bond length based estimate of 5.455. This may lead to errors. (src/comm.cpp:723)
Per MPI rank memory allocation (min/avg/max) = 939.5 | 940.1 | 940.7 Mbytes
   Step          Temp         Enthalpy         c_1      
         0   0              13.284655      25.0023      
      1000   0.95345764     18.351128      23.857618    
      2000   0.93230789     18.052211      23.254396    
      3000   0.97829401     19.695813      22.093039    
      4000   1.0199217      19.071859      21.168966    
      5000   1.1529439      21.31233       20.509703    
      6000   0.96830117     19.79558       19.886058    
      7000   0.88547323     19.796495      19.536283    
      8000   1.0889768      20.09037       19.052595    
      9000   0.90190146     21.439323      19.039473    
     10000   1.1362089      21.856245      18.581058    
     11000   1.1320652      20.720783      17.938678    
     12000   0.8865944      20.402875      18.030236    
     13000   1.0562944      19.366711      17.560655    
     14000   0.91846926     21.055767      16.873466    
     15000   0.96273648     21.072418      16.518297    
     16000   1.001513       20.852885      16.246589    
     17000   0.89637652     20.23133       15.654281    
     18000   1.0406518      20.395542      14.680226    
     19000   0.95013419     18.819172      14.153284    
     20000   1.0180656      21.287577      13.814623    
     21000   1.1240103      20.561568      14.028947    
     22000   0.91602983     19.06459       14.124549    
     23000   1.080642       20.873096      14.153536    
     24000   1.0641176      21.996492      13.926013    
     25000   1.0603394      22.479268      13.453237    
     26000   0.95006256     18.791768      13.431378    
     27000   1.1511172      20.581683      14.231946    
     28000   1.1137711      20.088924      14.195098    
     29000   0.88569316     21.177938      14.327405    
     30000   1.0118769      20.319207      14.387672    
     31000   0.95512158     18.629581      14.3923      
     32000   1.0599709      20.44936       13.91887     
     33000   1.1781182      20.587607      13.773563    
     34000   0.97918923     19.482482      13.445274    
     35000   1.1287069      19.921922      13.139437    
     36000   1.1146405      20.562869      13.956087    
     37000   1.0173562      19.891719      14.166822    
     38000   1.0101546      20.015107      13.845804    
     39000   0.99473207     20.33225       13.881963    
     40000   1.0661362      19.139897      13.793516    
     41000   0.9972822      20.740169      13.88886     
     42000   0.99826656     19.118316      13.917294    
     43000   1.0538455      21.013164      13.479788    
     44000   1.0541639      21.162177      13.41047     
     45000   1.1725009      21.471318      13.071182    
     46000   1.0100825      19.512223      13.350558    
     47000   1.127531       20.315333      13.079896    
     48000   0.98012871     18.418037      12.873806    
     49000   1.146067       21.003082      11.620223    
     50000   1.0839502      20.050959      12.035816    
     51000   1.0142812      19.545516      12.251894    
     52000   1.024408       20.762061      11.681067    
     53000   0.99402135     20.621562      11.521285    
     54000   0.99326233     20.098188      11.867849    
     55000   0.81659047     20.002782      11.635111    
     56000   1.1228086      21.384187      11.396214    
     57000   1.1168028      21.025827      11.638526    
     58000   1.0015598      21.973323      11.832331    
     59000   1.0392393      21.023108      11.251854    
     60000   1.0313057      21.056827      11.598679    
     61000   1.184584       20.581318      11.368476    
     62000   1.1251115      20.610886      12.339987    
     63000   1.0346775      20.390865      12.535244    
     64000   0.96595767     20.761691      11.971004    
     65000   1.1163925      19.496059      11.636649    
     66000   1.0066731      19.310593      10.980235    
     67000   1.0833113      20.197629      10.785298    
     68000   1.1128839      19.928767      10.591804    
     69000   1.0327235      19.583643      10.459701    
     70000   1.0690011      19.885601      10.411472    
     71000   0.96750168     21.662624      10.164992    
     72000   1.0052061      21.990097      10.393346    
     73000   1.0266442      19.308609      10.589729    
     74000   1.1786532      21.711709      10.650178    
     75000   0.9613824      20.494646      11.204039    
     76000   0.94030497     21.261805      11.276347    
     77000   1.0507021      19.895728      11.38864     
     78000   1.1036964      22.037848      10.912698    
     79000   1.0665432      20.303242      10.628148    
     80000   0.99744104     21.969692      10.636085    
     81000   0.96162983     20.419644      10.416128    
     82000   0.94811586     20.955155      10.198171    
     83000   1.0581539      20.170848      9.9911888    
     84000   0.93761706     19.404664      9.5178927    
     85000   1.0371744      20.334754      8.6748643    
     86000   0.97772654     20.734588      7.5009466    
     87000   1.096138       21.453773      7.5830711    
     88000   1.010344       18.12522       7.3247654    
     89000   1.0117512      21.474233      7.358607     
     90000   0.87382865     19.32236       7.537867     
     91000   1.1498202      20.552188      7.5525957    
     92000   1.1043089      20.243871      6.9150905    
     93000   0.97019723     19.791791      7.1443173    
     94000   1.0664565      21.027117      6.858363     
     95000   0.8988165      20.401775      6.9299724    
     96000   0.90133262     21.372562      6.8802235    
     97000   1.0045039      20.303648      6.8967559    
     98000   1.0637369      19.961397      6.7677084    
     99000   0.92903569     21.580563      6.7050981    
    100000   0.83697348     20.865595      6.1778919    
Loop time of 165.045 on 4 procs for 100000 steps with 100 atoms

Performance: 523495.066 tau/day, 605.897 timesteps/s
102.0% CPU use with 2 MPI tasks x 2 OpenMP threads

MPI task timing breakdown:
Section |  min time  |  avg time  |  max time  |%varavg| %total
---------------------------------------------------------------
Pair    | 0.14224    | 0.16559    | 0.18895    |   5.7 |  0.10
Bond    | 0.27036    | 0.30174    | 0.33311    |   5.7 |  0.18
Neigh   | 163.25     | 163.25     | 163.25     |   0.0 | 98.91
Comm    | 0.38794    | 0.43834    | 0.48873    |   7.6 |  0.27
Output  | 0.14126    | 0.14459    | 0.14792    |   0.9 |  0.09
Modify  | 0.40658    | 0.50035    | 0.59412    |  13.3 |  0.30
Other   |            | 0.2417     |            |       |  0.15

Nlocal:             50 ave          82 max          18 min
Histogram: 1 0 0 0 0 0 0 0 0 1
Nghost:             47 ave          77 max          17 min
Histogram: 1 0 0 0 0 0 0 0 0 1
Neighs:            613 ave        1049 max         177 min
Histogram: 1 0 0 0 0 0 0 0 0 1

Total # of neighbors = 1226
Ave neighs/atom = 12.26
Ave special neighs/atom = 1.98
Neighbor list builds = 893
Dangerous builds = 0

# Replace lj potential, now collapse
pair_style      lj/cut 3

# Cutoff simul when gyration under 5
# Variable created with equal requires v_ + 'name'
fix 3 all halt 1000 v_rog < 5

run 5000000
Generated 0 of 0 mixed pair_coeff terms from geometric mixing rule
Last active /omp style is angle_style cosine/omp
Per MPI rank memory allocation (min/avg/max) = 939.7 | 940.2 | 940.7 Mbytes
   Step          Temp         Enthalpy         c_1      
    100000   0.83697348     19.918315      6.1778919    
    101000   0.97114707     17.536221      5.938296     
Fix halt condition for fix-id 3 met on step 102000 with value 4.8967825134745695 (src/fix_halt.cpp:237)
    102000   1.0941214      19.043459      4.8967825    
Loop time of 1.27637 on 4 procs for 2000 steps with 100 atoms

Performance: 1353836.805 tau/day, 1566.941 timesteps/s
107.3% CPU use with 2 MPI tasks x 2 OpenMP threads

MPI task timing breakdown:
Section |  min time  |  avg time  |  max time  |%varavg| %total
---------------------------------------------------------------
Pair    | 0.0042861  | 0.012421   | 0.020557   |   7.3 |  0.97
Bond    | 0.0060534  | 0.0076436  | 0.0092337  |   1.8 |  0.60
Neigh   | 1.2144     | 1.2144     | 1.2145     |   0.0 | 95.15
Comm    | 0.0099978  | 0.019255   | 0.028513   |   6.7 |  1.51
Output  | 0.0029048  | 0.0030175  | 0.0031301  |   0.2 |  0.24
Modify  | 0.008559   | 0.012148   | 0.015737   |   3.3 |  0.95
Other   |            | 0.007441   |            |       |  0.58

Nlocal:             50 ave          89 max          11 min
Histogram: 1 0 0 0 0 0 0 0 0 1
Nghost:             50 ave          89 max          11 min
Histogram: 1 0 0 0 0 0 0 0 0 1
Neighs:         1581.5 ave        2989 max         174 min
Histogram: 1 0 0 0 0 0 0 0 0 1

Total # of neighbors = 3163
Ave neighs/atom = 31.63
Ave special neighs/atom = 1.98
Neighbor list builds = 16
Dangerous builds = 0

# This simulation is done
# Move onto the next one
clear
  using 2 OpenMP thread(s) per MPI task
package omp 0
using multi-threaded neighbor list subroutines
next f
jump SELF

###
# Reference paper:
# K. Kremer and G. S. Grest
# Dynamics of entangled linear polymer melts: A molecular-dynamics simulation
# J Chem Phys 92, 5057 (1990)

##################################
# MIHIR: for branched polymers
# LJ minimum first to expand and explore, then collapse
###

###
# Looping through the various linear polymers to simulate,
# define variables to switch through
variable f index bb100nuc0bl0bn0d30tot100 bb200nuc0bl0bn0d30tot200 bb300nuc0bl0bn0d30tot300 bb400nuc0bl0bn0d30tot400 bb500nuc0bl0bn0d30tot500 bb600nuc0bl0bn0d30tot600 bb700nuc0bl0bn0d30tot700 bb800nuc0bl0bn0d30tot800 bb900nuc0bl0bn0d30tot900 bb1000nuc0bl0bn0d30tot1000 bb1100nuc0bl0bn0d30tot1100 bb1200nuc0bl0bn0d30tot1200
###


###
# Box and units  (use LJ units and periodic boundaries)
###

units lj
log linear/logs/$f.log
log linear/logs/bb200nuc0bl0bn0d30tot200.log
