#atom_style bond #no stiffness
atom_style angle #with stiffness

boundary        p p p
###
# Pair interactions require lists of neighbours to be calculated
###

#neighbor 0.3 bin
neighbor 4 bin

neigh_modify every 1 delay 1 check yes
atom_modify sort 0 0
### Generate RESTART file, SPECIAL format, not a .txt file ###
### Useful if simulation crashes ###

restart 1000000 linear/restarts/$f.restart
restart 1000000 linear/restarts/bb1200nuc0bl0bn0d30tot1200.restart
#############################



### READ "start" data file ###

read_data linear/$f.dat
read_data linear/bb1200nuc0bl0bn0d30tot1200.dat
Reading data file ...
  orthogonal box = (-1000 -1000 -1000) to (1000 1000 1000)
  1 by 1 by 2 MPI processor grid
  reading atoms ...
  1200 atoms
  scanning bonds ...
  1 = max bonds/atom
  scanning angles ...
  1 = max angles/atom
  reading bonds ...
  1199 bonds
  reading angles ...
  1198 angles
Finding 1-2 1-3 1-4 neighbors ...
  special bond factors lj:    0        0        0       
  special bond factors coul:  0        0        0       
     2 = max # of 1-2 neighbors
     2 = max # of 1-3 neighbors
     4 = max # of 1-4 neighbors
     6 = max # of special neighbors
  special bonds CPU = 0.003 seconds
  read_data CPU = 0.154 seconds

######################

### READ "REstart" data file ###

######################



###
# Define groups (atom type 1 is group 'all')
###
group all type 1
1200 atoms in group all


###
# Dump configs - "simple dumpings"
###

###
# Dump configs + box coords
###

dump   1   all   custom   1000  linear/trjs/$f.lammpstrj  id  x y z  ix iy iz
dump   1   all   custom   1000  linear/trjs/bb1200nuc0bl0bn0d30tot1200.lammpstrj  id  x y z  ix iy iz
dump_modify   1   format line "%d %.5f %.5f %.5f %d %d %d"

########################################################################


###################################################################
# Stiffness term
#
# E = K * (1+cos(theta)), K>0
#
angle_style   cosine
#change this coefficient to change stiffness (e.g. 1,5,10)
angle_coeff   1 1.0
###################################################################

###################################################################
# Pair interaction between non-bonded atoms
#
#  Lennard-Jones 12-6 potential with cutoff:
#  potential E=4epsilon[ (sigma/r)^12 - (sigma/r)^6]  for r<r_cut
#
#  1.12246 = 2^(1/6) is the minimum of the potential


pair_style      lj/cut 1.12246152962189
#pair_style      lj/cut 3

#
#  pair_modify shift yes adds a constant to the potential such

#  that E(r_cut)=0. Forces remains unchanged.
#

pair_modify     shift yes

#
#  pair_coeff for lj/cut, specify 4:
#    * atom type interacting with
#    * atom type
#    * epsilon (energy units)
#    * sigma (distance units)
#

pair_coeff      1 1 1.0 1.0
###################################################################

###################################################################
# Pair interaction between non-bonded atoms
#
#  soft potential, for PUSHING apart overlapping atoms
#  potential E=A*(1 + cos(pi*r/r_c))
#
#  1.12246 = 2^(1/6) is the cut-off r_c

#pair_style     soft 1.12246152962189

#
#  pair_coeff for soft, specify 3:
#    * atom type interacting with
#    * atom type
#    * A
#
#

#pair_coeff      1 1 100.0
###################################################################

###################################################################
# Pair interaction between bonded atoms
#
# Fene potential + Lennard Jones 12-6:

#
#  E= - 0.5 K R0^2 ln[ 1- (r/R0)^2]
#     + 4epsilon[ (sigma/r)^12 - (sigma/r)^6] + epsilon
#

bond_style   fene


#
# For style fene, specify:
#   * bond type
#   * K (energy/distance^2)
#   * R0 (distance)
#   * epsilon (energy)  (LJ component)
#   * sigma (distance)  (LJ component)
#


special_bonds fene #<=== I M P O R T A N T (new command)
Finding 1-2 1-3 1-4 neighbors ...
  special bond factors lj:    0        1        1       
  special bond factors coul:  0        1        1       
     2 = max # of 1-2 neighbors
     6 = max # of special neighbors
  special bonds CPU = 0.001 seconds

bond_coeff   1   30   2   1.0   1.0


###################################################

###################################################################
# Pair interaction between bonded atoms
#
# Harmonic potential:
#
#  E= K * (R-R0)^2
#

#bond_style   harmonic

#
# For style harmonic, specify:
#   * bond type
#   * K (energy/distance^2)
#   * R0 (distance)
#

#bond_coeff   1   60.0   1.0
#bond_coeff   2   harmonic 0.1   1.0

###################################################
compute 1 all gyration
variable rog equal c_1
#compute 2 all coord/atom cutoff 1.1

#dump 2 all custom 10000 contact_number.dump id c_2


###
# Set up fixes
###
thermo_style   custom   step  temp enthalpy c_1
fix 1 all nve   ###NVE ensemble

fix 2 all   langevin   1.0 1.0 1.0  100103   ###Langevin integrator Tstart Tstop 1/friction rndseed


##### Sample thermodynamic info  (temperature, energy, pressure, etc.) #####
thermo 1000









############################################################################

###
# set timestep of integrator

timestep 0.01

###
# run integration for a number of steps
###
#run 0
#variable r equal c_1
#if "$r < 63.1" then "quit 1"

# lj potential minimum, cause molecule to explore
run 100000
Generated 0 of 0 mixed pair_coeff terms from geometric mixing rule
Last active /omp style is angle_style cosine/omp
Neighbor list info ...
  update: every = 1 steps, delay = 1 steps, check = yes
  max neighbors/atom: 2000, page size: 100000
  master list distance cutoff = 5.1224615
  ghost atom cutoff = 5.1224615
  binsize = 2.5612308, bins = 781 781 781
  1 neighbor lists, perpetual/occasional/extra = 1 0 0
  (1) pair lj/cut/omp, perpetual
      attributes: half, newton on, omp
      pair build: half/bin/newton/omp
      stencil: half/bin/3d
      bin: standard
WARNING: Communication cutoff 5.12246152962189 is shorter than a bond length based estimate of 5.455. This may lead to errors. (src/comm.cpp:723)
Per MPI rank memory allocation (min/avg/max) = 939.7 | 940.3 | 940.9 Mbytes
   Step          Temp         Enthalpy         c_1      
         0   0              13.41568       300.00019    
      1000   1.0294565      18.894654      299.74235    
      2000   0.97332085     19.152276      299.59336    
      3000   0.96880323     18.68185       299.48033    
      4000   1.0318738      18.836317      299.58174    
      5000   0.97464408     18.885961      299.36719    
      6000   1.0338058      19.057537      299.22944    
      7000   1.0013407      18.642041      299.17358    
      8000   0.97097512     18.816845      298.95855    
      9000   0.96859337     18.662656      298.70345    
     10000   1.0138052      18.703245      298.60361    
     11000   1.0107931      19.114443      298.41943    
     12000   1.0166681      18.799202      298.19818    
     13000   0.95165788     19.038435      298.14568    
     14000   0.97228384     18.69348       297.99434    
     15000   0.98032671     18.837272      297.83186    
     16000   1.0563295      19.204414      297.75192    
     17000   1.0327982      18.665184      297.46663    
     18000   0.99867975     19.065827      297.25514    
     19000   1.0373744      19.118511      297.26932    
     20000   1.0112905      18.91645       297.24652    
     21000   1.0169117      18.636171      297.14763    
     22000   0.99698839     18.765025      296.79379    
     23000   0.97202832     18.73684       296.77377    
     24000   1.0108528      18.821191      296.74487    
     25000   1.0045195      18.805687      296.46736    
     26000   1.0196821      19.115773      296.32617    
     27000   1.0355653      18.906879      296.23365    
     28000   0.99543975     18.89178       296.15929    
     29000   1.0200752      19.542374      296.06243    
     30000   1.0028704      18.738682      295.87094    
     31000   0.97329415     19.32644       295.78344    
     32000   0.97044798     18.464016      295.65253    
     33000   1.0347927      18.83434       295.57018    
     34000   0.97516776     19.248373      295.37565    
     35000   0.98863291     19.011319      295.52878    
     36000   1.0287831      18.768197      295.51525    
     37000   0.99493281     18.836814      295.28299    
     38000   1.0423663      19.339562      295.42877    
     39000   0.97013108     18.815815      295.32207    
     40000   1.0100366      18.897967      295.44848    
     41000   1.0271697      19.301103      295.51299    
     42000   0.96624973     19.009298      295.22503    
     43000   0.9533361      19.083804      295.01704    
     44000   0.98206299     19.084978      294.79163    
     45000   0.96014811     19.067066      294.57436    
     46000   1.0352497      19.506212      294.61546    
     47000   1.0277975      19.03032       294.46623    
     48000   1.0256509      18.738708      294.3189     
     49000   0.97984854     19.318147      293.86552    
     50000   0.99244975     19.212916      293.61422    
     51000   1.0326319      18.930579      293.61511    
     52000   1.0038713      18.87428       293.24885    
     53000   1.0273036      19.217027      292.98275    
     54000   0.98543045     19.390507      292.69075    
     55000   0.99334155     19.318628      292.27803    
     56000   1.0252087      19.163414      292.25279    
     57000   0.96511881     19.259906      292.18968    
     58000   0.98783266     19.537358      292.1418     
     59000   0.96400755     18.961019      291.98569    
     60000   0.98015051     19.42149       292.0105     
     61000   1.0045189      19.451921      292.15883    
     62000   1.0093146      18.97981       292.14194    
     63000   0.98881476     18.999344      292.04388    
     64000   0.97731659     19.161682      291.941      
     65000   1.005729       19.049141      291.63792    
     66000   1.013229       19.131593      291.50718    
     67000   0.98469551     19.178658      291.27869    
     68000   1.0168007      19.208335      291.09453    
     69000   0.99594258     19.322483      290.88339    
     70000   1.0199331      18.956958      290.70358    
     71000   0.99151861     19.48354       290.42856    
     72000   0.99053139     19.32308       290.36209    
     73000   0.99985256     19.432107      290.18752    
     74000   0.97122097     18.963103      289.97229    
     75000   0.98397282     19.002027      289.85709    
     76000   1.018458       19.338834      289.58293    
     77000   0.97659373     19.291505      289.38368    
     78000   0.9922409      19.130156      289.56033    
     79000   1.0269834      19.234778      289.39428    
     80000   0.99180313     18.984477      289.20471    
     81000   0.99209439     19.676041      288.90586    
     82000   1.009004       19.588432      288.6654     
     83000   0.9824843      19.315554      288.504      
     84000   0.98187785     19.535143      288.51272    
     85000   1.0061962      19.125919      288.36773    
     86000   1.0245231      19.23995       288.26398    
     87000   1.0106747      19.692264      287.98477    
     88000   1.0089941      19.191549      287.80777    
     89000   1.0160502      19.319944      287.4956     
     90000   0.98368369     18.842026      287.45562    
     91000   1.0020466      18.998363      287.39754    
     92000   1.0387258      19.281924      287.2499     
     93000   1.0154064      19.300595      287.11733    
     94000   0.99687533     19.556573      286.97838    
     95000   1.0230938      19.053707      286.89105    
     96000   1.0258343      19.481728      286.62044    
     97000   0.98454787     19.641763      286.3018     
     98000   1.0036522      19.599348      286.23852    
     99000   0.98818302     19.335934      285.96656    
    100000   0.93682967     19.399154      285.9586     
Loop time of 249.094 on 4 procs for 100000 steps with 1200 atoms

Performance: 346856.719 tau/day, 401.455 timesteps/s
106.1% CPU use with 2 MPI tasks x 2 OpenMP threads

MPI task timing breakdown:
Section |  min time  |  avg time  |  max time  |%varavg| %total
---------------------------------------------------------------
Pair    | 1.138      | 1.1878     | 1.2377     |   4.6 |  0.48
Bond    | 2.4585     | 2.5338     | 2.6091     |   4.7 |  1.02
Neigh   | 235.97     | 235.97     | 235.97     |   0.0 | 94.73
Comm    | 3.2507     | 3.3105     | 3.3704     |   3.3 |  1.33
Output  | 0.33412    | 0.33825    | 0.34238    |   0.7 |  0.14
Modify  | 4.3897     | 4.5404     | 4.6911     |   7.1 |  1.82
Other   |            | 1.211      |            |       |  0.49

Nlocal:            600 ave         708 max         492 min
Histogram: 1 0 0 0 0 0 0 0 0 1
Nghost:            562 ave         701 max         423 min
Histogram: 1 0 0 0 0 0 0 0 0 1
Neighs:         2863.5 ave        3657 max        2070 min
Histogram: 1 0 0 0 0 0 0 0 0 1

Total # of neighbors = 5727
Ave neighs/atom = 4.7725
Ave special neighs/atom = 1.9983333
Neighbor list builds = 1068
Dangerous builds = 0

# Replace lj potential, now collapse
pair_style      lj/cut 3

# Cutoff simul when gyration under 5
# Variable created with equal requires v_ + 'name'
fix 3 all halt 1000 v_rog < 5

run 5000000
Generated 0 of 0 mixed pair_coeff terms from geometric mixing rule
Last active /omp style is angle_style cosine/omp
Per MPI rank memory allocation (min/avg/max) = 939.7 | 940.4 | 941 Mbytes
   Step          Temp         Enthalpy         c_1      
    100000   0.93682967     18.976902      285.9586     
    101000   1.0066779      19.425169      285.78874    
    102000   0.98386019     18.607442      285.36534    
    103000   1.0360741      19.098778      285.19774    
    104000   0.95684218     18.883738      284.984      
    105000   0.94567472     18.744264      284.86811    
    106000   1.0391412      18.934307      284.90246    
    107000   1.0279107      19.022029      284.73037    
    108000   0.98895785     18.9136        284.50423    
    109000   0.97787573     18.941248      284.39079    
    110000   0.99301708     19.003485      284.13544    
    111000   1.0007999      18.948765      283.94202    
    112000   0.99988342     18.692694      283.88365    
    113000   0.99261755     18.917579      283.98507    
    114000   1.0063935      18.767204      283.68715    
    115000   0.9862375      19.146986      283.58552    
    116000   1.0028307      18.724951      283.63125    
    117000   0.98497861     18.622676      283.29885    
    118000   1.0345611      19.030185      283.1566     
    119000   1.0100509      18.611866      282.96432    
    120000   1.036699       19.149734      282.95951    
    121000   1.0499602      19.132504      282.7969     
    122000   1.0182633      18.987912      282.70925    
    123000   1.0237957      18.710433      282.57791    
    124000   1.0036994      19.152173      282.32406    
    125000   0.97403461     18.849419      282.2494     
    126000   1.0257432      18.867436      282.10371    
    127000   0.98092579     19.023268      281.9109     
    128000   0.96219532     18.900205      281.74606    
    129000   0.9554415      18.744337      281.51902    
    130000   1.0325918      18.814765      281.37576    
    131000   0.97929179     19.053573      281.33958    
    132000   0.98863778     18.720898      281.20191    
    133000   0.97690642     18.661272      281.08886    
    134000   1.0237279      19.170009      280.8095     
    135000   0.98365909     18.903608      280.73695    
    136000   0.97563707     18.875682      280.6065     
    137000   0.99141346     18.746569      280.65399    
    138000   1.0419082      19.217034      280.35994    
    139000   1.0201586      18.959062      280.22719    
    140000   1.0001145      18.95621       279.97309    
    141000   1.0025005      19.079229      279.72089    
    142000   0.97921037     18.627488      279.77352    
    143000   1.0298338      19.044412      279.6687     
    144000   1.0056695      18.640732      279.55136    
    145000   1.011381       18.89066       279.79917    
    146000   1.0384266      18.807001      279.42051    
    147000   1.026965       19.111198      279.37857    
    148000   0.97498953     19.146535      279.30136    
    149000   1.002544       19.059858      279.16648    
    150000   0.99756423     18.897909      279.12509    
    151000   1.0163181      19.02825       278.90647    
    152000   0.94748847     18.968208      278.72877    
    153000   1.0073201      19.139392      278.46306    
    154000   0.97162897     18.583117      278.45978    
    155000   1.0330084      18.797468      278.28642    
    156000   1.0170299      19.062686      278.00576    
    157000   0.99819144     18.70662       277.69209    
    158000   0.96905639     19.818606      277.67449    
    159000   0.96301579     18.331705      277.67011    
    160000   1.0243655      18.985657      277.68754    
    161000   1.0336519      18.790577      277.66279    
    162000   1.0447945      18.972084      277.66248    
    163000   0.97380891     18.78832       277.60948    
    164000   0.95671088     18.889478      277.50477    
    165000   1.0003357      18.943445      277.43091    
    166000   0.96615126     18.595739      277.42018    
    167000   0.97410846     19.082624      277.24828    
    168000   1.0105272      19.039605      276.97694    
    169000   1.0052433      18.714451      276.90747    
    170000   0.97568132     18.795993      276.76452    
    171000   1.0381001      19.118398      276.47839    
    172000   1.0192747      18.815494      276.21328    
    173000   1.0170134      19.012513      275.89547    
    174000   1.0085658      19.140143      275.79632    
    175000   1.0240072      18.910171      275.75743    
    176000   1.0003962      19.479401      275.78363    
    177000   0.96074937     18.664959      275.67288    
    178000   1.0082153      18.849255      275.69265    
    179000   1.0285995      18.596275      275.41337    
    180000   1.0016843      19.028466      275.43281    
    181000   1.045615       18.795002      275.40565    
    182000   0.9911535      19.364304      275.39158    
    183000   1.0079865      19.073595      275.17061    
    184000   0.97509184     18.739888      274.87545    
    185000   0.98589828     18.807953      274.54738    
    186000   0.97570225     18.570939      274.31838    
    187000   0.95116032     18.76544       274.02102    
    188000   1.0090647      19.198476      273.90094    
    189000   0.99361097     19.120823      273.84751    
    190000   0.96400013     18.574925      273.7644     
    191000   1.0240969      19.276044      273.56427    
    192000   0.98863886     18.912441      273.39143    
    193000   0.98835017     19.211289      273.21715    
    194000   1.0077719      18.855318      273.10485    
    195000   1.0399879      19.177971      273.00861    
    196000   1.0297362      19.102764      272.99228    
    197000   0.99049534     19.002818      272.86882    
    198000   1.0007193      18.793953      272.69178    
    199000   0.99618146     18.629467      272.39503    
    200000   0.98783349     18.724385      272.29182    
    201000   1.0225598      18.91574       272.10323    
    202000   0.9948508      18.739851      271.81883    
    203000   1.005475       18.871554      271.66789    
    204000   1.007142       19.091324      271.49878    
    205000   0.9834102      18.982092      271.10089    
    206000   1.009364       19.188174      270.95873    
    207000   0.96278544     18.759571      270.68823    
    208000   1.0259159      18.847843      270.72398    
    209000   1.022887       19.252208      270.72596    
    210000   0.95035624     18.449229      270.70361    
    211000   1.0164814      19.260172      270.66735    
    212000   1.0158216      18.91719       270.45471    
    213000   0.99293367     18.610946      270.19103    
    214000   0.99788724     19.526159      270.06365    
    215000   0.98875374     18.786051      270.11876    
    216000   1.018444       18.983364      270.04954    
    217000   0.99554596     19.150789      269.87947    
    218000   0.99256736     19.540487      269.7485     
    219000   0.97780777     19.069844      269.74081    
    220000   1.0398664      18.960291      269.72003    
    221000   0.96019043     19.444529      269.72137    
    222000   1.0153007      18.981209      269.50323    
    223000   1.0437657      18.632439      269.35602    
    224000   0.9706518      19.329769      269.38488    
    225000   0.97510186     18.8537        269.21652    
    226000   1.0576848      18.862829      268.96839    
    227000   1.0169933      19.350691      268.99037    
    228000   0.98273466     18.712148      268.95543    
    229000   1.0014016      18.774531      268.90457    
    230000   0.99258062     19.489978      269.13042    
    231000   1.0011355      18.78696       268.74309    
    232000   0.98719943     18.909039      268.63544    
    233000   1.0171036      18.847709      268.54392    
    234000   0.97917248     19.105896      268.33521    
    235000   0.95456527     18.839043      268.04994    
    236000   1.0314972      18.980213      268.01138    
    237000   0.99310517     19.302251      267.91698    
    238000   0.9859795      19.04153       267.82463    
    239000   0.97453872     18.855115      267.42542    
    240000   0.98734559     18.796725      267.34053    
    241000   0.98723265     19.044317      267.29283    
    242000   1.0162195      19.141582      267.25879    
    243000   0.98057089     18.860122      267.11109    
    244000   1.0455095      18.917264      267.13557    
    245000   1.0074415      19.130294      267.09573    
    246000   0.94673881     18.824675      266.87066    
    247000   0.98426348     18.909192      266.83299    
    248000   1.0039589      19.222003      266.75894    
    249000   1.0181606      19.187493      266.61068    
    250000   0.98162914     18.454004      266.42514    
    251000   1.0264201      18.647437      266.35122    
    252000   1.022597       19.172203      266.07913    
    253000   0.99719696     18.868665      266.07454    
    254000   1.0468627      18.70975       266.05405    
    255000   0.98494583     19.279682      266.21347    
    256000   0.9793204      18.894883      266.21075    
    257000   0.99499616     19.405956      265.96604    
    258000   1.0077095      19.154066      265.81653    
    259000   0.99253602     19.500797      265.78881    
    260000   1.004827       19.243961      265.46415    
    261000   1.0122813      19.017536      265.25973    
    262000   0.99372823     18.969282      265.21406    
    263000   0.98590672     18.862882      265.07901    
    264000   0.98526071     18.424053      265.05025    
    265000   0.99911337     19.477115      265.04612    
    266000   0.98233483     19.068049      264.98707    
    267000   1.0406114      19.222438      265.00286    
    268000   1.0238989      19.110152      264.8839     
    269000   0.95071419     18.675763      264.65213    
    270000   1.0023986      18.752643      264.62044    
    271000   1.0038604      18.861807      264.34719    
    272000   0.96987747     18.994432      264.1833     
    273000   0.9863485      19.46739       263.9396     
    274000   1.0055141      19.360247      263.80005    
    275000   0.99692193     18.36289       263.81767    
    276000   0.99625361     19.016685      263.75928    
    277000   1.0025702      18.96527       263.66396    
    278000   0.9640773      18.658681      263.55246    
    279000   0.98260193     19.268217      263.65556    
    280000   0.98083061     18.974962      263.50459    
    281000   1.005686       18.98527       263.41477    
    282000   0.98070808     19.153388      263.00322    
    283000   0.97589386     18.895518      262.95428    
    284000   0.98419493     18.801549      262.87687    
    285000   0.99313962     18.962929      262.70517    
    286000   1.0253616      18.9037        262.63468    
    287000   1.0113789      19.066155      262.61323    
    288000   0.97610747     19.103559      262.65765    
    289000   1.0587381      18.835477      262.60205    
    290000   1.0110872      18.917766      262.54126    
    291000   1.018924       19.057354      262.48299    
    292000   1.0237351      18.861991      262.49073    
    293000   1.0001892      18.710723      262.26696    
    294000   1.0248159      19.11549       262.3043     
    295000   1.0130544      18.852341      262.39982    
    296000   0.97578309     19.101796      262.04651    
    297000   0.98876764     19.295756      261.96092    
    298000   1.0401286      19.281839      261.90529    
    299000   0.9918952      18.747775      261.75357    
    300000   0.96060537     19.215565      261.72236    
    301000   1.0466218      19.241743      261.63933    
    302000   0.99180815     19.232171      261.46976    
    303000   0.99838961     19.295163      261.44334    
    304000   1.025767       18.786963      261.27946    
    305000   1.004232       18.952376      261.11245    
    306000   1.025659       18.802053      261.23225    
    307000   0.98637435     19.056011      261.13273    
    308000   1.0039732      18.599465      260.94724    
    309000   1.0150511      18.885961      260.79648    
    310000   1.0438276      19.544912      260.69375    
    311000   1.0107361      18.649039      260.47326    
    312000   0.99275654     19.207288      260.57225    
    313000   0.99973395     19.508341      260.54012    
    314000   0.9827863      18.77585       260.49972    
    315000   1.0179417      19.339485      260.29125    
    316000   0.96882931     19.241748      260.24253    
    317000   0.96616879     18.793351      259.9493     
    318000   0.99463436     18.795654      259.71459    
    319000   1.0066681      19.133785      259.63116    
    320000   1.0045397      18.9439        259.57673    
    321000   1.0254855      19.158154      259.4096     
    322000   0.9934971      19.291995      259.41482    
    323000   1.0372638      18.874101      259.20059    
    324000   1.0116273      18.892354      259.22694    
    325000   0.99605258     19.143103      259.05505    
    326000   1.035357       18.648557      258.88631    
    327000   0.97482872     18.986115      258.78526    
    328000   0.98097977     18.894502      258.67893    
    329000   1.0181994      19.058557      258.65472    
    330000   0.95861284     18.919859      258.69599    
    331000   1.0107698      19.146676      258.83809    
    332000   1.0100909      19.03684       258.83315    
    333000   1.0046584      19.075784      258.67342    
    334000   0.95645168     19.328022      258.47618    
    335000   1.0143         19.047032      258.33477    
    336000   1.013428       19.288546      258.13639    
    337000   0.99728873     18.628014      257.8541     
    338000   1.0116165      18.380023      257.63306    
    339000   0.97404434     18.743065      257.55466    
    340000   1.0344629      19.174889      257.43684    
    341000   0.9939872      19.072373      257.2503     
    342000   1.0091698      18.895729      257.05371    
    343000   0.94547799     18.577086      256.77234    
    344000   1.0172798      19.202076      256.65214    
    345000   1.0068521      18.711164      256.38464    
    346000   1.0411392      19.271884      256.27227    
    347000   1.0020222      18.833611      256.18123    
    348000   0.98794505     19.04881       256.12156    
    349000   1.0128442      19.32406       256.12771    
    350000   0.98594084     19.54955       256.04166    
    351000   1.0311547      18.835024      255.91128    
    352000   1.0157792      19.978824      255.95946    
    353000   1.0133903      18.976691      255.64236    
    354000   1.0291448      18.823424      255.54629    
    355000   0.99829897     18.331317      255.71975    
    356000   0.97693399     18.718928      255.75413    
    357000   0.96369831     18.799331      255.58414    
    358000   1.0488225      19.149016      255.60246    
    359000   0.98803305     19.208725      255.47987    
    360000   1.040109       18.792519      255.3282     
    361000   1.0804422      19.390638      255.28745    
    362000   1.0380322      19.146752      255.12918    
    363000   0.99889636     18.960453      255.13025    
    364000   0.99280183     19.017318      254.9842     
    365000   0.98960737     19.418908      254.95354    
    366000   1.0052276      18.240663      255.08107    
    367000   0.99460322     18.834286      255.06288    
    368000   1.0421893      19.120397      254.96111    
    369000   0.98966994     19.03801       254.88299    
    370000   1.0185577      18.706386      254.52092    
    371000   1.0635417      19.244388      254.42322    
    372000   1.0353156      19.295712      254.19977    
    373000   0.9993326      18.953711      254.10915    
    374000   0.98446468     19.06849       254.02619    
    375000   1.01343        19.134882      253.85002    
    376000   1.0205447      18.803136      253.90354    
    377000   1.0193989      19.207913      253.9095     
    378000   1.0046564      18.670247      253.82308    
    379000   1.0256089      19.428342      253.80169    
    380000   0.98770237     18.698297      253.75522    
    381000   1.0059028      18.728583      253.64819    
    382000   0.9821816      18.864682      253.66755    
    383000   0.98501039     18.794299      253.47721    
    384000   0.98539097     19.416893      253.40184    
    385000   1.0222465      19.467823      253.41854    
    386000   1.0413772      18.795056      253.41131    
    387000   0.98806765     19.160863      253.20545    
    388000   0.96583169     18.963796      253.12039    
    389000   0.97227286     19.089696      252.98266    
    390000   1.008166       19.210207      252.77582    
    391000   1.0128787      19.291283      252.71374    
    392000   0.96786276     18.912313      252.63572    
    393000   1.0207141      18.805576      252.48961    
    394000   1.024325       19.151778      252.49461    
    395000   1.0138817      19.093184      252.44227    
    396000   0.99454093     19.145428      252.48941    
    397000   0.9771429      18.753478      252.52443    
    398000   0.97328159     18.959398      252.18919    
    399000   0.99359501     19.066658      251.93642    
    400000   0.99639689     18.951221      251.68084    
    401000   1.0104268      19.235418      251.60217    
    402000   0.9887383      18.750416      251.33461    
    403000   0.99712419     18.896706      251.25494    
    404000   1.0027936      18.704489      251.01966    
    405000   0.97345798     18.693089      250.94677    
    406000   0.99222828     18.886866      250.70944    
    407000   1.0057181      19.034724      250.63628    
    408000   0.97172989     19.014941      250.51936    
    409000   1.0151707      19.052248      250.45432    
    410000   1.0037194      19.540648      250.46768    
    411000   0.96667879     18.683753      250.28304    
    412000   1.0193082      19.019788      250.12662    
    413000   0.96889332     18.790932      249.8965     
    414000   0.99842058     18.786436      249.76145    
    415000   0.99118748     19.265641      249.56246    
    416000   1.0180803      19.085259      249.56989    
    417000   1.0072386      18.95759       249.67184    
    418000   0.98036894     19.03293       249.75041    
    419000   0.98218224     18.614997      249.78955    
    420000   0.98175505     19.098483      249.77493    
    421000   1.0239012      19.17568       249.48054    
    422000   1.0216099      19.393656      249.37046    
    423000   0.98630626     18.696246      249.26842    
    424000   0.98306591     19.013325      249.04877    
    425000   1.0420142      18.980716      248.91989    
    426000   1.0023863      18.771242      248.86325    
    427000   1.0065814      19.192823      248.80892    
    428000   0.97357039     18.934368      248.68937    
    429000   1.0243848      19.208713      248.58573    
    430000   1.0006734      19.094762      248.38776    
    431000   0.95928089     18.706554      248.2271     
    432000   1.0073487      18.995025      248.14002    
    433000   1.0352429      18.938392      247.93424    
    434000   1.0250835      19.577007      247.84666    
    435000   1.0118632      18.992783      247.75317    
    436000   1.0277714      18.887005      247.50468    
    437000   0.98345945     19.278477      247.42132    
    438000   0.99713668     18.710456      247.28442    
    439000   0.99587729     19.034777      247.08029    
    440000   1.0024247      18.992666      247.09778    
    441000   1.0222263      18.676896      246.81312    
    442000   1.0522974      19.089689      246.53269    
    443000   0.98577716     18.516446      246.54895    
    444000   0.99637015     18.603628      246.64356    
    445000   1.0392207      18.997615      246.55461    
    446000   1.0029392      18.801663      246.41146    
    447000   0.97069512     18.798398      246.29444    
    448000   0.99298554     19.642124      246.15683    
    449000   1.0214904      19.196584      245.85081    
    450000   1.0339551      19.470152      245.69302    
    451000   0.9686774      18.74182       245.793      
    452000   0.97628714     19.074699      245.80306    
    453000   1.031722       19.03269       245.83504    
    454000   0.97203209     18.572759      245.85297    
    455000   1.0062498      18.609959      245.65096    
    456000   1.0209739      19.581091      245.34063    
    457000   0.97148894     19.048982      245.16819    
    458000   1.0411117      19.448418      245.01528    
    459000   1.0106756      18.681826      244.74678    
    460000   1.0210579      18.992676      244.73273    
    461000   1.0328338      19.119995      244.73303    
    462000   1.0162483      18.987053      244.62017    
    463000   1.0213926      19.34545       244.60053    
    464000   0.99883558     19.129303      244.43333    
    465000   1.0118024      19.116705      244.16651    
    466000   0.99488751     18.769497      244.07859    
    467000   0.94457932     18.518735      243.94916    
    468000   1.0359433      18.83918       243.83882    
    469000   0.98462272     19.07185       243.86172    
    470000   1.0006633      18.734813      243.701      
    471000   1.0052255      19.280004      243.68       
    472000   1.0048921      19.061933      243.62189    
    473000   0.98059952     18.810514      243.49403    
    474000   1.0137852      18.966995      243.45423    
    475000   1.0005426      19.045757      243.44956    
    476000   1.0255218      19.146698      243.3129     
    477000   0.98050109     18.763815      243.3525     
    478000   1.0072412      18.58638       243.34369    
    479000   1.0001378      18.950237      243.30933    
    480000   0.98327152     18.904768      243.19536    
    481000   0.97643699     18.951957      242.99692    
    482000   1.0279416      19.373004      242.87543    
    483000   1.0068914      18.549026      242.71772    
    484000   1.0225011      18.72274       242.6874     
    485000   0.99023972     18.928023      242.69071    
    486000   1.0027857      18.650457      242.53139    
    487000   0.95719948     19.479229      242.36856    
    488000   0.95788672     19.008038      242.17924    
    489000   0.97934715     19.025433      242.10995    
    490000   0.98729786     19.231296      242.02651    
    491000   0.9696606      18.757711      241.99874    
    492000   1.0346302      19.117201      241.95743    
    493000   1.0106055      18.950827      241.93599    
    494000   1.0070784      18.856759      241.7993     
    495000   1.0413094      18.521006      241.70992    
    496000   1.0413895      19.147848      241.59977    
    497000   1.0265055      18.763549      241.56736    
    498000   0.9906474      19.200695      241.4135     
    499000   0.98458778     19.235253      241.49013    
    500000   0.99648307     19.097212      241.48273    
    501000   0.97123974     19.140295      241.18299    
    502000   0.98903329     18.883016      241.136      
    503000   0.98752746     18.757915      241.0046     
    504000   1.0110149      19.474089      240.83539    
    505000   0.98696792     18.608784      240.8752     
    506000   0.98482727     18.693692      240.76357    
    507000   0.99248743     18.77643       240.65061    
    508000   1.006792       18.937987      240.55694    
    509000   1.0207422      19.035454      240.4955     
    510000   1.0177267      19.41431       240.44451    
    511000   1.0477254      19.061485      240.363      
    512000   1.0096716      18.904121      240.42886    
    513000   1.0174224      18.793928      240.75012    
    514000   0.97894102     19.043025      240.55559    
    515000   1.0003312      18.856576      240.49358    
    516000   1.0049511      18.363094      240.49641    
    517000   1.0180838      18.63059       240.34136    
    518000   0.96304081     19.007517      240.30044    
    519000   0.94744835     19.05384       240.31344    
    520000   1.0315721      19.186         240.40893    
    521000   0.96661108     18.66553       240.19224    
    522000   0.99785743     19.08276       240.19413    
    523000   0.98408075     19.046997      239.90996    
    524000   0.95092183     18.949737      239.81744    
    525000   0.98231881     18.963389      239.74292    
    526000   1.0009752      18.833895      239.59485    
    527000   1.0077662      19.214158      239.43418    
    528000   1.0023671      18.895272      239.10167    
    529000   0.9844268      18.350123      239.09735    
    530000   1.0256536      19.012689      238.90118    
    531000   1.0159915      19.330628      238.70687    
    532000   1.0035353      18.961533      238.42287    
    533000   0.94988449     18.557694      238.46195    
    534000   0.94387468     18.851756      238.45637    
    535000   0.98970853     18.754671      238.35652    
    536000   0.98559977     18.826494      238.40331    
    537000   1.020889       19.430476      238.22384    
    538000   0.98851516     18.911471      238.0682     
    539000   0.96909748     19.076978      238.2825     
    540000   1.0402952      18.879969      238.21193    
    541000   1.0038125      19.109816      237.92101    
    542000   1.0055245      18.866697      237.90886    
    543000   0.99010301     19.516395      237.80396    
    544000   0.98818972     19.166672      237.61131    
    545000   1.0028761      19.52281       237.52602    
    546000   1.0160339      19.057986      237.35201    
    547000   1.0152428      18.691669      237.22968    
    548000   0.94941764     18.752617      236.86123    
    549000   0.98458211     19.349712      236.5889     
    550000   1.0362461      18.751864      236.52482    
    551000   1.0353745      19.151695      236.29891    
    552000   0.96478972     18.591608      236.36155    
    553000   1.0126151      18.665159      236.27009    
    554000   0.9756271      19.085498      236.00578    
    555000   1.0066743      18.916431      235.92277    
    556000   1.0125049      18.647379      235.84333    
    557000   0.98420115     18.393994      235.80359    
    558000   1.0129071      18.875005      235.67962    
    559000   0.99120477     18.909014      235.51811    
    560000   0.96627546     19.194771      235.47572    
    561000   1.0128458      19.200727      235.39817    
    562000   1.006341       19.296444      235.32179    
    563000   1.0202307      18.818787      235.17015    
    564000   0.98159025     18.681708      234.94788    
    565000   0.95209429     18.730675      234.89564    
    566000   1.018103       18.697683      234.99455    
    567000   0.9978673      19.053636      235.01526    
    568000   0.97593955     19.150116      234.85712    
    569000   1.0102241      18.740683      234.82266    
    570000   0.93734619     19.146279      234.80211    
    571000   1.0500427      19.034779      234.7133     
    572000   1.002987       19.034522      234.58253    
    573000   0.99803839     18.27017       234.51902    
    574000   0.99187113     18.605767      234.30199    
    575000   1.0256636      18.690907      234.15158    
    576000   1.0102722      19.494428      233.99313    
    577000   1.0191758      18.850654      233.91165    
    578000   0.98526541     19.390604      233.89362    
    579000   1.0575514      19.196457      233.94899    
    580000   1.0018158      19.093425      233.6944     
    581000   0.99195        18.734982      233.63609    
    582000   1.0098267      19.044181      233.43439    
    583000   0.99576781     19.154578      233.39243    
    584000   1.0342741      19.15182       233.16766    
    585000   0.9978512      18.850475      233.08073    
    586000   1.0029658      18.432572      233.16154    
    587000   0.95749812     18.563983      232.86869    
    588000   0.97931539     19.060033      232.72311    
    589000   0.97838939     18.803975      232.51971    
    590000   0.99063447     18.947481      232.71591    
    591000   1.0131183      18.673824      232.59231    
    592000   1.0211985      19.140131      232.56269    
    593000   0.97383012     18.242799      232.4419     
    594000   1.004237       18.705276      232.61776    
    595000   1.006538       19.007096      232.43382    
    596000   0.97927998     18.649348      232.28185    
    597000   1.0094707      19.081242      232.39269    
    598000   0.95120104     19.152897      232.38927    
    599000   0.99814719     18.499918      232.23037    
    600000   1.0009118      19.017834      232.28487    
    601000   1.0129365      18.812041      232.28976    
    602000   1.0063937      19.066815      232.30183    
    603000   0.99666022     19.157695      232.33339    
    604000   1.002057       18.984107      232.10773    
    605000   1.0452113      18.685925      232.0507     
    606000   0.99441752     18.820755      232.11494    
    607000   0.96022194     18.62722       232.06267    
    608000   0.986246       18.874958      231.98717    
    609000   1.0097047      18.979281      231.87749    
    610000   1.0078539      18.653655      231.72052    
    611000   0.98369501     19.138028      231.52848    
    612000   1.0450153      19.199797      231.27539    
    613000   1.0465981      19.160029      231.34672    
    614000   0.99722853     18.976207      231.29157    
    615000   1.0411135      18.617771      231.07786    
    616000   0.95455243     19.499077      230.93403    
    617000   1.0404438      19.116809      230.80658    
    618000   1.0030732      18.842293      230.86646    
    619000   1.0042551      19.052537      230.68626    
    620000   0.98527001     19.081415      230.5599     
    621000   1.0221076      19.132733      230.54442    
    622000   1.0050572      18.656807      230.38116    
    623000   0.98316075     19.037109      230.23976    
    624000   0.99802023     19.082002      230.28464    
    625000   1.0007552      18.586816      230.22948    
    626000   1.0051539      18.935582      230.08437    
    627000   0.98536596     18.545533      230.05449    
    628000   0.99031158     18.917856      229.98678    
    629000   0.97523054     19.038221      230.00082    
    630000   0.98770508     18.981759      229.9787     
    631000   0.98254229     19.015407      229.89514    
    632000   0.95568103     18.630519      229.8458     
    633000   0.98977458     18.990149      229.7933     
    634000   0.98819611     18.622423      229.7372     
    635000   1.0055857      18.762661      229.85338    
    636000   0.99427604     19.079716      229.84441    
    637000   0.99317324     18.756174      229.73966    
    638000   1.0330139      19.526955      229.41732    
    639000   0.96679068     18.924162      229.27361    
    640000   0.95685137     18.949239      229.24372    
    641000   0.97205329     18.770735      229.29066    
    642000   1.0060829      18.63425       229.24599    
    643000   0.98476447     19.032261      229.21653    
    644000   0.96936552     18.725005      229.15861    
    645000   0.99789843     18.663933      228.90235    
    646000   1.0032631      18.536557      228.81499    
    647000   0.9890782      18.691935      228.66145    
    648000   0.97507415     18.84006       228.68296    
    649000   0.99699375     19.271026      228.5284     
    650000   0.98568809     18.903771      228.61374    
    651000   0.98330464     18.530486      228.54441    
    652000   1.0498536      18.727583      228.50302    
    653000   0.97436281     18.851643      228.43752    
    654000   0.9979301      18.804414      228.35786    
    655000   1.0119049      18.803433      228.36168    
    656000   1.0016483      18.648978      228.26168    
    657000   1.0304723      18.613853      228.10573    
    658000   0.97686425     18.920036      228.26141    
    659000   0.97933325     18.593946      228.33275    
    660000   0.9984743      18.265887      228.4383     
    661000   1.0010218      19.170155      228.31871    
    662000   1.0044621      19.128875      228.12979    
    663000   0.96719498     18.73374       228.26947    
    664000   1.0140702      18.912634      228.19124    
    665000   1.0138668      18.624304      228.19806    
    666000   1.0402655      19.234136      228.21272    
    667000   1.0193966      19.021294      228.13708    
    668000   1.0214065      18.719389      228.06516    
    669000   0.98451143     18.650287      228.05765    
    670000   1.0356148      18.957013      227.9217     
    671000   1.0376499      19.355739      227.63928    
    672000   0.99438855     19.176546      227.5529     
    673000   1.0353876      18.833994      227.35388    
    674000   0.95727679     18.820188      227.18646    
    675000   0.93822247     18.645509      227.12923    
    676000   1.0020364      18.364622      227.17766    
    677000   0.98437058     19.068786      227.16401    
    678000   0.92186521     18.381713      226.9606     
    679000   0.99079434     18.816118      226.83166    
    680000   1.0120744      19.348934      226.74192    
    681000   0.96797994     18.871497      226.72616    
    682000   0.98661717     18.797627      226.4113     
    683000   1.024407       19.336346      226.17326    
    684000   1.019886       18.763911      225.94168    
    685000   1.0105951      19.283172      225.79781    
    686000   1.0087108      19.168343      225.57882    
    687000   0.99729729     18.889274      225.42237    
    688000   1.009596       18.721955      225.27205    
    689000   0.99088627     19.088196      225.15578    
    690000   1.0314594      18.878982      225.07205    
    691000   1.0070552      18.863942      224.86662    
    692000   1.0395735      18.812099      224.7746     
    693000   1.0016643      19.116682      224.78559    
    694000   1.0174322      18.82484       224.69601    
    695000   0.94247937     18.416094      224.56238    
    696000   1.0054218      19.156303      224.31864    
    697000   0.99888102     19.28857       224.40983    
    698000   0.99084664     18.534933      224.4615     
    699000   1.0130382      18.738519      224.35435    
    700000   1.0227586      18.724072      224.31571    
    701000   1.0221514      18.769762      224.28106    
    702000   0.96930668     18.682804      224.32906    
    703000   0.99677924     19.242364      224.30369    
    704000   1.0503774      19.236702      224.0916     
    705000   1.0085299      19.034292      224.16425    
    706000   1.0038299      19.15506       224.05148    
    707000   0.94347055     18.783341      223.86065    
    708000   0.98534168     18.356514      223.68894    
    709000   0.94924825     18.944403      223.64488    
    710000   0.99650341     19.14095       223.37897    
    711000   1.0163916      18.371156      223.41388    
    712000   1.0288094      19.182435      223.22839    
    713000   0.98944559     18.757992      223.12876    
    714000   0.96028789     18.734603      223.10377    
    715000   1.0053555      18.549626      223.16444    
    716000   0.97989255     18.737316      223.07334    
    717000   0.97213456     18.662052      222.8571     
    718000   0.977762       18.574919      222.68256    
    719000   1.0204573      19.209216      222.61261    
    720000   1.0061111      18.588035      222.57733    
    721000   1.0096148      18.891282      222.34113    
    722000   1.0333968      18.862087      222.20644    
    723000   0.951258       19.718001      222.07328    
    724000   0.99174521     18.790097      221.76112    
    725000   0.98025125     17.996221      221.79029    
    726000   0.99656253     18.570049      221.76032    
    727000   1.0314005      19.209218      221.56664    
    728000   0.99540434     18.751034      221.52908    
    729000   0.99343791     18.936031      221.52639    
    730000   0.98118685     18.839459      221.43593    
    731000   0.96724586     18.834193      221.29083    
    732000   1.02957        18.770249      221.09291    
    733000   0.98677793     18.398285      221.12697    
    734000   1.0039269      18.931475      221.01055    
    735000   1.0491881      18.891931      221.02859    
    736000   1.0172502      18.760316      220.92184    
    737000   1.0147507      18.752369      220.86951    
    738000   1.038306       19.115922      221.0272     
    739000   1.0258235      19.066007      220.76948    
    740000   1.0110737      18.768749      220.89909    
    741000   0.98014841     18.036399      220.93703    
    742000   0.99542472     18.83139       220.62396    
    743000   0.99644532     18.511289      220.349      
    744000   1.0176811      18.709566      220.23262    
    745000   1.006584       18.607631      219.92011    
    746000   0.97121717     19.487091      219.6041     
    747000   1.0145776      18.697871      219.62366    
    748000   0.99487736     19.040856      219.63871    
    749000   1.0076604      18.728865      219.58203    
    750000   1.0060225      18.701057      219.51097    
    751000   1.0044363      18.865798      219.22139    
    752000   1.0041769      19.111354      219.39401    
    753000   0.97893722     19.432301      219.49356    
    754000   0.98754005     18.65127       219.39561    
    755000   0.99461098     18.689394      219.42225    
    756000   1.0194673      18.721978      219.42878    
    757000   1.0150148      18.675583      219.40042    
    758000   0.9639103      18.991523      219.26025    
    759000   0.97529841     18.89427       219.11439    
    760000   0.9901634      18.519552      219.15274    
    761000   0.96922027     18.339617      219.15728    
    762000   1.0172666      19.060768      218.92012    
    763000   0.95908872     18.301003      219.00698    
    764000   0.9801171      18.624782      218.70572    
    765000   0.97492915     18.564042      218.42448    
    766000   1.0086132      18.593991      218.16095    
    767000   0.98253231     18.57251       217.93624    
    768000   0.97251743     18.739083      217.58539    
    769000   1.0041954      18.449299      217.51609    
    770000   1.0025393      18.53062       217.61034    
    771000   0.98554686     18.90747       217.66676    
    772000   0.99323661     18.230205      217.64079    
    773000   0.96738061     18.430582      217.72645    
    774000   1.0119009      18.794524      217.76333    
    775000   0.99116638     18.665121      217.66739    
    776000   1.0085667      18.78088       217.64031    
    777000   0.99192218     18.680936      217.37631    
    778000   1.0790691      18.783477      217.25568    
    779000   0.97929802     19.000845      217.26497    
    780000   0.99863675     19.14296       217.36028    
    781000   1.0167274      18.278479      217.31335    
    782000   1.0168599      18.694357      217.16088    
    783000   0.92655625     18.633532      216.94279    
    784000   0.993957       18.615998      216.77032    
    785000   1.0112845      18.943112      216.7037     
    786000   0.97104666     18.700711      216.83712    
    787000   1.0250384      18.863977      216.63553    
    788000   1.0017914      18.511536      216.59802    
    789000   0.99158736     18.714755      216.481      
    790000   1.0284574      18.683402      216.37194    
    791000   1.0033941      19.095309      216.25773    
    792000   0.98869867     18.616869      216.16047    
    793000   0.99140662     18.122493      216.02892    
    794000   0.9728025      19.152121      215.84644    
    795000   0.98406244     18.812492      215.76991    
    796000   1.0190642      18.890694      215.74393    
    797000   1.0168798      19.021933      215.51175    
    798000   1.0160584      18.81047       215.52681    
    799000   0.97814167     18.786274      215.42852    
    800000   0.9929314      18.767399      215.35497    
    801000   1.0272689      18.715964      214.98268    
    802000   0.98746982     18.664688      214.86835    
    803000   0.99776117     18.501436      214.66165    
    804000   0.99946386     19.032716      214.60476    
    805000   1.0059174      19.304388      214.57459    
    806000   1.037284       18.756206      214.53497    
    807000   1.0278193      18.366156      214.36152    
    808000   1.0142616      18.536482      214.12069    
    809000   0.9922771      18.78966       214.1249     
    810000   1.0500619      18.953381      214.0315     
    811000   1.0291382      19.054713      214.00833    
    812000   1.0221399      18.389947      214.08062    
    813000   1.0174082      18.956248      214.05615    
    814000   1.0095648      18.873677      213.89168    
    815000   0.97466741     18.407662      213.81083    
    816000   0.98487999     18.585561      213.7125     
    817000   1.0213636      19.010022      213.50933    
    818000   0.9944539      18.767485      213.45535    
    819000   0.9687552      18.461173      213.3533     
    820000   0.97264319     18.534907      213.27293    
    821000   1.0073391      18.957411      213.14131    
    822000   1.0314277      18.602994      212.97334    
    823000   0.97669461     18.544435      212.84735    
    824000   0.99578487     18.6586        212.71714    
    825000   1.0370245      18.935165      212.67123    
    826000   0.97963673     18.459734      212.40447    
    827000   0.98175904     18.895293      212.29096    
    828000   0.97915406     18.402977      212.02841    
    829000   1.023884       19.036082      211.6304     
    830000   1.0029392      18.872938      211.38227    
    831000   1.0030103      18.71767       211.3841     
    832000   0.99168277     18.946124      211.32109    
    833000   1.0241517      18.51084       211.3487     
    834000   0.94634552     18.962509      211.24138    
    835000   0.97103895     18.644328      211.21926    
    836000   1.0014002      19.001395      211.14002    
    837000   0.98859033     18.761218      211.37549    
    838000   1.0235977      18.51836       211.4932     
    839000   0.96223684     18.54395       211.76669    
    840000   0.97666673     18.625858      211.66865    
    841000   1.031252       19.214613      211.54653    
    842000   0.99465899     18.452552      211.43799    
    843000   1.0068934      18.972476      211.32987    
    844000   0.99322777     18.435747      211.16877    
    845000   1.0258193      19.075367      211.07975    
    846000   0.96496993     19.135306      210.97716    
    847000   0.98422665     19.261422      210.7488     
    848000   0.96940312     18.801664      210.5077     
    849000   0.98386299     18.513343      210.44709    
    850000   1.018249       19.019648      210.20447    
    851000   1.0238222      18.556024      210.11393    
    852000   0.99626742     18.294797      210.17754    
    853000   0.9858439      18.462935      210.10551    
    854000   1.0129592      18.855265      209.96984    
    855000   1.0224491      19.254673      209.92349    
    856000   1.0240543      18.962989      209.80397    
    857000   0.99793968     18.996003      209.87082    
    858000   0.99501595     18.765085      209.91134    
    859000   0.97902959     18.512118      209.81634    
    860000   1.0054733      18.595724      209.63449    
    861000   0.98302039     18.657289      209.60774    
    862000   0.9975276      18.924802      209.60444    
    863000   0.99272778     18.516783      209.44153    
    864000   0.95033347     18.978975      209.20773    
    865000   1.0400763      19.175827      209.15397    
    866000   0.97237521     18.623047      208.83726    
    867000   1.0160139      19.044287      208.50361    
    868000   0.97839757     18.774133      208.53162    
    869000   1.0267309      18.531777      208.29901    
    870000   0.98025078     18.423824      208.46268    
    871000   1.0053894      18.953984      208.15001    
    872000   0.99527433     18.985953      208.05007    
    873000   1.0126332      18.47046       207.94979    
    874000   0.99240838     18.804626      207.84249    
    875000   1.0405323      18.657091      207.81418    
    876000   0.99498822     18.639675      207.77404    
    877000   1.0305035      19.152189      207.77513    
    878000   0.98639372     18.675426      207.78569    
    879000   1.0145776      18.36008       207.64384    
    880000   0.98031306     18.510022      207.66033    
    881000   0.99489928     18.645349      207.49847    
    882000   1.0421462      18.742463      207.46326    
    883000   1.042178       18.57287       207.44557    
    884000   1.0385241      18.942586      207.48481    
    885000   1.0046219      18.522342      207.63427    
    886000   0.96115225     18.349702      207.43821    
    887000   1.0285514      18.837077      207.41642    
    888000   0.98204213     18.709489      207.23621    
    889000   1.0046317      19.068588      207.15412    
    890000   1.0226053      18.925302      206.9245     
    891000   1.0355957      19.033587      206.87488    
    892000   1.0474405      18.650119      206.92893    
    893000   0.96842721     18.400339      206.84259    
    894000   0.97591335     18.704333      206.60069    
    895000   1.007624       18.579159      206.39272    
    896000   1.0131717      18.675559      206.07991    
    897000   1.004751       18.276686      206.28178    
    898000   1.0170171      18.704606      206.35703    
    899000   1.0070276      18.700561      206.16305    
    900000   0.99869617     18.856886      206.12996    
    901000   1.0018974      18.396697      206.09205    
    902000   0.96559291     18.429965      206.03657    
    903000   0.9874732      19.119437      205.9905     
    904000   1.0068972      18.620202      205.9995     
    905000   1.0106003      18.635452      205.96954    
    906000   1.0050147      18.423103      205.98066    
    907000   1.0028253      18.470874      205.58382    
    908000   0.97120024     18.464004      205.30301    
    909000   0.98992558     18.509204      205.28887    
    910000   0.9898043      18.95998       205.05799    
    911000   0.99045466     18.611266      205.02746    
    912000   1.0242828      19.037819      204.93153    
    913000   0.992924       18.350607      204.90571    
    914000   0.99130641     18.546671      204.78531    
    915000   1.0005766      19.186004      204.63715    
    916000   1.0448955      18.696         204.68584    
    917000   0.96647554     18.748231      204.52673    
    918000   1.0208207      18.86112       204.50197    
    919000   0.96228806     18.37432       204.37291    
    920000   0.99593776     18.382396      204.22154    
    921000   1.0062538      19.27869       203.9063     
    922000   0.98289533     18.290458      203.76684    
    923000   1.0250021      18.930796      203.87152    
    924000   1.0429246      19.343065      203.9668     
    925000   1.0419059      19.065209      203.96428    
    926000   0.96577583     18.307466      203.72216    
    927000   0.94411154     18.4705        203.60751    
    928000   1.0022391      18.920715      203.53432    
    929000   1.0118007      18.875333      203.42274    
    930000   0.98925377     18.844139      203.35066    
    931000   1.029431       18.423666      203.37308    
    932000   1.0060087      18.677571      203.21205    
    933000   0.95841372     18.565335      202.96245    
    934000   0.95047825     18.361486      202.8891     
    935000   0.99403541     18.969316      202.76274    
    936000   1.0119548      18.04556       202.71292    
    937000   0.97750685     17.620847      202.56006    
    938000   0.96744499     18.316162      202.61644    
    939000   0.9708551      18.294089      202.58806    
    940000   0.989134       19.088703      202.48425    
    941000   1.0005955      19.396873      202.45746    
    942000   0.9926993      18.933286      202.53567    
    943000   0.99027842     18.622975      202.4856     
    944000   0.97878232     18.537482      202.5239     
    945000   0.97640885     18.287804      202.48465    
    946000   0.98687176     18.597322      202.48097    
    947000   0.99933919     18.62012       202.64917    
    948000   1.0212551      19.075685      202.41606    
    949000   1.0086224      18.899451      202.18287    
    950000   0.99312        19.168194      201.86491    
    951000   0.95399853     18.480235      201.54501    
    952000   1.0379926      18.468764      201.44172    
    953000   1.0371466      18.668025      201.21666    
    954000   0.99931955     18.428856      201.03843    
    955000   1.008037       18.241971      201.06169    
    956000   1.0017387      18.440179      201.05348    
    957000   0.982435       18.825221      200.97832    
    958000   1.0064411      18.728084      200.83852    
    959000   0.98809183     18.76121       200.83204    
    960000   0.93129845     18.778155      200.60377    
    961000   1.0436841      18.978319      200.38963    
    962000   1.001197       18.609675      200.11405    
    963000   1.0222224      18.044661      199.99229    
    964000   1.0082542      19.198993      199.85243    
    965000   1.0169662      19.070105      199.87931    
    966000   0.99138987     18.781533      199.83641    
    967000   0.99778291     18.070353      199.70972    
    968000   0.99634097     18.47363       199.59854    
    969000   1.0059958      18.880834      199.33067    
    970000   0.97033018     18.214889      199.38713    
    971000   1.0302553      18.336486      199.28501    
    972000   0.95288744     18.680399      199.38674    
    973000   1.0108535      18.65591       199.15811    
    974000   1.0207101      18.200595      199.11869    
    975000   0.9859823      18.345074      199.08529    
    976000   1.0057194      18.642578      199.03348    
    977000   0.9785728      18.719298      199.07447    
    978000   1.0110933      18.528718      199.20146    
    979000   0.98993915     18.743037      199.38064    
    980000   1.0206565      18.744846      199.32802    
    981000   1.0238567      18.426528      199.26767    
    982000   1.0228456      18.517759      199.2616     
    983000   1.0180161      18.829003      199.01702    
    984000   1.0076481      18.787152      198.93207    
    985000   0.95632528     18.386911      198.7682     
    986000   1.0096553      18.624817      198.86837    
    987000   0.9988563      18.419445      198.82246    
    988000   0.97571776     18.100176      198.80364    
    989000   1.0472536      18.388967      198.75623    
    990000   1.0164376      18.904684      198.73213    
    991000   0.99187298     19.39975       198.51128    
    992000   0.96751574     18.291745      198.44253    
    993000   0.9629443      18.341535      198.18127    
    994000   0.96302643     18.472575      198.09055    
    995000   0.98023674     18.293979      198.15117    
    996000   0.96155486     18.558294      198.14751    
    997000   1.0481063      18.787297      197.88874    
    998000   0.96186664     18.759006      197.84952    
    999000   0.98460286     18.724773      197.82004    
   1000000   0.99694164     18.984075      197.74661    
   1001000   1.0355756      19.072741      197.57441    
   1002000   0.99665382     18.918869      197.64135    
   1003000   1.0048096      18.965858      197.66205    
   1004000   0.96748064     18.266909      197.58888    
   1005000   1.0002925      18.804287      197.55745    
   1006000   1.0343245      18.513576      197.24657    
   1007000   0.99738523     18.370734      197.16863    
   1008000   1.0052259      18.685747      197.17491    
   1009000   0.99658158     18.566018      197.16359    
   1010000   0.96268906     18.265404      197.2283     
   1011000   0.98148145     18.226797      197.25504    
   1012000   1.0121784      18.524356      197.11024    
   1013000   1.0207815      18.747102      197.12825    
   1014000   0.99458583     18.539114      197.23039    
   1015000   1.0489945      18.798971      197.1291     
   1016000   1.029955       18.428331      196.97539    
   1017000   0.97952198     18.237039      196.83756    
   1018000   1.0117086      18.817156      196.71886    
   1019000   1.0242143      18.958454      196.59764    
   1020000   1.0105274      19.161535      196.60533    
   1021000   1.0706797      18.606122      196.61171    
   1022000   1.0049079      18.547444      196.5439     
   1023000   1.0151202      18.73981       196.52503    
   1024000   1.0154153      18.552297      196.37538    
   1025000   0.98820723     19.213314      196.20825    
   1026000   0.98268171     18.190749      196.17912    
   1027000   1.01382        18.690961      196.15448    
   1028000   1.0038823      18.243822      196.06176    
   1029000   1.0280365      19.315055      196.18598    
   1030000   1.0023256      18.721515      196.04026    
   1031000   1.0053523      18.293413      195.95871    
   1032000   0.99121113     18.495101      195.99833    
   1033000   0.97397929     18.750574      195.89356    
   1034000   1.0016305      18.364658      195.7093     
   1035000   0.96508652     18.277554      195.73298    
   1036000   0.98810701     18.160614      195.91844    
   1037000   1.0022086      18.881467      195.77801    
   1038000   1.0533879      19.045514      195.68648    
   1039000   1.0682039      18.87926       195.60235    
   1040000   0.98468693     18.255163      195.5448     
   1041000   0.99471366     18.766354      195.40721    
   1042000   1.0007549      18.618134      195.28263    
   1043000   0.99548045     18.4479        195.21677    
   1044000   1.0151455      18.730765      195.13083    
   1045000   0.99561196     18.332432      195.18731    
   1046000   1.0259561      18.830176      195.24155    
   1047000   1.0222729      18.736343      195.15615    
   1048000   0.98844015     18.384549      195.00079    
   1049000   0.94966231     18.601052      194.95624    
   1050000   0.99003536     18.454571      195.10661    
   1051000   0.99441138     18.992912      195.20447    
   1052000   1.0131145      18.563099      195.17928    
   1053000   0.99351814     18.518712      194.9989     
   1054000   0.98354431     18.860211      194.80511    
   1055000   0.98330933     18.505402      194.61236    
   1056000   1.0376538      18.616177      194.55138    
   1057000   1.0145445      19.392899      194.57384    
   1058000   1.0448662      18.304238      194.40732    
   1059000   0.98748037     18.701301      194.52508    
   1060000   0.96609202     18.616587      194.22502    
   1061000   1.0192743      18.784896      194.39967    
   1062000   1.0235887      18.479826      194.33047    
   1063000   0.99824985     18.696656      194.28824    
   1064000   0.99886247     18.235199      194.23103    
   1065000   1.0094728      18.699525      194.17812    
   1066000   0.99951663     18.610149      194.14641    
   1067000   1.0254845      18.569926      194.02958    
   1068000   0.99920793     19.062798      193.95604    
   1069000   1.0110656      18.829357      193.65433    
   1070000   1.0293013      18.668114      193.5903     
   1071000   0.9736529      18.317258      193.61046    
   1072000   0.99397936     18.434748      193.68903    
   1073000   1.0131136      18.327617      193.76858    
   1074000   0.97224692     18.442247      193.77625    
   1075000   1.007401       18.499638      193.6813     
   1076000   1.0164012      18.094128      193.61042    
   1077000   1.0153084      18.430785      193.52825    
   1078000   0.97667368     18.325621      193.36375    
   1079000   0.97540248     18.970056      193.33508    
   1080000   0.98544422     18.33427       193.46507    
   1081000   0.99389814     18.77815       193.32173    
   1082000   0.95945654     18.071179      193.25918    
   1083000   1.0013107      18.352793      193.19368    
   1084000   1.0120069      18.506219      193.11221    
   1085000   1.0057307      18.621115      193.15526    
   1086000   1.0303771      18.617051      193.31167    
   1087000   0.97678626     18.411109      192.95242    
   1088000   1.0179362      18.677989      192.8979     
   1089000   1.022327       18.414933      192.80423    
   1090000   1.0526826      18.740902      192.98191    
   1091000   1.0401426      18.70754       192.90125    
   1092000   0.9976115      18.571951      192.69026    
   1093000   1.0145529      18.916511      192.44783    
   1094000   0.98984007     19.30655       192.59809    
   1095000   0.98734448     18.283197      192.5611     
   1096000   0.99699875     18.984599      192.23804    
   1097000   1.0205715      18.718614      192.32943    
   1098000   1.0460813      18.328328      191.80941    
   1099000   0.9634423      18.109492      191.72536    
   1100000   1.0130437      18.993885      191.67689    
   1101000   1.0236898      18.583783      191.76877    
   1102000   1.0056568      18.583165      191.70476    
   1103000   1.0037679      18.303745      191.39771    
   1104000   1.0238106      18.787609      191.59641    
   1105000   0.97856695     18.801985      191.52832    
   1106000   1.0420157      18.819954      191.58205    
   1107000   1.018818       18.064318      191.4803     
   1108000   1.0157657      19.019727      191.41312    
   1109000   1.025409       18.720307      191.43535    
   1110000   1.0156138      18.435234      191.22214    
   1111000   1.0260912      18.55275       191.18299    
   1112000   0.98551679     18.748943      191.05956    
   1113000   1.0014636      18.604349      191.01442    
   1114000   0.98211193     18.426614      190.80746    
   1115000   1.009457       18.564766      190.7335     
   1116000   0.99865281     18.533799      190.4773     
   1117000   0.99157339     18.430718      190.38596    
   1118000   1.0006726      18.637344      190.08724    
   1119000   1.0211676      18.560058      189.96892    
   1120000   1.0112364      18.800954      189.77452    
   1121000   1.0007074      18.532429      189.59193    
   1122000   0.98594477     18.399799      189.3361     
   1123000   0.99087088     18.872545      189.28844    
   1124000   0.97934472     18.234728      188.98303    
   1125000   1.0226037      18.593647      188.86723    
   1126000   0.9851845      18.411609      188.89333    
   1127000   1.0330246      18.58699       188.90211    
   1128000   0.97873889     19.049863      188.8402     
   1129000   0.99821533     18.746419      188.56551    
   1130000   1.0253631      18.408806      188.3642     
   1131000   0.97484641     18.293687      188.25048    
   1132000   1.0367618      18.620445      188.0225     
   1133000   0.99630832     18.551748      187.82393    
   1134000   0.99622785     18.412066      187.94121    
   1135000   1.0019177      18.281725      187.82005    
   1136000   0.99517149     18.217831      187.81427    
   1137000   1.0188829      18.273023      187.87726    
   1138000   0.98165748     18.529428      187.72131    
   1139000   0.97883113     18.707288      187.74958    
   1140000   0.97240567     18.255543      187.74365    
   1141000   1.0213005      18.441832      187.57013    
   1142000   1.0056162      18.326166      187.51218    
   1143000   1.0108755      18.810712      187.64973    
   1144000   1.0103532      18.603949      187.76515    
   1145000   1.0414394      18.406436      187.75489    
   1146000   0.98173254     18.077547      187.58348    
   1147000   1.0027161      18.237722      187.53607    
   1148000   1.0012756      18.617938      187.35678    
   1149000   0.99860515     18.381363      187.39426    
   1150000   1.021658       18.691074      187.3971     
   1151000   0.97510121     18.680084      187.12559    
   1152000   0.95747899     18.555642      187.06635    
   1153000   0.97960233     18.206402      187.03317    
   1154000   1.0100363      18.227766      187.14391    
   1155000   1.0008352      18.967594      187.04916    
   1156000   0.98658025     18.174422      186.90082    
   1157000   1.0013125      18.285516      186.93162    
   1158000   1.0058425      18.356167      186.73612    
   1159000   1.0363246      18.223525      186.72769    
   1160000   0.98551341     18.139064      186.67055    
   1161000   0.98529028     18.887051      186.68707    
   1162000   1.0078378      18.768928      186.61035    
   1163000   1.0101543      18.40156       186.52035    
   1164000   1.003717       18.883062      186.52716    
   1165000   1.0001435      18.677544      186.55241    
   1166000   0.96384703     18.200447      186.46153    
   1167000   1.0127384      18.696739      186.46029    
   1168000   1.0294154      18.539628      186.40215    
   1169000   0.99461651     18.19379       186.2698     
   1170000   1.0101315      18.455669      186.11194    
   1171000   1.0096142      18.94053       186.04739    
   1172000   1.0076701      18.421646      185.81944    
   1173000   1.0088134      18.646147      185.75183    
   1174000   1.012636       18.740791      185.68668    
   1175000   0.96370998     18.680133      185.49292    
   1176000   1.0449902      18.476318      185.3831     
   1177000   1.0089567      18.784625      185.33071    
   1178000   0.97312122     18.140111      185.23103    
   1179000   1.000455       18.204099      185.25497    
   1180000   1.0133226      18.134081      185.0706     
   1181000   1.0089087      18.385685      184.90529    
   1182000   1.0053673      18.461609      185.00899    
   1183000   0.99082006     18.281361      185.11974    
   1184000   1.0355519      18.816235      185.03933    
   1185000   0.9941397      18.683646      184.85867    
   1186000   1.0286446      18.305655      184.84231    
   1187000   0.97055311     18.87824       184.68516    
   1188000   0.9903544      17.894495      184.59703    
   1189000   0.96672185     18.319706      184.43064    
   1190000   0.96512972     18.306961      184.21639    
   1191000   1.0140222      18.321925      184.11468    
   1192000   1.0400015      18.783752      184.08348    
   1193000   1.0185246      18.389522      184.11942    
   1194000   1.0198903      18.482799      183.9666     
   1195000   1.0219801      18.358161      183.83825    
   1196000   0.9970412      18.331674      183.77875    
   1197000   0.98656692     19.032622      183.61376    
   1198000   0.99093918     18.090282      183.3263     
   1199000   0.97460446     17.813351      183.15608    
   1200000   1.0056442      18.410749      182.9498     
   1201000   1.0089668      18.821106      183.04685    
   1202000   0.99383607     18.708968      182.96704    
   1203000   1.0031814      18.571731      182.75177    
   1204000   0.98769173     18.162986      182.49902    
   1205000   0.98024755     18.705821      182.31089    
   1206000   0.94381107     17.789656      182.10765    
   1207000   0.98507148     18.182963      182.00844    
   1208000   1.0415462      18.525574      181.7514     
   1209000   0.99362453     18.462977      181.51198    
   1210000   1.0193847      18.704464      181.44246    
   1211000   0.95677072     18.876916      181.48189    
   1212000   0.97458457     18.997273      181.64081    
   1213000   1.0691494      18.328128      181.5665     
   1214000   0.99003162     18.429739      181.5591     
   1215000   1.0051931      18.579735      181.35886    
   1216000   0.99780693     18.406821      181.39201    
   1217000   0.99763124     18.441998      181.14651    
   1218000   0.99800439     18.473715      181.05842    
   1219000   0.99581415     18.327157      180.92044    
   1220000   1.0239369      18.485183      180.88901    
   1221000   0.96597822     18.426291      180.81041    
   1222000   1.0116694      18.120325      180.76232    
   1223000   0.99565286     18.643653      180.76114    
   1224000   0.9713158      18.195623      180.59391    
   1225000   1.020092       18.484976      180.48257    
   1226000   0.96661845     18.474101      180.30951    
   1227000   1.034083       18.26899       179.92178    
   1228000   1.0522313      18.543362      179.9926     
   1229000   0.99754969     18.562504      179.96077    
   1230000   0.97963583     18.370619      179.94757    
   1231000   0.99225815     18.355371      179.62893    
   1232000   1.0226848      18.484961      179.62148    
   1233000   0.99750715     18.56145       179.70556    
   1234000   1.0228013      18.493997      179.34741    
   1235000   1.0672994      18.698948      179.36694    
   1236000   1.0306449      18.936833      179.21998    
   1237000   0.97938607     19.091112      179.17066    
   1238000   0.96870936     18.51299       179.02437    
   1239000   1.0075016      18.579032      178.72371    
   1240000   1.038424       17.899985      178.54196    
   1241000   1.0322434      18.274881      178.3714     
   1242000   1.0103991      18.06434       178.33867    
   1243000   0.99666978     18.194773      178.29081    
   1244000   0.98996584     18.200063      178.29284    
   1245000   1.010148       18.131667      178.43468    
   1246000   0.98135887     18.130336      178.58945    
   1247000   1.0082685      18.711192      178.51866    
   1248000   1.0188203      18.652908      178.5288     
   1249000   1.0143827      18.699385      178.52607    
   1250000   0.99438278     18.687437      178.55039    
   1251000   1.01689        18.134004      178.60701    
   1252000   0.98061962     18.329342      178.61268    
   1253000   1.034626       18.753735      178.42391    
   1254000   0.99295377     18.368118      178.36021    
   1255000   1.0279119      18.453342      178.40254    
   1256000   0.99495795     18.41423       178.48941    
   1257000   0.99092116     18.395335      178.56996    
   1258000   0.99113823     18.332243      178.54976    
   1259000   1.0377603      18.739117      178.57948    
   1260000   0.99567833     18.539706      178.49914    
   1261000   1.0159498      18.257983      178.47076    
   1262000   1.0537841      18.270641      178.42933    
   1263000   0.99145312     18.1955        178.51457    
   1264000   1.0427987      18.680235      178.53246    
   1265000   1.0029005      18.335323      178.37339    
   1266000   1.0257507      18.387287      178.48201    
   1267000   0.9986759      18.257033      178.5215     
   1268000   0.98446675     18.663747      178.60703    
   1269000   1.0279046      18.903428      178.75112    
   1270000   1.0338927      18.721942      178.47804    
   1271000   1.0127906      18.60185       178.38733    
   1272000   0.97870366     18.745604      178.4423     
   1273000   1.0023747      18.46556       178.49238    
   1274000   1.0279097      18.363675      178.18418    
   1275000   0.98974942     18.574259      178.0036     
   1276000   0.98483959     18.886716      177.87822    
   1277000   0.95047857     18.299388      177.83393    
   1278000   0.9969973      18.128166      177.71588    
   1279000   0.98271677     18.485298      177.84767    
   1280000   0.99765107     18.483074      177.84107    
   1281000   1.0063926      18.172599      177.72276    
   1282000   1.0062449      18.46736       177.99292    
   1283000   1.0281432      18.329392      177.85466    
   1284000   1.0296458      18.28989       177.82657    
   1285000   0.97240009     18.376074      177.77058    
   1286000   1.0527571      18.181915      177.76034    
   1287000   0.99513403     18.104931      177.76815    
   1288000   0.96351758     18.427593      177.67986    
   1289000   1.0124109      18.793423      177.52589    
   1290000   0.98349369     18.251259      177.54955    
   1291000   0.97116435     18.133043      177.59683    
   1292000   1.0173339      18.441139      177.24932    
   1293000   0.98203409     18.479907      177.3183     
   1294000   0.98363302     18.48033       177.10139    
   1295000   0.96390885     18.442841      176.87761    
   1296000   0.94589141     17.875366      176.80182    
   1297000   0.97928239     18.418861      176.86771    
   1298000   1.0177594      17.978183      176.888      
   1299000   0.98094299     18.634179      176.83643    
   1300000   0.99660608     18.53576       176.59897    
   1301000   1.0468407      18.082289      176.55772    
   1302000   1.0409927      18.401262      176.3307     
   1303000   1.0076768      18.658098      176.26322    
   1304000   1.0064486      18.126877      176.12236    
   1305000   0.98775856     18.19375       175.99655    
   1306000   0.96564894     18.710572      175.79097    
   1307000   0.98937557     18.671899      175.94206    
   1308000   0.98807169     18.555465      175.76042    
   1309000   0.96198951     18.268637      175.67248    
   1310000   1.0222413      17.795891      175.39114    
   1311000   0.97669122     18.73303       175.3121     
   1312000   0.98520578     18.205283      175.4069     
   1313000   1.0268038      18.710391      175.288      
   1314000   0.98971738     18.829374      175.22339    
   1315000   1.0177022      18.609985      175.37456    
   1316000   0.94223463     18.34117       175.24524    
   1317000   1.0580931      18.959086      174.94834    
   1318000   0.98585634     18.427369      174.82168    
   1319000   1.0086394      18.427542      174.7027     
   1320000   0.99521775     18.237569      174.90346    
   1321000   1.0016935      18.389116      174.88462    
   1322000   0.9734625      18.833815      174.63893    
   1323000   1.0001754      18.475947      174.6575     
   1324000   1.015454       18.075138      174.54168    
   1325000   1.0096336      18.190834      174.46396    
   1326000   1.003589       18.556133      174.45009    
   1327000   1.0531553      18.472896      174.228      
   1328000   1.013707       18.350861      174.16921    
   1329000   0.97121223     18.231391      174.19378    
   1330000   1.0189073      18.767753      174.25777    
   1331000   1.0283751      18.383535      174.07618    
   1332000   1.021496       19.099354      173.96743    
   1333000   0.98619596     18.368991      173.83658    
   1334000   0.96879678     18.473775      173.63869    
   1335000   1.0286017      18.366497      173.59025    
   1336000   0.98979971     18.990852      173.44981    
   1337000   1.0014071      18.781312      173.36556    
   1338000   0.95671906     18.378046      173.44839    
   1339000   1.0063227      18.489924      173.52843    
   1340000   0.97057749     18.254138      173.62117    
   1341000   1.0257568      18.58937       173.35411    
   1342000   1.0076584      18.182476      173.50322    
   1343000   1.0040577      18.303682      173.31393    
   1344000   0.99207338     18.168911      173.39414    
   1345000   1.0183324      18.490663      173.12634    
   1346000   0.96978227     18.275685      173.22609    
   1347000   1.0309815      17.889833      173.15772    
   1348000   1.0513378      18.520644      173.21328    
   1349000   0.98434924     18.222898      173.19694    
   1350000   0.99570516     18.050573      172.88982    
   1351000   1.0570159      18.435129      172.66902    
   1352000   1.0102803      18.562076      172.60656    
   1353000   0.97518223     18.30109       172.80502    
   1354000   0.95158664     17.927461      172.57292    
   1355000   0.98235507     18.359269      172.30145    
   1356000   1.0057881      18.4862        172.19592    
   1357000   0.97598316     17.764053      171.96857    
   1358000   1.0240704      18.453518      171.79933    
   1359000   0.99373884     18.348191      171.90477    
   1360000   0.99382425     18.394011      171.89889    
   1361000   1.0453056      18.629484      171.91996    
   1362000   0.94688579     18.17471       171.88087    
   1363000   1.0076196      19.028631      171.9429     
   1364000   1.0023495      18.408947      171.86158    
   1365000   0.99843841     18.070925      171.90797    
   1366000   1.0421875      18.166813      171.54668    
   1367000   1.0148387      18.68714       171.36268    
   1368000   0.9882373      18.166249      171.31234    
   1369000   1.0010054      18.451135      171.16584    
   1370000   1.0143872      18.655479      171.09082    
   1371000   0.96908509     18.124101      170.96789    
   1372000   0.98970614     18.027934      170.86247    
   1373000   1.0525449      18.792343      170.74539    
   1374000   1.0293426      18.442896      170.60486    
   1375000   0.97858219     17.751783      170.54976    
   1376000   0.98443285     18.484115      170.60389    
   1377000   1.0318319      18.25853       170.65474    
   1378000   1.049171       18.150112      170.76999    
   1379000   1.0286284      18.009962      170.71587    
   1380000   0.99206121     18.623835      170.55464    
   1381000   0.99160222     18.454477      170.57344    
   1382000   0.97686275     18.18819       170.54236    
   1383000   0.99656996     18.413635      170.28955    
   1384000   1.0526709      18.392857      170.37249    
   1385000   1.0083049      18.335364      170.36233    
   1386000   0.94884791     17.940847      170.37128    
   1387000   0.9829245      18.183974      170.37694    
   1388000   1.0000852      18.138983      170.27616    
   1389000   0.96578047     18.213817      170.2991     
   1390000   1.0383933      17.936733      170.22722    
   1391000   0.97829207     18.012534      170.13792    
   1392000   0.99021842     17.657987      169.86524    
   1393000   0.973751       17.990491      169.94697    
   1394000   0.98944175     17.736152      169.83161    
   1395000   1.0369319      18.604624      169.92666    
   1396000   0.96461443     18.070311      170.09148    
   1397000   1.0060951      18.32859       169.8694     
   1398000   0.98710876     18.279225      169.822      
   1399000   0.96776131     18.109976      169.72077    
   1400000   0.99600434     18.184622      169.71008    
   1401000   0.99573245     18.089237      169.58427    
   1402000   0.97085803     17.902468      169.28272    
   1403000   0.92172393     17.989048      169.29534    
   1404000   0.99545494     18.087713      169.30399    
   1405000   1.0035549      18.187812      169.16487    
   1406000   0.98535095     18.0326        169.04453    
   1407000   1.0669323      18.59781       169.06299    
   1408000   1.0316498      18.416648      169.09563    
   1409000   0.99966842     18.21737       168.84573    
   1410000   1.0294593      18.505085      168.77796    
   1411000   0.99339204     18.49673       168.73373    
   1412000   0.95000379     17.802141      168.66365    
   1413000   0.98997089     18.014698      168.59324    
   1414000   0.98828688     17.87249       168.58012    
   1415000   1.0044112      18.158677      168.68218    
   1416000   0.9953121      18.372043      168.41919    
   1417000   1.0215588      18.297639      168.53658    
   1418000   0.991737       18.39578       168.41436    
   1419000   1.0189438      18.693637      168.21607    
   1420000   0.98085683     18.191224      168.16184    
   1421000   1.006186       18.778718      167.95134    
   1422000   0.98845124     18.244484      168.03735    
   1423000   1.0314115      18.503592      167.67607    
   1424000   0.97464549     18.490347      167.43246    
   1425000   0.97933896     18.210257      167.39829    
   1426000   0.97636085     17.941855      167.49581    
   1427000   0.96403578     18.249718      167.43099    
   1428000   0.98035661     17.976786      167.27848    
   1429000   1.0204603      18.083435      167.26127    
   1430000   1.005913       18.290957      167.2034     
   1431000   0.97648469     18.566339      167.19836    
   1432000   0.97643853     17.945975      167.09633    
   1433000   1.0132753      18.905411      166.86426    
   1434000   0.98063576     18.129332      166.69193    
   1435000   0.99186947     18.510873      166.55644    
   1436000   0.99902884     18.350205      166.46856    
   1437000   0.98072714     18.333528      166.64483    
   1438000   0.98263838     18.743375      166.54638    
   1439000   1.01818        18.21823       166.45215    
   1440000   0.97778539     18.295003      166.39621    
   1441000   0.99490936     18.690243      166.39073    
   1442000   0.99911094     18.564454      166.43872    
   1443000   0.99109005     18.461919      166.3778     
   1444000   0.94959678     18.032245      166.31478    
   1445000   1.0129769      17.814007      166.23993    
   1446000   0.98472689     18.368917      166.2998     
   1447000   1.0052231      18.504175      165.98613    
   1448000   1.0488822      18.563289      166.18341    
   1449000   1.0034612      18.523159      166.1973     
   1450000   1.0095136      18.238991      166.21659    
   1451000   0.97134141     18.167402      166.05079    
   1452000   1.0336545      18.221707      165.95082    
   1453000   0.98473769     18.185627      165.75716    
   1454000   0.96637999     18.190555      165.61989    
   1455000   0.95857675     18.271049      165.64111    
   1456000   0.99386968     18.720289      165.6378     
   1457000   0.99608566     18.576203      165.56283    
   1458000   0.9932942      18.97233       165.40641    
   1459000   0.99342154     18.784777      165.13634    
   1460000   1.0063397      18.421117      165.17754    
   1461000   1.0018642      18.647722      165.34641    
   1462000   0.9928141      18.420895      165.17685    
   1463000   1.0226243      18.373268      165.14446    
   1464000   0.97466259     18.393036      165.19204    
   1465000   0.97558011     18.559919      165.34374    
   1466000   0.96782032     18.297205      165.41214    
   1467000   1.0096061      18.64061       165.40224    
   1468000   1.0187643      18.036922      165.24048    
   1469000   1.027969       17.91206       165.24687    
   1470000   0.98910439     17.533227      165.33643    
   1471000   1.0267839      18.354114      165.18645    
   1472000   1.0435961      18.066911      165.13656    
   1473000   1.0327969      18.662392      164.92946    
   1474000   0.99952194     18.226732      164.75345    
   1475000   1.0307043      18.787885      164.64196    
   1476000   1.0212063      18.50922       164.5589     
   1477000   0.96466001     18.162717      164.47887    
   1478000   1.0352953      18.385538      164.53328    
   1479000   0.99256584     18.282969      164.44765    
   1480000   0.99846941     18.471371      164.34665    
   1481000   0.97323035     18.351761      164.34045    
   1482000   1.0560414      18.640855      164.35277    
   1483000   1.0097689      18.438075      164.50178    
   1484000   1.0085322      18.651084      164.40081    
   1485000   1.0129208      18.682266      164.1708     
   1486000   1.0443989      18.27902       164.03193    
   1487000   1.0134859      18.617235      164.04448    
   1488000   1.0057278      18.4478        163.94911    
   1489000   1.014636       18.345677      163.75504    
   1490000   0.96405619     18.408504      163.72845    
   1491000   0.97314874     18.296529      163.79413    
   1492000   0.97800376     18.521727      164.00492    
   1493000   1.0001943      18.309669      164.00903    
   1494000   1.047481       18.61692       164.22938    
   1495000   0.98575241     18.346383      164.26847    
   1496000   0.9779477      18.349511      164.13283    
   1497000   1.0271774      18.29489       164.14689    
   1498000   0.96547366     18.135231      164.19258    
   1499000   1.028496       18.014008      164.11533    
   1500000   0.97600533     17.905495      163.95617    
   1501000   0.97267125     18.182536      163.91791    
   1502000   1.0060121      18.16535       163.88328    
   1503000   0.9855715      18.051444      163.90175    
   1504000   0.99368182     18.75228       163.84539    
   1505000   1.0057891      18.94209       163.96623    
   1506000   0.99522955     18.414678      163.87881    
   1507000   1.0407122      18.258504      163.68987    
   1508000   0.99393063     18.29844       163.47274    
   1509000   0.97025822     17.985241      163.19016    
   1510000   1.0098487      18.22199       162.97576    
   1511000   1.0352414      18.213593      162.82065    
   1512000   0.9715934      18.218976      162.91131    
   1513000   0.99725986     18.610488      162.84167    
   1514000   0.96134356     18.137541      162.78897    
   1515000   1.0129103      18.751389      162.75482    
   1516000   0.98223775     18.472475      162.88567    
   1517000   0.95146683     18.271528      162.98497    
   1518000   1.0422423      18.110209      162.81303    
   1519000   0.97015911     17.885415      162.78008    
   1520000   0.99370775     18.307026      162.65363    
   1521000   1.0100829      17.907512      162.64659    
   1522000   1.0418819      18.52328       162.50023    
   1523000   1.0033832      18.061324      162.35281    
   1524000   1.0177099      18.466951      162.23073    
   1525000   1.0220939      18.292227      162.33071    
   1526000   0.9864064      18.37243       162.2        
   1527000   1.0158804      18.301747      162.03047    
   1528000   0.99002454     18.399006      161.87515    
   1529000   1.0257839      18.894776      161.79429    
   1530000   0.99861611     18.657112      161.95629    
   1531000   1.0165366      18.156067      161.84229    
   1532000   0.99435006     18.185191      161.88592    
   1533000   0.99292294     17.954643      161.71321    
   1534000   1.0083843      18.398626      161.59306    
   1535000   0.98630639     18.092969      161.50297    
   1536000   1.0175035      18.461682      161.4027     
   1537000   0.99620922     18.009893      161.58491    
   1538000   0.99683705     18.311217      161.58877    
   1539000   1.0168003      18.216216      161.45628    
   1540000   0.99592711     18.572607      161.3867     
   1541000   1.0395012      18.33017       161.21871    
   1542000   0.93982302     18.596399      161.02946    
   1543000   0.98431001     18.053584      160.78394    
   1544000   0.9755481      17.74045       160.6701     
   1545000   0.98013776     18.440048      160.54196    
   1546000   0.99444395     18.537172      160.45047    
   1547000   0.97539356     18.349726      160.25362    
   1548000   0.98333166     18.32079       160.17711    
   1549000   1.0116296      18.342562      159.98287    
   1550000   1.0174628      18.464445      159.97223    
   1551000   0.99716182     18.23459       160.0054     
   1552000   1.0164573      17.957822      159.78647    
   1553000   1.0244768      18.130205      159.77466    
   1554000   0.97455296     18.435319      159.75113    
   1555000   1.0006752      18.093708      159.87144    
   1556000   1.0193877      17.996829      159.91665    
   1557000   0.97944201     18.331336      160.10063    
   1558000   0.98204091     18.40314       159.93161    
   1559000   0.95212064     18.58303       159.98768    
   1560000   0.97908224     18.43469       160.02587    
   1561000   0.99219983     18.102422      159.808      
   1562000   0.97983019     18.348288      159.87715    
   1563000   0.96617682     18.188855      159.69541    
   1564000   1.0018208      18.184874      159.75391    
   1565000   1.014421       18.500213      159.61244    
   1566000   1.0305623      18.440742      159.4917     
   1567000   1.010553       17.998962      159.58199    
   1568000   0.98731706     18.394583      159.56583    
   1569000   1.004918       17.892535      159.70849    
   1570000   1.0155682      18.223642      159.66389    
   1571000   0.96416293     17.629597      159.70131    
   1572000   0.99786197     18.072647      159.77917    
   1573000   0.99551726     18.585629      159.69409    
   1574000   0.99279265     18.065552      159.76205    
   1575000   0.98857253     17.560636      159.66115    
   1576000   0.97248251     18.237135      159.49343    
   1577000   0.96730009     18.267816      159.19895    
   1578000   1.0132681      18.358222      159.26468    
   1579000   0.98289802     18.200967      158.97956    
   1580000   0.98255432     17.971098      158.8622     
   1581000   1.0516995      18.669306      158.74292    
   1582000   0.98864186     18.423607      158.70727    
   1583000   1.0194061      18.413258      158.63726    
   1584000   0.9929644      17.780098      158.65402    
   1585000   1.0093801      18.044019      158.59463    
   1586000   1.0147177      18.359728      158.64622    
   1587000   1.037765       18.68275       158.51781    
   1588000   0.98962398     17.892264      158.25838    
   1589000   0.9291599      17.796605      157.96109    
   1590000   1.0506736      17.62524       157.80431    
   1591000   1.0094996      18.371799      157.93709    
   1592000   0.98613027     18.440365      157.82946    
   1593000   1.0036134      18.224512      157.73929    
   1594000   1.0021347      18.131858      157.70936    
   1595000   1.0338034      17.748987      157.62805    
   1596000   0.95174825     17.883784      157.5476     
   1597000   1.0022567      17.961776      157.37242    
   1598000   1.0200738      18.37348       157.4215     
   1599000   1.0115066      18.829309      157.4647     
   1600000   0.98717598     18.229076      157.47462    
   1601000   1.0014969      18.622275      157.45597    
   1602000   1.0414708      17.85972       157.38793    
   1603000   1.0214712      17.984019      157.57551    
   1604000   0.99557107     18.060324      157.70098    
   1605000   1.0302153      18.371745      157.60874    
   1606000   1.0054022      18.345163      157.62684    
   1607000   1.0205892      17.9632        157.52685    
   1608000   0.99178632     18.263048      157.68081    
   1609000   1.0081814      17.941578      157.54154    
   1610000   0.99379584     18.435427      157.34925    
   1611000   1.0218367      17.976388      157.25236    
   1612000   1.0172046      18.522733      157.11673    
   1613000   0.98302315     18.088199      157.04231    
   1614000   0.99684762     18.255967      156.89548    
   1615000   1.0329649      18.509369      157.03236    
   1616000   0.94658438     17.872147      156.91786    
   1617000   1.0356376      18.139956      156.86058    
   1618000   0.98326136     18.240867      156.81027    
   1619000   1.0084996      17.946332      156.83871    
   1620000   1.0185691      17.518127      156.9236     
   1621000   0.98942408     18.570197      156.57719    
   1622000   0.99941658     17.96513       156.43483    
   1623000   1.0287579      18.384125      156.33721    
   1624000   1.0295582      17.820776      156.2135     
   1625000   1.0413684      18.373936      155.96091    
   1626000   1.0201149      18.213015      155.92481    
   1627000   0.99620739     18.772856      155.86403    
   1628000   1.0037931      18.086325      155.83671    
   1629000   1.0207999      18.277571      155.7776     
   1630000   0.99008747     18.442934      155.79313    
   1631000   0.99203759     18.262815      155.72122    
   1632000   0.95567665     17.949421      155.71364    
   1633000   0.9827668      18.370221      155.6581     
   1634000   1.0045829      18.567177      155.47843    
   1635000   1.0017843      17.934381      155.55143    
   1636000   1.0043873      18.574048      155.52971    
   1637000   1.0153135      18.850397      155.47793    
   1638000   0.99750144     18.241886      155.33391    
   1639000   0.98355015     18.393124      155.53106    
   1640000   1.0444625      18.084225      155.37417    
   1641000   0.99199165     18.323999      155.2834     
   1642000   0.9879815      18.460689      155.24807    
   1643000   0.9802248      18.394274      155.18391    
   1644000   0.96856056     18.237951      155.14916    
   1645000   1.0373563      18.278864      155.13455    
   1646000   1.0148637      17.867724      155.04903    
   1647000   1.013699       17.885281      154.89021    
   1648000   1.0443325      17.993133      154.73728    
   1649000   0.99734167     18.309041      154.62171    
   1650000   1.0125993      18.355638      154.71119    
   1651000   1.0362689      18.555885      154.58384    
   1652000   1.0308828      18.312318      154.48485    
   1653000   0.99380297     17.852965      154.37839    
   1654000   1.0287811      18.539112      154.27186    
   1655000   1.0120541      18.272049      154.29321    
   1656000   1.0428961      18.267179      154.00316    
   1657000   0.98053426     18.280288      154.03173    
   1658000   1.0384054      18.127808      154.04689    
   1659000   1.0017403      17.78274       153.9389     
   1660000   0.97465421     17.928992      154.03931    
   1661000   1.0023286      18.286187      153.94932    
   1662000   0.99583074     18.334374      153.84735    
   1663000   1.0023109      17.860993      153.81536    
   1664000   0.98048636     18.46583       153.65133    
   1665000   1.013671       18.19862       153.60171    
   1666000   0.9961614      18.074304      153.46964    
   1667000   1.0351506      17.954594      153.35988    
   1668000   1.0042195      18.137132      153.19607    
   1669000   0.98628887     18.377872      153.17553    
   1670000   0.9673827      18.057037      153.06258    
   1671000   0.98007207     18.167298      153.18817    
   1672000   1.0087034      18.248019      153.12592    
   1673000   0.98942751     18.223828      152.80889    
   1674000   1.0188231      18.200004      152.86617    
   1675000   1.0002091      18.365987      152.78784    
   1676000   1.0002765      18.043349      152.71354    
   1677000   0.99382673     18.4141        152.33715    
   1678000   0.96702544     18.434257      152.36996    
   1679000   0.98020106     18.153491      152.47248    
   1680000   0.9865919      17.983021      152.47755    
   1681000   1.0316999      18.530482      152.30419    
   1682000   1.002617       17.749524      152.24843    
   1683000   0.98090962     17.911578      152.38659    
   1684000   0.99802224     18.449539      152.25094    
   1685000   0.99696638     17.910988      152.26937    
   1686000   1.0142205      18.001958      152.05476    
   1687000   1.0476953      18.134293      152.02308    
   1688000   0.98867154     17.972347      151.78798    
   1689000   0.98188151     18.553345      151.7054     
   1690000   0.96028705     18.283627      151.67439    
   1691000   1.0249822      18.24906       151.49035    
   1692000   1.0188003      18.229353      151.34274    
   1693000   1.0029227      18.143921      151.2336     
   1694000   0.98924571     18.092781      151.11115    
   1695000   1.010398       18.582693      150.83328    
   1696000   1.0076346      18.341538      150.9182     
   1697000   1.0026016      18.116282      150.98737    
   1698000   0.9944118      18.347339      150.7421     
   1699000   0.97684164     17.828062      150.7724     
   1700000   1.0043158      18.694385      150.79729    
   1701000   1.0017324      18.18178       150.79038    
   1702000   1.0165824      18.318921      150.62275    
   1703000   0.99691575     18.243533      150.50429    
   1704000   0.99598107     18.596911      150.43831    
   1705000   1.032881       18.301374      150.60764    
   1706000   0.96429931     18.17978       150.58657    
   1707000   0.99057224     18.442379      150.60501    
   1708000   0.96787093     18.149941      150.58597    
   1709000   1.0186098      18.287455      150.64581    
   1710000   1.0268009      18.826279      150.75359    
   1711000   1.0209622      18.193719      150.85027    
   1712000   0.9817889      18.173683      150.83569    
   1713000   1.0129891      17.906305      150.84049    
   1714000   1.0046124      18.2301        150.74255    
   1715000   0.99975381     18.167121      150.57992    
   1716000   1.0634695      18.061239      150.28558    
   1717000   1.0199766      18.236575      150.45052    
   1718000   1.0048842      18.090234      150.42331    
   1719000   0.98882428     18.078326      150.578      
   1720000   1.0249624      18.108611      150.67173    
   1721000   0.98161505     18.022114      150.50604    
   1722000   0.99904507     18.007179      150.3687     
   1723000   0.97406555     18.01522       150.28125    
   1724000   0.98487111     18.890734      150.14027    
   1725000   1.0070391      18.201874      150.21482    
   1726000   0.9608704      17.972938      150.24019    
   1727000   1.0171136      18.216392      150.14988    
   1728000   1.0055772      18.451204      149.94021    
   1729000   0.98380029     18.049098      149.73085    
   1730000   1.0186033      17.690834      149.66817    
   1731000   0.97760344     17.651483      149.60665    
   1732000   0.97531097     18.135773      149.34042    
   1733000   1.028653       18.430945      149.23312    
   1734000   0.98594082     18.130247      149.29245    
   1735000   0.99898269     18.600685      149.16266    
   1736000   1.0065592      18.647634      149.07216    
   1737000   1.0466151      18.74793       148.77978    
   1738000   0.97429621     17.732874      148.6475     
   1739000   1.0158823      17.996009      148.5016     
   1740000   1.0355369      18.195571      148.54696    
   1741000   1.0016191      18.098486      148.54069    
   1742000   1.0168794      18.363122      148.47175    
   1743000   0.98688405     18.396077      148.42368    
   1744000   1.0191309      18.134935      148.25991    
   1745000   0.9946307      17.908811      148.21319    
   1746000   0.95804534     18.000147      148.18544    
   1747000   1.0145585      17.977809      148.17322    
   1748000   0.99549714     18.091393      147.90969    
   1749000   0.9833464      18.078856      147.61841    
   1750000   0.99520058     18.322092      147.67458    
   1751000   1.0002023      17.992893      147.69334    
   1752000   0.98262799     17.638952      147.78091    
   1753000   0.98965386     18.491052      147.64578    
   1754000   0.99029142     18.1652        147.52944    
   1755000   0.99899126     18.335153      147.60395    
   1756000   0.96311568     17.812721      147.39773    
   1757000   0.98417166     18.19325       147.32696    
   1758000   1.0055431      18.331564      147.29296    
   1759000   0.97574106     17.275737      147.30892    
   1760000   1.0032141      18.283407      147.2839     
   1761000   0.97188071     18.360382      147.22966    
   1762000   0.95683046     18.249305      147.06831    
   1763000   1.0099514      17.800755      147.24646    
   1764000   1.048828       18.167514      147.00193    
   1765000   0.9843846      18.085551      147.10428    
   1766000   0.96875683     17.677516      147.29419    
   1767000   1.0199841      18.118729      147.03131    
   1768000   1.0209278      18.076098      146.86109    
   1769000   0.98721516     18.387427      146.92762    
   1770000   1.0035951      18.543833      146.78611    
   1771000   1.0586775      17.879081      146.56095    
   1772000   0.99002592     18.121732      146.57972    
   1773000   1.0394342      18.521258      146.66301    
   1774000   1.0053387      18.163052      146.51045    
   1775000   0.95755938     17.803213      146.5144     
   1776000   0.97254316     17.883532      146.59413    
   1777000   1.0012543      18.417093      146.68363    
   1778000   1.0110413      18.107364      146.61827    
   1779000   0.98082167     17.549809      146.71263    
   1780000   0.9766461      17.835602      146.68614    
   1781000   0.98010029     17.750822      146.85301    
   1782000   0.98499837     17.66633       146.74092    
   1783000   1.0195945      17.593153      146.75531    
   1784000   0.99865981     17.914224      146.63821    
   1785000   0.98464294     18.137584      146.56498    
   1786000   1.0086817      18.108623      146.39909    
   1787000   1.0110096      17.766255      146.03479    
   1788000   0.94951726     18.212678      145.85601    
   1789000   1.0278805      18.208675      145.66503    
   1790000   1.0205786      17.565989      145.43039    
   1791000   1.0399211      17.730622      145.15073    
   1792000   1.0419562      18.178881      145.21593    
   1793000   1.0229458      18.033043      145.4092     
   1794000   1.0283928      17.761119      145.31757    
   1795000   1.0156074      18.007684      145.35864    
   1796000   0.99666384     18.075822      145.23677    
   1797000   1.020141       18.039053      145.01174    
   1798000   0.98483697     18.207593      144.73965    
   1799000   1.0168115      17.986354      144.65381    
   1800000   1.0153434      18.160762      144.57828    
   1801000   1.0059816      17.583564      144.65671    
   1802000   0.99556342     18.235666      144.38599    
   1803000   1.0073354      18.387696      144.28363    
   1804000   1.0230443      17.87977       144.08492    
   1805000   0.97895395     17.665066      144.32417    
   1806000   0.97564593     17.616584      144.14924    
   1807000   1.0033318      18.526721      144.04238    
   1808000   0.99657859     18.091665      143.77514    
   1809000   0.99680999     18.154468      143.59743    
   1810000   0.98833449     17.564503      143.51203    
   1811000   1.0481478      18.170306      143.42716    
   1812000   0.94829485     17.460034      143.31886    
   1813000   0.97216051     17.959912      143.2899     
   1814000   1.018733       18.543851      143.18368    
   1815000   0.95983422     17.833528      143.18713    
   1816000   1.0214846      17.838644      143.0808     
   1817000   1.0153301      18.10597       143.08123    
   1818000   1.00709        18.32991       143.142      
   1819000   1.0020378      18.304572      143.05453    
   1820000   1.0053955      18.249476      143.17947    
   1821000   0.97538901     17.790022      143.24134    
   1822000   0.97956374     18.12206       143.04779    
   1823000   0.96912709     17.673124      142.81991    
   1824000   0.98798352     18.143816      142.66771    
   1825000   0.99646234     17.915846      142.45308    
   1826000   1.0053321      18.117408      142.30024    
   1827000   0.97830532     17.822738      142.33306    
   1828000   1.027148       18.54885       142.15903    
   1829000   1.0374364      17.791967      142.17711    
   1830000   0.98459314     17.614897      142.13671    
   1831000   1.0552819      18.58813       142.14234    
   1832000   0.98973373     17.522251      142.00892    
   1833000   0.99392091     18.61565       141.84019    
   1834000   0.9979852      18.270891      141.7863     
   1835000   1.010916       18.271271      141.71073    
   1836000   1.0048578      17.838216      141.73408    
   1837000   1.0221963      17.916194      141.46187    
   1838000   0.98344425     18.372639      141.39652    
   1839000   0.98148618     18.337452      141.27237    
   1840000   0.99259429     18.429952      141.29655    
   1841000   1.0248171      18.197218      141.13233    
   1842000   0.99759753     17.946572      141.24904    
   1843000   0.99278739     18.285958      141.26448    
   1844000   0.96968014     18.591786      141.19157    
   1845000   1.0077157      18.411326      140.95332    
   1846000   1.0616284      18.162123      140.91847    
   1847000   1.0156287      18.220293      141.05988    
   1848000   1.0306675      18.720127      141.06972    
   1849000   1.0039751      18.54061       141.17443    
   1850000   1.0129072      18.237595      141.0374     
   1851000   1.0142453      18.231416      141.07737    
   1852000   1.0111467      18.28408       140.93892    
   1853000   0.99300737     17.927572      140.91391    
   1854000   0.97528164     17.703157      140.5343     
   1855000   1.007499       18.532434      140.43291    
   1856000   1.0121756      18.538668      140.35795    
   1857000   1.0066739      17.797761      140.27357    
   1858000   1.0268392      18.586483      139.96668    
   1859000   0.98255215     17.895697      139.94735    
   1860000   1.0195178      18.559475      139.68001    
   1861000   1.0205791      18.375655      139.58957    
   1862000   0.97745467     17.922678      139.47174    
   1863000   1.0235442      17.861777      139.36384    
   1864000   1.045555       18.231453      139.05418    
   1865000   1.024201       18.275238      139.09596    
   1866000   1.0454927      18.260704      138.97397    
   1867000   0.97934582     17.920787      138.92078    
   1868000   0.99216927     18.067643      138.63416    
   1869000   1.0657975      18.159599      138.58401    
   1870000   1.0027541      17.799113      138.50766    
   1871000   1.0128997      18.051534      138.47956    
   1872000   0.97009638     18.494561      138.4961     
   1873000   1.0285769      17.703154      138.2207     
   1874000   0.97140245     17.971567      138.22352    
   1875000   1.0228373      18.394136      138.24448    
   1876000   0.98375948     18.17299       138.12658    
   1877000   0.97936132     17.473513      138.02734    
   1878000   1.0082444      18.220622      137.88739    
   1879000   0.97778824     18.224648      137.61224    
   1880000   0.98775054     18.658492      137.66996    
   1881000   0.97384925     17.644879      137.78681    
   1882000   1.0068618      18.251103      137.92662    
   1883000   1.0198688      17.758204      138.0522     
   1884000   0.98884278     18.256771      138.01648    
   1885000   1.0171005      18.440772      137.86424    
   1886000   0.99756955     18.012013      137.97931    
   1887000   1.015831       17.859         137.91722    
   1888000   0.98060141     18.360142      138.07516    
   1889000   1.0206899      18.362062      138.02927    
   1890000   0.98286372     18.250079      137.96922    
   1891000   0.97684791     17.941207      137.99468    
   1892000   1.0527588      18.602021      137.59717    
   1893000   1.046953       18.083756      137.58849    
   1894000   1.0146424      18.149983      137.43301    
   1895000   1.0042035      18.439943      137.13157    
   1896000   1.027642       18.489277      136.8335     
   1897000   0.9913363      18.118667      136.91335    
   1898000   1.025473       18.141809      136.76358    
   1899000   1.0305612      18.160411      136.59792    
   1900000   1.0131153      18.283162      136.41334    
   1901000   1.0300222      17.792968      136.32584    
   1902000   0.97835353     17.288918      136.08046    
   1903000   0.99271186     18.212487      135.98686    
   1904000   0.98472832     17.750166      135.92342    
   1905000   1.0358124      18.308653      135.87745    
   1906000   1.0169347      18.518569      135.96621    
   1907000   1.0041161      17.728832      135.96897    
   1908000   1.030568       17.837102      135.78596    
   1909000   1.0046287      17.609682      135.78041    
   1910000   0.97295909     17.400574      135.73207    
   1911000   1.0095932      18.220021      135.70791    
   1912000   0.97806114     18.072831      135.54341    
   1913000   0.97777951     17.891216      135.56566    
   1914000   0.98912512     18.304401      135.45133    
   1915000   0.97316978     17.876367      135.4754     
   1916000   0.99591299     17.500277      135.44328    
   1917000   1.0033271      17.620314      135.49434    
   1918000   0.96641695     18.071851      135.49475    
   1919000   1.0104837      18.030237      135.51506    
   1920000   0.96410279     18.255147      135.36788    
   1921000   1.009862       18.299984      135.3022     
   1922000   1.0418965      18.1203        135.36152    
   1923000   1.0394302      18.14871       135.01272    
   1924000   0.99765455     17.957208      134.9209     
   1925000   0.9606786      17.776878      134.82012    
   1926000   0.99168335     17.916566      134.72226    
   1927000   1.0175045      17.462858      134.54466    
   1928000   1.0087322      18.146145      134.48407    
   1929000   0.97438334     18.515579      134.41945    
   1930000   0.99168501     18.177894      134.38605    
   1931000   1.0161064      18.536723      134.24925    
   1932000   1.0096956      17.99201       134.32971    
   1933000   1.0038638      18.559411      134.16554    
   1934000   0.96722007     18.301028      134.13594    
   1935000   1.0011187      18.104869      134.01471    
   1936000   0.98965659     18.151025      133.96595    
   1937000   1.0242219      18.387455      133.88705    
   1938000   0.98299372     17.623557      134.03715    
   1939000   1.0166562      18.003352      133.85698    
   1940000   0.97368091     17.68704       133.89892    
   1941000   1.0137138      17.653976      133.96034    
   1942000   1.0066524      17.83776       133.79617    
   1943000   0.99801213     17.751571      133.77482    
   1944000   1.0087203      17.414481      133.61058    
   1945000   1.0572878      17.634478      133.52788    
   1946000   0.98599542     17.880729      133.45377    
   1947000   1.0323976      18.372111      133.35993    
   1948000   1.0042692      18.51495       133.21862    
   1949000   1.009345       17.769808      133.30387    
   1950000   1.0353371      17.828989      133.0881     
   1951000   1.0419174      18.250819      132.91787    
   1952000   0.9983885      18.384779      132.83638    
   1953000   1.0309401      17.93553       132.85861    
   1954000   1.0117978      17.975426      132.8454     
   1955000   1.0034763      18.08257       132.79382    
   1956000   0.99620817     18.304475      132.68993    
   1957000   0.95206564     17.937025      132.64039    
   1958000   1.0339115      17.813857      132.51604    
   1959000   1.0159756      17.779452      132.39022    
   1960000   0.98115525     18.14465       132.5478     
   1961000   1.0458459      18.437253      132.57308    
   1962000   1.0284         17.809046      132.42722    
   1963000   1.011942       17.757285      132.35367    
   1964000   1.0044207      18.415344      132.26028    
   1965000   1.0135172      18.213638      132.18127    
   1966000   1.0190532      17.890079      132.10676    
   1967000   1.0332605      18.134271      132.04295    
   1968000   0.98037326     17.549109      131.93991    
   1969000   1.0160427      16.984716      131.70862    
   1970000   1.0363296      18.305491      131.72183    
   1971000   0.95362833     17.814293      131.46283    
   1972000   0.97302067     17.958846      131.42679    
   1973000   0.99611861     18.116087      131.23797    
   1974000   0.96612067     17.45821       131.29147    
   1975000   1.01504        17.961937      131.37598    
   1976000   0.9794291      17.815212      131.08193    
   1977000   1.025205       17.939948      130.91846    
   1978000   0.98304719     18.547895      131.02199    
   1979000   0.99124419     18.105497      130.8636     
   1980000   1.0275121      17.759206      130.7185     
   1981000   0.97128866     17.545809      130.64492    
   1982000   1.0051427      18.042069      130.55296    
   1983000   1.0016415      18.358337      130.53144    
   1984000   0.97475544     17.91831       130.58191    
   1985000   0.99595516     17.905562      130.6321     
   1986000   1.0006429      17.531206      130.71872    
   1987000   1.0018766      18.257241      130.76865    
   1988000   0.95435021     17.565959      130.80444    
   1989000   0.98440857     17.839613      130.57813    
   1990000   1.0486253      18.34117       130.60919    
   1991000   0.9883405      18.00985       130.67925    
   1992000   0.99080067     17.913252      130.79543    
   1993000   0.97482723     17.901788      130.81416    
   1994000   0.98469734     18.313792      130.81311    
   1995000   1.0265841      18.194091      130.85757    
   1996000   0.95737303     17.810304      130.94017    
   1997000   0.99922477     18.244759      130.86058    
   1998000   0.99365604     18.156995      130.60016    
   1999000   0.99576332     18.213296      130.5785     
   2000000   0.97482328     17.57303       130.53919    
   2001000   0.95840569     17.621462      130.64502    
   2002000   1.0403258      18.339487      130.34384    
   2003000   0.99598689     18.224347      130.08116    
   2004000   0.97909874     17.714707      130.03771    
   2005000   0.98260412     18.001419      130.00382    
   2006000   1.0391475      17.741639      130.08734    
   2007000   0.97479158     17.514568      130.04548    
   2008000   0.99596002     17.792561      130.06035    
   2009000   1.0103252      17.699913      130.02783    
   2010000   0.98768806     18.195541      129.80904    
   2011000   0.99292928     18.231785      129.65859    
   2012000   1.0063382      18.39998       129.43618    
   2013000   0.98791499     17.751176      129.35844    
   2014000   1.0090681      17.99603       129.15763    
   2015000   1.0120815      18.136428      129.14194    
   2016000   1.0329881      17.999252      129.15781    
   2017000   1.0089153      17.989434      129.2137     
   2018000   1.0108151      18.550181      129.20784    
   2019000   1.0041368      17.844299      129.24482    
   2020000   1.0461821      18.318558      129.07872    
   2021000   1.0325462      18.350425      129.09999    
   2022000   0.96217207     18.146032      129.12453    
   2023000   1.0210431      18.032947      128.95629    
   2024000   0.98687298     17.829927      129.09264    
   2025000   0.95139497     17.99154       129.05041    
   2026000   0.98783835     17.949796      129.12941    
   2027000   0.98406407     17.98511       129.1838     
   2028000   1.0374915      17.952614      129.21657    
   2029000   1.0126266      18.068897      129.13761    
   2030000   1.0349175      17.937446      129.22011    
   2031000   1.0477534      17.507996      129.09939    
   2032000   0.97486587     17.450616      129.01901    
   2033000   0.98470418     18.695421      128.88814    
   2034000   1.0116709      18.642071      128.53742    
   2035000   0.97978821     18.084078      128.26844    
   2036000   0.99264344     17.995353      128.09923    
   2037000   0.98535985     18.387876      128.01082    
   2038000   1.0541477      18.097938      127.96455    
   2039000   1.0250892      17.496576      127.70895    
   2040000   0.99726468     17.598663      127.57881    
   2041000   1.0433521      18.045939      127.61904    
   2042000   0.98767108     17.905163      127.45693    
   2043000   0.92933181     17.852894      127.40551    
   2044000   1.0070423      18.301806      127.32709    
   2045000   0.96822094     17.604551      127.23099    
   2046000   1.0059497      17.833173      127.13836    
   2047000   0.99656189     18.228739      127.06383    
   2048000   0.99477182     18.107725      126.96396    
   2049000   1.0097479      17.995386      126.79485    
   2050000   0.93368557     17.917298      126.57666    
   2051000   0.99957929     18.168618      126.44291    
   2052000   1.0244516      18.114167      126.24192    
   2053000   1.0341995      18.328713      126.12273    
   2054000   0.98928568     18.027761      125.99918    
   2055000   0.95884701     17.642308      125.84511    
   2056000   1.0108265      18.09894       125.82616    
   2057000   0.94536698     17.609627      125.66784    
   2058000   1.0346228      18.01881       125.5081     
   2059000   1.0012524      17.935012      125.41155    
   2060000   0.98184333     17.821435      125.36625    
   2061000   0.99635065     18.335448      125.36983    
   2062000   1.0140757      17.616734      125.34917    
   2063000   0.99379493     17.279608      125.29726    
   2064000   1.0080045      18.24572       125.37237    
   2065000   1.0128274      18.388007      125.28365    
   2066000   0.99556796     17.455174      125.27824    
   2067000   0.95387174     17.933838      125.04238    
   2068000   0.99590152     18.107564      124.91756    
   2069000   0.98144213     17.981557      124.86145    
   2070000   0.98290643     17.966214      124.67742    
   2071000   0.981511       17.974732      124.47666    
   2072000   1.0077152      17.918705      124.56794    
   2073000   0.99140453     17.420065      124.46502    
   2074000   1.0444934      17.955489      124.36259    
   2075000   0.99338735     18.220027      124.10943    
   2076000   0.97546104     17.737525      124.15522    
   2077000   1.0030012      18.492786      124.12159    
   2078000   0.97211919     17.865725      124.06568    
   2079000   1.0544596      18.351775      123.94955    
   2080000   0.98881052     17.462179      123.88459    
   2081000   1.019423       18.03318       123.92349    
   2082000   1.0033008      17.65152       123.6465     
   2083000   1.0605444      17.719866      123.59856    
   2084000   0.98130214     18.064218      123.32241    
   2085000   0.97371693     17.107516      123.34033    
   2086000   1.0156139      18.036612      123.16847    
   2087000   1.0373113      18.200575      123.19109    
   2088000   1.0066567      17.857978      123.32332    
   2089000   0.98635908     17.949681      123.32849    
   2090000   0.99474848     17.511693      123.5029     
   2091000   0.96526634     17.555509      123.36969    
   2092000   0.98495993     18.41857       123.36408    
   2093000   0.96777318     17.87498       123.58765    
   2094000   0.99356113     18.536083      123.45026    
   2095000   0.99686519     17.794643      123.30499    
   2096000   1.0087066      18.394591      123.10106    
   2097000   0.96076101     17.74899       123.11662    
   2098000   0.97390914     18.018308      122.91952    
   2099000   0.96392241     17.187058      122.89681    
   2100000   0.95490187     17.714803      122.90385    
   2101000   0.97986153     17.339327      122.85196    
   2102000   1.0363032      18.469645      122.73155    
   2103000   0.98881739     18.102329      122.64925    
   2104000   0.96338002     18.205443      122.66631    
   2105000   1.0331613      17.591465      122.63141    
   2106000   1.0078448      18.434169      122.55045    
   2107000   1.0463488      18.245608      122.57543    
   2108000   0.99437643     17.912193      122.43846    
   2109000   1.0035827      18.26258       122.3411     
   2110000   1.0064803      17.659773      122.36693    
   2111000   0.97873742     17.437785      122.19523    
   2112000   1.0194683      18.158817      122.07953    
   2113000   0.99851748     17.38236       122.07074    
   2114000   1.0289418      17.939358      122.04962    
   2115000   1.039103       18.458978      122.11334    
   2116000   1.0269382      18.207732      121.86965    
   2117000   1.0074252      17.240188      121.87433    
   2118000   1.0181035      17.978161      121.74678    
   2119000   0.97758407     17.84809       121.92336    
   2120000   1.0051528      18.09662       121.75409    
   2121000   1.0099094      17.87992       121.65101    
   2122000   0.98114976     18.035724      121.55614    
   2123000   1.0117949      18.049057      121.51993    
   2124000   1.0484561      18.223023      121.50943    
   2125000   0.98543521     18.235461      121.64853    
   2126000   1.0001578      18.26217       121.57375    
   2127000   0.9949431      17.818335      121.51685    
   2128000   0.99731233     18.097875      121.56772    
   2129000   0.97493511     17.826563      121.66411    
   2130000   1.0610669      17.710702      121.85217    
   2131000   1.0383825      17.488879      121.76079    
   2132000   1.0455239      17.902602      121.78345    
   2133000   0.98434786     17.998384      121.67952    
   2134000   0.97689409     17.663124      121.51633    
   2135000   1.0428338      18.166334      121.46792    
   2136000   1.0212149      18.015978      121.4165     
   2137000   1.0491245      17.984678      121.44971    
   2138000   0.96982425     17.716917      121.35538    
   2139000   0.98083893     17.807853      121.30732    
   2140000   1.0364931      17.896042      120.95804    
   2141000   0.97591104     18.046918      120.71626    
   2142000   0.98958878     17.92661       120.44043    
   2143000   1.0173686      18.194187      120.41173    
   2144000   1.0083201      18.182698      120.54613    
   2145000   1.0189846      18.26014       120.27793    
   2146000   1.0269532      18.023537      120.15305    
   2147000   1.0118814      17.738685      120.14673    
   2148000   1.0147394      18.047475      120.35055    
   2149000   0.99619784     18.086818      120.34018    
   2150000   0.9847739      17.648402      120.31804    
   2151000   0.99119873     18.020633      120.40917    
   2152000   1.0375557      18.200559      120.36155    
   2153000   1.0015685      17.580892      120.40497    
   2154000   0.97182913     18.148289      120.54407    
   2155000   0.93423547     17.909949      120.61893    
   2156000   1.0141437      18.03975       120.69157    
   2157000   1.0279186      18.186691      120.69383    
   2158000   0.97339707     18.115429      120.70028    
   2159000   1.0327627      17.924599      120.8943     
   2160000   1.0258733      17.634914      120.7659     
   2161000   1.0013645      17.537624      120.68716    
   2162000   1.0413654      18.563661      120.75465    
   2163000   1.0428528      18.064941      120.69133    
   2164000   0.99721613     17.339978      120.80149    
   2165000   0.99108587     17.594224      120.8789     
   2166000   1.0176051      17.878185      120.79884    
   2167000   1.0084701      17.853749      120.72655    
   2168000   1.0088839      17.982542      120.73929    
   2169000   1.0253299      18.243931      120.5738     
   2170000   0.98261894     17.506282      120.59348    
   2171000   0.99562773     17.862406      120.50047    
   2172000   1.0128393      17.795527      120.57549    
   2173000   0.98935263     17.625022      120.32516    
   2174000   1.0119486      17.729362      120.14824    
   2175000   0.97095774     17.741662      120.18926    
   2176000   1.025182       18.322091      120.35866    
   2177000   1.0124603      18.226241      120.27592    
   2178000   1.0059906      17.923628      120.1268     
   2179000   0.95231921     17.747342      119.95935    
   2180000   0.9944356      18.031987      119.81444    
   2181000   1.0369793      18.194644      119.60707    
   2182000   0.98448843     17.935243      119.36434    
   2183000   0.99043843     17.958128      119.16295    
   2184000   0.99708308     18.398828      119.17289    
   2185000   1.0148648      17.644056      119.08998    
   2186000   1.0162893      17.206549      119.03678    
   2187000   1.0382522      17.806344      118.82911    
   2188000   0.98437389     17.823806      118.85947    
   2189000   1.0237096      17.286844      118.78354    
   2190000   1.0368428      17.655183      118.93066    
   2191000   0.97152043     17.685118      119.0693     
   2192000   0.99152965     17.930384      119.04394    
   2193000   0.98012811     18.070194      119.02351    
   2194000   0.98298564     17.464842      119.03036    
   2195000   1.0049704      18.012703      118.82562    
   2196000   0.97906263     17.666389      119.04286    
   2197000   0.98121903     17.682796      118.87049    
   2198000   1.0194309      17.953541      118.63503    
   2199000   0.98709929     17.708405      118.46294    
   2200000   0.98558956     17.965479      118.12757    
   2201000   0.97430775     17.820869      117.82369    
   2202000   1.0100216      18.081852      117.702      
   2203000   1.0173272      17.961047      117.5425     
   2204000   1.007714       17.819963      117.39544    
   2205000   0.97202222     17.949603      117.22063    
   2206000   0.99735921     17.513544      116.99153    
   2207000   1.0286655      18.405181      117.02226    
   2208000   0.97362852     17.600249      116.99523    
   2209000   0.99858443     17.669552      117.08226    
   2210000   1.0128509      17.770574      117.10997    
   2211000   1.0403902      17.904524      117.18068    
   2212000   1.0177396      17.529538      117.09288    
   2213000   0.96200517     17.126271      117.12238    
   2214000   0.98633621     17.929438      117.08432    
   2215000   0.97595339     17.597764      117.12923    
   2216000   1.0195907      17.733532      117.04682    
   2217000   1.0562852      17.495366      116.98198    
   2218000   0.93594167     17.950241      117.01135    
   2219000   1.0137004      18.024508      116.84132    
   2220000   0.98531523     17.928485      116.74344    
   2221000   0.98508255     17.523789      116.55362    
   2222000   0.96436308     17.375637      116.64994    
   2223000   0.98519869     17.641746      116.70027    
   2224000   1.0266455      17.888878      116.75478    
   2225000   0.9828648      17.806984      116.63933    
   2226000   0.96313451     18.443415      116.6596     
   2227000   0.98302165     17.240742      116.65855    
   2228000   0.97437068     17.771135      116.62967    
   2229000   0.96717616     17.524527      116.75419    
   2230000   0.98016022     17.649082      116.68537    
   2231000   0.99110568     17.804315      116.54933    
   2232000   0.97516813     17.625211      116.29298    
   2233000   1.0190295      18.114028      116.14396    
   2234000   0.96368656     18.219261      116.00507    
   2235000   0.96338518     17.798074      115.79054    
   2236000   1.0306037      18.056601      115.70857    
   2237000   1.022765       17.644289      115.40448    
   2238000   1.0315622      17.858372      115.05999    
   2239000   0.9899922      17.958188      114.87937    
   2240000   0.98933107     17.977484      114.7549     
   2241000   1.0382253      18.157188      114.93892    
   2242000   1.0231523      17.731329      114.85293    
   2243000   1.0290413      17.72881       114.73707    
   2244000   0.99031853     17.861112      114.88908    
   2245000   0.98124119     18.032882      115.00688    
   2246000   0.99303993     18.524066      115.08492    
   2247000   1.0209841      17.646772      115.21773    
   2248000   0.97951655     18.209723      115.13329    
   2249000   0.96676507     17.398261      114.99303    
   2250000   0.98753774     18.016937      114.59758    
   2251000   1.0583009      17.752802      114.67534    
   2252000   0.96136521     17.59513       114.77073    
   2253000   1.0220411      17.796369      114.72405    
   2254000   0.99800815     18.032576      114.68591    
   2255000   1.0326036      17.829875      114.32289    
   2256000   0.96998384     17.239728      114.18683    
   2257000   0.99901068     17.417274      114.17866    
   2258000   0.98094309     17.42331       114.25323    
   2259000   0.99666297     17.812698      114.35557    
   2260000   1.0155425      18.143255      114.27295    
   2261000   1.0376689      17.879819      114.41065    
   2262000   1.0192179      18.088112      114.35443    
   2263000   0.98040251     17.185212      114.56134    
   2264000   1.0239643      18.094169      114.48894    
   2265000   0.99084847     17.383791      114.52963    
   2266000   0.98373749     17.257035      114.60665    
   2267000   0.99222619     17.852564      114.62279    
   2268000   0.98986694     17.863786      114.52164    
   2269000   1.0066424      17.725074      114.36344    
   2270000   0.96912963     17.552365      114.47922    
   2271000   0.99898949     17.691696      114.24875    
   2272000   0.97024159     17.688048      114.00758    
   2273000   0.95869636     17.448223      113.98618    
   2274000   1.0438794      17.982226      113.8845     
   2275000   0.99463018     17.748012      113.74501    
   2276000   0.9997076      18.211777      113.563      
   2277000   1.0177311      17.932038      113.50507    
   2278000   0.95723985     17.947575      113.44924    
   2279000   1.0205608      17.711735      113.29868    
   2280000   1.0037638      17.555917      113.38862    
   2281000   1.0013831      17.814306      113.28482    
   2282000   1.0005059      18.064212      113.12772    
   2283000   1.0155471      18.026454      113.0658     
   2284000   1.0411189      18.172687      113.07231    
   2285000   0.98603432     17.800556      113.08294    
   2286000   1.0193574      18.191638      113.04372    
   2287000   1.0053906      18.161789      112.77675    
   2288000   1.0022366      18.04421       112.83284    
   2289000   0.97531409     17.374378      112.90878    
   2290000   0.95373501     17.884311      113.04129    
   2291000   0.98045737     17.449414      113.21362    
   2292000   0.96579101     18.023796      113.02922    
   2293000   1.0254204      17.733295      113.29105    
   2294000   1.0093296      17.68645       113.3881     
   2295000   1.0145818      17.816968      113.36239    
   2296000   0.96786948     17.671314      113.29368    
   2297000   1.0760364      17.788174      113.29168    
   2298000   0.98005031     17.435003      113.39998    
   2299000   0.98083941     17.75128       113.33498    
   2300000   0.94194441     17.809715      113.28004    
   2301000   1.0014624      17.617086      112.99628    
   2302000   0.99615602     17.624757      113.03087    
   2303000   0.99323637     17.583154      112.81843    
   2304000   0.97534487     17.775827      112.80007    
   2305000   0.95736106     17.422086      112.89471    
   2306000   0.97725985     17.910948      112.85655    
   2307000   0.965569       18.049408      112.72217    
   2308000   1.0236792      18.047578      112.39283    
   2309000   1.0294373      18.023019      112.40606    
   2310000   0.98156772     17.538271      112.36558    
   2311000   0.99314465     17.652418      112.25757    
   2312000   0.99100788     17.582345      112.17835    
   2313000   1.0147717      17.853588      111.91731    
   2314000   1.027324       17.860876      111.82512    
   2315000   1.01401        18.447744      111.72046    
   2316000   1.0010045      17.85063       111.72534    
   2317000   0.97800741     17.532858      111.57552    
   2318000   0.94628369     17.49376       111.73735    
   2319000   1.0302242      17.610505      111.87239    
   2320000   1.0101477      17.690243      112.01455    
   2321000   1.0324481      17.749353      111.97922    
   2322000   0.99233781     17.922573      112.0359     
   2323000   0.99456006     17.758134      111.95889    
   2324000   0.98418759     18.03537       111.74992    
   2325000   1.0226831      17.747891      111.46274    
   2326000   1.010367       18.410213      111.35682    
   2327000   0.9881913      17.558485      111.40714    
   2328000   0.9840418      17.879961      111.21052    
   2329000   0.95184662     17.675482      111.18503    
   2330000   1.0448715      17.506734      111.08817    
   2331000   0.98343303     17.932111      111.06843    
   2332000   0.97726533     17.514153      111.0411     
   2333000   0.9876187      18.541172      111.19924    
   2334000   0.99171264     17.654329      111.06266    
   2335000   1.0004567      18.140772      110.99047    
   2336000   0.95826998     17.509998      111.04196    
   2337000   1.0146037      19.067627      111.12725    
   2338000   1.0583005      17.705747      111.20562    
   2339000   0.98968143     17.869428      111.21399    
   2340000   0.98125746     17.641055      111.19951    
   2341000   1.0118754      17.809891      111.06381    
   2342000   1.0321553      18.109264      111.05081    
   2343000   0.98605768     17.660605      111.26884    
   2344000   1.034151       17.641479      111.27586    
   2345000   0.9971649      18.271024      111.25492    
   2346000   0.9741034      17.833874      111.1836     
   2347000   1.0473677      17.915038      111.14483    
   2348000   0.99179155     17.796235      111.079      
   2349000   1.056814       18.044343      111.04752    
   2350000   0.9769601      17.680712      111.00348    
   2351000   0.99947127     17.616903      110.94155    
   2352000   0.98111156     17.753255      110.87487    
   2353000   0.99500033     17.859771      110.7848     
   2354000   1.0279679      18.002637      110.62897    
   2355000   1.0113828      17.729485      110.6224     
   2356000   1.0021868      17.460389      110.52798    
   2357000   1.009194       18.411811      110.3        
   2358000   0.99551021     17.258428      110.13737    
   2359000   0.9735326      17.710722      110.08689    
   2360000   0.99795154     17.606202      109.99628    
   2361000   1.0126891      17.994533      109.71185    
   2362000   0.97573634     17.756131      109.62016    
   2363000   0.99816893     17.582696      109.5558     
   2364000   1.0200605      18.047669      109.50418    
   2365000   0.98549926     17.725951      109.57057    
   2366000   1.0046508      17.795474      109.55081    
   2367000   0.9984562      18.055505      109.42675    
   2368000   1.005997       17.512238      109.47458    
   2369000   1.0026134      18.529953      109.25479    
   2370000   0.96791724     17.864863      109.3083     
   2371000   0.9928569      17.811542      109.20866    
   2372000   0.94359283     17.650738      109.14728    
   2373000   1.0071935      17.75327       109.06434    
   2374000   1.0428943      17.797831      108.82069    
   2375000   0.98648532     17.905879      108.68605    
   2376000   1.038625       17.504828      108.57376    
   2377000   0.9657589      17.688069      108.32564    
   2378000   1.0033775      18.011948      108.27648    
   2379000   1.0087483      17.658827      108.10978    
   2380000   1.0594786      17.901349      108.22394    
   2381000   0.98630337     17.835878      108.23969    
   2382000   0.99939001     17.77157       108.106      
   2383000   0.97875721     17.711744      108.13693    
   2384000   0.99442703     17.38085       108.14005    
   2385000   0.99050139     17.927853      107.969      
   2386000   0.99914211     17.940901      108.2028     
   2387000   1.0217229      17.466108      108.27387    
   2388000   1.0280243      18.248021      108.17107    
   2389000   0.95145123     17.094166      108.06821    
   2390000   0.99004555     17.75353       108.02975    
   2391000   0.97249325     17.303847      107.97716    
   2392000   1.0329258      17.790001      108.04206    
   2393000   1.0219374      17.391727      108.11909    
   2394000   0.99424644     17.784564      108.01937    
   2395000   1.0097963      17.889306      107.79233    
   2396000   0.98289565     17.468358      107.40094    
   2397000   0.98721592     17.732352      107.4606     
   2398000   1.0154321      18.054744      107.60866    
   2399000   1.0005709      17.578092      107.37111    
   2400000   1.0135733      17.645508      107.27358    
   2401000   0.9961705      17.809291      107.28638    
   2402000   0.98486235     17.746152      107.2483     
   2403000   1.003362       17.545289      107.08363    
   2404000   0.97523278     17.873508      107.07734    
   2405000   1.0251891      18.073379      107.16411    
   2406000   0.98413638     17.914558      107.06026    
   2407000   1.0062254      17.619516      106.9915     
   2408000   0.99464739     18.074461      106.81285    
   2409000   0.99302207     18.427716      106.559      
   2410000   0.98476803     17.614446      106.5633     
   2411000   1.0162363      17.721089      106.55589    
   2412000   1.0190341      17.960832      106.48571    
   2413000   1.0101842      17.351429      106.17688    
   2414000   1.0229691      17.553486      106.05162    
   2415000   0.99759683     17.669255      105.93509    
   2416000   0.99327768     17.432755      105.8607     
   2417000   0.96473501     17.775534      105.86753    
   2418000   0.99070438     17.876904      105.67347    
   2419000   1.0094022      17.92482       105.54195    
   2420000   0.96523652     17.691034      105.35147    
   2421000   0.98400318     17.442626      105.3118     
   2422000   1.0175307      17.666742      105.10845    
   2423000   0.98302001     17.646165      104.93426    
   2424000   0.9808179      17.143938      104.59569    
   2425000   0.96655139     17.863225      104.55126    
   2426000   1.0012221      17.529471      104.36836    
   2427000   1.0019265      17.889007      104.25842    
   2428000   0.94380715     17.780952      104.27507    
   2429000   1.0240731      17.714471      103.95498    
   2430000   1.038755       17.619431      103.66902    
   2431000   0.99813193     17.766427      103.73819    
   2432000   0.9795702      17.304159      103.6664     
   2433000   0.99330785     17.294693      103.40077    
   2434000   0.99986949     17.619915      103.3459     
   2435000   0.96852046     17.801872      103.30076    
   2436000   0.97586918     17.311188      103.10773    
   2437000   0.98449596     17.420645      103.08326    
   2438000   0.9630076      18.018239      103.15912    
   2439000   1.0053108      17.776003      103.08599    
   2440000   0.98859698     17.606637      102.91761    
   2441000   1.037517       17.703473      102.94415    
   2442000   0.99308599     17.912737      102.89838    
   2443000   1.0227248      17.631744      102.93614    
   2444000   1.0287432      17.935204      102.77955    
   2445000   0.97314232     17.178391      103.00123    
   2446000   1.000242       17.827222      102.96405    
   2447000   1.0373012      17.636146      102.96118    
   2448000   0.98767865     17.156819      102.80069    
   2449000   1.0030032      17.899247      102.68194    
   2450000   0.99742577     17.35187       102.56828    
   2451000   0.99736174     17.604327      102.37902    
   2452000   1.0095117      17.835222      102.07698    
   2453000   0.96319815     17.991335      102.25687    
   2454000   0.98989355     17.55667       102.28905    
   2455000   1.0379179      17.760612      102.11143    
   2456000   1.0073403      17.823741      102.134      
   2457000   0.97009252     18.02148       101.93985    
   2458000   1.0162682      17.944501      101.90291    
   2459000   1.0423676      18.121962      102.09679    
   2460000   0.98897269     18.004343      101.95711    
   2461000   1.0006252      17.168246      101.75924    
   2462000   1.0325076      17.59467       101.61141    
   2463000   1.0090089      17.651994      101.78345    
   2464000   0.99412012     17.817226      101.7737     
   2465000   1.0156579      17.845939      101.63799    
   2466000   1.0309189      17.795455      101.38556    
   2467000   1.0350319      17.205737      101.08194    
   2468000   1.0098176      17.574119      101.07892    
   2469000   0.97073589     17.451495      100.77633    
   2470000   0.9978433      17.598932      100.59509    
   2471000   0.98404935     16.962591      100.40988    
   2472000   0.97344117     17.887832      100.19259    
   2473000   0.98007023     17.56997       100.18283    
   2474000   1.0073621      17.666523      100.12244    
   2475000   0.99883001     17.706486      100.08815    
   2476000   1.0356809      17.499565      99.864615    
   2477000   1.0132626      17.287882      99.843142    
   2478000   1.0014912      17.756191      99.731967    
   2479000   1.0065305      17.607596      99.730271    
   2480000   1.0364924      17.697519      99.722157    
   2481000   0.98256296     17.617878      99.649211    
   2482000   1.0441474      17.666682      99.651132    
   2483000   1.0078749      18.040367      99.610675    
   2484000   0.97162443     17.416484      99.418334    
   2485000   0.974403       17.58571       99.65526     
   2486000   1.0129974      17.53872       99.647676    
   2487000   0.98634977     17.888354      99.634106    
   2488000   1.0173696      18.253876      99.784319    
   2489000   1.0213769      17.378811      99.706549    
   2490000   1.0097011      17.303155      99.660724    
   2491000   0.99202773     17.85937       99.441948    
   2492000   0.97351657     17.947064      99.285008    
   2493000   0.99902358     17.233481      99.291263    
   2494000   0.99519956     18.378476      99.309866    
   2495000   1.0174313      17.783228      99.303106    
   2496000   0.97349173     17.736721      99.238159    
   2497000   0.98591817     17.450525      99.155891    
   2498000   1.030341       17.864058      99.155383    
   2499000   0.9836593      18.133063      99.200617    
   2500000   0.99041442     17.982413      99.161252    
   2501000   1.0427398      17.645329      99.023057    
   2502000   0.9969919      17.506082      98.894402    
   2503000   1.0491867      18.083715      98.900243    
   2504000   0.98997631     17.312096      99.031381    
   2505000   1.0078367      17.695765      99.035806    
   2506000   1.0129065      17.729915      99.106096    
   2507000   0.92052549     17.473237      99.135175    
   2508000   1.0093649      17.395404      99.211516    
   2509000   1.0160009      17.42442       99.039024    
   2510000   1.0004993      17.368858      98.990169    
   2511000   1.0438867      17.445827      99.091062    
   2512000   1.022894       17.981215      99.04686     
   2513000   1.0202372      18.134891      98.79399     
   2514000   1.0082755      17.86891       98.800888    
   2515000   1.0079357      18.145023      98.635933    
   2516000   0.98245597     17.645157      98.390147    
   2517000   1.0284968      17.478771      98.414382    
   2518000   0.98801966     16.825316      98.245679    
   2519000   1.016763       17.795662      98.31888     
   2520000   1.0088167      17.93064       98.271236    
   2521000   0.98290056     17.859707      98.386894    
   2522000   1.0327407      17.60315       98.561416    
   2523000   0.99336331     17.551894      98.568992    
   2524000   1.0223628      17.342048      98.716107    
   2525000   1.0149079      17.993322      98.556205    
   2526000   1.0164556      18.141026      98.476994    
   2527000   1.0259578      17.877151      98.546488    
   2528000   1.0129526      17.477645      98.620755    
   2529000   0.98177029     18.006621      98.754616    
   2530000   0.99618702     17.215534      98.802244    
   2531000   0.99893783     17.936208      98.697459    
   2532000   0.99026688     17.730434      98.466079    
   2533000   1.0138431      17.789174      98.559621    
   2534000   1.0066011      17.484821      98.705287    
   2535000   1.0427792      18.127013      98.470933    
   2536000   0.98089368     17.390663      98.660129    
   2537000   0.98725893     17.469113      98.732242    
   2538000   0.98371836     17.517688      98.775073    
   2539000   0.99221958     17.576126      98.601207    
   2540000   0.96752462     17.057093      98.382814    
   2541000   0.99155329     17.098261      98.455776    
   2542000   1.0246709      17.282122      98.32768     
   2543000   1.005506       17.431981      98.226931    
   2544000   1.0043548      17.981433      98.251557    
   2545000   0.98694168     18.172583      98.186161    
   2546000   1.0145418      18.224076      98.028404    
   2547000   0.99899055     17.444353      97.64071     
   2548000   1.0568571      18.140056      97.668943    
   2549000   1.0182417      17.687806      97.653157    
   2550000   1.0145885      17.55918       97.355368    
   2551000   1.0070684      17.676969      97.501789    
   2552000   0.9534171      17.618691      97.374909    
   2553000   0.9961034      17.852566      97.501301    
   2554000   1.0306971      17.647551      97.330596    
   2555000   0.99533237     17.517943      97.160092    
   2556000   1.0063345      17.795284      97.080419    
   2557000   1.0170661      17.79013       96.944847    
   2558000   0.94249721     17.356511      96.824858    
   2559000   0.99916984     17.106838      96.602406    
   2560000   0.99741343     17.716904      96.581226    
   2561000   0.98831987     17.568091      96.544001    
   2562000   1.0090068      17.607143      96.420566    
   2563000   0.99441324     17.497196      96.272653    
   2564000   0.99289627     17.179014      96.362712    
   2565000   0.98406495     17.431493      96.225452    
   2566000   0.98124753     17.847509      96.186999    
   2567000   0.96258211     17.664819      96.404125    
   2568000   0.99383114     17.468866      96.419776    
   2569000   1.0085808      17.498577      96.388978    
   2570000   1.0014066      17.773377      96.295843    
   2571000   0.97559808     17.666306      96.43181     
   2572000   1.045737       17.588658      96.40832     
   2573000   0.99480066     17.675817      96.431139    
   2574000   1.0180147      17.388882      96.152951    
   2575000   1.0296748      17.546037      96.037787    
   2576000   0.96550699     17.535429      95.604877    
   2577000   0.97412102     17.658701      95.596307    
   2578000   0.99399415     17.283761      95.538537    
   2579000   1.0181505      17.696821      95.327692    
   2580000   0.99036691     17.660586      95.208415    
   2581000   1.0235871      18.161422      95.213866    
   2582000   1.0293166      17.782184      95.264517    
   2583000   1.0102402      18.067338      95.255071    
   2584000   0.96856272     17.291604      95.316007    
   2585000   0.99013393     17.702206      95.241591    
   2586000   1.0145627      17.754576      95.323902    
   2587000   1.0595896      17.063611      95.363742    
   2588000   0.99596477     18.016932      95.150104    
   2589000   0.99885054     17.974376      94.910313    
   2590000   0.98112524     17.910146      94.850138    
   2591000   0.98600574     17.827058      94.845663    
   2592000   0.98520662     17.921094      95.054938    
   2593000   0.97655068     18.19338       95.221282    
   2594000   1.0088062      17.177849      95.245214    
   2595000   1.0364595      17.611001      95.106684    
   2596000   0.99861086     17.231433      94.97467     
   2597000   0.93555747     16.978214      94.662933    
   2598000   0.96484173     17.759211      94.65205     
   2599000   0.99813143     17.296514      94.55081     
   2600000   0.97177686     17.629231      94.560457    
   2601000   1.0103608      17.375381      94.421014    
   2602000   1.0348344      18.026317      94.476309    
   2603000   0.99579614     18.099369      94.487269    
   2604000   1.0393266      17.858649      94.495551    
   2605000   1.0204753      17.519405      94.337757    
   2606000   1.0191859      17.969478      94.040576    
   2607000   0.99988364     17.861654      93.920878    
   2608000   0.98578928     17.494894      93.76937     
   2609000   1.0182887      17.49987       93.697441    
   2610000   0.97502512     17.657638      93.605085    
   2611000   0.99795321     17.471088      93.623143    
   2612000   1.0036754      18.027938      93.71459     
   2613000   0.98297849     17.73649       93.636609    
   2614000   1.0001428      18.02484       93.803992    
   2615000   1.0057918      17.447222      93.731704    
   2616000   0.98752457     17.843919      93.560632    
   2617000   1.0075887      16.897993      93.542357    
   2618000   0.98099004     18.113466      93.348374    
   2619000   1.0063651      17.34551       93.162204    
   2620000   0.98497652     17.477544      92.923257    
   2621000   1.020692       17.662619      92.976677    
   2622000   1.0111024      17.517202      93.112062    
   2623000   1.0172159      17.743055      92.948101    
   2624000   0.99977302     17.918594      92.548645    
   2625000   0.98929383     17.363456      92.68622     
   2626000   1.0302185      17.553481      92.653679    
   2627000   0.99036623     17.687936      92.728697    
   2628000   0.9794822      17.535253      92.728578    
   2629000   1.026456       17.96995       92.685475    
   2630000   0.98942582     17.388472      92.633435    
   2631000   0.96055708     17.537105      92.311797    
   2632000   1.0041992      17.190221      92.309882    
   2633000   1.0485041      17.795698      92.170068    
   2634000   0.97449476     17.321284      91.940007    
   2635000   0.95008945     17.1341        91.801496    
   2636000   1.0304678      17.680739      91.849827    
   2637000   0.97881307     17.55958       91.667314    
   2638000   1.03028        18.050016      91.535586    
   2639000   1.0309142      17.734407      91.259765    
   2640000   0.95637534     18.000526      91.19951     
   2641000   1.0060322      17.477889      91.143818    
   2642000   1.0053077      17.947111      91.083827    
   2643000   1.0065587      17.54071       90.997651    
   2644000   0.98624314     17.931785      91.03947     
   2645000   0.99458963     18.085272      90.984019    
   2646000   0.9987749      17.921527      90.797374    
   2647000   1.0235464      17.338977      90.698677    
   2648000   1.0027378      17.464339      90.678341    
   2649000   1.0409829      18.113882      90.553018    
   2650000   0.96248667     17.251988      90.641587    
   2651000   0.99590705     17.808884      90.505508    
   2652000   0.99895979     17.210163      90.609364    
   2653000   1.0005491      17.694599      90.537243    
   2654000   0.96098235     17.391443      90.172253    
   2655000   1.0617908      17.693114      90.177536    
   2656000   0.96327353     17.317935      90.199281    
   2657000   0.96137022     17.340934      89.977873    
   2658000   1.0351237      17.795633      89.974728    
   2659000   0.99379146     17.34887       90.018315    
   2660000   1.0051831      17.621964      90.266312    
   2661000   1.0286228      17.592223      90.249599    
   2662000   0.9476489      18.066198      90.078718    
   2663000   1.010472       17.552736      89.822663    
   2664000   0.95496151     17.788014      89.622889    
   2665000   1.0048786      17.512686      89.477181    
   2666000   0.9695976      17.410779      89.28641     
   2667000   1.0036518      17.23872       89.112694    
   2668000   1.0555052      17.636632      89.089221    
   2669000   0.99557458     17.299716      89.159642    
   2670000   1.0177931      17.559587      89.144394    
   2671000   0.9937051      17.435873      89.007009    
   2672000   1.0298638      17.669823      88.983332    
   2673000   0.98318597     17.77642       88.714475    
   2674000   1.0245405      17.910283      88.677744    
   2675000   0.97236625     17.759409      88.583582    
   2676000   1.0046775      17.663741      88.492642    
   2677000   1.0266646      17.065252      88.399546    
   2678000   1.0045381      17.869236      88.451244    
   2679000   1.0207899      17.283872      88.483417    
   2680000   1.0414738      17.498522      88.366977    
   2681000   0.97393141     17.806003      88.397893    
   2682000   1.0095534      17.167403      88.125965    
   2683000   0.92829809     17.128674      88.160441    
   2684000   0.97049792     17.351858      88.120495    
   2685000   1.0315658      17.576778      88.259157    
   2686000   0.97865502     16.658196      88.362371    
   2687000   1.017814       17.404816      88.416682    
   2688000   1.0132016      18.050605      88.468141    
   2689000   0.99442703     17.758575      88.20108     
   2690000   0.99631176     17.903553      87.947725    
   2691000   1.0135649      17.631063      88.00014     
   2692000   0.98397128     16.81349       87.947072    
   2693000   0.98009906     17.683837      87.962695    
   2694000   0.97901304     17.263454      87.841333    
   2695000   0.98802346     17.525079      87.711568    
   2696000   0.98388718     17.684274      87.847537    
   2697000   0.9581134      17.27822       87.699377    
   2698000   0.98520086     16.969241      87.682634    
   2699000   0.97595089     17.67716       87.539608    
   2700000   1.0040242      17.223207      87.507323    
   2701000   0.98925492     17.685093      87.378651    
   2702000   1.0232547      17.227658      87.519305    
   2703000   1.0524934      17.699729      87.534542    
   2704000   0.97140395     17.829437      87.403874    
   2705000   0.99915526     17.593315      87.282364    
   2706000   0.98440147     17.721608      86.967888    
   2707000   0.97403066     17.571593      87.050613    
   2708000   1.0099489      17.820362      87.130522    
   2709000   0.96550967     16.924457      87.033077    
   2710000   1.0127561      17.548985      87.031217    
   2711000   1.0442951      18.29726       86.928262    
   2712000   1.0218801      17.457085      86.676385    
   2713000   0.99973338     17.679683      86.83103     
   2714000   0.95819321     17.521418      86.747333    
   2715000   0.97514805     17.517333      86.639253    
   2716000   1.0087658      17.876227      86.615152    
   2717000   1.0304706      17.858556      86.506113    
   2718000   1.0262946      17.63119       86.384948    
   2719000   1.0211164      17.605185      86.316422    
   2720000   1.0231306      17.443895      86.471226    
   2721000   1.0007806      17.548407      86.009571    
   2722000   1.0050787      17.708608      85.925491    
   2723000   0.9704745      17.084396      86.007475    
   2724000   0.99629983     17.204354      85.818618    
   2725000   1.0162598      17.168692      85.770772    
   2726000   0.96384313     17.086004      85.627177    
   2727000   0.96930897     17.522817      85.611068    
   2728000   0.91381386     16.70997       85.717475    
   2729000   0.99774027     17.23164       85.728289    
   2730000   1.0156769      17.439646      85.59171     
   2731000   0.984005       17.737172      85.394002    
   2732000   0.97671446     17.12431       85.218872    
   2733000   0.9869403      17.379065      85.108878    
   2734000   0.98660666     17.305842      85.004888    
   2735000   1.0267967      17.571393      84.803143    
   2736000   1.0117883      17.495954      84.827862    
   2737000   0.94353872     17.581735      84.826557    
   2738000   1.0194304      17.507372      85.110323    
   2739000   1.0310503      17.89578       85.040385    
   2740000   0.98788146     17.624153      85.119156    
   2741000   1.0359151      17.825166      84.841155    
   2742000   0.97187935     17.41153       84.874568    
   2743000   1.0023782      18.025287      84.893818    
   2744000   1.0252638      17.390101      84.774933    
   2745000   0.9952753      17.720797      84.831924    
   2746000   0.98798716     17.115945      84.830228    
   2747000   1.0178532      17.764632      84.729993    
   2748000   0.97871873     17.269781      84.491974    
   2749000   1.0131579      17.368449      84.590385    
   2750000   1.0046228      17.448272      84.602647    
   2751000   0.9842096      17.341489      84.345014    
   2752000   0.98967509     17.595422      84.28797     
   2753000   1.0123252      17.584813      84.313818    
   2754000   1.0067778      17.509335      84.212312    
   2755000   1.0163096      17.419815      84.328966    
   2756000   1.0306898      17.916013      84.60887     
   2757000   1.0067898      17.661419      84.37796     
   2758000   0.99436015     16.939305      84.191166    
   2759000   0.97721156     17.469404      83.921946    
   2760000   1.0050387      17.809273      83.83712     
   2761000   0.98587661     17.755952      83.628885    
   2762000   0.99791513     17.463491      83.624222    
   2763000   1.002831       17.782012      83.764199    
   2764000   1.0084445      17.199273      83.761875    
   2765000   1.0218779      17.515923      83.651025    
   2766000   0.96553603     17.304553      83.497883    
   2767000   0.97176458     17.929152      83.454248    
   2768000   0.99744152     17.368194      83.409841    
   2769000   0.99841596     17.437202      83.487476    
   2770000   1.0002714      18.047264      83.266071    
   2771000   0.99587307     17.836005      83.404251    
   2772000   1.0061908      17.557371      83.399686    
   2773000   0.98055772     17.737739      83.321038    
   2774000   0.96690448     17.125844      83.481936    
   2775000   1.0217229      17.999724      83.267699    
   2776000   1.0154336      17.918989      83.276183    
   2777000   1.0081663      18.650593      83.282767    
   2778000   1.0174127      17.445781      83.38751     
   2779000   0.98961362     16.924475      83.418269    
   2780000   1.0008016      17.190584      83.343724    
   2781000   1.0039717      17.809342      83.287191    
   2782000   0.98683105     17.360372      83.060076    
   2783000   1.0214709      17.528644      82.944573    
   2784000   1.0145984      17.629421      82.73619     
   2785000   1.0143433      17.960505      82.632441    
   2786000   1.0166557      17.543683      82.661645    
   2787000   1.0210651      18.095209      82.641123    
   2788000   0.99405627     18.060104      82.335166    
   2789000   1.0568442      17.52799       82.339891    
   2790000   1.0291957      17.683899      82.229699    
   2791000   1.0600207      17.72839       81.995438    
   2792000   1.0204964      17.452682      82.020298    
   2793000   0.99695907     17.166924      81.890843    
   2794000   1.0082823      17.60109       81.876744    
   2795000   0.98992112     17.501766      81.660429    
   2796000   1.0343898      17.318127      81.644986    
   2797000   1.0146342      16.89201       81.480452    
   2798000   1.0245037      17.034022      81.263631    
   2799000   0.99148626     17.546422      81.356005    
   2800000   0.99299694     17.069401      81.04016     
   2801000   1.0267309      17.93129       80.937121    
   2802000   0.97231018     17.660897      81.166131    
   2803000   0.97039071     17.413377      81.266026    
   2804000   1.0501196      17.331632      81.295582    
   2805000   1.0159034      17.798035      81.255648    
   2806000   1.0138947      17.475694      81.30245     
   2807000   1.0228876      17.55828       81.184369    
   2808000   1.0129676      17.67849       81.10303     
   2809000   0.99503008     17.574054      80.905184    
   2810000   1.0037415      17.315058      80.887041    
   2811000   1.0044784      17.253095      80.830229    
   2812000   1.0040497      17.995365      80.817956    
   2813000   0.99535756     17.874319      80.915732    
   2814000   1.0308684      18.200308      80.86314     
   2815000   0.97069345     17.661028      80.744636    
   2816000   0.9987739      17.003026      80.570993    
   2817000   0.9828448      17.297165      80.344328    
   2818000   1.0197719      17.462594      80.318574    
   2819000   1.0344936      17.361888      80.169452    
   2820000   1.0105426      17.353667      79.826106    
   2821000   1.0561899      17.828529      79.654458    
   2822000   1.0061797      17.348672      79.391286    
   2823000   1.0267382      17.487406      79.331614    
   2824000   1.0146103      17.295846      79.42654     
   2825000   1.0139286      17.506842      79.208248    
   2826000   0.97446326     17.991563      78.878639    
   2827000   1.0267893      17.849154      78.66622     
   2828000   1.0139556      17.986687      78.728827    
   2829000   1.0100767      17.722844      78.861293    
   2830000   1.0127918      17.883149      79.040804    
   2831000   1.0443254      17.660904      79.102365    
   2832000   1.0028915      17.178312      79.172494    
   2833000   1.0281276      17.707453      79.272613    
   2834000   0.98359921     17.785654      79.147328    
   2835000   1.0000496      17.485167      79.116709    
   2836000   0.99480788     17.555528      79.025247    
   2837000   1.0079151      16.993849      78.927056    
   2838000   1.0077811      17.834989      78.987642    
   2839000   0.97971346     17.422684      79.075707    
   2840000   1.0193188      17.204535      78.947399    
   2841000   1.0354059      17.195738      78.883956    
   2842000   0.99729867     17.725551      78.794267    
   2843000   0.98625724     17.316162      78.762038    
   2844000   0.97171373     16.845327      78.729967    
   2845000   0.96311507     17.322055      78.789184    
   2846000   0.98718629     17.306712      78.855741    
   2847000   1.0028578      17.212559      78.689752    
   2848000   1.0066203      17.901804      78.677453    
   2849000   0.95526593     17.710264      78.588624    
   2850000   0.97779156     17.280716      78.533259    
   2851000   0.98454379     17.485916      78.521624    
   2852000   0.99793664     17.272259      78.448715    
   2853000   0.98938651     17.482022      78.622615    
   2854000   0.97480797     17.388479      78.694558    
   2855000   1.0200927      17.782204      78.560387    
   2856000   1.002116       17.448739      78.420205    
   2857000   1.0137544      17.420968      78.43231     
   2858000   0.99398233     17.533903      78.3915      
   2859000   1.0222518      17.89591       78.492449    
   2860000   1.0125764      17.599864      78.513556    
   2861000   1.0767384      17.30061       78.524582    
   2862000   1.010256       17.401792      78.603707    
   2863000   1.0091411      18.020155      78.537093    
   2864000   1.0087412      17.928462      78.459022    
   2865000   1.0192093      17.484326      78.448849    
   2866000   1.0052154      17.30729       78.372097    
   2867000   1.0160166      17.597655      78.316518    
   2868000   1.0148407      17.360628      78.021774    
   2869000   1.0216879      17.176162      77.998961    
   2870000   0.97905602     16.836234      77.921511    
   2871000   0.99301216     17.237206      77.837601    
   2872000   0.95926293     17.351457      77.617792    
   2873000   0.99772333     17.340564      77.603477    
   2874000   1.0193472      17.8623        77.506966    
   2875000   1.001664       17.01236       77.337508    
   2876000   1.0198539      17.295455      77.222303    
   2877000   1.0018609      17.06651       77.405795    
   2878000   1.0204905      17.753499      77.41833     
   2879000   0.99081586     17.153741      77.41863     
   2880000   0.97016621     17.025698      77.603915    
   2881000   0.95199499     17.38265       77.434613    
   2882000   1.015512       17.169776      77.224854    
   2883000   1.0104426      17.196466      77.093115    
   2884000   1.0015034      17.758995      76.925627    
   2885000   1.0293482      17.876617      76.886581    
   2886000   1.0114265      17.573202      76.518764    
   2887000   1.0396499      17.766898      76.466459    
   2888000   0.96768671     17.651634      76.545007    
   2889000   1.0209948      17.805073      76.483411    
   2890000   1.016569       17.478683      76.597975    
   2891000   0.98180399     16.893598      76.626213    
   2892000   1.0442143      17.696874      76.594759    
   2893000   1.026504       17.560999      76.499347    
   2894000   0.97220013     17.678153      76.311545    
   2895000   0.99660479     17.117903      76.120826    
   2896000   0.99067115     17.499114      76.060248    
   2897000   1.0187103      17.781418      76.119236    
   2898000   1.0150894      17.577322      75.917592    
   2899000   1.023948       17.969055      75.867328    
   2900000   1.0183411      18.136567      75.739514    
   2901000   1.003818       17.474073      75.751764    
   2902000   0.96544316     17.641568      75.705143    
   2903000   1.0238758      17.226255      75.791896    
   2904000   0.96509395     17.109449      75.712441    
   2905000   1.0453277      17.721765      75.58009     
   2906000   0.98800973     17.373933      75.561021    
   2907000   1.0074537      18.271793      75.71646     
   2908000   1.0025126      17.416535      75.671002    
   2909000   0.99355373     17.468082      75.672364    
   2910000   0.98237068     17.273813      75.573538    
   2911000   1.0286096      17.265032      75.484328    
   2912000   1.0432757      17.096343      75.49425     
   2913000   1.0345993      17.577169      75.494629    
   2914000   0.97291656     17.68386       75.311708    
   2915000   0.99467025     17.225056      75.20573     
   2916000   0.98917861     17.742933      75.075268    
   2917000   1.004868       17.493151      75.191508    
   2918000   0.97670502     17.279289      75.305316    
   2919000   0.94744663     17.151549      75.542261    
   2920000   1.0016598      17.162129      75.41264     
   2921000   1.0013399      17.720263      75.256907    
   2922000   1.0226421      16.95833       75.340708    
   2923000   0.98458084     17.010726      75.26955     
   2924000   1.0110153      17.39034       75.452797    
   2925000   0.99745039     17.039549      75.356428    
   2926000   1.0202082      17.310119      75.247979    
   2927000   1.0279468      17.354364      75.18144     
   2928000   1.0057667      17.082075      75.177654    
   2929000   1.0291813      17.899091      74.976997    
   2930000   0.97995414     17.29092       75.090632    
   2931000   0.97639112     17.550699      75.068849    
   2932000   1.0377123      17.411681      75.049423    
   2933000   1.0045415      17.536872      74.944163    
   2934000   1.0222901      17.504991      74.752733    
   2935000   0.98482852     17.538676      74.785819    
   2936000   0.98288602     17.70159       74.643482    
   2937000   1.0070938      17.981808      74.803049    
   2938000   1.0070041      17.298748      74.809911    
   2939000   1.0213035      16.679952      74.895897    
   2940000   0.9982097      17.666398      74.792904    
   2941000   1.0059307      17.297541      74.862394    
   2942000   1.0174164      17.953138      74.813974    
   2943000   1.0323998      17.486264      75.025069    
   2944000   1.0220548      18.142875      74.765036    
   2945000   0.98932932     17.62508       74.953838    
   2946000   1.0159356      17.202616      74.91721     
   2947000   0.96633978     16.993827      74.840004    
   2948000   1.0011306      17.437246      74.978979    
   2949000   1.0124885      17.615477      74.766764    
   2950000   0.99638966     17.740952      74.455347    
   2951000   1.0111645      17.024751      74.378971    
   2952000   0.95969986     17.443919      74.34011     
   2953000   0.98371656     17.45041       74.020652    
   2954000   1.0165999      17.552177      73.844142    
   2955000   0.97669725     17.281161      73.764463    
   2956000   1.0229476      17.287447      73.914873    
   2957000   0.99651899     17.32867       73.816849    
   2958000   0.97637021     17.225979      73.595158    
   2959000   0.98844694     17.604476      73.478237    
   2960000   1.0134218      17.341605      73.400889    
   2961000   1.0257055      17.563389      73.290591    
   2962000   0.9887011      17.205093      73.097167    
   2963000   1.0281087      17.282949      73.04447     
   2964000   0.97536932     17.725834      73.24389     
   2965000   1.0052283      17.303233      73.139719    
   2966000   1.0000527      17.850243      72.919959    
   2967000   1.0118503      17.383627      73.059967    
   2968000   0.96569594     17.485676      72.975096    
   2969000   0.99254059     17.616093      73.063868    
   2970000   0.96001534     17.348844      72.800063    
   2971000   0.9856638      17.335313      72.740754    
   2972000   0.97783578     16.771392      72.774716    
   2973000   1.0372526      17.75692       72.956263    
   2974000   1.0178947      17.655142      72.93139     
   2975000   0.96301169     17.281858      73.017385    
   2976000   1.0149052      17.882663      72.745007    
   2977000   1.0005267      17.671004      72.603205    
   2978000   0.98165072     16.999191      72.377815    
   2979000   0.99047143     17.007312      72.218076    
   2980000   0.97753562     17.557721      72.17663     
   2981000   0.98010043     17.174501      72.349978    
   2982000   1.0099177      17.449473      72.425211    
   2983000   1.032589       17.222577      72.275685    
   2984000   1.046058       16.982319      71.949012    
   2985000   0.96420524     16.85973       71.788468    
   2986000   0.998136       17.29094       71.805504    
   2987000   1.0061335      18.451265      71.688677    
   2988000   1.0212679      17.638884      71.43808     
   2989000   1.0078416      17.916376      71.337457    
   2990000   0.97570281     17.599343      71.556352    
   2991000   1.0448394      17.45502       71.383737    
   2992000   0.99071204     17.691826      71.41349     
   2993000   1.0400008      17.38091       71.415421    
   2994000   0.95719358     17.307935      71.460108    
   2995000   0.95747476     17.618053      71.424588    
   2996000   1.014519       16.791585      71.326586    
   2997000   1.0244895      17.477515      71.265136    
   2998000   1.0283982      17.327972      71.301479    
   2999000   0.93148843     17.335489      71.331413    
   3000000   1.0074025      17.714008      71.39477     
   3001000   0.98140321     17.535748      71.43278     
   3002000   0.98865101     17.455045      71.413347    
   3003000   1.0209873      16.974296      71.407209    
   3004000   0.99526965     17.07325       71.516803    
   3005000   1.0146927      17.621177      71.442754    
   3006000   0.95855627     17.286843      71.452652    
   3007000   1.003175       17.902693      71.296734    
   3008000   0.96231121     17.261407      71.026065    
   3009000   0.99211823     17.341481      70.96357     
   3010000   1.0028471      17.726876      70.784269    
   3011000   0.98892805     17.774964      70.797492    
   3012000   1.020835       17.361271      70.717127    
   3013000   1.020468       17.613485      70.722447    
   3014000   0.98109143     17.665459      70.669339    
   3015000   0.96688629     17.535831      70.70425     
   3016000   1.0095871      17.78342       70.447931    
   3017000   1.0605624      17.967687      70.464506    
   3018000   0.97700711     17.334279      70.425139    
   3019000   0.99069312     17.432673      70.39433     
   3020000   1.0093617      18.039441      70.468505    
   3021000   1.0217777      17.804816      70.158269    
   3022000   1.0036658      17.764583      70.27657     
   3023000   1.0195773      17.489304      70.353825    
   3024000   0.99198651     17.28597       70.226852    
   3025000   1.0494762      17.468737      70.218067    
   3026000   1.0183572      17.276879      70.045629    
   3027000   0.99297097     17.598527      70.161378    
   3028000   1.0571491      17.718869      70.222394    
   3029000   0.95462511     17.379815      70.046756    
   3030000   1.0061586      17.404522      69.997549    
   3031000   1.030929       17.592766      69.812158    
   3032000   1.0040529      18.005472      69.695996    
   3033000   1.0110527      17.631157      69.71824     
   3034000   1.0105566      17.881162      69.702622    
   3035000   0.97947879     17.541168      69.623854    
   3036000   1.0267465      17.841934      69.293399    
   3037000   0.99808285     17.664197      69.197143    
   3038000   0.97232598     17.630548      69.054483    
   3039000   1.0269687      17.669619      69.09196     
   3040000   1.0042106      17.125369      68.928579    
   3041000   0.97795805     17.117884      69.020978    
   3042000   1.0075212      17.118495      68.886111    
   3043000   1.0372289      17.581196      68.986452    
   3044000   1.0143686      17.569736      69.00243     
   3045000   0.96681258     17.465139      68.93307     
   3046000   1.0216324      17.765011      68.825793    
   3047000   0.94086554     17.467235      68.809283    
   3048000   0.99341106     17.568981      68.688196    
   3049000   1.0126749      17.631205      68.610189    
   3050000   0.99332017     17.470659      68.517032    
   3051000   1.0099605      17.175517      68.568514    
   3052000   0.99862705     17.463814      68.783758    
   3053000   1.005861       17.593477      68.818169    
   3054000   1.0059044      17.381082      68.778773    
   3055000   1.0255974      17.530326      68.503444    
   3056000   1.0238305      17.761476      68.346137    
   3057000   0.97510319     17.674297      68.587179    
   3058000   1.0392453      17.384857      68.538108    
   3059000   0.98078194     16.818573      68.539409    
   3060000   0.97913102     17.412876      68.244086    
   3061000   0.95915243     17.491851      68.305784    
   3062000   1.0195957      17.365012      68.372494    
   3063000   0.98731336     17.398005      68.283933    
   3064000   0.98103489     17.663523      68.189729    
   3065000   0.99429246     17.954783      68.007366    
   3066000   0.99829145     17.638251      67.965188    
   3067000   1.0002443      17.52252       67.819305    
   3068000   0.99131932     17.071105      67.661024    
   3069000   1.0243149      17.751973      67.869375    
   3070000   0.98980675     17.88444       67.800795    
   3071000   0.99410827     17.666248      67.722741    
   3072000   0.99682051     17.034943      67.51048     
   3073000   1.0011971      17.357382      67.555893    
   3074000   1.0198831      17.376058      67.541175    
   3075000   1.0139874      17.391639      67.647349    
   3076000   0.97492887     17.835969      67.641764    
   3077000   1.029576       17.191963      67.569005    
   3078000   0.98966903     17.224018      67.525194    
   3079000   0.95977582     16.979469      67.497768    
   3080000   0.96472729     17.452099      67.241332    
   3081000   0.96715282     17.283646      67.441118    
   3082000   0.99279862     17.667155      67.411864    
   3083000   1.0056848      16.976719      67.344041    
   3084000   1.0454891      17.816123      67.295709    
   3085000   1.0054717      17.650597      67.124125    
   3086000   0.98091984     16.932289      66.972981    
   3087000   0.98775105     17.801627      66.932692    
   3088000   1.0336155      17.971775      66.71679     
   3089000   0.97831962     17.011708      66.896875    
   3090000   1.0275786      17.28911       66.778568    
   3091000   1.007239       17.616721      66.528335    
   3092000   0.99767015     17.656418      66.695193    
   3093000   1.0075175      17.14923       66.89505     
   3094000   1.0244542      17.727         66.904321    
   3095000   1.0003149      17.401811      66.797981    
   3096000   1.0217432      17.10455       66.700476    
   3097000   1.0203296      17.65269       66.502783    
   3098000   0.95390167     17.620184      66.453798    
   3099000   0.99448377     17.798755      66.486107    
   3100000   1.0058926      18.204259      66.399955    
   3101000   1.0465279      17.386736      66.271312    
   3102000   1.0485303      17.670528      66.268594    
   3103000   1.0386075      17.529599      66.133271    
   3104000   1.0143559      17.442704      66.070275    
   3105000   0.98264226     17.618954      65.82965     
   3106000   0.97973245     17.413598      65.678981    
   3107000   0.99521796     17.180712      65.570807    
   3108000   0.91461412     16.867315      65.338325    
   3109000   1.0197993      17.412399      65.32142     
   3110000   0.97552815     16.988607      65.132744    
   3111000   0.98793988     16.824267      64.915609    
   3112000   1.0314808      17.56013       64.910424    
   3113000   0.98076488     18.01479       64.788694    
   3114000   1.0437726      17.582643      64.682267    
   3115000   0.98786839     17.743057      64.514367    
   3116000   0.99684513     17.03095       64.481697    
   3117000   1.0176612      17.025158      64.574635    
   3118000   0.96992159     17.020055      64.475696    
   3119000   1.0329415      17.724074      64.608602    
   3120000   0.97259385     16.838642      64.506398    
   3121000   1.0079228      17.570856      64.449769    
   3122000   0.99645555     17.804539      64.23734     
   3123000   1.0366981      17.254144      64.307307    
   3124000   1.0033952      17.556019      64.141319    
   3125000   1.0394893      17.236944      64.108942    
   3126000   0.97872786     17.556686      63.931964    
   3127000   0.97156308     17.518389      63.789421    
   3128000   0.99043641     17.541897      63.673495    
   3129000   0.97443453     17.287334      63.420475    
   3130000   1.0308431      18.02378       63.443159    
   3131000   1.0533722      17.323658      63.22051     
   3132000   0.97675016     16.818418      63.09889     
   3133000   0.98853328     17.759359      62.997931    
   3134000   1.0142087      17.404158      62.803238    
   3135000   1.0728821      17.472564      62.816567    
   3136000   1.0165026      17.640177      62.642977    
   3137000   1.0338446      17.391664      62.739857    
   3138000   0.96762739     17.381347      62.855433    
   3139000   0.96516914     17.501702      62.569669    
   3140000   1.0084228      17.487541      62.609292    
   3141000   0.97114326     17.419041      62.62627     
   3142000   0.93906182     16.903037      62.365172    
   3143000   1.0090347      17.088504      62.203901    
   3144000   0.99074673     17.045799      62.272051    
   3145000   1.0065559      17.088333      62.460461    
   3146000   0.96177078     16.818556      62.494149    
   3147000   0.99590464     17.062741      62.491816    
   3148000   1.0202753      17.27053       62.529646    
   3149000   0.95874616     17.170137      62.454062    
   3150000   0.94876289     17.13789       62.344781    
   3151000   0.96800243     17.092434      62.311784    
   3152000   0.9633559      17.312263      62.332109    
   3153000   1.0167267      17.380485      62.14294     
   3154000   0.99024975     18.289192      62.128376    
   3155000   1.0114772      17.477198      62.011779    
   3156000   0.9898611      17.214702      61.926724    
   3157000   1.0158645      17.570951      61.889983    
   3158000   0.99777904     17.610698      61.988468    
   3159000   1.0258194      17.314122      61.849913    
   3160000   1.0059689      16.982225      61.768581    
   3161000   0.98786206     17.698507      61.809919    
   3162000   0.9987197      17.085089      61.655778    
   3163000   1.0190257      17.366407      61.550654    
   3164000   0.97973563     17.359496      61.393498    
   3165000   0.99116874     17.000411      61.325156    
   3166000   1.0181287      17.106005      61.018548    
   3167000   0.95793083     17.448142      60.997346    
   3168000   0.99510191     17.669918      60.933118    
   3169000   0.95477293     17.399737      60.749669    
   3170000   1.0319043      17.439865      60.617033    
   3171000   1.0441953      17.485078      60.756879    
   3172000   1.005395       17.663377      60.727866    
   3173000   1.0091574      17.394666      60.50798     
   3174000   1.0148167      17.871691      60.345212    
   3175000   1.0287996      17.371672      60.280159    
   3176000   1.0257665      17.082826      60.254014    
   3177000   1.0123386      17.384271      60.207282    
   3178000   0.9800942      17.747781      60.545414    
   3179000   1.0385         17.882965      60.449568    
   3180000   0.96816073     17.136253      60.213756    
   3181000   0.9726879      16.807398      59.988482    
   3182000   1.0652775      17.67589       59.848953    
   3183000   1.0219269      17.725097      59.766771    
   3184000   1.0223619      18.022016      59.490625    
   3185000   1.0316066      17.182806      59.432879    
   3186000   0.99865182     17.253005      59.453945    
   3187000   0.9858569      17.36333       59.549409    
   3188000   1.0141192      17.90817       59.325987    
   3189000   1.0338421      17.52718       59.088308    
   3190000   0.96391961     17.672024      59.279849    
   3191000   0.99179587     17.441126      59.083309    
   3192000   0.9753374      17.370525      58.812566    
   3193000   1.0142879      17.343122      58.470765    
   3194000   0.9843164      17.420739      58.528815    
   3195000   1.0227088      17.493916      58.339611    
   3196000   0.96702076     16.870028      58.115437    
   3197000   1.0087207      17.122528      57.765727    
   3198000   0.97100727     16.906376      57.639829    
   3199000   1.0269128      17.865031      57.717494    
   3200000   1.0258096      17.278073      57.830381    
   3201000   1.0346895      17.591988      57.852071    
   3202000   1.0313452      17.24105       57.854011    
   3203000   1.036371       17.710332      57.987748    
   3204000   0.97300884     17.729476      58.061424    
   3205000   0.9972768      16.913764      57.94958     
   3206000   0.96440194     17.124084      58.099927    
   3207000   1.0245327      17.275252      57.970633    
   3208000   0.97075923     17.288998      57.863186    
   3209000   1.0034352      17.34817       58.044805    
   3210000   1.0050762      17.881944      57.908958    
   3211000   1.0458959      17.423284      57.967451    
   3212000   0.9367849      17.451639      58.011494    
   3213000   1.0435658      17.613801      57.890837    
   3214000   0.97426138     17.737779      57.729005    
   3215000   1.021104       17.658222      57.372505    
   3216000   0.99017367     17.277267      57.569266    
   3217000   1.0022023      17.135614      57.431359    
   3218000   0.99960895     17.063214      57.518876    
   3219000   1.0317566      17.73995       57.689049    
   3220000   0.95361081     17.334488      57.565732    
   3221000   0.98273332     17.50759       57.497647    
   3222000   1.0149201      17.549266      57.396433    
   3223000   1.0852545      17.585018      57.197659    
   3224000   0.99439357     17.439359      57.390478    
   3225000   0.98789609     17.833838      57.238728    
   3226000   0.983284       17.104727      57.14056     
   3227000   0.98507547     17.867867      57.406776    
   3228000   0.98482609     17.809524      57.262018    
   3229000   1.0024473      16.958627      56.979146    
   3230000   1.007042       17.539         57.004025    
   3231000   1.0022809      17.506201      56.965419    
   3232000   0.99228748     17.211323      56.613091    
   3233000   0.97983386     17.812087      56.467031    
   3234000   1.0105367      16.986165      56.416818    
   3235000   0.99091567     17.575364      56.343415    
   3236000   1.0120505      17.350445      56.124623    
   3237000   0.98426318     17.412213      55.810806    
   3238000   0.98730575     17.135641      55.847362    
   3239000   1.0846354      17.697206      56.000307    
   3240000   1.0287144      17.178256      56.0461      
   3241000   1.012285       17.658183      55.889686    
   3242000   1.0206558      17.369219      55.919284    
   3243000   0.98992993     17.22079       55.768513    
   3244000   1.0516945      17.444237      55.716924    
   3245000   0.99275684     17.021603      55.560785    
   3246000   1.0252916      17.271253      55.390259    
   3247000   0.995589       17.075285      55.296837    
   3248000   1.0259068      18.021024      55.187277    
   3249000   1.0449595      17.996723      55.195389    
   3250000   0.98872404     17.295701      55.067393    
   3251000   0.99989722     17.184006      54.986914    
   3252000   1.0141632      16.869542      55.031609    
   3253000   1.0205238      17.183984      54.821999    
   3254000   1.0159639      16.375793      54.90832     
   3255000   1.0028868      17.274862      54.893426    
   3256000   1.0063187      17.249848      55.007751    
   3257000   1.0278069      17.418082      54.894311    
   3258000   1.0325537      17.138643      54.826979    
   3259000   1.0056318      17.341398      54.689245    
   3260000   1.0240182      17.705428      54.67967     
   3261000   1.0303242      17.71612       54.576042    
   3262000   1.0471932      17.62686       54.808493    
   3263000   0.99522962     17.219389      54.79692     
   3264000   0.99295326     17.907185      54.794318    
   3265000   0.9996694      17.00275       54.843577    
   3266000   1.0009378      17.441942      54.845198    
   3267000   1.0159547      17.357214      54.825242    
   3268000   0.99741133     17.06305       54.606167    
   3269000   0.99173659     17.322541      54.323326    
   3270000   0.94374481     17.271626      54.311686    
   3271000   0.98932125     17.452105      54.027297    
   3272000   0.98994302     17.108499      53.915953    
   3273000   0.97706302     17.347561      53.913006    
   3274000   0.98619866     17.204715      53.685191    
   3275000   0.98152335     17.597851      53.556206    
   3276000   1.028876       18.08228       53.590779    
   3277000   0.96302256     17.31557       53.237091    
   3278000   1.0337298      17.007177      53.196259    
   3279000   0.99606319     16.811211      53.101773    
   3280000   1.0025275      17.39895       53.160094    
   3281000   1.0329028      17.115394      52.901189    
   3282000   0.97511829     17.130006      52.787594    
   3283000   0.96353826     18.206869      52.621951    
   3284000   1.0062845      17.469472      52.718803    
   3285000   1.0026065      17.222839      52.655926    
   3286000   0.97085451     17.103016      52.79248     
   3287000   0.99089266     18.177945      52.886606    
   3288000   1.0015403      16.898928      52.930963    
   3289000   0.96504421     16.750448      52.788417    
   3290000   0.97693584     17.226055      52.498083    
   3291000   1.0303018      17.111249      52.475742    
   3292000   0.94370858     17.694544      52.387097    
   3293000   1.0181269      16.9113        52.357691    
   3294000   1.0295061      17.51316       52.436265    
   3295000   1.0457115      17.297036      52.419014    
   3296000   0.977865       17.388307      52.272077    
   3297000   0.99670724     17.119733      52.310356    
   3298000   1.038775       17.427943      51.988771    
   3299000   0.97914966     17.861211      51.794704    
   3300000   0.97217325     16.92892       51.839626    
   3301000   1.0036061      17.120329      51.755845    
   3302000   0.99710681     16.827897      51.738354    
   3303000   1.0117569      17.376244      51.509636    
   3304000   1.0049872      17.071611      51.457177    
   3305000   1.0101716      17.687793      51.568       
   3306000   1.0109375      17.098434      51.32658     
   3307000   1.0207016      17.958051      51.010132    
   3308000   1.0044812      17.358426      51.028608    
   3309000   1.0090936      16.81604       51.079178    
   3310000   0.99215836     17.352978      51.166176    
   3311000   1.0678743      17.73758       51.037881    
   3312000   1.0093514      16.609044      50.803254    
   3313000   1.0400449      17.798346      50.789667    
   3314000   0.94007681     16.996077      50.81169     
   3315000   0.99333521     17.174975      50.923356    
   3316000   1.003684       17.494853      50.937433    
   3317000   0.98079949     17.148687      50.709013    
   3318000   0.99410923     17.29894       50.746832    
   3319000   0.99860876     17.215633      50.498135    
   3320000   0.99755793     17.324837      50.296626    
   3321000   1.0330813      17.422258      50.047149    
   3322000   0.9989815      17.558157      49.931925    
   3323000   0.98181045     17.515812      50.090897    
   3324000   0.98230421     16.472036      49.987711    
   3325000   1.0210685      17.52063       49.954251    
   3326000   1.013587       17.28765       49.797756    
   3327000   1.0094229      17.918336      49.747284    
   3328000   1.0063969      17.423862      49.736941    
   3329000   1.0118967      17.359295      49.888792    
   3330000   1.0349991      16.877672      49.962193    
   3331000   1.016102       17.343127      49.74422     
   3332000   1.0018579      17.541924      49.731405    
   3333000   0.99295761     18.074986      49.631179    
   3334000   0.9989679      17.17804       49.576004    
   3335000   0.97067717     17.859469      49.460006    
   3336000   1.0147987      17.545368      49.22004     
   3337000   0.96604048     17.189638      49.193778    
   3338000   0.96513058     17.250877      49.115453    
   3339000   1.0107374      17.437226      49.101327    
   3340000   1.0042231      16.923659      49.131688    
   3341000   1.0162311      17.474264      49.150762    
   3342000   0.97204706     17.726738      49.049515    
   3343000   0.97196303     17.180566      48.97265     
   3344000   0.97388699     16.831286      48.96158     
   3345000   0.97332132     17.096866      48.763915    
   3346000   0.98923003     17.070138      48.704631    
   3347000   0.98719448     17.314097      48.630871    
   3348000   1.009038       17.351925      48.509478    
   3349000   0.98081203     17.85901       48.62154     
   3350000   0.99584422     17.298014      48.465009    
   3351000   0.96782596     17.288367      48.329681    
   3352000   1.0230635      17.371923      48.249334    
   3353000   0.99976897     17.083807      48.01853     
   3354000   1.0301287      17.566856      47.936138    
   3355000   1.0087551      17.029331      47.912836    
   3356000   0.95634357     16.989002      47.920916    
   3357000   0.99285713     17.435059      47.775146    
   3358000   1.0081465      17.259035      47.637124    
   3359000   1.0551982      17.618584      47.531375    
   3360000   0.97352129     16.935467      47.503935    
   3361000   1.021156       17.758078      47.633384    
   3362000   0.99747762     17.423032      47.649623    
   3363000   1.0169512      17.626767      47.374544    
   3364000   0.98582355     17.552272      47.16589     
   3365000   0.98749435     17.430191      46.929163    
   3366000   0.9579209      16.933231      46.885376    
   3367000   0.9843567      17.552905      46.802172    
   3368000   0.98822509     17.53247       46.687466    
   3369000   1.04714        17.342129      46.760706    
   3370000   0.96747343     16.797914      46.885315    
   3371000   0.95510414     17.812411      46.838921    
   3372000   0.97972484     17.260523      46.852429    
   3373000   0.98075337     17.332871      46.803943    
   3374000   1.0088499      17.49381       46.812948    
   3375000   1.0306704      17.515713      46.890742    
   3376000   1.0035112      17.389808      47.016662    
   3377000   1.0054996      17.215236      46.708958    
   3378000   1.0317938      17.276695      46.736228    
   3379000   1.0421898      17.116513      46.484901    
   3380000   0.9561896      17.267333      46.429654    
   3381000   1.0439814      17.443093      46.237307    
   3382000   0.95314306     16.977499      46.143758    
   3383000   1.0252384      17.529371      46.215317    
   3384000   1.0126116      17.228218      46.311234    
   3385000   1.0381108      17.244813      46.317419    
   3386000   1.028178       17.537166      46.247675    
   3387000   0.97285708     17.062706      46.10375     
   3388000   0.96965104     17.399399      46.0558      
   3389000   1.0085351      17.030221      46.060783    
   3390000   1.018614       17.527102      45.858193    
   3391000   1.0190215      17.460854      45.707829    
   3392000   0.98475841     17.078618      45.744866    
   3393000   0.98900642     17.068576      45.708589    
   3394000   0.99335969     17.657372      45.59866     
   3395000   1.0245148      17.450432      45.592184    
   3396000   1.0045613      17.542899      45.636523    
   3397000   0.99440558     17.060892      45.765155    
   3398000   1.0267499      16.985613      45.616418    
   3399000   1.0148777      17.130394      45.411734    
   3400000   0.99287437     17.571792      45.39168     
   3401000   1.0330204      17.203594      45.510564    
   3402000   0.99016021     17.795773      45.293554    
   3403000   1.0126961      16.936763      44.991628    
   3404000   0.99967709     17.233076      45.174763    
   3405000   0.96581633     17.247144      45.067415    
   3406000   1.0066274      17.081137      44.870654    
   3407000   0.99844059     17.649172      44.842719    
   3408000   1.0354486      17.130779      44.865695    
   3409000   0.98988803     17.352736      44.904259    
   3410000   1.0162238      17.102616      45.122814    
   3411000   1.0055588      17.303595      45.211605    
   3412000   0.97538929     17.235327      45.010489    
   3413000   0.99394424     17.242656      44.961884    
   3414000   1.004111       16.882628      44.836655    
   3415000   0.99124158     17.362888      44.788195    
   3416000   0.99962743     17.842542      44.741543    
   3417000   0.98359717     17.305194      44.520442    
   3418000   1.0067822      17.008316      44.505961    
   3419000   1.0220212      16.844596      44.44199     
   3420000   1.0154737      17.650676      44.314212    
   3421000   0.96998902     17.014104      44.133684    
   3422000   0.96791914     16.580983      44.300398    
   3423000   1.0233216      17.26988       44.17292     
   3424000   1.0297182      16.988596      43.981439    
   3425000   1.0101019      16.984138      43.91401     
   3426000   1.0125012      17.284079      43.813116    
   3427000   1.0154135      17.353044      43.885675    
   3428000   1.0214397      17.539162      44.04254     
   3429000   0.99015359     16.737619      44.019644    
   3430000   1.0221468      17.888664      43.883602    
   3431000   0.95577121     17.553129      43.73233     
   3432000   0.98042691     16.982469      43.953165    
   3433000   0.98914232     17.098708      43.87387     
   3434000   0.9778169      17.016011      43.797158    
   3435000   0.98443801     17.474921      43.671307    
   3436000   1.0538118      17.225046      43.513884    
   3437000   0.99614294     17.091626      43.311363    
   3438000   1.0517345      17.745885      43.253967    
   3439000   1.0030871      17.147326      43.127303    
   3440000   1.004543       16.920233      43.02524     
   3441000   0.97418093     17.426071      43.100006    
   3442000   0.99164362     17.041497      43.058338    
   3443000   1.0326109      16.797072      43.003804    
   3444000   0.993781       17.233721      42.866576    
   3445000   1.0041175      17.756696      42.815056    
   3446000   1.0190823      16.873981      42.708857    
   3447000   0.99961085     17.415726      42.565682    
   3448000   1.013217       17.770306      42.363478    
   3449000   0.98800153     17.423845      42.224489    
   3450000   1.0247927      17.275368      42.347067    
   3451000   1.0412221      17.389665      42.125178    
   3452000   0.99140204     17.274573      42.149789    
   3453000   1.0053579      16.920463      41.987005    
   3454000   0.99571286     17.120582      41.828665    
   3455000   0.98956929     17.21261       41.741827    
   3456000   1.0291618      17.38799       41.665343    
   3457000   0.95979237     17.018853      41.637942    
   3458000   1.0612145      17.445078      41.639824    
   3459000   0.98239676     16.700303      41.516095    
   3460000   0.97708095     17.773966      41.453049    
   3461000   1.0347605      17.660456      41.417561    
   3462000   1.0149372      16.777919      41.164626    
   3463000   0.97032641     16.816554      41.271977    
   3464000   0.99834714     17.419865      41.494469    
   3465000   1.0116468      16.638707      41.453228    
   3466000   0.98551885     16.841158      41.451665    
   3467000   1.0201307      17.724815      41.333921    
   3468000   0.98124014     16.876899      41.24878     
   3469000   1.0140964      17.500127      41.294664    
   3470000   0.99999717     16.337323      41.094403    
   3471000   0.99335399     17.169041      41.262685    
   3472000   0.99332507     17.155064      41.179519    
   3473000   1.0277372      17.521192      40.910559    
   3474000   1.0371626      16.907378      40.867134    
   3475000   0.96621546     17.763082      40.736112    
   3476000   0.980111       17.23379       40.514276    
   3477000   0.98914822     17.422571      40.299696    
   3478000   0.99675906     17.529535      40.010031    
   3479000   1.0196415      17.496222      40.023762    
   3480000   0.9641242      17.25486       40.278709    
   3481000   0.97457717     17.011279      40.08362     
   3482000   0.94946424     16.649705      40.265471    
   3483000   1.003412       16.863872      40.362153    
   3484000   1.0088769      16.818813      40.214137    
   3485000   1.0229413      16.987833      40.118653    
   3486000   0.98441937     17.116442      40.077682    
   3487000   1.0140133      17.513758      39.766214    
   3488000   0.98894829     17.256225      40.0466      
   3489000   1.0266594      17.188263      40.013769    
   3490000   1.0125266      17.035486      40.037295    
   3491000   1.0098615      17.935742      40.086806    
   3492000   1.0112006      16.964366      40.069234    
   3493000   1.0163609      17.328083      40.162017    
   3494000   1.0077146      17.106586      40.083585    
   3495000   0.97707388     16.612561      40.041887    
   3496000   1.0381225      17.476593      40.204243    
   3497000   0.97124889     17.481174      40.067359    
   3498000   0.99359574     17.467879      40.063298    
   3499000   0.99501921     17.48303       39.92939     
   3500000   0.97073614     17.298848      40.004194    
   3501000   0.98749344     17.523926      39.899391    
   3502000   0.97852052     17.433552      39.766342    
   3503000   1.0023863      17.410659      39.601247    
   3504000   0.98410855     17.923453      39.375946    
   3505000   0.99698622     17.447289      39.384929    
   3506000   1.0129341      16.999947      39.385485    
   3507000   1.0356894      17.345726      39.273288    
   3508000   0.99685141     17.278422      39.199618    
   3509000   1.0181237      17.442983      39.173893    
   3510000   1.0023309      17.416317      39.187671    
   3511000   1.0025552      17.275064      39.121127    
   3512000   0.98262298     16.867895      39.174481    
   3513000   1.036228       17.180396      38.999387    
   3514000   1.0131791      17.155468      38.787443    
   3515000   1.0041018      17.947591      38.585685    
   3516000   0.9764467      17.51111       38.514444    
   3517000   0.98622581     17.553936      38.62742     
   3518000   0.97060125     17.224222      38.60339     
   3519000   1.0257914      17.289854      38.489034    
   3520000   1.0189129      17.568231      38.540303    
   3521000   0.98598457     17.059392      38.425482    
   3522000   0.98589672     17.059227      38.23924     
   3523000   0.96534811     17.07252       38.268076    
   3524000   1.0192553      17.415015      38.298012    
   3525000   1.0030514      17.946689      38.165141    
   3526000   1.0154189      16.973299      38.10671     
   3527000   1.0072963      17.017444      38.253106    
   3528000   1.0132832      17.297489      38.205464    
   3529000   0.96661123     17.461756      38.092858    
   3530000   0.95755871     17.236898      37.773102    
   3531000   0.99060613     16.91798       37.666247    
   3532000   1.0231764      18.068047      37.265539    
   3533000   0.97183952     16.779013      37.132585    
   3534000   1.0537931      17.36079       37.122612    
   3535000   1.0262045      17.20843       36.826495    
   3536000   0.99224328     17.04026       36.807679    
   3537000   0.98309812     17.087503      36.784854    
   3538000   1.0002404      16.742439      36.869537    
   3539000   1.0516164      17.182757      36.844244    
   3540000   0.97776935     17.321339      36.7558      
   3541000   1.019862       17.176174      36.725229    
   3542000   0.98237812     17.230755      36.855173    
   3543000   0.97923098     17.603461      36.885039    
   3544000   1.0354539      16.978295      36.682941    
   3545000   1.0231111      17.334961      36.701656    
   3546000   0.93472328     17.482696      36.82225     
   3547000   0.98263866     17.166005      36.792566    
   3548000   1.004754       17.158903      36.801001    
   3549000   1.0202919      17.26774       36.642697    
   3550000   0.97838722     17.371389      36.58501     
   3551000   1.0374646      17.064912      36.395059    
   3552000   0.99110423     17.313036      36.268534    
   3553000   0.98368536     18.000493      36.236905    
   3554000   1.0657491      17.655177      36.070225    
   3555000   1.0255717      16.608349      35.931949    
   3556000   1.0112223      17.295726      35.833214    
   3557000   0.97022668     17.179081      35.802134    
   3558000   1.0130312      17.010001      35.715358    
   3559000   1.0235941      17.249291      35.851978    
   3560000   1.0353423      17.485279      35.817244    
   3561000   0.9701533      16.663036      35.577197    
   3562000   0.98868403     17.165508      35.551728    
   3563000   0.96826022     17.809003      35.526587    
   3564000   1.0098391      17.39067       35.567537    
   3565000   0.96803138     17.028951      35.383792    
   3566000   1.0116802      17.436842      35.431042    
   3567000   0.98386844     17.313753      35.458707    
   3568000   1.0124713      17.545137      35.433767    
   3569000   0.97899543     17.143416      35.570502    
   3570000   0.983623       17.590819      35.636384    
   3571000   0.99909382     17.032911      35.448959    
   3572000   1.0025212      16.847714      35.357636    
   3573000   0.97594823     17.294295      35.510093    
   3574000   1.0146273      17.177092      35.255711    
   3575000   0.98243912     17.813172      35.151031    
   3576000   0.98780912     17.146858      35.138457    
   3577000   1.0218671      17.530547      35.201651    
   3578000   1.0048216      17.040713      35.323537    
   3579000   0.98720235     17.26651       35.238176    
   3580000   1.0099777      17.436728      35.171676    
   3581000   1.0019127      17.292809      35.109567    
   3582000   1.0042038      18.064997      35.016371    
   3583000   1.0255956      17.596297      34.958629    
   3584000   0.98650855     16.936649      35.045927    
   3585000   1.0205979      17.16756       34.976121    
   3586000   0.99099359     16.934304      34.905766    
   3587000   0.98238977     17.409969      34.804224    
   3588000   0.96353665     16.897513      34.801424    
   3589000   0.98745893     16.314162      34.652177    
   3590000   1.0006467      17.088967      34.439606    
   3591000   1.01321        17.451477      34.418855    
   3592000   1.0153708      17.115696      34.332215    
   3593000   1.0059799      17.217084      34.139205    
   3594000   1.0271284      17.357905      34.073327    
   3595000   0.9831156      16.725618      34.103601    
   3596000   0.93626704     16.677625      34.026594    
   3597000   1.0423682      16.90769       33.946735    
   3598000   1.0315444      17.378898      33.975047    
   3599000   0.96512289     16.866277      34.165145    
   3600000   0.99992761     17.31248       33.976101    
   3601000   0.98882759     16.876003      33.581517    
   3602000   1.0158589      17.727879      33.479435    
   3603000   0.96894155     16.923375      33.370641    
   3604000   1.0044685      17.242231      33.190839    
   3605000   0.98337849     16.780665      33.177748    
   3606000   0.97472056     17.548217      32.973216    
   3607000   1.0340349      17.664372      32.975325    
   3608000   1.0027431      16.890885      32.755649    
   3609000   0.99245312     16.955005      32.701896    
   3610000   0.98703705     17.682676      32.697558    
   3611000   0.95581578     16.867221      32.521826    
   3612000   1.0038764      17.383278      32.292249    
   3613000   1.0152481      17.16591       32.105217    
   3614000   1.0328185      17.567823      32.218301    
   3615000   0.98648309     16.857445      32.241337    
   3616000   0.98753597     16.940568      32.203098    
   3617000   1.0070784      17.433017      32.107933    
   3618000   1.0086437      17.331357      31.900136    
   3619000   1.0109607      16.863321      31.661447    
   3620000   1.0427795      17.397144      31.483717    
   3621000   1.013244       17.864834      31.377198    
   3622000   0.98386747     17.003259      31.298276    
   3623000   0.98827632     17.084757      31.152044    
   3624000   0.96462235     17.565465      31.217524    
   3625000   0.97483404     16.89439       31.174499    
   3626000   1.0379314      17.285339      31.087643    
   3627000   1.0313724      17.414259      31.25246     
   3628000   0.92928499     16.413973      31.239977    
   3629000   1.006603       17.224076      31.106296    
   3630000   0.97846975     16.996778      30.950916    
   3631000   1.0170445      17.405353      30.991545    
   3632000   0.99808187     17.478779      31.164583    
   3633000   0.99067761     16.792         31.026647    
   3634000   1.0641145      17.090697      30.923787    
   3635000   0.97231908     17.376628      30.963613    
   3636000   0.99322904     17.393791      30.997123    
   3637000   1.0454469      17.488665      30.832154    
   3638000   1.037774       17.259705      30.561066    
   3639000   1.003916       17.387128      30.490205    
   3640000   0.99239972     17.05731       30.527455    
   3641000   0.98595544     17.058419      30.667818    
   3642000   1.0221606      17.11506       30.634306    
   3643000   0.96701677     17.642946      30.48936     
   3644000   1.0415997      17.330108      30.456198    
   3645000   0.9871958      16.846491      30.498932    
   3646000   1.0087263      17.259576      30.650935    
   3647000   0.97939092     16.80183       30.552312    
   3648000   0.98491974     16.315137      30.368686    
   3649000   1.0186673      17.219106      30.519752    
   3650000   0.99544444     16.973589      30.312462    
   3651000   1.0138482      17.093816      30.174178    
   3652000   0.95717688     17.389197      30.237583    
   3653000   1.0004836      17.473327      30.234323    
   3654000   0.99246682     17.254245      30.020202    
   3655000   0.99727869     16.993865      30.213152    
   3656000   1.0171177      16.766877      30.05707     
   3657000   0.98308553     17.394393      29.955041    
   3658000   1.0171171      17.300129      29.906594    
   3659000   1.0104936      16.683146      29.665674    
   3660000   0.96226939     17.134349      29.480133    
   3661000   1.0208923      17.146255      29.359251    
   3662000   1.0262443      17.270889      29.198808    
   3663000   1.0017711      17.122678      29.266043    
   3664000   1.061471       17.159993      28.890928    
   3665000   0.99784288     16.984794      28.874893    
   3666000   0.99329761     16.998232      28.94267     
   3667000   1.019403       16.708024      28.81368     
   3668000   0.9901071      17.245921      29.005007    
   3669000   0.96457851     17.196588      28.965815    
   3670000   0.99505413     16.86328       28.84973     
   3671000   0.99781372     17.144213      28.781797    
   3672000   0.98541787     17.337968      28.804821    
   3673000   0.97222612     17.649978      28.997921    
   3674000   1.040896       16.771986      28.857541    
   3675000   1.0057554      17.033148      29.036981    
   3676000   1.0247067      17.200653      28.9065      
   3677000   1.025147       17.776524      28.886355    
   3678000   0.99760456     17.266381      28.897544    
   3679000   1.0168203      17.293073      28.810371    
   3680000   0.99839189     17.213308      28.88524     
   3681000   0.9917904      16.816702      28.867919    
   3682000   1.0136779      16.803548      28.688962    
   3683000   1.0221787      17.128545      28.611076    
   3684000   0.97994099     17.407435      28.555885    
   3685000   1.0309672      17.14507       28.629547    
   3686000   0.99826611     17.852714      28.658907    
   3687000   1.0092279      17.465254      28.769186    
   3688000   1.0159856      17.839414      28.730214    
   3689000   1.0190875      16.995398      28.570865    
   3690000   0.98138073     17.685808      28.395765    
   3691000   0.99426912     17.020993      28.345027    
   3692000   0.98437866     17.73603       28.177334    
   3693000   1.0305639      17.421437      28.046707    
   3694000   0.9817301      16.965022      27.959613    
   3695000   1.0382769      16.814666      27.964828    
   3696000   1.0169686      16.851847      28.015933    
   3697000   0.97853578     16.938493      27.790186    
   3698000   1.0021519      17.104225      27.710507    
   3699000   0.97002456     16.855831      27.601037    
   3700000   1.0560477      17.279802      27.62232     
   3701000   1.0259136      16.895375      27.58823     
   3702000   0.99976158     17.805433      27.479638    
   3703000   1.0180853      17.300931      27.312523    
   3704000   1.0155631      17.386783      27.104335    
   3705000   0.9683381      16.934357      26.897724    
   3706000   1.014423       17.260852      26.70421     
   3707000   1.0475504      17.260118      26.687834    
   3708000   1.0149654      17.465535      26.618638    
   3709000   1.0054124      17.12          26.561126    
   3710000   0.95833215     17.080969      26.375861    
   3711000   0.96762525     16.751021      26.167318    
   3712000   0.98747006     17.057737      26.072901    
   3713000   0.99396582     17.528818      26.081946    
   3714000   0.99320335     16.937869      25.810465    
   3715000   0.99709522     17.327825      25.799509    
   3716000   0.96259132     16.931251      25.54216     
   3717000   1.0006135      17.184294      25.429376    
   3718000   1.0249386      17.039279      25.311564    
   3719000   1.0180099      16.826603      25.157026    
   3720000   1.0012583      17.163841      25.155832    
   3721000   0.99858195     16.771013      25.127725    
   3722000   1.0083287      17.380419      25.045836    
   3723000   0.98006645     16.976973      24.947052    
   3724000   0.99148446     16.679226      25.109917    
   3725000   1.0299447      17.284231      24.84325     
   3726000   1.0336174      17.565217      24.498748    
   3727000   1.0165567      17.765702      24.409705    
   3728000   0.99976227     16.907762      24.263724    
   3729000   0.98567404     16.937515      24.051239    
   3730000   0.99658191     17.023874      23.965432    
   3731000   0.94349543     17.125722      23.895833    
   3732000   1.0206796      17.116099      23.830154    
   3733000   1.0305504      17.635167      23.808383    
   3734000   1.0477637      17.160399      23.932245    
   3735000   1.0044016      17.407081      23.961965    
   3736000   0.98816974     16.806275      23.824201    
   3737000   0.98806197     16.876903      23.691744    
   3738000   0.98452432     16.957601      23.686421    
   3739000   1.0322685      17.067516      23.817438    
   3740000   1.0230123      17.227802      23.799443    
   3741000   1.028647       17.598478      23.708541    
   3742000   0.99864808     17.276706      23.792282    
   3743000   1.0063446      16.849654      23.773288    
   3744000   1.0175736      17.146991      23.756142    
   3745000   1.0235776      17.155441      23.841945    
   3746000   1.0083909      17.261906      23.680106    
   3747000   1.0299882      17.621578      23.631089    
   3748000   0.98361647     17.260227      23.436789    
   3749000   1.0634117      16.822542      23.269601    
   3750000   0.99362068     17.326995      23.115041    
   3751000   1.0206071      16.811846      23.100742    
   3752000   0.97680471     17.494126      22.987513    
   3753000   0.99668249     16.593666      23.109319    
   3754000   0.98907656     17.290678      22.644248    
   3755000   1.0001265      17.311122      22.472103    
   3756000   1.0491778      17.280081      22.434853    
   3757000   1.005972       16.938328      22.400497    
   3758000   1.0201169      17.631497      22.021127    
   3759000   1.010492       17.261992      21.910557    
   3760000   0.97413487     17.252369      21.957982    
   3761000   0.9695314      16.946293      21.874992    
   3762000   0.98223368     17.340631      21.906879    
   3763000   1.0141438      16.751765      21.829361    
   3764000   0.98529954     16.900295      21.8599      
   3765000   1.0284757      17.348939      21.95645     
   3766000   1.0039065      17.093791      21.773362    
   3767000   1.0087065      17.087147      21.674908    
   3768000   1.0041645      17.288818      21.680197    
   3769000   0.99385906     17.837271      21.798237    
   3770000   0.97770855     16.77948       21.775637    
   3771000   0.96100897     16.84543       21.839396    
   3772000   1.0521166      17.49844       21.943144    
   3773000   1.0374424      17.940645      21.932507    
   3774000   1.0511549      16.54239       21.868814    
   3775000   0.97263551     17.21023       21.553517    
   3776000   1.0003115      17.655292      21.529483    
   3777000   0.97551695     16.772804      21.653414    
   3778000   1.0202926      17.245839      21.51984     
   3779000   0.97907173     16.829518      21.596127    
   3780000   0.98952918     17.0018        21.770015    
   3781000   1.0420497      16.856371      21.811249    
   3782000   0.97490859     17.60344       21.600887    
   3783000   0.98274827     17.534166      21.478265    
   3784000   0.96959252     17.202939      21.338768    
   3785000   0.95378992     17.556283      21.39969     
   3786000   0.99270394     17.277739      21.264229    
   3787000   0.98036748     16.831823      21.198322    
   3788000   0.98814537     16.637494      21.277862    
   3789000   1.0080037      17.22891       21.156629    
   3790000   0.98653595     17.40702       21.116337    
   3791000   0.98128769     17.1544        21.026064    
   3792000   1.0017587      17.037297      20.839059    
   3793000   0.99960798     17.590004      20.647849    
   3794000   0.95773887     16.832293      20.501135    
   3795000   0.98719227     17.008591      20.529752    
   3796000   0.9838346      17.358556      20.534892    
   3797000   1.0080026      17.185014      20.516215    
   3798000   1.0552426      17.875203      20.580516    
   3799000   0.99458147     16.777121      20.605832    
   3800000   0.98824795     16.742583      20.673849    
   3801000   1.0037509      17.03783       20.516915    
   3802000   1.0337955      16.466002      20.391842    
   3803000   0.96693631     17.037349      20.419704    
   3804000   0.97450076     16.941786      20.266161    
   3805000   0.96255714     16.60176       20.079543    
   3806000   0.96787941     16.915089      19.982038    
   3807000   0.95948008     16.132201      20.026647    
   3808000   0.99069261     17.335924      19.885139    
   3809000   0.99440536     17.095767      20.040165    
   3810000   1.0327832      17.599737      20.000427    
   3811000   1.0063363      17.303581      19.856863    
   3812000   0.975405       17.045524      19.820255    
   3813000   1.0197007      17.243019      19.69374     
   3814000   0.96622235     16.807159      19.462681    
   3815000   1.0159083      16.625973      19.44558     
   3816000   0.98532321     16.559423      19.381815    
   3817000   1.0059276      17.205892      19.144619    
   3818000   0.99093594     16.602275      19.006138    
   3819000   1.0183051      17.702563      18.951831    
   3820000   0.97717609     17.099289      18.835294    
   3821000   1.0325343      17.211329      18.63369     
   3822000   1.0032323      17.207971      18.530936    
   3823000   0.9976842      17.289451      18.512109    
   3824000   0.97847915     17.363826      18.318236    
   3825000   1.0225848      17.476837      18.076033    
   3826000   1.0109485      17.330681      17.990957    
   3827000   1.0071292      16.861642      17.938867    
   3828000   1.0282818      17.39397       17.847808    
   3829000   0.97210356     17.049306      17.640469    
   3830000   1.0002009      16.891632      17.481473    
   3831000   0.99817063     17.1931        17.305902    
   3832000   1.0389835      17.208367      17.004309    
   3833000   0.9609032      16.611097      16.970322    
   3834000   1.0135906      17.140542      16.839767    
   3835000   0.98045452     16.914919      16.641237    
   3836000   1.0066435      16.913818      16.555948    
   3837000   0.98899086     16.726813      16.520974    
   3838000   1.0009449      17.050178      16.407687    
   3839000   1.0138037      17.266548      16.528739    
   3840000   1.0695574      17.166937      16.435025    
   3841000   0.96676199     17.316546      16.334957    
   3842000   0.99073032     17.258825      16.341075    
   3843000   0.95872895     17.052096      16.203588    
   3844000   0.97839133     17.662803      16.154732    
   3845000   0.9993095      17.228129      15.98218     
   3846000   0.97982616     17.393255      16.100947    
   3847000   0.98142825     17.271982      15.930293    
   3848000   1.0113182      17.152826      16.093094    
   3849000   0.97711033     16.974082      16.090186    
   3850000   1.0039197      17.109146      15.969223    
   3851000   0.99454887     16.814829      16.083559    
   3852000   1.0143036      16.923154      15.968584    
   3853000   0.9814228      17.211494      15.740086    
   3854000   1.0475951      17.081651      15.823138    
   3855000   0.99487404     16.913992      15.732518    
   3856000   1.0125821      17.235758      15.558269    
   3857000   0.98133948     17.55143       15.45377     
   3858000   1.0153063      16.942552      15.492661    
   3859000   1.017109       17.395579      15.383868    
   3860000   0.99127331     16.832534      15.418558    
   3861000   1.0303804      17.216414      15.463495    
   3862000   1.0188611      17.756238      15.591598    
   3863000   0.96673871     16.955183      15.609209    
   3864000   1.0053711      17.625779      15.197268    
   3865000   1.0236143      16.978364      15.225332    
   3866000   0.96131552     17.166922      15.297464    
   3867000   0.95113864     16.851969      15.107957    
   3868000   1.020222       17.471929      14.957796    
   3869000   0.99004487     17.111511      15.045041    
   3870000   1.00797        17.002924      14.842584    
   3871000   0.99576986     16.670152      14.673317    
   3872000   1.012375       16.885631      14.55169     
   3873000   0.99437655     16.717193      14.573714    
   3874000   0.99799933     17.069231      14.407893    
   3875000   1.0341621      17.463024      14.50839     
   3876000   1.0259353      17.380411      14.148526    
   3877000   0.98607789     17.403528      13.923834    
   3878000   1.0169986      16.974186      13.967465    
   3879000   0.96332903     17.049662      13.982997    
   3880000   0.98585518     17.173804      14.007018    
   3881000   0.9852947      16.513422      13.752526    
   3882000   1.0076587      16.648768      13.702482    
   3883000   0.96128373     17.210504      13.614404    
   3884000   0.96442974     17.296883      13.492732    
   3885000   0.9835372      17.021411      13.455536    
   3886000   1.0095103      17.077415      13.089057    
   3887000   1.0190103      17.456397      13.146331    
   3888000   1.0013143      16.985984      13.08366     
   3889000   1.0173993      16.962838      12.969735    
   3890000   0.97941822     17.08015       13.086448    
   3891000   0.96696875     16.786226      13.078328    
   3892000   0.99203509     16.903138      12.874955    
   3893000   0.96858498     17.158606      12.832642    
   3894000   0.9647285      17.246479      12.839888    
   3895000   1.0082018      16.881772      12.880158    
   3896000   0.96386168     16.717929      12.765641    
   3897000   0.99790065     17.122629      12.56956     
   3898000   1.0048692      17.19009       12.497087    
   3899000   1.0103554      16.629131      12.409948    
   3900000   0.96655991     16.61974       12.46648     
   3901000   0.9855235      17.309075      12.249001    
   3902000   1.024264       17.698822      12.149417    
   3903000   1.031181       17.007334      12.021577    
   3904000   1.0423481      17.215801      11.969753    
   3905000   0.96912708     16.753056      11.795675    
   3906000   1.0115441      17.216611      11.857535    
   3907000   1.0002198      16.554158      11.735561    
   3908000   0.99877524     16.880252      11.871244    
   3909000   1.0009548      17.108567      11.710371    
   3910000   0.98381642     17.35907       11.739001    
   3911000   1.0174756      17.456214      11.883433    
   3912000   1.007726       16.984553      11.838359    
   3913000   1.0009046      16.831702      11.94035     
   3914000   0.96243296     17.28273       11.894141    
   3915000   0.98525487     16.800961      11.826452    
   3916000   0.96613032     16.995808      11.995411    
   3917000   1.0354866      16.323826      11.918211    
   3918000   1.0333051      17.202192      11.653294    
   3919000   1.0194165      17.026909      11.372383    
   3920000   0.97204539     16.815579      11.33702     
   3921000   0.97416473     17.47227       11.093986    
   3922000   1.0324109      16.817263      11.047932    
   3923000   0.9845005      16.97282       11.06628     
   3924000   1.0061901      17.04346       11.132384    
   3925000   1.000857       16.772289      11.138168    
   3926000   0.99022801     17.357074      11.022708    
   3927000   1.0185934      16.940255      10.750859    
   3928000   1.0243311      17.274592      10.450398    
   3929000   1.0324797      17.093557      10.534858    
   3930000   1.0072549      17.154249      10.46496     
   3931000   1.0569443      17.595174      10.333022    
   3932000   1.038943       16.763201      10.127924    
   3933000   0.97691784     17.360599      10.197768    
   3934000   0.97046349     17.389065      10.166441    
   3935000   1.0448092      17.431574      10.055637    
   3936000   0.99425336     16.965717      10.012618    
   3937000   1.0094133      16.553674      9.8475382    
   3938000   0.99524911     17.07526       9.7529893    
   3939000   0.9899051      17.318188      9.691479     
   3940000   0.97703208     16.998226      9.5751267    
   3941000   0.98979029     17.264955      9.5076026    
   3942000   0.97495254     16.982772      9.6260682    
   3943000   1.0194851      17.638392      9.6718641    
   3944000   1.0120383      17.068555      9.6048922    
   3945000   1.0699682      17.429326      9.5327009    
   3946000   1.0412549      17.291739      9.6165206    
   3947000   0.99967083     16.860765      9.5703777    
   3948000   0.98016245     16.940663      9.5476932    
   3949000   0.97355713     17.120464      9.6421631    
   3950000   1.0416562      17.086188      9.6688236    
   3951000   0.97172293     17.390784      9.7557202    
   3952000   1.0164219      17.454899      9.6778537    
   3953000   0.9694906      16.626492      9.9176461    
   3954000   1.0145366      16.792082      9.9622941    
   3955000   1.0347792      17.269665      9.8595846    
   3956000   1.0201358      17.043238      9.9686409    
   3957000   1.0245044      17.19867       9.9056222    
   3958000   0.94875457     17.130447      9.9713125    
   3959000   0.98097599     17.297629      10.174513    
   3960000   0.99418537     16.878596      10.017235    
   3961000   1.0166901      17.503793      10.081015    
   3962000   0.96992174     17.07387       9.9818971    
   3963000   1.0377286      16.817169      9.7973146    
   3964000   1.0222528      16.737667      9.7653839    
   3965000   0.99683008     17.449065      9.7216029    
   3966000   0.99271867     17.133058      9.6368062    
   3967000   1.0182064      17.477998      9.6239639    
   3968000   0.96811527     17.405311      9.6482513    
   3969000   1.0149587      16.489664      9.5054959    
   3970000   0.97462402     16.754097      9.5031418    
   3971000   1.0413161      16.855163      9.5474325    
   3972000   0.99418069     16.95594       9.583838     
   3973000   1.0476428      17.338729      9.7742385    
   3974000   0.97071311     16.491866      9.7417348    
   3975000   1.0011712      17.327616      9.5172955    
   3976000   1.0449566      17.322509      9.5686635    
   3977000   1.0078151      17.166521      9.6162247    
   3978000   1.0190888      17.118957      9.4808501    
   3979000   1.0213849      17.098429      9.3765585    
   3980000   0.97152295     16.896775      9.4243437    
   3981000   1.0155661      17.967817      9.3421879    
   3982000   1.013865       17.078363      9.5631573    
   3983000   0.99495865     17.134581      9.5223047    
   3984000   0.97215478     17.305679      9.596584     
   3985000   0.99030268     17.203339      9.671427     
   3986000   0.98949765     16.839465      9.4930032    
   3987000   0.97304254     16.769056      9.5412722    
   3988000   0.97733945     17.105909      9.513147     
   3989000   0.96708949     17.007584      9.4199702    
   3990000   0.97028954     16.887859      9.3623225    
   3991000   0.97489121     16.674168      9.2663766    
   3992000   0.98703631     17.262217      9.2713967    
   3993000   1.0301592      17.058992      9.3724825    
   3994000   1.0451002      17.2764        9.4669723    
   3995000   0.98233628     17.126757      9.3327802    
   3996000   0.96453027     17.000787      9.2362933    
   3997000   1.0001554      16.533363      9.1120212    
   3998000   1.0075436      16.92364       9.0190038    
   3999000   1.0075462      16.957166      8.9048272    
   4000000   0.96595442     17.202364      9.1741814    
   4001000   1.040073       17.41385       9.2700842    
   4002000   1.05006        17.017179      9.1139441    
   4003000   1.0341169      17.312263      9.1161693    
   4004000   1.0083261      16.778041      8.905889     
   4005000   1.012167       16.855287      8.8877268    
   4006000   0.97452144     16.99439       8.9730675    
   4007000   0.95342332     17.092403      8.8667407    
   4008000   1.0275527      17.145876      8.8718823    
   4009000   0.99541897     16.764831      8.8319117    
   4010000   0.98501865     16.94664       8.8817655    
   4011000   0.97165139     17.220406      8.8685912    
   4012000   1.0240961      17.058778      8.7314409    
   4013000   0.94751149     16.91544       8.6439189    
   4014000   1.0161032      17.291661      8.5354809    
   4015000   0.98169068     16.884882      8.3577204    
   4016000   1.0060769      17.347582      8.219938     
   4017000   1.0318387      16.794475      7.9349039    
   4018000   1.0080499      16.886906      7.9279322    
   4019000   1.0098357      16.547378      7.8873623    
   4020000   0.98678306     16.707402      7.593883     
   4021000   0.96982898     16.710427      7.4920383    
   4022000   0.98413395     16.969526      7.1750619    
   4023000   0.97436598     16.761256      7.1715448    
   4024000   1.0087429      16.80436       7.1045601    
   4025000   0.99419953     17.116682      6.8749367    
   4026000   1.0113032      16.8901        6.7052443    
   4027000   1.0020571      17.459895      6.5314241    
   4028000   0.95940532     17.208625      6.4458954    
   4029000   0.99164392     16.785876      6.3079435    
   4030000   1.0086552      16.752013      6.1274006    
   4031000   0.98690733     16.553199      6.186225     
   4032000   1.0446698      16.877199      6.0557962    
   4033000   1.0262796      17.213629      6.0307361    
   4034000   0.97553338     16.186748      5.9313119    
   4035000   1.0011132      17.01952       5.9063511    
   4036000   1.0139938      17.000988      5.8304231    
   4037000   0.9954695      16.963073      5.7353123    
   4038000   1.0167327      16.53753       5.6979239    
   4039000   1.0112097      16.737777      5.6565035    
   4040000   0.99976917     16.515664      5.6231842    
   4041000   1.0238052      16.713035      5.5975529    
   4042000   0.97649798     16.585935      5.6295013    
   4043000   0.96579468     16.425766      5.6264241    
   4044000   0.96472805     16.538834      5.5592834    
   4045000   0.96175085     16.852535      5.5288679    
   4046000   0.99244371     16.609833      5.5254375    
   4047000   0.98688592     17.119671      5.4983369    
   4048000   1.0455349      16.885083      5.4588346    
   4049000   1.0445978      17.231764      5.4340729    
   4050000   1.0259194      16.20898       5.4410757    
   4051000   0.92222026     15.956693      5.4679018    
   4052000   1.0131403      17.007743      5.4687472    
   4053000   0.97668573     17.419553      5.4547436    
   4054000   0.98307538     16.76801       5.4691999    
   4055000   1.0135025      17.009457      5.5145277    
   4056000   1.0495245      16.749199      5.515602     
   4057000   0.96569296     17.268377      5.4904987    
   4058000   1.0222532      16.462641      5.4584815    
   4059000   0.98467622     16.813423      5.4706781    
   4060000   0.97851703     16.447139      5.4494104    
   4061000   1.0288166      16.961241      5.4075675    
   4062000   0.97611003     16.894967      5.430147     
   4063000   1.0154178      17.254526      5.4290013    
   4064000   1.0162046      16.392755      5.4333699    
   4065000   0.99416203     16.414255      5.4034794    
   4066000   1.0057359      16.829142      5.4027362    
   4067000   1.0150015      17.140668      5.4117071    
   4068000   0.97677338     16.849699      5.386952     
   4069000   0.97259028     16.566992      5.427761     
   4070000   1.021139       17.299906      5.3935185    
   4071000   0.98396654     17.361958      5.4019925    
   4072000   1.0072158      16.66114       5.3970994    
   4073000   1.0312328      16.598859      5.4395073    
   4074000   1.0216366      16.524887      5.405607     
   4075000   1.0475027      17.139602      5.4019341    
   4076000   0.99678619     16.263239      5.4180069    
   4077000   0.96799721     16.720023      5.4421982    
   4078000   0.95093171     16.904584      5.4159455    
   4079000   0.96382828     16.321412      5.4686185    
   4080000   0.98586369     17.010822      5.4570368    
   4081000   0.98463363     16.619593      5.4537336    
   4082000   0.97264953     16.865483      5.4324775    
   4083000   0.99783062     17.091274      5.4404115    
   4084000   0.97833468     17.268444      5.4725941    
   4085000   1.0130803      17.007584      5.4042076    
   4086000   0.9486485      16.858431      5.4332685    
   4087000   1.0064605      17.119094      5.4236676    
   4088000   0.96609491     17.162666      5.4142449    
   4089000   0.98338436     16.701093      5.419606     
   4090000   1.0043401      16.58609       5.4367693    
   4091000   1.0585582      17.081694      5.4685272    
   4092000   1.0071917      16.346989      5.4332462    
   4093000   0.94346047     17.005732      5.4462188    
   4094000   1.0186675      16.360456      5.4322666    
   4095000   1.0481696      16.688134      5.4692415    
   4096000   0.99533047     16.78758       5.4860339    
   4097000   1.0170921      16.521633      5.4688443    
   4098000   1.0354635      16.995053      5.4246864    
   4099000   1.0197755      16.376376      5.4754951    
   4100000   1.0000291      16.802344      5.5054768    
   4101000   1.0198055      17.283058      5.5446013    
   4102000   0.97740887     17.261397      5.5191267    
   4103000   1.0319116      17.041173      5.4790523    
   4104000   0.97869335     16.639728      5.5130165    
   4105000   1.0213125      16.719498      5.518888     
   4106000   0.98098764     16.809894      5.4519029    
   4107000   0.98838494     16.948965      5.4699432    
   4108000   0.96575944     16.19283       5.4690066    
   4109000   1.0066269      17.033057      5.4529148    
   4110000   1.0013297      16.990938      5.4383369    
   4111000   1.0235597      17.453518      5.4223813    
   4112000   0.99637013     17.092384      5.4135675    
   4113000   0.99056175     16.506247      5.4644725    
   4114000   0.99810254     16.395746      5.4849301    
   4115000   0.98801342     16.660368      5.42909      
   4116000   1.0047362      16.586585      5.4355613    
   4117000   0.98740172     17.19434       5.4250511    
   4118000   0.98092752     16.868692      5.4543017    
   4119000   1.0039163      16.621383      5.3994819    
   4120000   1.0318435      17.535594      5.4094139    
   4121000   0.99616344     16.640898      5.416027     
   4122000   0.98576923     17.165168      5.433428     
   4123000   0.98970023     16.331478      5.4763111    
   4124000   1.0408378      17.077232      5.5000849    
   4125000   1.0522245      16.334191      5.5470201    
   4126000   1.0054553      17.016591      5.5359208    
   4127000   1.0371794      17.473436      5.4796202    
   4128000   1.0304352      16.841045      5.4697315    
   4129000   0.97623244     16.504904      5.5123036    
   4130000   1.0102934      17.178583      5.5021824    
   4131000   1.0221912      16.863038      5.4321068    
   4132000   1.0231513      16.618143      5.4276061    
   4133000   0.96567312     16.748435      5.3953079    
   4134000   1.027694       16.369016      5.376687     
   4135000   1.0037904      17.199603      5.4073272    
   4136000   0.9523442      17.234049      5.3836484    
   4137000   1.066124       17.421262      5.4202549    
   4138000   1.0128279      17.192108      5.4389728    
   4139000   1.0349685      16.778346      5.4182887    
   4140000   0.95237088     16.57491       5.3962161    
   4141000   1.0000383      16.560581      5.4143578    
   4142000   0.98273281     17.030333      5.459697     
   4143000   0.98871401     16.825671      5.3890334    
   4144000   0.99667436     15.848596      5.3955657    
   4145000   1.0236422      16.598093      5.375743     
   4146000   1.0287644      16.400792      5.4271846    
   4147000   0.9685176      16.264527      5.4252011    
   4148000   1.0194214      16.670152      5.4349882    
   4149000   0.95677164     16.541259      5.3696887    
   4150000   0.96045076     16.037372      5.4049614    
   4151000   1.005868       16.413852      5.4529324    
   4152000   1.0026103      16.910818      5.4888782    
   4153000   1.0089821      16.64714       5.5016578    
   4154000   0.98074749     16.55617       5.4845073    
   4155000   1.0488204      16.485602      5.4243707    
   4156000   1.0221732      16.595101      5.4630568    
   4157000   1.0001094      16.178506      5.4417937    
   4158000   1.0642019      16.563064      5.4485538    
   4159000   0.98196729     16.74356       5.4287507    
   4160000   1.0018118      16.970419      5.406369     
   4161000   1.0070972      16.57163       5.4079471    
   4162000   0.97430457     17.007477      5.4394128    
   4163000   1.0072887      16.886975      5.4421118    
   4164000   0.99579634     17.018614      5.4158503    
   4165000   0.9954118      16.872702      5.3885507    
   4166000   0.96359583     17.089504      5.3862829    
   4167000   1.0499336      16.807257      5.3992146    
   4168000   1.0125424      16.727316      5.3765852    
   4169000   1.0167928      17.462427      5.3947964    
   4170000   1.0215535      17.022809      5.3720992    
   4171000   1.0302271      16.840085      5.4071954    
   4172000   0.99821372     16.992583      5.4509341    
   4173000   0.97675336     17.027807      5.4452701    
   4174000   1.0113265      16.318283      5.4517889    
   4175000   1.0419172      16.916809      5.4450938    
   4176000   1.0263752      17.232457      5.4178072    
   4177000   1.0252825      16.832659      5.4570158    
   4178000   0.97343059     16.342268      5.4267549    
   4179000   1.0199078      16.719783      5.4396101    
   4180000   1.0335254      16.878937      5.4732645    
   4181000   1.0045264      16.251135      5.4488832    
   4182000   0.98958512     16.493461      5.3900428    
   4183000   1.0111375      17.260084      5.3918428    
   4184000   1.0065306      16.621577      5.4171001    
   4185000   1.0569483      17.247872      5.4064577    
   4186000   1.0389856      17.012404      5.4064348    
   4187000   1.036943       16.938495      5.3970047    
   4188000   0.95915558     17.011231      5.4152336    
   4189000   0.99554171     16.810024      5.4244492    
   4190000   0.99459604     16.032012      5.4138113    
   4191000   0.99791007     16.648611      5.3670667    
   4192000   1.0643976      16.816812      5.3944049    
   4193000   0.9731208      16.642527      5.4044966    
   4194000   1.0307218      16.747126      5.4137905    
   4195000   1.0272445      16.796902      5.4016879    
   4196000   1.0064217      17.121048      5.4030937    
   4197000   0.99441532     16.621272      5.4071045    
   4198000   0.99549997     16.924463      5.411356     
   4199000   1.028474       17.211244      5.4051227    
   4200000   0.98531965     16.836912      5.4304935    
   4201000   0.98447933     17.047904      5.4367028    
   4202000   1.0000511      16.375941      5.4408492    
   4203000   0.97129566     16.562166      5.4093327    
   4204000   0.99219212     16.265297      5.4661958    
   4205000   0.97602924     16.94128       5.404577     
   4206000   1.030102       17.018571      5.4610052    
   4207000   1.0114183      17.522694      5.4078987    
   4208000   0.98261097     16.695249      5.3911003    
   4209000   0.9937015      17.000216      5.3810123    
   4210000   1.0172328      16.621836      5.4041853    
   4211000   0.98809783     16.76562       5.3977779    
   4212000   1.0055772      16.820754      5.405543     
   4213000   0.99953565     16.876132      5.3991435    
   4214000   0.98555081     17.308104      5.4136433    
   4215000   1.0104287      17.009812      5.413551     
   4216000   0.99947497     17.14768       5.3962888    
   4217000   0.95789997     16.03194       5.4302307    
   4218000   1.0107965      16.814825      5.4074486    
   4219000   0.982203       16.907542      5.4276268    
   4220000   1.0268915      16.593755      5.3961072    
   4221000   0.98403287     17.218992      5.3816693    
   4222000   1.0132778      16.561771      5.402255     
   4223000   1.0091521      16.66572       5.3748693    
   4224000   1.0088739      16.902076      5.3966746    
   4225000   1.0240495      16.912124      5.3799643    
   4226000   0.96119542     16.59063       5.3741272    
   4227000   1.016752       17.222906      5.390148     
   4228000   1.0122625      16.290411      5.4051092    
   4229000   0.94084692     16.68829       5.3995984    
   4230000   1.00469        17.046878      5.437601     
   4231000   0.9847531      17.295767      5.4267418    
   4232000   0.99856637     17.29917       5.4238416    
   4233000   0.99022172     16.663578      5.3807072    
   4234000   1.0191976      16.492472      5.4024015    
   4235000   1.0020542      16.220506      5.3742795    
   4236000   0.98061109     17.187011      5.4109002    
   4237000   0.98916954     16.972608      5.3960774    
   4238000   1.0028045      17.1522        5.3746131    
   4239000   1.0072877      16.648668      5.3907315    
   4240000   1.0100684      16.231809      5.4408117    
   4241000   1.0069428      16.917384      5.4095504    
   4242000   0.98027265     17.19485       5.4231046    
   4243000   1.0303082      17.183551      5.3950695    
   4244000   0.97129356     16.322687      5.3973953    
   4245000   0.99640924     16.945334      5.3753148    
   4246000   1.0035849      16.42126       5.4014834    
   4247000   1.0082574      16.808684      5.3930551    
   4248000   1.0062514      17.233009      5.3766538    
   4249000   1.0070808      16.548766      5.3930193    
   4250000   1.0007203      16.806627      5.3934671    
   4251000   0.98948665     16.658299      5.3729727    
   4252000   1.0188461      16.64687       5.3902293    
   4253000   1.0322402      16.759852      5.3891236    
   4254000   1.030047       17.058022      5.3708465    
   4255000   1.0431984      16.62459       5.3914434    
   4256000   0.98210075     16.999916      5.38507      
   4257000   0.99914418     16.937306      5.3711794    
   4258000   0.96310104     16.573306      5.4101149    
   4259000   0.98630076     16.745625      5.4206976    
   4260000   0.97948428     16.947248      5.4165555    
   4261000   1.0205651      16.402454      5.4024872    
   4262000   0.98170272     16.688221      5.408471     
   4263000   1.0115038      16.712019      5.4084486    
   4264000   0.98223598     16.749624      5.4166284    
   4265000   1.017087       16.329621      5.4257012    
   4266000   1.0073387      16.752595      5.4360321    
   4267000   0.96186944     17.063073      5.4070755    
   4268000   0.99348441     16.461348      5.4473264    
   4269000   1.0229148      17.660887      5.4012732    
   4270000   1.0311         17.022762      5.4598708    
   4271000   0.93010115     16.614789      5.4291569    
   4272000   1.0094321      17.287755      5.4474055    
   4273000   0.99635314     16.594915      5.3952263    
   4274000   1.0244984      17.200096      5.367178     
   4275000   0.97297571     16.08105       5.4085345    
   4276000   1.0258004      17.082678      5.4119501    
   4277000   1.0150603      17.053934      5.4290963    
   4278000   0.9720792      16.772688      5.4197785    
   4279000   0.9542944      16.712184      5.4106604    
   4280000   0.98035084     16.578288      5.4047992    
   4281000   0.96675183     15.893577      5.377686     
   4282000   1.0002691      16.604809      5.4113362    
   4283000   0.99414377     17.08559       5.3903462    
   4284000   0.96263301     17.231463      5.3595661    
   4285000   1.0099801      16.623412      5.3848969    
   4286000   0.99636891     16.541342      5.3859483    
   4287000   0.96087427     16.410955      5.4107508    
   4288000   1.0066891      16.598908      5.3871737    
   4289000   1.0346204      16.888101      5.3651736    
   4290000   0.96515024     16.3598        5.3670433    
   4291000   1.0076194      16.569493      5.3677761    
   4292000   1.0170625      16.812041      5.402829     
   4293000   1.0075347      16.771776      5.4022168    
   4294000   1.0109372      17.006396      5.383965     
   4295000   1.0073807      16.992885      5.4233443    
   4296000   0.98511223     16.673394      5.4055639    
   4297000   0.97956363     16.631241      5.3791046    
   4298000   1.0100325      17.017582      5.3759112    
   4299000   1.012726       16.724775      5.3857251    
   4300000   1.0387178      17.001186      5.3709998    
   4301000   1.0166484      16.678717      5.3491683    
   4302000   1.0005811      17.022601      5.3677132    
   4303000   1.0334475      16.870731      5.3816623    
   4304000   0.96973218     16.771377      5.3953717    
   4305000   0.9673573      17.169384      5.3969922    
   4306000   0.96234621     16.618801      5.3881598    
   4307000   1.0038764      17.260521      5.3547644    
   4308000   0.96560877     17.090104      5.3868086    
   4309000   1.0180426      16.705616      5.3839036    
   4310000   0.98837483     16.995117      5.3515625    
   4311000   1.0313178      16.84683       5.3446347    
   4312000   1.0191497      16.68656       5.3705236    
   4313000   1.0165365      16.704588      5.4076767    
   4314000   1.0059112      17.376963      5.3555766    
   4315000   1.0056375      16.532258      5.3908382    
   4316000   0.98893478     17.102777      5.359597     
   4317000   0.98567332     17.058119      5.3534577    
   4318000   1.0161636      16.60461       5.3823619    
   4319000   0.98793953     17.050634      5.379075     
   4320000   0.97157945     16.584573      5.3909015    
   4321000   0.99095573     16.724721      5.3997581    
   4322000   0.98530177     16.824695      5.3967786    
   4323000   1.034807       17.115414      5.3912786    
   4324000   1.010517       16.494707      5.4117537    
   4325000   1.0007597      16.389153      5.3851831    
   4326000   0.9934229      16.856512      5.3855655    
   4327000   1.0281423      17.098741      5.398549     
   4328000   0.96351181     16.960629      5.3779857    
   4329000   0.99306443     17.062054      5.3921807    
   4330000   0.98369853     16.83901       5.4177214    
   4331000   0.99612501     16.305877      5.4190423    
   4332000   0.97229549     16.629105      5.4013683    
   4333000   1.0316427      16.652598      5.3899031    
   4334000   0.97947689     16.395203      5.4128637    
   4335000   0.99985985     17.011057      5.4217768    
   4336000   0.98744852     16.926443      5.3597628    
   4337000   0.95124555     16.120344      5.430804     
   4338000   0.99432506     16.959275      5.3945575    
   4339000   0.97505372     16.327338      5.3828545    
   4340000   1.0241995      17.177072      5.3855004    
   4341000   0.97808018     16.312076      5.4229246    
   4342000   0.99368756     16.121853      5.4081284    
   4343000   0.9995509      16.539309      5.3994565    
   4344000   1.0068768      16.928857      5.4137385    
   4345000   0.97717163     16.94158       5.4170985    
   4346000   1.0028364      16.796266      5.3916797    
   4347000   0.99512177     16.30555       5.3964296    
   4348000   0.99415088     16.628265      5.4434872    
   4349000   1.0149154      16.863081      5.4346697    
   4350000   1.033916       16.569264      5.4037657    
   4351000   1.0113994      16.878854      5.3991375    
   4352000   1.0208685      16.797912      5.4367202    
   4353000   0.97010077     16.539139      5.4041281    
   4354000   1.0162027      17.011778      5.428438     
   4355000   1.0196109      16.624668      5.4295468    
   4356000   0.98652387     16.957953      5.4320772    
   4357000   1.0220972      16.235595      5.3892578    
   4358000   1.0318592      16.923804      5.4223551    
   4359000   1.0065626      17.344145      5.387437     
   4360000   1.0073126      17.144118      5.3975155    
   4361000   1.0448457      17.196675      5.3841315    
   4362000   1.0022262      16.986362      5.3794189    
   4363000   1.0464034      17.177523      5.3991864    
   4364000   0.99951193     16.427143      5.3786863    
   4365000   1.0005222      16.637112      5.3782171    
   4366000   0.97132573     16.871765      5.3828161    
   4367000   0.95047613     16.805782      5.3644527    
   4368000   0.96355845     16.54647       5.3770634    
   4369000   0.97028317     16.354527      5.4138444    
   4370000   0.9535493      16.378518      5.393478     
   4371000   1.0095468      16.682811      5.3991835    
   4372000   1.0266439      16.805059      5.398064     
   4373000   1.0131534      16.299081      5.3793517    
   4374000   0.96969028     17.254447      5.4023907    
   4375000   0.99005434     16.763576      5.4175548    
   4376000   0.98952682     16.858747      5.420443     
   4377000   0.99383174     16.59214       5.4201212    
   4378000   0.97860716     17.20286       5.404805     
   4379000   1.0179811      16.606654      5.4194992    
   4380000   0.99154529     16.183339      5.4029231    
   4381000   1.0166249      17.025046      5.3928365    
   4382000   0.99608246     17.531561      5.3762605    
   4383000   1.0355028      17.049923      5.3696268    
   4384000   1.0006834      16.445666      5.3764218    
   4385000   0.9758724      16.629813      5.3795859    
   4386000   1.0391899      16.792921      5.3911938    
   4387000   1.0286326      16.811902      5.4134894    
   4388000   1.0730942      16.928688      5.4074869    
   4389000   1.0173014      17.183068      5.4080509    
   4390000   1.0534168      16.84373       5.4110162    
   4391000   0.9864651      17.111624      5.3787891    
   4392000   1.0356941      16.855776      5.3495783    
   4393000   0.98523674     16.677189      5.3642925    
   4394000   1.0195361      16.469119      5.3898042    
   4395000   1.0073083      16.85821       5.4043196    
   4396000   0.98502604     16.708745      5.374313     
   4397000   1.0030061      16.981866      5.3685238    
   4398000   0.97503046     16.830512      5.370296     
   4399000   1.0192158      16.727494      5.3761472    
   4400000   0.98041196     16.679487      5.3780354    
   4401000   0.98841048     16.61027       5.3830175    
   4402000   0.93665145     16.592841      5.3887175    
   4403000   0.99182793     16.892352      5.3958243    
   4404000   1.0228147      17.170431      5.4059509    
   4405000   0.98767244     16.833253      5.4011021    
   4406000   0.99396274     16.157712      5.3777104    
   4407000   0.97187148     16.636667      5.3623934    
   4408000   0.98654439     16.540662      5.4167506    
   4409000   1.005656       16.862748      5.4062814    
   4410000   0.98987956     16.427564      5.4216307    
   4411000   0.94163073     17.04955       5.3710028    
   4412000   1.0041869      16.717844      5.4010049    
   4413000   1.0045187      17.452297      5.3837452    
   4414000   1.0078717      16.601304      5.4477831    
   4415000   1.05248        16.714716      5.3946527    
   4416000   1.0321084      16.946731      5.3934405    
   4417000   0.99832623     16.3151        5.3889686    
   4418000   1.0119023      17.156254      5.348046     
   4419000   1.0168373      17.128718      5.392086     
   4420000   1.0025119      16.612537      5.4071777    
   4421000   1.0086498      17.405585      5.3658979    
   4422000   1.0306933      17.149929      5.3683638    
   4423000   0.99279289     17.47629       5.3586654    
   4424000   0.97158056     16.642246      5.399922     
   4425000   0.99490655     16.769813      5.3816626    
   4426000   0.97606643     17.068435      5.356357     
   4427000   0.98906696     16.933252      5.3818085    
   4428000   1.0211445      16.615818      5.423569     
   4429000   1.0173         16.31757       5.4108241    
   4430000   0.97352916     16.814263      5.3943733    
   4431000   1.0450959      16.818539      5.4016227    
   4432000   1.0192339      17.022109      5.4049862    
   4433000   0.99051423     16.982789      5.3829611    
   4434000   0.93324895     16.836395      5.3781497    
   4435000   1.0022082      16.777057      5.3792814    
   4436000   1.0322431      16.928475      5.3939729    
   4437000   1.0182999      16.873356      5.359006     
   4438000   0.97850885     17.288746      5.3814615    
   4439000   0.99830075     16.908413      5.3874407    
   4440000   0.99473689     16.402688      5.3750293    
   4441000   0.98960771     16.388495      5.3715556    
   4442000   0.95491121     16.735981      5.3716202    
   4443000   1.0332177      16.95186       5.3784424    
   4444000   0.99933781     16.356022      5.4070802    
   4445000   1.0156746      17.025851      5.3734948    
   4446000   0.9980049      16.777032      5.3981513    
   4447000   1.0104866      16.891667      5.3836764    
   4448000   1.0022779      17.256838      5.3625225    
   4449000   0.99555696     17.332086      5.3537737    
   4450000   0.9882578      16.983746      5.3833894    
   4451000   0.96547174     16.810708      5.3583315    
   4452000   1.0018735      17.025143      5.3740441    
   4453000   0.99986541     16.411247      5.3986705    
   4454000   0.99372294     16.51813       5.3921458    
   4455000   1.0095854      16.689362      5.3865605    
   4456000   0.97742639     16.726288      5.3793159    
   4457000   0.99288196     16.816544      5.3940342    
   4458000   0.99194921     16.748463      5.3578494    
   4459000   0.99421715     16.696584      5.3485991    
   4460000   0.97522541     16.301551      5.4080105    
   4461000   1.0023831      17.048152      5.4167869    
   4462000   1.0109948      16.999128      5.4178213    
   4463000   1.0301078      16.919728      5.4226724    
   4464000   0.99379943     16.784424      5.3969648    
   4465000   0.96506485     17.047958      5.3790128    
   4466000   1.0115444      16.927382      5.3943087    
   4467000   0.97839851     16.761187      5.39098      
   4468000   0.96881858     17.139297      5.3921587    
   4469000   1.0072248      16.280365      5.3836865    
   4470000   1.0421179      16.845401      5.4080811    
   4471000   1.0267181      16.601018      5.4304355    
   4472000   1.0062739      16.289149      5.4460689    
   4473000   1.0353172      17.234725      5.3629437    
   4474000   0.99167791     16.402548      5.385158     
   4475000   1.0124072      16.686063      5.4172545    
   4476000   0.99746682     16.55209       5.472178     
   4477000   1.0172828      17.276684      5.4069218    
   4478000   0.98212448     16.559729      5.3853585    
   4479000   1.0184287      17.065328      5.3974888    
   4480000   0.9758582      16.87493       5.3671363    
   4481000   1.0321949      16.978806      5.4195401    
   4482000   1.0420128      17.165425      5.4273354    
   4483000   1.0077953      16.51466       5.3994783    
   4484000   0.97656014     16.945772      5.4081497    
   4485000   0.99178517     17.19038       5.375973     
   4486000   1.0021571      17.197129      5.3882534    
   4487000   0.98860099     16.425924      5.3649103    
   4488000   1.0334251      17.19039       5.3987933    
   4489000   1.0075769      16.297658      5.3741517    
   4490000   0.98078405     16.536146      5.3818755    
   4491000   1.0263776      16.535915      5.3885356    
   4492000   1.006232       16.489079      5.4162833    
   4493000   1.0126563      17.139476      5.4006828    
   4494000   0.98496456     17.209974      5.3481223    
   4495000   1.0117824      16.357229      5.3729148    
   4496000   0.99435873     16.45583       5.3768496    
   4497000   0.97689168     16.701884      5.3658475    
   4498000   0.96911189     16.784357      5.3951448    
   4499000   1.049674       17.248615      5.4234507    
   4500000   1.0133044      17.220061      5.3932143    
   4501000   0.98713277     16.631131      5.3843936    
   4502000   0.97567194     16.809561      5.3880656    
   4503000   1.0282793      17.033291      5.4069168    
   4504000   0.97219537     16.815122      5.3572971    
   4505000   1.0259183      16.997586      5.4067999    
   4506000   1.0461743      16.443346      5.3986254    
   4507000   1.0130077      17.040286      5.3877869    
   4508000   1.0037834      16.656427      5.4098616    
   4509000   0.98364368     16.741358      5.3771389    
   4510000   0.97731903     17.356692      5.3686278    
   4511000   0.98634188     16.470285      5.3552285    
   4512000   1.0115463      16.666693      5.3801255    
   4513000   0.95682022     16.753586      5.3599041    
   4514000   1.0029253      17.018128      5.4031689    
   4515000   0.99005658     16.305141      5.3574758    
   4516000   0.9981468      17.067765      5.3752423    
   4517000   0.95036756     16.913132      5.3795277    
   4518000   1.0294385      16.71323       5.3697187    
   4519000   1.0358616      16.46552       5.3782339    
   4520000   1.0004179      16.760643      5.4223309    
   4521000   1.0263112      16.795618      5.4014715    
   4522000   1.0108806      16.74477       5.3942694    
   4523000   1.0008191      16.633434      5.4093409    
   4524000   0.97961683     17.278264      5.4163874    
   4525000   1.0044658      16.773377      5.3988004    
   4526000   0.98682111     16.912777      5.4190635    
   4527000   0.97449908     16.46641       5.4009172    
   4528000   1.0263399      16.453793      5.3897715    
   4529000   0.99639139     16.991651      5.3594008    
   4530000   0.98593463     16.830131      5.3752588    
   4531000   0.96746059     17.278409      5.3722038    
   4532000   1.0124891      16.382716      5.4036739    
   4533000   1.0263882      16.614285      5.392943     
   4534000   1.00983        16.304497      5.3813458    
   4535000   0.97848634     16.87425       5.3850183    
   4536000   1.0147212      16.405404      5.392051     
   4537000   0.99935432     17.366932      5.4034517    
   4538000   0.98991894     17.091787      5.3656677    
   4539000   1.0000919      16.42296       5.4324551    
   4540000   1.0000532      16.980625      5.4306425    
   4541000   1.0011656      16.976589      5.3888693    
   4542000   1.0179111      16.7267        5.3711675    
   4543000   0.99257848     16.846981      5.3727532    
   4544000   0.96550947     16.378587      5.4152522    
   4545000   1.0250748      17.034975      5.3767799    
   4546000   0.99731148     16.873197      5.3747382    
   4547000   1.0071858      17.231712      5.3717403    
   4548000   1.0087195      16.379466      5.3881414    
   4549000   0.98134901     17.367584      5.3898483    
   4550000   0.95036163     16.729268      5.3719415    
   4551000   0.97637654     16.642754      5.3926528    
   4552000   0.97026912     17.034602      5.3971865    
   4553000   1.0187165      17.080946      5.3701844    
   4554000   1.010139       16.923262      5.3883768    
   4555000   0.99403936     16.900824      5.4013485    
   4556000   0.98930311     17.358665      5.3982736    
   4557000   1.0107232      16.913802      5.4053068    
   4558000   1.0178502      16.856046      5.3977418    
   4559000   1.0280506      17.122117      5.4035528    
   4560000   1.0002264      16.831883      5.4242132    
   4561000   1.0041192      16.589147      5.4136446    
   4562000   1.0166087      17.207279      5.4344698    
   4563000   0.9951884      16.637069      5.4021358    
   4564000   0.96976544     16.998371      5.3871913    
   4565000   0.98456667     16.714566      5.3582723    
   4566000   0.99487293     16.854586      5.3874726    
   4567000   0.96830735     16.373166      5.387049     
   4568000   1.0278555      17.037939      5.392464     
   4569000   0.99568024     16.491028      5.3919849    
   4570000   0.98589773     16.97976       5.3481898    
   4571000   1.0294152      17.034345      5.3415423    
   4572000   1.0281025      16.964916      5.3875003    
   4573000   1.0496722      16.759429      5.3776786    
   4574000   0.9810268      16.932514      5.3723019    
   4575000   0.99684945     16.85488       5.3710323    
   4576000   1.014493       17.680538      5.3548601    
   4577000   0.98947183     16.770257      5.3513288    
   4578000   0.99396502     16.471442      5.3587408    
   4579000   0.99678287     17.369775      5.344492     
   4580000   0.96297861     16.666706      5.3772429    
   4581000   0.98872565     16.591194      5.4158858    
   4582000   0.9919618      16.217748      5.3869005    
   4583000   0.9935045      16.954682      5.3976247    
   4584000   0.96464593     16.318271      5.4089652    
   4585000   0.98707278     16.787603      5.3630896    
   4586000   1.0317949      17.180648      5.3846933    
   4587000   0.99157916     17.012016      5.3879018    
   4588000   1.0231009      17.372532      5.375366     
   4589000   1.0056673      16.28334       5.4260405    
   4590000   1.0341651      16.636618      5.4190417    
   4591000   1.0370754      17.10269       5.37479      
   4592000   0.9819822      16.488507      5.4459574    
   4593000   1.0147282      16.979538      5.4108341    
   4594000   0.98225693     16.356703      5.4088159    
   4595000   1.0269518      17.127887      5.413001     
   4596000   0.99278466     16.809268      5.4042686    
   4597000   1.0424146      16.374902      5.4278258    
   4598000   1.001741       17.060789      5.3840155    
   4599000   0.99383673     16.276158      5.4004052    
   4600000   0.99608128     16.970115      5.3979473    
   4601000   1.0077941      16.485472      5.3698664    
   4602000   0.98109139     16.632048      5.351647     
   4603000   1.0325004      16.807182      5.3883388    
   4604000   1.0306255      17.087715      5.3932006    
   4605000   1.0071925      17.416451      5.3957452    
   4606000   0.98104041     17.171536      5.3649609    
   4607000   1.0133203      17.066559      5.3817315    
   4608000   1.0365658      16.858668      5.3691469    
   4609000   1.0121084      16.825898      5.3670394    
   4610000   1.0030411      16.274245      5.3378377    
   4611000   0.97269389     16.478455      5.3600393    
   4612000   0.97042554     17.01043       5.3681343    
   4613000   1.0114776      16.708139      5.3606193    
   4614000   1.0450996      16.703985      5.4035038    
   4615000   0.98972244     16.310191      5.3940759    
   4616000   0.96697265     16.851968      5.3456493    
   4617000   1.0069321      16.332718      5.3969388    
   4618000   1.018307       16.558304      5.3881361    
   4619000   1.0078668      16.800905      5.3929046    
   4620000   0.96684658     16.610957      5.4063814    
   4621000   1.0024514      17.177258      5.4073764    
   4622000   1.0115222      16.881014      5.3817249    
   4623000   1.0012564      17.201906      5.3829055    
   4624000   0.9939971      17.049085      5.3736558    
   4625000   0.97526545     16.727637      5.3868066    
   4626000   0.97282739     16.622023      5.3784899    
   4627000   1.0082646      16.554858      5.3688814    
   4628000   1.0073073      16.221626      5.3726965    
   4629000   0.98460115     17.147349      5.3800253    
   4630000   1.0229389      17.241487      5.3649959    
   4631000   0.99763836     16.47453       5.3517721    
   4632000   0.97073        16.675273      5.3768281    
   4633000   1.0107369      16.732167      5.3818822    
   4634000   0.9954342      16.86596       5.3700318    
   4635000   1.0345504      17.334842      5.3678358    
   4636000   0.9927678      17.231671      5.3692179    
   4637000   1.0414916      17.183407      5.3880763    
   4638000   0.99889644     16.727928      5.3982506    
   4639000   0.99054429     17.155713      5.3891821    
   4640000   0.9984887      16.50711       5.4014588    
   4641000   1.0108068      17.31491       5.3815608    
   4642000   0.98568771     16.778231      5.4185463    
   4643000   1.0027074      17.066603      5.3696841    
   4644000   0.98297391     16.98573       5.3593685    
   4645000   1.0011776      16.599796      5.3836708    
   4646000   1.0199893      16.790534      5.3632113    
   4647000   0.99969648     17.51603       5.3987206    
   4648000   0.96934465     17.05093       5.367631     
   4649000   0.98147935     16.566348      5.3906654    
   4650000   1.0401601      16.588246      5.383331     
   4651000   1.0219647      16.839363      5.3822348    
   4652000   1.0297266      17.440763      5.4212208    
   4653000   1.017166       16.514992      5.406875     
   4654000   0.97728497     16.671258      5.3688979    
   4655000   1.0370212      16.504852      5.3927061    
   4656000   1.017799       17.35595       5.4124324    
   4657000   0.98822523     16.806849      5.417488     
   4658000   0.96414362     16.791813      5.4056198    
   4659000   0.98197563     16.859474      5.4285231    
   4660000   0.99618629     17.164194      5.4148858    
   4661000   0.99530176     16.655905      5.4404456    
   4662000   1.0146055      16.525118      5.432371     
   4663000   1.0091829      16.806159      5.4166906    
   4664000   1.0222737      17.092413      5.4188926    
   4665000   1.0156901      16.691313      5.4205562    
   4666000   1.0733787      16.987836      5.4741163    
   4667000   0.98761368     16.618685      5.4312877    
   4668000   0.99696451     16.532622      5.433556     
   4669000   0.99073032     17.315122      5.4286767    
   4670000   0.96611368     16.516543      5.4297686    
   4671000   0.99506601     16.898901      5.4666072    
   4672000   0.96051962     16.329653      5.4270537    
   4673000   1.015594       17.035016      5.3950706    
   4674000   0.98228739     16.983213      5.3932381    
   4675000   1.0035351      16.479714      5.399886     
   4676000   1.002464       17.327519      5.3999154    
   4677000   0.99252206     16.739068      5.3945644    
   4678000   1.0096484      16.433184      5.3894467    
   4679000   0.98521659     16.428715      5.4285076    
   4680000   1.0310664      16.307409      5.4377027    
   4681000   1.0195697      16.541478      5.4195388    
   4682000   0.98736162     16.74651       5.3915839    
   4683000   0.9598705      16.661127      5.391194     
   4684000   1.034233       17.427091      5.4184219    
   4685000   1.0301513      17.084895      5.3639616    
   4686000   0.96259367     17.119149      5.3867033    
   4687000   0.98491993     16.827798      5.3898333    
   4688000   1.0347872      16.833511      5.3975027    
   4689000   0.98224494     17.044259      5.3781611    
   4690000   1.0083579      16.902713      5.3637264    
   4691000   0.96467893     16.602858      5.3951242    
   4692000   0.97650475     16.621461      5.3966406    
   4693000   1.0260973      16.373214      5.4233723    
   4694000   1.0006415      17.031824      5.4212097    
   4695000   0.98770957     16.503849      5.390753     
   4696000   0.9903914      16.79489       5.3814169    
   4697000   0.97469869     16.868285      5.3667705    
   4698000   1.039927       16.503445      5.4144148    
   4699000   0.96368525     16.734771      5.3677389    
   4700000   1.0166303      16.703631      5.4007       
   4701000   1.0088592      17.03692       5.3908358    
   4702000   1.0128963      16.821596      5.3743791    
   4703000   1.0073713      16.83728       5.3858448    
   4704000   0.97829226     16.518786      5.3956325    
   4705000   1.0274857      16.781327      5.4045106    
   4706000   0.99918925     16.975617      5.3631021    
   4707000   1.0117439      17.121017      5.3555671    
   4708000   0.99187477     17.214488      5.3385135    
   4709000   1.0062632      16.413821      5.3856587    
   4710000   1.0447152      16.74034       5.3731133    
   4711000   1.0072261      17.360304      5.3341576    
   4712000   1.023972       16.4772        5.3509582    
   4713000   1.0065555      17.151199      5.3648692    
   4714000   1.0173063      16.892927      5.3713997    
   4715000   0.99470458     16.111883      5.3884707    
   4716000   1.0086588      16.982575      5.3631004    
   4717000   0.99465544     17.063709      5.3779992    
   4718000   1.0116479      16.671807      5.3712047    
   4719000   1.0798026      16.702441      5.3900334    
   4720000   1.0000846      16.480767      5.3740092    
   4721000   1.0447691      16.509076      5.3729738    
   4722000   1.0087666      17.004987      5.3449484    
   4723000   1.0111529      16.503466      5.3717808    
   4724000   0.94903872     16.507645      5.3777796    
   4725000   1.0064041      16.555721      5.3793341    
   4726000   0.92320968     16.565949      5.3786711    
   4727000   0.9916883      16.921411      5.4014897    
   4728000   0.97963465     16.462827      5.3727175    
   4729000   1.0496126      17.659753      5.3605107    
   4730000   0.99831936     16.420961      5.3653169    
   4731000   1.0364188      17.239433      5.3805176    
   4732000   1.0135274      16.587584      5.3954044    
   4733000   1.0094085      16.835215      5.3988483    
   4734000   1.0179402      16.537492      5.4024602    
   4735000   0.99186048     16.822634      5.3883997    
   4736000   0.96728592     16.821945      5.3774911    
   4737000   1.0295446      16.586411      5.4058185    
   4738000   0.99802869     17.015752      5.3600789    
   4739000   0.98380887     16.679214      5.3714496    
   4740000   1.0462031      17.8063        5.3775538    
   4741000   1.0338398      17.155583      5.4070268    
   4742000   0.99926584     16.74142       5.3880232    
   4743000   0.98617852     17.570024      5.4033436    
   4744000   1.0414617      17.177364      5.3855331    
   4745000   1.0002629      16.996951      5.3967394    
   4746000   1.0126381      16.546141      5.3626944    
   4747000   0.98880133     16.525063      5.3688391    
   4748000   1.005087       16.670929      5.394511     
   4749000   1.0488095      16.952512      5.3612965    
   4750000   0.97854144     16.621203      5.394888     
   4751000   0.98153978     16.936985      5.3630096    
   4752000   0.98511359     16.806125      5.3855662    
   4753000   1.0528429      16.833191      5.3692539    
   4754000   0.98135382     16.746465      5.389015     
   4755000   0.99982363     16.663351      5.3980184    
   4756000   1.0154982      16.473828      5.3967115    
   4757000   1.0042455      16.778341      5.3753156    
   4758000   1.05181        16.886599      5.39368      
   4759000   1.0007348      16.333229      5.4259402    
   4760000   0.98229927     17.079962      5.4017       
   4761000   1.0157426      16.546531      5.407861     
   4762000   0.99917743     16.904346      5.4062327    
   4763000   1.0051211      16.268228      5.4189665    
   4764000   0.97722846     16.544537      5.3823229    
   4765000   0.99316311     16.839363      5.4105893    
   4766000   1.0282466      17.020691      5.3830583    
   4767000   0.98410479     16.718788      5.4106506    
   4768000   1.0224498      16.773408      5.4102676    
   4769000   0.98024353     16.914886      5.3939391    
   4770000   1.0178456      16.926792      5.390319     
   4771000   0.99630255     16.72557       5.3667221    
   4772000   1.0138221      16.527157      5.3780173    
   4773000   0.98214207     17.243105      5.3606793    
   4774000   1.0154033      16.827706      5.3875401    
   4775000   1.0125002      16.610028      5.4288679    
   4776000   1.0199601      16.711762      5.3957014    
   4777000   1.0054258      17.087749      5.3862521    
   4778000   1.0154933      16.992336      5.4040548    
   4779000   0.99112873     16.760752      5.3586846    
   4780000   0.97175527     16.415882      5.3653318    
   4781000   0.98832798     16.595315      5.4033503    
   4782000   1.0146329      16.395751      5.4085685    
   4783000   0.98148317     16.519021      5.4140603    
   4784000   0.97981222     16.535575      5.4102191    
   4785000   1.0348836      17.050818      5.3968767    
   4786000   1.0157442      16.949242      5.3766868    
   4787000   0.98322809     16.726211      5.4035285    
   4788000   1.0140281      16.723751      5.3898554    
   4789000   0.97347625     16.725285      5.380499     
   4790000   0.98906528     16.655576      5.3717629    
   4791000   1.0042586      16.846742      5.3934074    
   4792000   1.0151118      17.149772      5.4097021    
   4793000   1.0111631      17.034255      5.4126064    
   4794000   1.0460832      16.545929      5.4161798    
   4795000   0.9747021      16.821671      5.4367295    
   4796000   0.99386617     16.957046      5.4014915    
   4797000   0.99456208     16.787054      5.3631274    
   4798000   1.0354343      16.619705      5.3851954    
   4799000   0.96697841     17.125414      5.3657326    
   4800000   1.0220259      16.828484      5.4003444    
   4801000   0.98167513     16.899423      5.3657946    
   4802000   0.99640429     16.636848      5.357893     
   4803000   0.99971903     17.060886      5.3833314    
   4804000   1.0052034      16.792605      5.343021     
   4805000   1.0315867      16.899637      5.3801291    
   4806000   0.97410499     16.620113      5.3778883    
   4807000   0.98788368     16.675682      5.3746422    
   4808000   1.0007046      16.867745      5.3518832    
   4809000   0.96839613     16.303928      5.3690565    
   4810000   1.0324187      16.720987      5.3535209    
   4811000   0.98483085     16.978273      5.4043384    
   4812000   0.983571       16.962658      5.3729051    
   4813000   0.98729055     16.827307      5.3683779    
   4814000   1.0249345      17.095861      5.3655168    
   4815000   1.0103063      17.168216      5.3749927    
   4816000   1.009341       16.979371      5.3944876    
   4817000   0.98623318     16.476516      5.3734209    
   4818000   1.0099211      16.640488      5.4132833    
   4819000   1.0242173      16.126567      5.4020337    
   4820000   1.0311942      17.274186      5.4073227    
   4821000   0.99498289     16.600044      5.3858172    
   4822000   0.98585223     16.992268      5.3719757    
   4823000   0.97663185     17.004176      5.3773618    
   4824000   0.99262636     16.723311      5.3786505    
   4825000   1.016726       16.617329      5.4040409    
   4826000   0.99492468     16.746426      5.392711     
   4827000   1.0368541      16.745365      5.4282152    
   4828000   1.0546241      17.144779      5.402998     
   4829000   0.99617725     17.061636      5.4275605    
   4830000   0.975967       16.674676      5.4005272    
   4831000   1.0054252      16.724174      5.4198364    
   4832000   0.98009773     16.337029      5.401446     
   4833000   1.0269639      17.366142      5.3671031    
   4834000   0.97670678     16.592003      5.4116942    
   4835000   1.0169272      17.206979      5.3879441    
   4836000   1.0061916      16.698153      5.4168191    
   4837000   0.99291135     16.837621      5.3972194    
   4838000   1.0285603      17.049174      5.4559079    
   4839000   0.96341403     16.525226      5.4978218    
   4840000   1.0054334      17.261029      5.441333     
   4841000   0.96632475     16.953207      5.4511175    
   4842000   1.0138437      16.388652      5.4621471    
   4843000   0.97341799     16.270083      5.4521094    
   4844000   0.97723817     16.898588      5.4150308    
   4845000   1.0163056      16.415601      5.4146458    
   4846000   1.0172214      16.553175      5.4361025    
   4847000   1.0189106      16.945994      5.405603     
   4848000   1.0279554      16.460318      5.4404299    
   4849000   1.0096162      16.682399      5.3855706    
   4850000   1.0667866      16.742604      5.3747615    
   4851000   0.95730215     17.07787       5.3605928    
   4852000   1.0114696      16.696664      5.3940152    
   4853000   1.0066041      17.137164      5.3626132    
   4854000   0.97023289     16.159406      5.3886884    
   4855000   0.97449002     17.203313      5.3993304    
   4856000   0.96215528     16.476072      5.3724976    
   4857000   0.99726251     16.730302      5.3828375    
   4858000   0.96473192     16.189728      5.3863526    
   4859000   0.97390317     16.725735      5.3907813    
   4860000   1.0026226      16.299455      5.4025582    
   4861000   0.96365188     16.915434      5.3823496    
   4862000   0.97538455     16.966661      5.3837958    
   4863000   0.99806552     16.951022      5.4254532    
   4864000   0.98971876     16.834595      5.3908906    
   4865000   0.99701378     17.25859       5.3580479    
   4866000   1.0062591      16.875099      5.4028659    
   4867000   1.0348017      16.759875      5.4104732    
   4868000   0.99947905     17.239398      5.3779555    
   4869000   0.99662232     16.797279      5.3853087    
   4870000   0.989791       16.333928      5.4081355    
   4871000   0.97241052     16.376781      5.3885769    
   4872000   0.99986844     17.355884      5.3915109    
   4873000   1.0259893      17.13425       5.3612336    
   4874000   0.96903671     16.887033      5.388339     
   4875000   0.98502632     16.580068      5.3812312    
   4876000   1.0271806      16.536078      5.3796413    
   4877000   0.99750975     16.606417      5.3752256    
   4878000   0.99811539     16.705557      5.3716116    
   4879000   0.98299349     16.833654      5.3738479    
   4880000   0.97226037     16.579027      5.3735492    
   4881000   1.0360743      16.7358        5.3677081    
   4882000   0.95260234     17.440965      5.3724064    
   4883000   0.98248176     16.770845      5.3794182    
   4884000   1.0007099      17.612728      5.3545508    
   4885000   1.0693446      17.235177      5.4017466    
   4886000   1.0213117      16.899068      5.3801586    
   4887000   0.96101034     16.940896      5.3968565    
   4888000   0.99458012     17.043669      5.3682306    
   4889000   0.98708844     16.65279       5.3779764    
   4890000   0.99359202     16.668672      5.3930052    
   4891000   0.98197287     16.476955      5.3872936    
   4892000   0.97719275     16.751288      5.3946577    
   4893000   0.99733588     16.897927      5.41856      
   4894000   0.94882216     17.270673      5.3856497    
   4895000   1.0401474      16.966082      5.3967207    
   4896000   0.98000947     16.63646       5.3830268    
   4897000   0.99282455     16.516158      5.3917856    
   4898000   0.97328795     17.01121       5.4192145    
   4899000   1.053479       16.527697      5.4053064    
   4900000   1.0095992      17.45166       5.3940712    
   4901000   1.0081757      16.719141      5.3956917    
   4902000   0.96179323     16.450975      5.4090363    
   4903000   1.0030135      16.78262       5.4266121    
   4904000   0.96493913     16.631779      5.4258597    
   4905000   0.98098789     16.927782      5.4136485    
   4906000   0.99359625     16.696159      5.4191893    
   4907000   1.0396315      17.00511       5.4118831    
   4908000   0.97203948     16.033439      5.4262866    
   4909000   1.0232515      17.261146      5.3662861    
   4910000   0.92361634     15.896291      5.4238915    
   4911000   1.0183969      16.447108      5.3944491    
   4912000   1.0188869      17.49729       5.3498311    
   4913000   0.99130391     17.033653      5.3936769    
   4914000   0.96723956     17.069081      5.4031717    
   4915000   0.9921229      16.768363      5.4148708    
   4916000   1.0107789      16.615733      5.4110821    
   4917000   0.98304011     16.937047      5.3870056    
   4918000   0.99634983     16.975767      5.4086732    
   4919000   1.0318871      16.147376      5.4218905    
   4920000   1.0424965      17.129589      5.3990849    
   4921000   0.99728923     16.578235      5.4186416    
   4922000   0.97524773     16.668101      5.3873279    
   4923000   1.0182727      16.553016      5.3904772    
   4924000   1.0110977      16.604978      5.4502525    
   4925000   0.99760492     16.622512      5.3942024    
   4926000   0.92521842     16.146802      5.3914624    
   4927000   0.98855029     16.975656      5.412855     
   4928000   1.0227358      17.003011      5.3625243    
   4929000   1.0022762      17.159823      5.387179     
   4930000   1.0357909      16.756071      5.3843569    
   4931000   1.0122302      15.898973      5.3763575    
   4932000   1.01461        16.70288       5.3486698    
   4933000   1.0269707      16.486743      5.4108212    
   4934000   0.99191097     16.856549      5.4010688    
   4935000   1.0198783      16.777322      5.3886281    
   4936000   1.0004462      17.278615      5.3757645    
   4937000   0.97033738     16.616801      5.4144973    
   4938000   1.0140427      17.307822      5.4100959    
   4939000   0.95348222     16.659215      5.4336182    
   4940000   1.0086983      16.680723      5.390834     
   4941000   1.036041       17.148943      5.3981991    
   4942000   0.96523152     16.356757      5.4163337    
   4943000   0.99764834     16.961162      5.3997803    
   4944000   1.0114172      16.408337      5.3673858    
   4945000   1.0101973      16.843939      5.3947347    
   4946000   1.000684       16.60862       5.3532616    
   4947000   0.98235704     16.820025      5.4007521    
   4948000   1.0136404      16.891094      5.3551296    
   4949000   1.0068054      16.298203      5.3920763    
   4950000   0.99376432     16.58963       5.365941     
   4951000   1.0292758      17.40903       5.367056     
   4952000   0.94502078     16.654202      5.374084     
   4953000   1.0178353      16.224627      5.393579     
   4954000   0.98825294     17.738443      5.3988551    
   4955000   1.0480938      16.685143      5.4220725    
   4956000   1.0029418      16.557396      5.4460452    
   4957000   0.9957639      16.418684      5.4366125    
   4958000   1.0096152      16.606577      5.4349663    
   4959000   1.021605       16.871576      5.432746     
   4960000   0.91976038     16.795038      5.4402095    
   4961000   1.0111778      16.680602      5.4015944    
   4962000   1.0093275      16.602443      5.3694797    
   4963000   0.98871656     16.849818      5.3823553    
   4964000   0.96456937     16.539717      5.4143371    
   4965000   1.0336763      16.580825      5.3874706    
   4966000   0.98235346     16.736608      5.370015     
   4967000   0.99531301     17.047625      5.3920659    
   4968000   0.97986513     16.658169      5.3759399    
   4969000   0.99595237     16.643401      5.3886677    
   4970000   0.99633865     17.107252      5.3609605    
   4971000   1.0111283      17.191206      5.4146773    
   4972000   0.98224866     16.428101      5.3955133    
   4973000   1.0373004      16.673671      5.4304461    
   4974000   1.0583913      17.243031      5.4280001    
   4975000   0.98473009     16.607601      5.4018518    
   4976000   1.0102304      16.526377      5.3951366    
   4977000   1.0174791      17.037552      5.4048276    
   4978000   1.0227055      16.634377      5.4148951    
   4979000   0.998852       17.159773      5.4366546    
   4980000   1.0640324      17.024193      5.4154002    
   4981000   0.99101362     16.376588      5.4069284    
   4982000   0.95455122     16.389104      5.3886597    
   4983000   1.0101316      17.338244      5.4044201    
   4984000   1.0078152      16.988517      5.3853049    
   4985000   0.99825301     16.26562       5.3851305    
   4986000   0.97624317     16.44886       5.3632709    
   4987000   1.0013712      16.264364      5.3880656    
   4988000   1.0497888      16.89862       5.3683452    
   4989000   1.0225108      17.508462      5.3503335    
   4990000   1.0088606      16.805347      5.34841      
   4991000   1.0316582      17.051498      5.3905239    
   4992000   0.96750028     16.686909      5.4022271    
   4993000   0.99590207     17.414192      5.4070428    
   4994000   0.98525629     17.269345      5.3618826    
   4995000   1.0047644      17.132936      5.3580574    
   4996000   0.97329442     16.792006      5.3875773    
   4997000   0.99424858     16.626139      5.3447223    
   4998000   1.0120767      17.051996      5.3586675    
   4999000   0.99961161     17.414499      5.4008661    
   5000000   1.0335248      17.067303      5.3996097    
   5001000   1.0295755      17.092803      5.3953994    
   5002000   0.99004219     17.2197        5.3870136    
   5003000   0.99224477     16.486267      5.3768657    
   5004000   0.99074637     16.44066       5.3799032    
   5005000   1.0286364      16.431005      5.4002389    
   5006000   0.96755097     16.69155       5.383968     
   5007000   0.98019282     16.925283      5.3662819    
   5008000   0.99419292     16.557144      5.3846748    
   5009000   1.0174739      17.026632      5.368796     
   5010000   0.9682472      16.336154      5.37783      
   5011000   1.0039789      16.499895      5.3614032    
   5012000   1.0188618      16.868244      5.3534447    
   5013000   1.0250954      16.57884       5.3614926    
   5014000   0.98140983     16.393348      5.3894518    
   5015000   1.0302628      16.693602      5.4129012    
   5016000   1.0127881      17.146931      5.3904447    
   5017000   0.92607639     16.374561      5.4011111    
   5018000   1.0347598      16.560437      5.4128785    
   5019000   0.98977762     16.706948      5.38109      
   5020000   1.0142451      16.420492      5.3459064    
   5021000   1.0496514      16.951942      5.3966532    
   5022000   1.0063907      16.673523      5.3735595    
   5023000   1.0169013      17.035742      5.3959793    
   5024000   1.0161152      16.844462      5.3932393    
   5025000   0.99333592     16.860445      5.4091773    
   5026000   0.99643391     16.783796      5.3710256    
   5027000   1.0202001      16.718826      5.4094952    
   5028000   1.0013432      16.637655      5.3722586    
   5029000   0.99956646     16.301837      5.3998849    
   5030000   0.99990086     17.150288      5.4256706    
   5031000   1.0063426      16.469005      5.3986129    
   5032000   0.99293423     17.215956      5.4086696    
   5033000   0.9852032      16.941577      5.4318087    
   5034000   0.96164144     17.020631      5.3954371    
   5035000   0.98880964     16.180254      5.4013284    
   5036000   0.97096645     16.822703      5.3720789    
   5037000   0.94072434     16.646943      5.3909489    
   5038000   0.99301132     16.801739      5.3931032    
   5039000   0.9590618      16.643924      5.3781077    
   5040000   0.99372208     16.694985      5.3729765    
   5041000   0.99747294     16.427288      5.4072409    
   5042000   1.0221475      16.742495      5.3790547    
   5043000   0.98820189     16.352323      5.4201487    
   5044000   1.0120278      17.077958      5.3668951    
   5045000   0.98673596     16.334546      5.3795871    
   5046000   0.98454455     16.979861      5.3731673    
   5047000   1.0004155      16.374122      5.3706244    
   5048000   0.99453368     16.296314      5.4126513    
   5049000   0.99078603     16.484036      5.3993638    
   5050000   1.0213403      16.621275      5.4006784    
   5051000   1.0445227      17.588298      5.3554078    
   5052000   1.0228397      16.428356      5.4210868    
   5053000   1.001207       16.640261      5.4009162    
   5054000   0.98454112     17.189969      5.4010137    
   5055000   1.0022345      16.507225      5.3722234    
   5056000   1.0308729      16.522794      5.3890918    
   5057000   0.96979458     17.002764      5.4171657    
   5058000   1.0071382      16.838369      5.3878106    
   5059000   1.014632       17.086325      5.3883491    
   5060000   1.0024162      16.384398      5.4220464    
   5061000   1.0119857      16.681899      5.3835318    
   5062000   1.0147032      17.314855      5.4045772    
   5063000   0.98693829     16.581776      5.4320829    
   5064000   1.0085639      16.966563      5.3895717    
   5065000   0.98857769     16.216468      5.4277412    
   5066000   1.0178644      16.483602      5.401688     
   5067000   1.0121005      16.991674      5.4123914    
   5068000   0.97291389     16.54545       5.4021757    
   5069000   1.0106708      17.442357      5.3583903    
   5070000   0.95419151     16.69334       5.3596217    
   5071000   1.0395138      16.560007      5.3943881    
   5072000   1.0023527      16.706558      5.3896855    
   5073000   1.0309009      16.828423      5.4125578    
   5074000   0.99202493     17.27595       5.4197394    
   5075000   1.0279939      16.874264      5.4128267    
   5076000   1.0180461      17.198229      5.4115796    
   5077000   1.014737       16.717812      5.3905307    
   5078000   0.98832717     16.669916      5.375558     
   5079000   0.97163989     16.2961        5.3731264    
   5080000   0.98530895     16.988521      5.3774759    
   5081000   0.99577601     17.301353      5.3596729    
   5082000   0.97787096     16.7543        5.414224     
   5083000   0.9993949      16.43679       5.4497977    
   5084000   0.97922546     16.918914      5.4008011    
   5085000   1.0059118      16.996786      5.4101635    
   5086000   0.9475887      16.677482      5.3946488    
   5087000   0.94683905     17.059072      5.4102285    
   5088000   0.98408686     17.129448      5.3707445    
   5089000   0.97336204     16.729536      5.4286611    
   5090000   1.0073994      16.275689      5.3830744    
   5091000   0.99859455     16.925845      5.4015682    
   5092000   0.98859899     16.069223      5.4089433    
   5093000   1.0271303      16.858469      5.3785137    
   5094000   0.99856807     17.205537      5.3640371    
   5095000   0.985021       16.643795      5.3712061    
   5096000   0.96605465     16.69097       5.3977552    
   5097000   1.0064877      17.115575      5.3713069    
   5098000   1.0016536      16.509414      5.3881606    
   5099000   0.99727129     16.575044      5.3594711    
   5100000   1.0086855      16.289781      5.3543081    
Loop time of 6898.81 on 4 procs for 5000000 steps with 1200 atoms

Performance: 626194.513 tau/day, 724.762 timesteps/s
146.6% CPU use with 2 MPI tasks x 2 OpenMP threads

MPI task timing breakdown:
Section |  min time  |  avg time  |  max time  |%varavg| %total
---------------------------------------------------------------
Pair    | 211.97     | 1381.8     | 2551.6     |3147.0 | 20.03
Bond    | 33.058     | 88.033     | 143.01     | 585.9 |  1.28
Neigh   | 3761.9     | 3761.9     | 3762       |   0.0 | 54.53
Comm    | 114.93     | 749.65     | 1384.4     |2318.2 | 10.87
Output  | 13.934     | 14.075     | 14.216     |   3.8 |  0.20
Modify  | 62.184     | 168.39     | 274.6      | 818.5 |  2.44
Other   |            | 735        |            |       | 10.65

Nlocal:            600 ave        1200 max           0 min
Histogram: 1 0 0 0 0 0 0 0 0 1
Nghost:              0 ave           0 max           0 min
Histogram: 2 0 0 0 0 0 0 0 0 0
Neighs:         174102 ave      348204 max           0 min
Histogram: 1 0 0 0 0 0 0 0 0 1

Total # of neighbors = 348204
Ave neighs/atom = 290.17
Ave special neighs/atom = 1.9983333
Neighbor list builds = 45777
Dangerous builds = 0

# This simulation is done
# Move onto the next one
clear
  using 2 OpenMP thread(s) per MPI task
package omp 0
using multi-threaded neighbor list subroutines
next f
jump SELF

Total wall time: 8:55:48
