#atom_style bond #no stiffness
atom_style angle #with stiffness

boundary        p p p
###
# Pair interactions require lists of neighbours to be calculated
###

#neighbor 0.3 bin
neighbor 4 bin

neigh_modify every 1 delay 1 check yes
atom_modify sort 0 0
### Generate RESTART file, SPECIAL format, not a .txt file ###
### Useful if simulation crashes ###

restart 1000000 linear/restarts/$f.restart
restart 1000000 linear/restarts/bb800nuc0bl0bn0d30tot800.restart
#############################



### READ "start" data file ###

read_data linear/$f.dat
read_data linear/bb800nuc0bl0bn0d30tot800.dat
Reading data file ...
  orthogonal box = (-1000 -1000 -1000) to (1000 1000 1000)
  1 by 1 by 2 MPI processor grid
  reading atoms ...
  800 atoms
  scanning bonds ...
  1 = max bonds/atom
  scanning angles ...
  1 = max angles/atom
  reading bonds ...
  799 bonds
  reading angles ...
  798 angles
Finding 1-2 1-3 1-4 neighbors ...
  special bond factors lj:    0        0        0       
  special bond factors coul:  0        0        0       
     2 = max # of 1-2 neighbors
     2 = max # of 1-3 neighbors
     4 = max # of 1-4 neighbors
     6 = max # of special neighbors
  special bonds CPU = 0.001 seconds
  read_data CPU = 0.053 seconds

######################

### READ "REstart" data file ###

######################



###
# Define groups (atom type 1 is group 'all')
###
group all type 1
800 atoms in group all


###
# Dump configs - "simple dumpings"
###

###
# Dump configs + box coords
###

dump   1   all   custom   1000  linear/trjs/$f.lammpstrj  id  x y z  ix iy iz
dump   1   all   custom   1000  linear/trjs/bb800nuc0bl0bn0d30tot800.lammpstrj  id  x y z  ix iy iz
dump_modify   1   format line "%d %.5f %.5f %.5f %d %d %d"

########################################################################


###################################################################
# Stiffness term
#
# E = K * (1+cos(theta)), K>0
#
angle_style   cosine
#change this coefficient to change stiffness (e.g. 1,5,10)
angle_coeff   1 1.0
###################################################################

###################################################################
# Pair interaction between non-bonded atoms
#
#  Lennard-Jones 12-6 potential with cutoff:
#  potential E=4epsilon[ (sigma/r)^12 - (sigma/r)^6]  for r<r_cut
#
#  1.12246 = 2^(1/6) is the minimum of the potential


pair_style      lj/cut 1.12246152962189
#pair_style      lj/cut 3

#
#  pair_modify shift yes adds a constant to the potential such

#  that E(r_cut)=0. Forces remains unchanged.
#

pair_modify     shift yes

#
#  pair_coeff for lj/cut, specify 4:
#    * atom type interacting with
#    * atom type
#    * epsilon (energy units)
#    * sigma (distance units)
#

pair_coeff      1 1 1.0 1.0
###################################################################

###################################################################
# Pair interaction between non-bonded atoms
#
#  soft potential, for PUSHING apart overlapping atoms
#  potential E=A*(1 + cos(pi*r/r_c))
#
#  1.12246 = 2^(1/6) is the cut-off r_c

#pair_style     soft 1.12246152962189

#
#  pair_coeff for soft, specify 3:
#    * atom type interacting with
#    * atom type
#    * A
#
#

#pair_coeff      1 1 100.0
###################################################################

###################################################################
# Pair interaction between bonded atoms
#
# Fene potential + Lennard Jones 12-6:

#
#  E= - 0.5 K R0^2 ln[ 1- (r/R0)^2]
#     + 4epsilon[ (sigma/r)^12 - (sigma/r)^6] + epsilon
#

bond_style   fene


#
# For style fene, specify:
#   * bond type
#   * K (energy/distance^2)
#   * R0 (distance)
#   * epsilon (energy)  (LJ component)
#   * sigma (distance)  (LJ component)
#


special_bonds fene #<=== I M P O R T A N T (new command)
Finding 1-2 1-3 1-4 neighbors ...
  special bond factors lj:    0        1        1       
  special bond factors coul:  0        1        1       
     2 = max # of 1-2 neighbors
     6 = max # of special neighbors
  special bonds CPU = 0.000 seconds

bond_coeff   1   30   2   1.0   1.0


###################################################

###################################################################
# Pair interaction between bonded atoms
#
# Harmonic potential:
#
#  E= K * (R-R0)^2
#

#bond_style   harmonic

#
# For style harmonic, specify:
#   * bond type
#   * K (energy/distance^2)
#   * R0 (distance)
#

#bond_coeff   1   60.0   1.0
#bond_coeff   2   harmonic 0.1   1.0

###################################################
compute 1 all gyration
variable rog equal c_1
#compute 2 all coord/atom cutoff 1.1

#dump 2 all custom 10000 contact_number.dump id c_2


###
# Set up fixes
###
thermo_style   custom   step  temp enthalpy c_1
fix 1 all nve   ###NVE ensemble

fix 2 all   langevin   1.0 1.0 1.0  100103   ###Langevin integrator Tstart Tstop 1/friction rndseed


##### Sample thermodynamic info  (temperature, energy, pressure, etc.) #####
thermo 1000









############################################################################

###
# set timestep of integrator

timestep 0.01

###
# run integration for a number of steps
###
#run 0
#variable r equal c_1
#if "$r < 63.1" then "quit 1"

# lj potential minimum, cause molecule to explore
run 100000
Generated 0 of 0 mixed pair_coeff terms from geometric mixing rule
Last active /omp style is angle_style cosine/omp
Neighbor list info ...
  update: every = 1 steps, delay = 1 steps, check = yes
  max neighbors/atom: 2000, page size: 100000
  master list distance cutoff = 5.1224615
  ghost atom cutoff = 5.1224615
  binsize = 2.5612308, bins = 781 781 781
  1 neighbor lists, perpetual/occasional/extra = 1 0 0
  (1) pair lj/cut/omp, perpetual
      attributes: half, newton on, omp
      pair build: half/bin/newton/omp
      stencil: half/bin/3d
      bin: standard
WARNING: Communication cutoff 5.12246152962189 is shorter than a bond length based estimate of 5.455. This may lead to errors. (src/comm.cpp:723)
Per MPI rank memory allocation (min/avg/max) = 939.6 | 940.2 | 940.9 Mbytes
   Step          Temp         Enthalpy         c_1      
         0   0              13.409724      200.00029    
      1000   0.99171727     18.825931      199.67731    
      2000   1.0610907      19.06213       199.53635    
      3000   0.94739224     18.553207      199.15239    
      4000   1.0045466      18.859913      199.05985    
      5000   1.0093174      18.574857      198.7135     
      6000   1.0307328      19.091663      198.47608    
      7000   1.0417963      18.603426      198.35056    
      8000   1.0084666      19.00999       198.10894    
      9000   1.006673       18.673479      197.96068    
     10000   0.9945745      18.796894      197.67364    
     11000   0.9977723      18.97706       197.74486    
     12000   1.0390089      19.149861      197.6495     
     13000   1.0173149      19.048666      197.63153    
     14000   0.99901497     19.32865       197.28697    
     15000   0.95166551     18.854687      197.1251     
     16000   0.99086214     18.743013      197.00748    
     17000   0.99602365     18.59631       196.89496    
     18000   0.96827078     18.810302      196.84131    
     19000   0.96295085     18.614103      196.52936    
     20000   0.9964075      18.822454      196.20609    
     21000   1.0118437      18.896084      196.12462    
     22000   1.0215671      19.416194      196.14855    
     23000   0.99727223     18.734558      195.97222    
     24000   0.99214567     18.787517      195.94223    
     25000   0.98869021     18.89147       196.02987    
     26000   1.0240634      19.642118      195.91535    
     27000   0.91695308     18.390518      195.80274    
     28000   1.0307655      19.093851      195.44597    
     29000   1.0581725      19.44943       195.36815    
     30000   1.0386768      18.820764      194.94125    
     31000   1.0043148      19.142509      194.82564    
     32000   0.95033188     19.023249      194.4042     
     33000   0.99059193     18.408942      194.20353    
     34000   1.0115945      19.081747      194.19194    
     35000   0.98773869     19.241529      193.86863    
     36000   1.0250634      19.519126      193.61606    
     37000   1.0218741      19.617379      193.60253    
     38000   0.97763542     18.667921      193.79379    
     39000   0.99206053     19.368263      193.6172     
     40000   0.98830198     19.420266      193.45189    
     41000   0.98082122     19.257153      193.26435    
     42000   1.0296604      19.44996       193.06275    
     43000   1.0358106      19.544597      192.93735    
     44000   1.0079766      18.994721      192.75136    
     45000   0.97508454     19.358612      192.7965     
     46000   0.99244611     19.451337      192.74745    
     47000   1.0061983      19.317211      192.36525    
     48000   0.99361347     19.218217      191.93218    
     49000   1.0520436      19.098336      191.61739    
     50000   1.0335597      19.271408      191.12224    
     51000   1.013018       19.627451      190.76046    
     52000   0.97306719     19.172208      190.74844    
     53000   1.013977       19.46623       190.69607    
     54000   1.0458819      19.381989      190.43104    
     55000   0.98030295     19.604708      190.39872    
     56000   0.99375946     19.173138      190.30031    
     57000   1.0005379      19.228535      190.14625    
     58000   1.0116321      19.295218      189.86114    
     59000   0.97378252     18.881721      189.62534    
     60000   1.0281737      19.292967      189.24869    
     61000   1.01604        19.138916      189.11489    
     62000   1.0264155      19.084527      188.98053    
     63000   0.9880545      19.122959      188.86303    
     64000   0.99061153     19.613282      188.67704    
     65000   0.98126603     19.391131      188.41973    
     66000   1.0363667      19.116939      188.33099    
     67000   1.0125611      19.60476       188.1045     
     68000   1.0259715      19.748551      187.93581    
     69000   1.0041538      19.26793       187.90132    
     70000   1.0120163      19.523707      187.92879    
     71000   0.99123459     19.453563      187.55674    
     72000   0.93149642     19.312013      187.52028    
     73000   1.0190236      19.961054      187.12268    
     74000   1.0151486      19.715422      186.99662    
     75000   0.99239867     20.023544      187.07161    
     76000   1.0276773      19.786531      186.73291    
     77000   1.0145632      19.52114       186.6147     
     78000   1.0072663      19.480269      186.30785    
     79000   1.0150919      19.604446      186.23855    
     80000   1.0654929      20.183147      186.03992    
     81000   1.0202679      19.305996      185.82175    
     82000   0.95107888     19.404985      185.92781    
     83000   0.99954174     19.477318      185.81727    
     84000   0.96290687     19.181176      185.54971    
     85000   1.0035536      19.537637      185.1213     
     86000   0.98416654     19.5941        185.06839    
     87000   1.0127469      19.571868      184.8956     
     88000   1.0259594      19.697726      184.7464     
     89000   1.0130989      19.389595      184.58937    
     90000   1.0053831      19.802118      184.27147    
     91000   1.009444       19.894808      184.08244    
     92000   0.97801268     19.500076      183.90701    
     93000   0.98552449     18.962549      183.8918     
     94000   0.9788619      19.113452      183.70088    
     95000   1.0103034      19.450032      183.60444    
     96000   1.0018832      19.761676      183.63878    
     97000   1.003598       19.257649      183.2723     
     98000   1.0325921      20.335262      183.29427    
     99000   1.061914       19.191328      183.22856    
    100000   1.0450397      19.919351      183.41109    
Loop time of 229.985 on 4 procs for 100000 steps with 800 atoms

Performance: 375675.864 tau/day, 434.810 timesteps/s
103.5% CPU use with 2 MPI tasks x 2 OpenMP threads

MPI task timing breakdown:
Section |  min time  |  avg time  |  max time  |%varavg| %total
---------------------------------------------------------------
Pair    | 0.53218    | 0.53796    | 0.54375    |   0.8 |  0.23
Bond    | 1.0674     | 1.148      | 1.2286     |   7.5 |  0.50
Neigh   | 223.45     | 223.45     | 223.45     |   0.0 | 97.16
Comm    | 1.7446     | 1.7906     | 1.8365     |   3.4 |  0.78
Output  | 0.21522    | 0.21843    | 0.22164    |   0.7 |  0.09
Modify  | 1.9391     | 2.0963     | 2.2535     |  10.9 |  0.91
Other   |            | 0.7472     |            |       |  0.32

Nlocal:            400 ave         485 max         315 min
Histogram: 1 0 0 0 0 0 0 0 0 1
Nghost:          362.5 ave         410 max         315 min
Histogram: 1 0 0 0 0 0 0 0 0 1
Neighs:         1951.5 ave        2216 max        1687 min
Histogram: 1 0 0 0 0 0 0 0 0 1

Total # of neighbors = 3903
Ave neighs/atom = 4.87875
Ave special neighs/atom = 1.9975
Neighbor list builds = 1042
Dangerous builds = 0

# Replace lj potential, now collapse
pair_style      lj/cut 3

# Cutoff simul when gyration under 5
# Variable created with equal requires v_ + 'name'
fix 3 all halt 1000 v_rog < 5

run 5000000
Generated 0 of 0 mixed pair_coeff terms from geometric mixing rule
Last active /omp style is angle_style cosine/omp
Per MPI rank memory allocation (min/avg/max) = 939.6 | 940.3 | 940.9 Mbytes
   Step          Temp         Enthalpy         c_1      
    100000   1.0450397      19.48807       183.41109    
    101000   1.0391301      19.161603      183.23178    
    102000   0.98608435     19.402664      183.08476    
    103000   0.95249425     19.520206      182.65781    
    104000   0.98577237     19.284917      182.6529     
    105000   0.99170446     19.183962      182.34777    
    106000   1.0018432      19.235514      182.18152    
    107000   1.0538759      19.199931      182.0673     
    108000   0.9622134      19.02816       181.99564    
    109000   0.98156762     19.410538      181.93122    
    110000   1.0820226      19.770748      181.98758    
    111000   1.0167404      19.5655        181.74391    
    112000   0.98520256     19.906382      181.59757    
    113000   1.0454157      19.608857      181.80234    
    114000   0.96110882     18.880656      181.81709    
    115000   0.9737286      18.877451      181.73389    
    116000   1.0171909      18.946181      181.57907    
    117000   0.99821198     19.203575      181.70205    
    118000   0.97032981     19.341195      181.62135    
    119000   0.99746041     20.028453      181.40111    
    120000   1.0199923      19.440503      181.36633    
    121000   1.006525       18.909744      181.21246    
    122000   1.0005348      18.803063      181.10465    
    123000   1.0211084      19.523051      181.15945    
    124000   1.0293232      19.279734      180.96016    
    125000   0.98755975     19.096874      181.14555    
    126000   1.0144511      18.910885      181.12193    
    127000   1.0246625      19.651401      181.10975    
    128000   1.0311623      19.323223      181.03801    
    129000   1.0110047      19.191594      181.00584    
    130000   1.0035322      19.268882      180.87015    
    131000   1.0065979      19.302265      180.58764    
    132000   1.0579367      19.40797       180.25722    
    133000   0.99063272     18.894015      180.19882    
    134000   0.98267613     19.45346       179.99226    
    135000   1.0512026      19.284264      179.78498    
    136000   0.98428279     18.853087      179.68104    
    137000   1.0491181      19.252796      179.33843    
    138000   0.99188918     19.047791      179.18131    
    139000   0.99568071     19.458956      178.92949    
    140000   0.98486045     19.648022      178.66288    
    141000   0.99520888     19.199391      178.52936    
    142000   1.0326885      18.955078      178.26388    
    143000   1.0095035      19.719931      177.99555    
    144000   0.99462392     18.9637        177.67644    
    145000   1.0255935      19.1409        177.4039     
    146000   1.0400294      18.950411      177.48122    
    147000   1.0013337      19.122432      177.16256    
    148000   0.96122971     18.937591      177.09401    
    149000   1.0511282      18.900658      176.84407    
    150000   0.97703764     18.999281      176.67251    
    151000   1.0120544      18.964726      176.87296    
    152000   1.041156       18.592047      176.75447    
    153000   1.0078852      18.614826      176.60442    
    154000   0.98448826     19.388672      176.43383    
    155000   1.0532025      19.188438      176.11352    
    156000   1.0158873      19.079058      176.09419    
    157000   1.006558       19.528099      175.7316     
    158000   1.0214423      19.833326      175.7466     
    159000   0.99203398     19.263456      175.64002    
    160000   1.0361367      19.614864      175.29715    
    161000   1.013637       19.109138      175.26019    
    162000   0.9930574      18.938978      175.38603    
    163000   1.0361691      19.591108      175.19581    
    164000   1.0326296      19.06247       174.9388     
    165000   1.029004       19.207588      174.62723    
    166000   1.0256804      19.226596      174.47992    
    167000   0.99218779     19.330497      174.64704    
    168000   0.95881459     19.131309      174.56348    
    169000   0.96654313     18.854492      174.62727    
    170000   0.99080322     18.885011      174.44387    
    171000   0.99440686     18.467765      174.21372    
    172000   0.98367366     19.092674      174.10008    
    173000   0.99391121     19.379314      173.83889    
    174000   1.0295182      19.176541      173.58032    
    175000   1.011457       19.399692      173.41377    
    176000   1.0418378      18.920786      173.21829    
    177000   0.95960822     19.183007      173.26993    
    178000   1.0212708      19.074696      173.18684    
    179000   1.062671       19.097587      172.94514    
    180000   0.97256969     18.972848      172.90932    
    181000   1.0118667      19.410653      172.81392    
    182000   1.0019472      19.553456      172.55086    
    183000   1.0315707      19.051582      172.43744    
    184000   1.0321876      18.766945      172.53028    
    185000   1.0013328      19.029949      172.09098    
    186000   0.91064039     18.876763      172.27681    
    187000   1.0052622      19.36991       172.22236    
    188000   1.0147881      19.140543      171.9636     
    189000   1.0399948      19.464994      171.72361    
    190000   0.97504538     18.458647      171.53331    
    191000   0.96064053     18.983437      171.49094    
    192000   0.96029837     19.152307      171.10545    
    193000   1.0191813      19.281214      171.17086    
    194000   0.99974976     19.046449      171.06585    
    195000   0.9743603      18.932732      171.07833    
    196000   1.0255157      19.230755      170.76177    
    197000   1.0247434      19.039671      170.50897    
    198000   1.0336541      18.958714      170.19765    
    199000   0.99002735     19.362968      169.98931    
    200000   1.0238744      19.882061      169.97562    
    201000   1.0262837      19.157576      169.92025    
    202000   0.99936277     19.108462      170.04897    
    203000   0.95992905     18.79439       170.03077    
    204000   1.0502133      19.160255      169.80372    
    205000   0.97695831     19.045858      169.85727    
    206000   1.0149217      19.354406      169.80292    
    207000   0.99964602     18.527025      169.8739     
    208000   1.002195       18.861018      169.52711    
    209000   0.98289081     19.23046       169.42       
    210000   0.99113823     19.03165       169.19699    
    211000   0.96273134     19.569737      168.98182    
    212000   1.0373228      19.036349      168.78319    
    213000   1.0407136      18.996284      168.53747    
    214000   1.0089532      19.349489      168.38538    
    215000   1.0185215      19.250142      168.07361    
    216000   0.92804425     18.963768      167.89799    
    217000   1.0227118      19.19074       167.77154    
    218000   1.0009127      19.528816      167.61443    
    219000   0.9912799      18.766448      167.65734    
    220000   0.97362755     19.316433      167.50285    
    221000   1.0248017      19.148411      167.36722    
    222000   0.99846465     18.989878      167.36593    
    223000   0.9743266      19.166305      167.06978    
    224000   1.029363       19.066185      166.93977    
    225000   1.0171994      18.663065      166.7196     
    226000   1.0007837      19.081308      166.60362    
    227000   0.97249888     18.645665      166.58971    
    228000   1.0017713      18.745386      166.38543    
    229000   1.0104033      18.648454      166.39982    
    230000   0.99879901     19.067857      165.97271    
    231000   1.0082726      18.708544      165.99161    
    232000   0.97788046     19.304189      165.94844    
    233000   1.0222208      18.731023      165.81217    
    234000   0.99329668     19.248231      165.65819    
    235000   1.0564348      18.9642        165.70174    
    236000   1.0421802      18.965481      165.52375    
    237000   0.98581733     18.85156       165.309      
    238000   0.98375007     19.144343      165.16765    
    239000   0.97239481     19.375915      164.71318    
    240000   0.94730656     18.954642      164.61388    
    241000   0.99430774     19.379243      164.59734    
    242000   0.93647889     19.501819      164.50147    
    243000   0.93620843     18.902478      164.49574    
    244000   1.0106626      18.997465      164.49943    
    245000   1.0527099      19.274519      164.43931    
    246000   0.99569386     19.334572      164.41163    
    247000   0.94269259     18.841425      164.26917    
    248000   0.97709378     19.254082      164.28585    
    249000   1.0138656      19.486704      163.96612    
    250000   1.0234528      19.24877       163.62802    
    251000   1.0179599      19.513317      163.54284    
    252000   0.98431581     18.736915      163.62129    
    253000   0.99770724     18.91633       163.55624    
    254000   0.94622964     19.021813      163.46049    
    255000   0.99687598     18.616268      163.34516    
    256000   1.0103751      19.272866      163.35961    
    257000   0.99649742     18.837491      163.42371    
    258000   0.92970781     18.559637      163.50642    
    259000   1.0356408      19.148389      163.36037    
    260000   0.98150212     19.28574       163.10096    
    261000   1.0079561      18.716374      163.12093    
    262000   0.9885413      19.121702      163.02222    
    263000   0.99401465     19.084482      162.62933    
    264000   1.0319322      19.238684      162.21323    
    265000   1.0287071      18.914149      162.05089    
    266000   0.95746086     18.85551       162.07531    
    267000   0.98831303     18.84582       162.05049    
    268000   1.035289       18.73792       161.83037    
    269000   1.0372284      19.051185      161.70626    
    270000   0.9614345      18.88664       161.55602    
    271000   0.98467657     19.576206      161.22404    
    272000   0.99658049     18.302279      161.01866    
    273000   1.0045049      19.581195      161.07653    
    274000   1.0216494      18.998813      160.73747    
    275000   1.025476       19.190334      160.4886     
    276000   0.99489444     19.443229      160.33509    
    277000   1.0196602      18.797074      160.44837    
    278000   1.0100322      19.106751      160.38801    
    279000   1.0446962      19.203627      160.32736    
    280000   1.0253463      19.509654      160.30705    
    281000   0.99312419     18.985114      160.13919    
    282000   0.96647406     19.041933      160.00056    
    283000   1.0451335      19.517606      160.25994    
    284000   0.97406192     19.44644       160.0498     
    285000   0.99754796     19.186777      160.13592    
    286000   1.0078939      19.576897      160.26852    
    287000   1.0155083      19.501352      160.05278    
    288000   0.95758589     18.912508      159.89551    
    289000   0.9654087      19.572082      159.88648    
    290000   1.0399206      19.725493      159.57876    
    291000   1.0291104      19.112911      159.14069    
    292000   1.0258851      18.999291      159.28314    
    293000   1.0626902      18.745999      159.18597    
    294000   1.0575788      19.34906       159.19987    
    295000   0.99794566     19.143505      158.96396    
    296000   1.0454583      19.369818      158.98023    
    297000   1.0341581      19.54183       158.75338    
    298000   1.000998       19.099228      158.44059    
    299000   1.0081113      19.027633      158.67203    
    300000   0.96266064     18.654663      158.4109     
    301000   1.011304       19.238946      158.31204    
    302000   1.0305978      19.261594      158.254      
    303000   0.99717845     19.089259      158.13429    
    304000   0.96756818     18.752945      157.84859    
    305000   0.9683611      18.725602      157.85266    
    306000   1.0333168      18.885311      157.76686    
    307000   1.0309963      19.776303      157.43449    
    308000   0.97637783     18.757003      157.36987    
    309000   1.0240254      19.224141      157.21315    
    310000   0.98384743     18.677437      157.06284    
    311000   0.99630492     18.94155       156.90321    
    312000   0.93603541     18.458561      156.81423    
    313000   0.99259157     18.922317      156.86807    
    314000   0.98746329     18.749857      156.60414    
    315000   1.0122469      18.952742      156.50907    
    316000   1.001311       18.719837      156.51323    
    317000   0.99267599     19.518972      156.61632    
    318000   0.97992708     19.011224      156.30205    
    319000   0.99198922     19.446072      156.16997    
    320000   1.0412577      19.016873      156.21113    
    321000   0.97146317     18.959592      156.23377    
    322000   0.9807536      18.785984      155.86115    
    323000   1.0045255      19.441679      155.39924    
    324000   0.97649663     19.166879      155.26306    
    325000   0.94279804     18.844985      155.17815    
    326000   0.99886277     19.255053      154.83074    
    327000   1.009867       18.788005      154.57315    
    328000   1.0225444      18.679022      154.49077    
    329000   0.99835303     19.052047      154.06068    
    330000   1.0639109      18.871762      153.88426    
    331000   0.99338792     18.661935      153.85825    
    332000   1.0633327      19.598393      153.53741    
    333000   1.0063301      19.418086      153.36049    
    334000   1.0383122      18.644667      153.05647    
    335000   1.0161041      19.272486      152.59426    
    336000   1.0088174      18.838327      152.20219    
    337000   0.95189785     18.29029       152.29091    
    338000   1.0285865      19.126857      152.37406    
    339000   1.0042704      18.24507       152.45546    
    340000   1.0223866      19.174505      152.39185    
    341000   1.0336481      18.623972      152.25391    
    342000   0.97297593     19.084869      152.4082     
    343000   0.96523982     18.886044      152.29404    
    344000   1.0176641      19.248574      152.34334    
    345000   1.051184       19.210081      152.01901    
    346000   1.0100274      18.779679      152.11479    
    347000   1.0146252      19.31045       151.95123    
    348000   0.959396       18.385821      151.8354     
    349000   0.98949794     18.931946      151.27005    
    350000   1.0028348      19.000821      151.18945    
    351000   1.0145454      18.581002      150.87115    
    352000   0.98680043     19.120474      150.51751    
    353000   1.0627756      18.408034      150.46681    
    354000   0.99991972     18.839328      150.42685    
    355000   0.98835162     19.2314        150.24001    
    356000   0.98350625     19.171615      150.15932    
    357000   1.1063681      19.665774      150.15134    
    358000   1.0077585      19.244056      150.18622    
    359000   0.96058129     18.503321      149.92298    
    360000   1.0026705      19.007163      149.91691    
    361000   1.0477833      18.726859      149.90258    
    362000   0.98312038     19.307642      149.66927    
    363000   0.96291625     19.299648      149.49581    
    364000   1.0141582      19.446695      149.25709    
    365000   1.0208594      19.078324      149.00222    
    366000   1.0112733      19.035708      148.85194    
    367000   0.95200256     19.125198      148.72999    
    368000   1.0228248      18.686278      148.30683    
    369000   1.0040228      18.702923      148.36345    
    370000   0.98329392     18.701735      148.35061    
    371000   1.0172958      18.961324      148.33566    
    372000   0.98294028     18.052486      148.42829    
    373000   0.97577975     18.990331      148.41022    
    374000   1.017825       19.407172      148.51219    
    375000   1.0024167      18.40593       148.59895    
    376000   0.98447248     18.766489      148.72824    
    377000   0.97183943     18.406314      148.81388    
    378000   1.0065345      18.930907      148.71038    
    379000   0.9800953      19.409263      148.51812    
    380000   0.99579923     18.971644      148.49116    
    381000   0.91749215     18.580182      148.42156    
    382000   1.014261       18.880068      148.25503    
    383000   0.95955825     18.276843      148.07867    
    384000   1.0306629      19.006957      147.93612    
    385000   0.99949458     18.648157      147.55176    
    386000   0.9636169      18.876822      147.2913     
    387000   0.96451224     19.068821      147.24067    
    388000   1.0437343      18.952785      146.87666    
    389000   1.0016006      18.942856      146.69052    
    390000   1.0063588      19.226102      146.82173    
    391000   1.0346317      18.931747      146.71015    
    392000   1.0309714      19.20345       146.69897    
    393000   0.94848166     19.129091      146.46074    
    394000   1.0603958      19.074988      146.20035    
    395000   1.0536466      19.197349      146.04502    
    396000   1.0118867      18.190821      145.94175    
    397000   0.9877038      19.212433      145.94935    
    398000   0.9771015      18.675562      145.83477    
    399000   0.96710978     18.692669      145.664      
    400000   0.9929938      18.843761      145.42712    
    401000   0.98210072     19.636663      145.40908    
    402000   0.99433039     18.830645      145.49277    
    403000   1.006703       19.466484      145.38396    
    404000   1.0249486      18.703602      145.31951    
    405000   1.0311622      18.478076      145.17464    
    406000   0.99409879     17.994681      145.04714    
    407000   0.9641822      19.824781      144.82869    
    408000   1.0384357      18.557212      144.79648    
    409000   0.96851515     18.36745       144.54583    
    410000   1.0211805      19.263428      144.45898    
    411000   0.96838399     18.517627      144.2814     
    412000   1.0177385      18.730131      144.069      
    413000   1.0043609      18.791734      143.72224    
    414000   0.97802503     18.733402      143.51083    
    415000   0.99867432     18.508687      143.51492    
    416000   1.0334922      18.529392      143.45529    
    417000   1.0063407      19.174862      143.28845    
    418000   0.98166299     19.071954      143.03235    
    419000   0.9626445      19.280216      142.97654    
    420000   0.96631886     19.029001      142.80648    
    421000   1.0073544      18.358808      142.72145    
    422000   0.99727268     19.334745      142.81413    
    423000   1.0170606      19.093472      142.79215    
    424000   0.98861939     18.458731      142.6961     
    425000   0.961555       18.968341      142.87105    
    426000   0.96947022     18.762643      142.98788    
    427000   0.97838163     18.459497      142.67831    
    428000   0.94385081     18.600181      142.63873    
    429000   0.95688192     19.432212      142.54167    
    430000   0.98181466     18.877568      142.37548    
    431000   0.99420738     18.468395      142.09727    
    432000   0.98370393     18.687415      142.02901    
    433000   1.0064472      19.123294      142.14791    
    434000   0.97044528     18.588874      142.06382    
    435000   0.96856643     18.710873      141.96319    
    436000   1.0344031      18.801206      141.80888    
    437000   0.97000626     19.162443      141.83831    
    438000   1.0342495      18.455053      141.8382     
    439000   1.0560201      19.032217      141.98015    
    440000   1.0354721      19.300543      141.79028    
    441000   1.0333268      19.285825      141.71469    
    442000   1.0145436      19.033964      141.35335    
    443000   0.98606865     18.861089      141.39307    
    444000   0.98668196     18.791316      141.25412    
    445000   0.97002814     18.575333      141.07242    
    446000   1.0134068      18.709133      141.31391    
    447000   0.9774035      18.756314      141.41868    
    448000   1.0142894      18.862037      141.48967    
    449000   1.0046469      18.807497      141.4536     
    450000   0.98633783     18.475562      141.42588    
    451000   1.0086925      19.027998      141.63676    
    452000   0.99299713     19.285436      141.41732    
    453000   1.0010177      18.598885      141.58424    
    454000   1.0318287      18.684947      141.40931    
    455000   0.99355074     18.744023      141.38684    
    456000   0.99932042     19.863793      141.14594    
    457000   0.97360567     18.660602      140.52958    
    458000   0.97576375     18.593442      140.27237    
    459000   1.0353236      18.863304      140.45461    
    460000   0.98867313     18.906575      140.39341    
    461000   0.9860808      18.765494      140.07969    
    462000   0.98130544     18.437585      140.15364    
    463000   0.9926377      18.879643      139.86276    
    464000   0.96598621     18.62197       139.89977    
    465000   0.99430928     19.032027      139.53513    
    466000   1.0473241      19.103147      139.64994    
    467000   0.95470617     19.20025       139.50163    
    468000   0.99503824     18.908592      139.31987    
    469000   0.99977517     18.881446      139.16248    
    470000   0.9828071      19.196344      139.03071    
    471000   1.0156296      18.868521      139.10765    
    472000   1.0125885      18.057349      139.04716    
    473000   0.96798138     18.533472      138.69758    
    474000   0.96871035     18.791813      138.63107    
    475000   1.0066983      18.941459      138.80019    
    476000   1.0554456      18.859794      138.51249    
    477000   1.0424292      19.005807      138.11569    
    478000   1.0322841      18.854413      137.91939    
    479000   0.96320312     18.114476      137.68422    
    480000   1.047486       18.664609      137.77921    
    481000   1.0337958      18.967275      137.89634    
    482000   0.98740307     18.399837      138.06894    
    483000   0.99568954     18.940678      137.85291    
    484000   0.98093843     18.508583      137.63545    
    485000   1.0040366      19.226313      137.77438    
    486000   0.95423693     18.547525      137.68089    
    487000   1.0164069      18.819242      137.62616    
    488000   1.0193293      18.743151      137.27872    
    489000   1.0279112      18.797801      137.30799    
    490000   1.0057561      18.690484      137.08064    
    491000   1.0144857      18.824626      137.01832    
    492000   0.97047165     19.015006      136.84099    
    493000   1.0291729      18.370223      136.75665    
    494000   0.95682485     18.744498      136.61098    
    495000   0.9547406      18.540732      136.62245    
    496000   0.9785105      19.009429      136.41087    
    497000   1.0286623      18.654675      136.32491    
    498000   0.98631968     18.419273      136.26313    
    499000   0.98427367     19.015734      136.24702    
    500000   1.0167013      18.561072      136.12256    
    501000   0.99096464     18.501255      136.0032     
    502000   0.95143917     18.017512      135.86362    
    503000   1.0124323      19.215131      135.57495    
    504000   1.0206451      18.887774      135.68578    
    505000   0.98159358     18.632449      135.50496    
    506000   0.95984768     18.745482      135.42548    
    507000   0.95058123     19.020004      135.28599    
    508000   1.0436425      18.97974       135.04817    
    509000   0.97592544     18.906571      135.01644    
    510000   1.0067352      19.040499      135.06089    
    511000   1.0039262      18.055768      134.95444    
    512000   1.003988       18.584597      135.1197     
    513000   1.0409453      19.10046       135.08008    
    514000   0.97607041     19.050774      134.95479    
    515000   1.0082206      19.124433      134.83446    
    516000   0.97434984     18.661057      134.75194    
    517000   1.0218607      19.275139      134.60829    
    518000   1.0217548      18.313629      134.66698    
    519000   0.98892099     18.364662      134.66004    
    520000   1.0261973      18.812088      134.87296    
    521000   0.98724959     18.599784      134.74706    
    522000   1.0291178      18.260138      134.63101    
    523000   1.0360627      19.200893      134.25242    
    524000   0.98829832     19.043379      134.11453    
    525000   1.0360326      18.65694       133.74434    
    526000   0.99037275     18.739451      133.82512    
    527000   0.99977382     18.509291      133.6831     
    528000   0.98776851     18.437451      133.55354    
    529000   1.0275086      18.938422      133.28406    
    530000   0.9777424      18.73339       132.82939    
    531000   1.0389202      18.633298      132.84425    
    532000   1.0179255      18.866598      132.65856    
    533000   1.0399358      18.954687      132.70336    
    534000   0.99870287     18.852657      132.57231    
    535000   1.0231419      18.580261      132.5114     
    536000   1.0210152      19.073239      132.44527    
    537000   0.98990468     18.933452      132.27186    
    538000   1.0052351      19.088261      132.17995    
    539000   0.96014439     18.295693      132.18028    
    540000   1.0861483      18.438917      132.1728     
    541000   1.0453539      19.093535      132.24676    
    542000   0.96587278     18.861812      132.15664    
    543000   0.9791948      18.225405      132.2157     
    544000   0.99964251     18.60702       132.17636    
    545000   0.98711194     17.97541       132.30882    
    546000   1.0168224      18.7121        132.31895    
    547000   0.93106486     18.327645      132.26814    
    548000   0.97855187     19.088012      132.27617    
    549000   0.95638704     18.190472      132.15019    
    550000   0.98437555     19.136086      131.97978    
    551000   1.0004748      19.227055      131.83935    
    552000   1.0298022      18.489174      131.77908    
    553000   1.0436836      18.887834      131.78591    
    554000   0.97116059     18.522046      131.74675    
    555000   0.97972818     18.392141      131.6225     
    556000   0.97848856     18.250031      131.31396    
    557000   1.0328507      18.096188      131.0449     
    558000   0.97980918     18.226916      130.78574    
    559000   0.99190706     18.913053      130.30721    
    560000   1.0057328      18.675911      130.25101    
    561000   1.0180977      18.85677       130.18785    
    562000   1.0462954      18.759516      130.2471     
    563000   1.0520791      18.904238      130.12913    
    564000   0.99371698     18.840961      129.99325    
    565000   0.99491443     19.055365      129.7413     
    566000   1.0208303      18.28254       129.61958    
    567000   1.0144724      18.410767      129.49529    
    568000   0.99078511     18.686625      129.21727    
    569000   0.99463352     18.264843      128.91607    
    570000   0.9858227      18.896265      128.79291    
    571000   1.0179921      18.651666      128.66269    
    572000   1.0216479      18.862327      128.5303     
    573000   1.034567       18.717838      128.04417    
    574000   1.0072402      19.102042      128.11608    
    575000   1.0375973      18.605836      127.86233    
    576000   0.98179716     18.416467      127.69879    
    577000   0.99486001     18.8987        127.86047    
    578000   1.0375302      18.394076      127.84469    
    579000   1.008899       18.542706      128.0115     
    580000   0.99089131     18.52094       128.04674    
    581000   1.0329923      19.183763      128.17882    
    582000   0.98501142     18.147168      128.05836    
    583000   0.97195845     18.87934       127.85106    
    584000   1.0077015      18.939295      127.95316    
    585000   0.98116614     19.249078      127.81697    
    586000   1.0277684      18.777852      127.70921    
    587000   1.0455136      18.287855      127.40461    
    588000   0.96437056     18.659935      127.32104    
    589000   0.96947202     18.389742      127.15089    
    590000   1.0208897      18.434656      127.1349     
    591000   1.0033393      18.753134      127.00488    
    592000   1.0126797      18.547742      127.08704    
    593000   0.95988445     18.804459      126.86561    
    594000   1.0183216      18.808184      126.787      
    595000   0.9812565      18.270394      126.9471     
    596000   1.0054168      19.190692      126.62772    
    597000   0.99275642     18.524661      126.38212    
    598000   1.0059417      18.298833      126.11866    
    599000   0.97843918     18.907501      126.03936    
    600000   0.95949715     18.06226       125.93591    
    601000   1.0062669      19.374703      126.0138     
    602000   1.0275411      19.5132        125.9058     
    603000   1.0314682      18.996086      125.73056    
    604000   1.0220385      19.019338      125.60728    
    605000   0.96428639     18.122366      125.56221    
    606000   1.0159135      18.812272      125.51539    
    607000   0.99353411     18.08415       125.59815    
    608000   1.0114622      18.167904      125.4701     
    609000   1.0173407      18.428753      125.29879    
    610000   0.9571105      18.108741      125.25453    
    611000   1.0024169      18.918435      124.9233     
    612000   0.95734002     18.15363       124.96093    
    613000   1.0023602      18.461912      124.74407    
    614000   0.93719881     18.373352      124.37777    
    615000   1.0006913      18.936781      123.97523    
    616000   1.0208304      18.522399      123.92776    
    617000   0.96430383     18.758091      123.69959    
    618000   1.0372163      18.422164      123.5859     
    619000   1.0135568      18.531489      123.46791    
    620000   1.0046852      18.585388      123.39272    
    621000   0.98062912     18.307         123.36731    
    622000   1.0047036      18.752597      123.29095    
    623000   1.0238991      19.037179      123.03246    
    624000   0.96560826     18.397154      123.23635    
    625000   1.0042056      18.913067      123.00703    
    626000   1.0080565      18.307707      122.88983    
    627000   1.0456133      18.36574       122.80842    
    628000   0.97237703     18.3762        122.70972    
    629000   1.0204648      19.463372      122.53441    
    630000   1.005872       18.507869      122.47726    
    631000   1.010988       18.791979      122.44284    
    632000   1.0008769      18.779799      122.31952    
    633000   1.0635532      19.239424      122.13237    
    634000   0.9756621      18.151965      121.92228    
    635000   1.0041638      18.705607      121.88632    
    636000   1.0019786      18.285106      121.64405    
    637000   1.0253168      18.493943      121.60433    
    638000   1.0080083      18.318873      121.36389    
    639000   1.0282263      19.067338      121.24573    
    640000   1.0106689      18.554525      121.20376    
    641000   0.99571012     18.398056      121.25743    
    642000   0.9908103      18.193372      121.24451    
    643000   1.034724       18.750826      121.20917    
    644000   0.95967702     18.805856      121.3423     
    645000   0.98203742     18.443576      121.62246    
    646000   1.0534319      18.176634      121.44421    
    647000   1.0288953      18.832649      121.39759    
    648000   0.99194189     18.576611      121.55524    
    649000   0.97324064     18.362575      121.54113    
    650000   0.98490127     17.948051      121.54469    
    651000   0.96709009     18.662166      121.19969    
    652000   0.98935134     18.187922      121.23027    
    653000   0.99659101     18.438876      121.0964     
    654000   0.98349374     18.602282      121.22581    
    655000   1.0043159      18.668709      121.31038    
    656000   0.99967254     18.336957      121.16627    
    657000   0.99260375     18.024527      120.91952    
    658000   1.0581343      18.387634      121.11024    
    659000   0.99069663     18.618953      121.07072    
    660000   1.0036197      18.953477      121.04225    
    661000   0.99611002     18.350313      120.84384    
    662000   1.011021       18.145193      120.78684    
    663000   0.98949281     18.268768      120.98065    
    664000   0.99059508     18.370932      120.90911    
    665000   1.0295047      18.897523      120.9851     
    666000   0.99452515     18.589127      120.85488    
    667000   0.9350634      18.112062      120.62888    
    668000   0.98630338     18.613878      120.38328    
    669000   1.0014231      18.945248      120.15335    
    670000   0.98398259     18.234968      119.78508    
    671000   1.0029159      18.938787      119.7405     
    672000   1.0574765      18.507186      119.42905    
    673000   1.0144509      18.730026      119.55904    
    674000   1.0081958      18.54547       119.76739    
    675000   0.99261792     18.544331      119.81642    
    676000   1.008881       18.641054      119.98736    
    677000   1.0105309      18.873657      120.03033    
    678000   1.0085323      18.578848      120.05408    
    679000   1.0205078      17.86981       120.16493    
    680000   0.98413        18.480514      120.05828    
    681000   1.0028126      18.56449       119.83846    
    682000   0.98076612     18.274978      119.80463    
    683000   1.004396       17.945246      119.71358    
    684000   0.98391806     18.343679      119.57402    
    685000   0.98022644     18.396237      119.38288    
    686000   0.9562798      18.18666       119.5606     
    687000   1.0313569      18.881918      119.28582    
    688000   1.0288997      18.012984      119.18042    
    689000   1.004803       18.749969      119.08353    
    690000   0.94830694     18.079241      118.89904    
    691000   0.98963372     18.877517      119.01558    
    692000   1.0333009      18.396925      118.81713    
    693000   1.0032894      18.215723      118.90102    
    694000   1.0054514      18.586407      118.76875    
    695000   0.98492588     17.842647      118.47023    
    696000   1.0043746      18.511294      118.49308    
    697000   0.98753304     17.578483      118.54935    
    698000   1.0341236      18.618808      118.4398     
    699000   1.0085343      18.631677      118.31491    
    700000   1.0053821      18.559988      118.14179    
    701000   1.0124538      19.007374      118.14008    
    702000   1.024714       19.103593      118.30956    
    703000   0.98261874     18.574981      118.05391    
    704000   0.99199502     18.275626      118.08649    
    705000   0.98693273     18.232958      117.86039    
    706000   1.0295418      19.189733      117.62825    
    707000   0.99946234     18.229117      117.63229    
    708000   1.0395591      18.805179      117.47626    
    709000   0.97812887     18.6108        117.67633    
    710000   0.97512068     18.662275      117.50248    
    711000   0.96868922     18.273583      117.27716    
    712000   0.99467338     18.036613      117.25817    
    713000   1.0545523      18.67583       117.48721    
    714000   1.0071554      18.502445      117.33642    
    715000   1.0248015      17.992551      117.07442    
    716000   1.0593269      18.754549      116.79565    
    717000   0.9929698      18.436728      116.55455    
    718000   1.0418269      18.423826      116.50068    
    719000   0.99296034     18.990535      116.61676    
    720000   1.032086       18.878426      116.63233    
    721000   1.0040749      18.355086      116.50444    
    722000   0.94743054     18.650783      116.5775     
    723000   0.96725491     18.110276      116.7033     
    724000   1.0292159      17.929049      116.66591    
    725000   1.0052324      19.431887      116.46553    
    726000   0.93587023     18.517883      116.33612    
    727000   0.99188544     18.365368      116.18251    
    728000   1.0032273      18.541306      116.2134     
    729000   1.0179753      18.368377      115.95192    
    730000   0.97875694     18.21948       115.78579    
    731000   0.95515957     18.107186      115.59003    
    732000   0.9924898      18.95999       115.4556     
    733000   1.0200634      18.731257      115.18035    
    734000   1.027703       18.252072      115.1052     
    735000   1.0124545      18.367077      115.03767    
    736000   0.9938047      18.720854      115.03159    
    737000   1.0039866      18.489553      115.11683    
    738000   1.0095557      18.363998      115.00025    
    739000   1.0380535      17.866765      115.03372    
    740000   1.0036407      18.631213      114.87945    
    741000   1.0130732      18.416699      114.63872    
    742000   1.0188484      18.592134      114.51958    
    743000   0.99903497     18.272703      114.71183    
    744000   0.98567827     18.014736      114.69139    
    745000   1.007129       18.706927      114.62272    
    746000   1.0106645      18.597973      114.39078    
    747000   1.0150911      18.458009      114.1081     
    748000   0.98168954     18.420669      113.89876    
    749000   1.0080485      18.549996      113.85099    
    750000   0.98232117     18.079997      113.63126    
    751000   1.0323741      18.539713      113.53329    
    752000   1.0109756      18.423476      113.43577    
    753000   1.0199756      18.389342      113.39195    
    754000   0.95996731     18.414752      113.1337     
    755000   0.9754489      17.771758      113.0784     
    756000   0.9825855      18.440616      112.85206    
    757000   0.98322656     18.304776      112.81547    
    758000   0.97750235     18.808846      112.92215    
    759000   1.027553       18.299141      112.91482    
    760000   0.99132802     17.882714      112.73783    
    761000   0.96301172     17.642512      112.62578    
    762000   1.061456       18.778461      112.44265    
    763000   0.98126153     18.224048      112.29816    
    764000   0.95084502     18.330096      112.5125     
    765000   0.96844632     17.874086      112.52788    
    766000   1.0381998      18.483807      112.46313    
    767000   1.0256256      18.330999      112.4357     
    768000   0.94236628     18.116585      112.63628    
    769000   0.99774468     18.006472      112.47645    
    770000   1.0191673      18.792892      112.15459    
    771000   1.0681511      18.626469      112.14373    
    772000   1.0031188      18.4618        112.06919    
    773000   1.0104293      17.981283      111.67334    
    774000   0.97940747     18.566766      111.49087    
    775000   0.9789072      17.956823      111.76691    
    776000   1.108471       18.534862      111.51967    
    777000   0.98775876     18.343346      111.35798    
    778000   0.98088141     18.422231      111.25906    
    779000   0.98690951     18.867611      111.06211    
    780000   1.0324707      18.312742      111.05498    
    781000   0.9598227      18.678743      110.53598    
    782000   0.98775662     18.440561      110.30504    
    783000   0.99029263     18.057499      109.88905    
    784000   1.0578285      18.470358      109.95083    
    785000   1.0231597      17.77362       109.72272    
    786000   1.0021125      18.324114      109.80298    
    787000   1.029032       18.658217      109.57891    
    788000   0.98484913     18.20558       109.45764    
    789000   1.0222027      18.527079      109.46902    
    790000   0.96269894     18.647424      109.21236    
    791000   1.0456078      18.295599      108.90654    
    792000   1.0378996      18.336437      108.77335    
    793000   1.019461       18.473222      108.43346    
    794000   1.0677704      18.367853      108.23526    
    795000   1.0563617      18.395807      108.13922    
    796000   1.0059962      18.366939      108.1974     
    797000   0.95578925     17.866452      107.97342    
    798000   1.0045335      18.130865      107.64025    
    799000   1.0104059      18.823469      107.25588    
    800000   0.97068156     18.35126       107.12442    
    801000   1.0106619      18.482372      107.14932    
    802000   0.97626761     18.0179        107.31003    
    803000   0.97990553     18.33919       107.36903    
    804000   0.98821438     18.657729      106.99687    
    805000   0.96220932     18.811822      106.63713    
    806000   1.0321046      18.557038      106.57897    
    807000   0.96826405     19.030707      106.55847    
    808000   0.9888291      18.187559      106.5914     
    809000   1.0757795      18.507246      106.51733    
    810000   1.0158565      18.242614      106.42261    
    811000   1.0103307      18.203888      106.50224    
    812000   1.030876       18.581865      106.42104    
    813000   1.0043457      18.227164      106.18575    
    814000   0.95390942     17.850345      106.17688    
    815000   1.0098065      18.772503      106.17237    
    816000   1.0269618      18.03929       106.30378    
    817000   1.0276981      17.987105      106.45167    
    818000   1.0201484      18.569255      106.62915    
    819000   1.0332124      18.261663      106.57064    
    820000   1.0113857      18.405466      106.48381    
    821000   1.0145064      18.416512      106.51629    
    822000   1.0101089      18.190855      106.31068    
    823000   1.0061493      18.163172      106.00426    
    824000   1.0066412      18.633886      106.08002    
    825000   0.97249091     18.333079      106.02869    
    826000   0.98517309     18.070368      105.91762    
    827000   1.0075401      17.653428      105.72546    
    828000   0.97554056     17.80862       105.36442    
    829000   0.9852589      17.981718      105.13653    
    830000   1.0030698      18.499137      104.89958    
    831000   1.0043806      18.191553      104.75335    
    832000   1.0247969      17.831084      104.73131    
    833000   1.0006584      18.272355      104.81824    
    834000   0.96917638     17.913237      104.70212    
    835000   1.0070957      17.949772      104.54762    
    836000   1.0053412      18.575511      104.17976    
    837000   0.98582398     18.140707      103.98008    
    838000   0.98104585     18.257451      103.85026    
    839000   0.97696724     18.257802      103.50908    
    840000   0.99616516     18.320648      103.57248    
    841000   1.0134708      18.459203      103.50695    
    842000   0.99409549     18.783242      103.33186    
    843000   1.0224758      18.311767      103.11044    
    844000   0.9899861      18.521985      102.61741    
    845000   0.98280188     18.663079      102.48956    
    846000   1.0191671      18.084855      102.34337    
    847000   0.97209284     17.849207      102.46987    
    848000   0.98203645     18.181321      102.31255    
    849000   0.98978826     18.104491      102.08486    
    850000   0.93132235     17.76116       102.02965    
    851000   0.94479766     17.794806      101.80176    
    852000   1.0033906      18.769391      101.78476    
    853000   0.99194154     18.35422       101.77164    
    854000   1.0319089      19.08773       101.61661    
    855000   0.99706375     18.178858      101.43397    
    856000   1.0176553      18.129658      101.3649     
    857000   1.0244495      17.646926      101.06503    
    858000   1.0026279      18.20314       100.97368    
    859000   1.0117195      18.384001      100.66282    
    860000   0.9980405      18.305317      100.42916    
    861000   1.0701746      18.312714      100.13833    
    862000   1.030269       18.638763      100.00729    
    863000   1.0357881      18.676971      99.933502    
    864000   0.99542776     18.433503      99.828076    
    865000   1.0051899      17.946798      99.754461    
    866000   0.98361114     18.105594      99.601277    
    867000   1.0010621      18.376322      99.451432    
    868000   1.0301265      17.780878      99.173895    
    869000   1.0399347      18.35635       99.370457    
    870000   0.97898332     18.055198      99.308846    
    871000   1.0024475      18.19952       99.07345     
    872000   0.98824039     18.313541      98.971187    
    873000   0.97491836     18.481348      98.935188    
    874000   0.99781786     18.014635      98.627562    
    875000   1.0159818      18.6553        98.848587    
    876000   1.015349       18.745928      98.593427    
    877000   0.98458124     18.107936      98.812462    
    878000   0.93980719     18.446265      98.865425    
    879000   1.0281197      18.173589      98.841693    
    880000   1.0098104      17.844163      98.634867    
    881000   1.0079807      17.787245      98.646584    
    882000   1.0247712      18.217664      98.740723    
    883000   0.95917964     17.886386      98.686468    
    884000   1.0442623      18.368247      98.746106    
    885000   1.0059902      18.257642      98.442464    
    886000   0.99914446     18.247024      98.318048    
    887000   0.99863512     18.391335      98.321794    
    888000   0.97827299     18.248739      98.206694    
    889000   1.0368894      18.055858      98.387733    
    890000   0.97820801     17.727016      98.217421    
    891000   1.0441603      18.418406      98.033418    
    892000   1.0019173      18.234831      97.91902     
    893000   1.0010766      18.013776      97.613485    
    894000   1.0148083      17.883653      97.403512    
    895000   0.97786632     17.939497      97.36285     
    896000   1.04031        18.325401      97.091299    
    897000   0.99349347     17.940287      96.675513    
    898000   0.99868682     17.499647      96.702911    
    899000   0.99179174     18.245858      96.484778    
    900000   0.99327816     18.497461      96.643457    
    901000   1.0057559      18.250802      96.515212    
    902000   0.98108265     17.654174      96.269788    
    903000   0.98901046     17.487153      96.103844    
    904000   0.96167585     18.314636      95.893185    
    905000   1.0169745      17.80299       95.919057    
    906000   0.97882656     17.884256      95.883985    
    907000   0.98145105     18.48687       95.643811    
    908000   1.0501444      18.859361      95.414411    
    909000   0.983903       18.367099      95.325271    
    910000   1.0151038      17.748685      95.064233    
    911000   1.0238942      18.587494      94.959887    
    912000   0.95947452     18.133056      94.84728     
    913000   0.98442297     17.693099      94.826723    
    914000   0.99441023     18.409117      94.824405    
    915000   0.99340134     18.048886      94.58939     
    916000   0.97541883     18.394993      94.257426    
    917000   1.0192512      18.38401       94.163463    
    918000   0.92346142     17.580196      94.101454    
    919000   0.96017236     17.704755      94.036472    
    920000   1.02048        18.075301      94.289847    
    921000   0.9971287      17.824625      94.313108    
    922000   0.96512654     17.574602      94.347821    
    923000   0.95927217     17.686132      94.306525    
    924000   0.99744601     18.323962      94.241605    
    925000   1.0060767      18.307513      94.217275    
    926000   0.99277056     18.658593      94.146061    
    927000   1.0353304      18.091941      94.102192    
    928000   0.96639343     18.585404      94.131471    
    929000   1.0330222      18.284186      93.934878    
    930000   0.98083862     18.175354      94.035514    
    931000   1.0123047      18.295622      93.764789    
    932000   1.0054704      18.491463      93.577345    
    933000   0.99423591     17.735226      93.197119    
    934000   1.0161837      18.303835      93.037955    
    935000   0.96851773     18.519348      93.119558    
    936000   0.97352228     18.156207      92.957447    
    937000   1.0217267      18.603085      92.751864    
    938000   1.049416       18.668037      92.536692    
    939000   1.0615742      18.215088      92.731601    
    940000   0.98955827     18.02522       92.546872    
    941000   1.0464388      17.879491      92.28411     
    942000   0.95899097     18.209089      92.023889    
    943000   0.93516399     17.266212      91.847612    
    944000   1.0028574      17.714121      91.766733    
    945000   1.0099674      17.643482      91.731666    
    946000   1.0063567      18.379727      91.735265    
    947000   0.94377284     17.916295      91.517613    
    948000   0.96475229     18.390639      91.518809    
    949000   0.98197127     17.833016      91.483265    
    950000   1.0090507      17.298082      91.313257    
    951000   1.018133       18.140712      91.257309    
    952000   0.97143142     18.016418      91.2447      
    953000   1.0247016      18.810515      91.276343    
    954000   0.99701649     17.423679      91.013282    
    955000   1.0036482      18.592391      90.912653    
    956000   0.99745186     18.054475      90.81914     
    957000   0.99473947     18.105896      90.456359    
    958000   0.99741773     18.362955      90.13657     
    959000   0.98948768     17.532857      90.173018    
    960000   0.99951199     18.306383      90.26087     
    961000   1.0116913      18.204462      90.192913    
    962000   1.0085298      17.756706      90.020186    
    963000   0.95677687     18.254357      89.782111    
    964000   0.98496708     17.889714      89.591845    
    965000   1.0535213      18.156545      89.620414    
    966000   1.0052242      18.62071       89.625076    
    967000   0.9768135      18.006218      89.477764    
    968000   1.0514483      18.340498      89.350815    
    969000   1.0229602      18.058704      89.10512     
    970000   1.0165061      18.204508      88.683115    
    971000   1.0207199      18.409993      88.54002     
    972000   0.95793826     18.638881      88.3794      
    973000   1.0459741      19.088931      87.957411    
    974000   0.97461261     18.627814      87.757358    
    975000   0.96257843     17.142516      87.538385    
    976000   0.99836655     17.952895      87.476433    
    977000   1.0706499      18.24136       87.354698    
    978000   0.96442324     17.950282      87.071257    
    979000   1.0088261      18.362505      87.40316     
    980000   0.97283157     18.199395      87.403659    
    981000   0.98075876     18.223168      87.458183    
    982000   0.97236254     18.457939      87.302043    
    983000   1.0057255      18.241325      86.983265    
    984000   0.98994953     18.177035      87.052486    
    985000   0.97977035     18.155243      86.879444    
    986000   1.0097388      17.713886      86.723175    
    987000   1.0336166      18.425466      86.756974    
    988000   1.0149856      17.944936      86.710074    
    989000   1.0090087      17.748552      86.722086    
    990000   1.0351374      18.391855      87.114017    
    991000   0.99051652     18.55195       87.229388    
    992000   0.9745804      18.362174      87.018889    
    993000   0.98247339     17.236631      86.66308     
    994000   0.98925569     18.427206      86.697316    
    995000   0.96884175     18.088588      86.998504    
    996000   0.98561545     18.611456      87.079522    
    997000   1.0147447      17.923914      87.057023    
    998000   1.0394324      18.200692      87.030903    
    999000   1.0188415      18.05324       87.043106    
   1000000   0.98293217     18.033006      86.866261    
   1001000   0.9670523      18.22197       86.973944    
   1002000   1.0556438      18.84583       86.703055    
   1003000   0.97377996     17.395678      86.607636    
   1004000   0.96199965     18.418389      86.597786    
   1005000   0.944199       18.183943      86.703428    
   1006000   0.97945801     17.652017      86.619364    
   1007000   0.99640397     18.215318      86.408037    
   1008000   1.0112292      17.841084      86.473047    
   1009000   1.0730724      18.238504      86.476672    
   1010000   1.0078401      17.943573      86.545508    
   1011000   1.0486306      18.792584      86.439338    
   1012000   0.94566166     18.329309      86.229111    
   1013000   0.97969764     18.554149      86.271245    
   1014000   1.0064717      17.915759      85.94234     
   1015000   1.0342052      18.210594      85.714673    
   1016000   1.0007844      18.032181      85.622219    
   1017000   0.97898336     17.265458      85.838065    
   1018000   1.0515257      18.587574      85.868183    
   1019000   0.98563409     18.499679      85.924873    
   1020000   1.0343834      17.909211      85.985       
   1021000   0.92591851     17.493262      85.604626    
   1022000   1.0027326      17.814436      85.526013    
   1023000   1.0096383      18.371719      85.431946    
   1024000   1.0076951      18.057703      85.27758     
   1025000   1.0132828      19.036576      85.342709    
   1026000   1.0382879      18.227451      85.171238    
   1027000   1.0073982      17.479441      85.146682    
   1028000   1.0169357      18.428485      85.152508    
   1029000   0.98517455     18.064856      85.099381    
   1030000   0.95277348     18.029657      85.125062    
   1031000   0.97664929     17.904469      84.923079    
   1032000   1.0109228      18.472369      84.748878    
   1033000   1.0344775      18.86566       84.698269    
   1034000   1.0159438      18.537226      84.413046    
   1035000   0.99730156     18.62254       84.320576    
   1036000   1.0919649      18.774834      84.094171    
   1037000   0.99191111     18.07733       84.180901    
   1038000   1.0229119      18.118969      84.010638    
   1039000   1.0666622      18.400069      83.689151    
   1040000   0.99650168     18.208463      83.52571     
   1041000   1.0235038      18.485402      83.293409    
   1042000   0.96423927     18.285787      83.113102    
   1043000   1.0497576      17.753031      83.079626    
   1044000   0.95785631     17.320864      83.151749    
   1045000   1.0128863      18.079862      83.096018    
   1046000   0.9791959      18.141191      83.071222    
   1047000   1.0008356      18.113236      83.080068    
   1048000   1.0125991      18.398661      82.891701    
   1049000   1.0002014      18.040555      82.743509    
   1050000   1.046753       18.007524      82.709107    
   1051000   0.96678416     17.758079      82.840118    
   1052000   0.98495018     17.724318      82.668948    
   1053000   1.0426889      17.910628      82.411629    
   1054000   0.95273738     17.596054      82.390753    
   1055000   1.0049         17.751252      82.27236     
   1056000   0.98182903     17.389499      82.119636    
   1057000   1.0071726      17.942909      82.182106    
   1058000   0.98252902     18.019398      82.206945    
   1059000   0.98644945     18.843908      81.95597     
   1060000   0.99450119     18.014847      81.80934     
   1061000   0.99190323     17.374662      81.739351    
   1062000   1.0305857      17.751679      81.670142    
   1063000   0.93727453     18.045928      81.386514    
   1064000   1.0061424      17.845562      81.148376    
   1065000   1.0612768      18.867735      81.161437    
   1066000   1.0204638      18.434009      81.052179    
   1067000   0.99056193     17.964213      81.110182    
   1068000   1.0013906      18.57812       80.922542    
   1069000   0.99275809     18.343504      80.845353    
   1070000   1.001354       17.744715      81.013895    
   1071000   0.98971501     18.013382      80.977696    
   1072000   0.99197432     18.233399      80.901982    
   1073000   1.0463774      18.647792      80.628212    
   1074000   0.9473502      18.388076      80.958412    
   1075000   1.0312145      18.200289      81.364707    
   1076000   0.96812979     18.327831      81.132092    
   1077000   0.9738092      18.030773      81.058404    
   1078000   1.0308425      18.487025      80.976562    
   1079000   0.97251853     17.942697      80.990401    
   1080000   0.92851127     17.793438      80.735115    
   1081000   1.0224904      18.262398      80.635675    
   1082000   0.97899763     18.588228      80.668967    
   1083000   0.96562119     17.220085      80.47682     
   1084000   0.99540962     17.348571      80.369617    
   1085000   0.94928837     17.676341      80.302727    
   1086000   1.0137628      18.10592       80.28356     
   1087000   0.9589927      17.269057      80.045584    
   1088000   1.0396284      18.168555      79.834093    
   1089000   1.0313804      17.971482      79.989186    
   1090000   0.97701646     18.386113      79.871619    
   1091000   0.99137898     17.507046      79.997855    
   1092000   0.99877342     17.394317      79.87433     
   1093000   1.0010766      17.664854      79.744719    
   1094000   0.98533295     18.101467      79.626396    
   1095000   1.0071457      18.943966      79.524092    
   1096000   1.0408158      17.724847      79.257177    
   1097000   0.95771819     17.949202      79.176422    
   1098000   1.0348859      18.451068      79.257883    
   1099000   0.98932874     18.212866      79.297844    
   1100000   1.0192531      18.801606      79.112381    
   1101000   0.98733805     18.481598      79.132843    
   1102000   0.97313594     18.010425      79.03449     
   1103000   1.0045863      17.896809      79.223479    
   1104000   1.0134645      18.509619      79.320604    
   1105000   0.97657833     18.092416      79.336296    
   1106000   0.97634688     17.809622      79.21109     
   1107000   0.94931641     18.947815      79.127199    
   1108000   0.96919994     17.679351      79.041627    
   1109000   0.92825999     17.772331      78.783189    
   1110000   1.042712       18.118689      78.972745    
   1111000   0.98338439     18.60539       78.991916    
   1112000   0.99934062     18.065619      78.907133    
   1113000   1.0193635      17.805142      78.867325    
   1114000   0.98814829     18.052815      78.558076    
   1115000   1.0433349      17.298017      78.62947     
   1116000   1.0478275      18.492536      78.695012    
   1117000   1.0124747      17.804972      78.552403    
   1118000   0.93685539     17.747099      78.832645    
   1119000   1.016388       17.925843      78.79908     
   1120000   0.99080702     18.327891      78.434141    
   1121000   0.97558314     17.4226        78.533129    
   1122000   1.0233091      18.035343      78.316568    
   1123000   0.97317127     18.394137      78.354235    
   1124000   1.0398779      18.02303       78.077295    
   1125000   1.0192473      17.974336      78.035601    
   1126000   1.017872       18.181675      78.204989    
   1127000   1.0091363      18.048067      77.928711    
   1128000   1.0516177      17.771844      77.977391    
   1129000   0.98889879     18.337259      77.871146    
   1130000   1.0078939      18.121935      77.813921    
   1131000   0.97798166     17.736421      77.895531    
   1132000   0.9882126      18.242395      77.859064    
   1133000   1.0192934      18.310994      77.864407    
   1134000   0.99604339     18.289237      77.718169    
   1135000   0.98387142     17.568615      77.776094    
   1136000   1.0074524      17.540655      77.830927    
   1137000   1.0144303      18.35983       77.750591    
   1138000   0.94991422     18.036477      77.661608    
   1139000   0.96670853     18.247906      77.567552    
   1140000   1.0290069      18.916276      77.336794    
   1141000   0.97669328     18.318801      77.354306    
   1142000   0.98372002     18.347258      77.268403    
   1143000   0.98549009     17.583543      76.887656    
   1144000   1.0687723      17.810211      76.540353    
   1145000   0.96748404     17.981095      76.44247     
   1146000   1.0250403      18.292429      76.401278    
   1147000   0.97823537     17.652376      76.490008    
   1148000   0.99843361     18.485138      76.483453    
   1149000   1.0289337      17.680666      76.467876    
   1150000   1.0343162      18.385829      76.458244    
   1151000   0.99272672     17.67878       76.668381    
   1152000   1.0093228      18.076956      76.327204    
   1153000   1.0020687      17.944627      76.303953    
   1154000   1.0287311      17.982239      76.309689    
   1155000   0.9954267      17.970385      76.481305    
   1156000   0.97936032     17.515917      76.362862    
   1157000   1.0241743      17.887591      76.266616    
   1158000   1.0067411      18.080936      76.20757     
   1159000   1.032848       18.769771      76.17187     
   1160000   1.0562254      17.70687       76.454111    
   1161000   0.99153182     17.770789      76.322962    
   1162000   0.97988067     17.981896      76.280851    
   1163000   0.96117653     17.589234      76.097262    
   1164000   0.96045803     18.052273      75.793014    
   1165000   0.96449563     17.977555      75.932946    
   1166000   1.0089466      18.679012      75.830085    
   1167000   1.0014341      17.5144        75.713616    
   1168000   1.0039194      18.10052       75.329349    
   1169000   1.0093338      18.331221      75.06857     
   1170000   1.0224008      17.403714      74.983155    
   1171000   1.0202346      17.916077      74.957495    
   1172000   1.0183457      18.094612      75.161696    
   1173000   0.98407979     17.658255      75.287144    
   1174000   1.0332315      18.211533      75.440476    
   1175000   0.99683554     17.872069      75.354656    
   1176000   1.0284184      17.541992      75.348042    
   1177000   0.98576236     17.498007      75.351149    
   1178000   1.0141135      18.003291      75.428217    
   1179000   1.028395       18.397295      75.306138    
   1180000   1.0062475      18.334052      75.115695    
   1181000   0.97425113     18.0279        74.998907    
   1182000   0.96195317     18.076132      74.975179    
   1183000   0.97697741     17.639733      74.745122    
   1184000   0.98319568     18.051425      74.507906    
   1185000   1.0203399      18.609754      74.513408    
   1186000   1.0040715      17.783748      74.54821     
   1187000   0.97390251     17.829298      74.5512      
   1188000   0.98658883     17.886314      74.320889    
   1189000   0.97519671     18.345342      74.03829     
   1190000   1.0080541      17.726153      73.845217    
   1191000   0.99745894     18.114255      73.716938    
   1192000   0.96138332     18.643744      73.119813    
   1193000   0.98023741     18.340511      73.238797    
   1194000   0.99001874     18.199753      72.917173    
   1195000   0.96136445     17.234624      72.61891     
   1196000   1.0095433      17.621599      72.514044    
   1197000   1.0326566      18.393261      72.265938    
   1198000   0.99437704     17.940604      72.052642    
   1199000   0.97754806     17.980218      72.045939    
   1200000   0.97923334     18.349599      71.721975    
   1201000   0.98490796     17.953617      71.501233    
   1202000   0.97929156     17.774745      71.471274    
   1203000   0.97093418     17.806394      71.562098    
   1204000   1.0393338      18.272108      71.664397    
   1205000   1.0319115      17.836111      71.301997    
   1206000   1.0292655      18.289807      71.359179    
   1207000   1.0430298      17.862529      71.305184    
   1208000   1.0021411      17.510387      71.172823    
   1209000   0.98052878     17.95077       71.433777    
   1210000   0.97643904     17.923923      71.411017    
   1211000   0.99425601     17.896237      71.266586    
   1212000   1.0085736      18.143486      71.273861    
   1213000   0.99628629     17.83539       71.230598    
   1214000   0.91857419     17.706755      71.285337    
   1215000   1.0135383      17.944675      71.189305    
   1216000   0.98145249     18.095586      70.958826    
   1217000   1.0207694      17.762051      70.73053     
   1218000   0.98074839     17.781493      70.7092      
   1219000   1.0016485      17.77969       70.723224    
   1220000   1.0130342      18.107835      70.735186    
   1221000   1.0040552      18.090228      70.809968    
   1222000   0.97559641     17.794741      70.604664    
   1223000   0.99388169     18.155238      70.587187    
   1224000   1.0633115      18.004031      70.585677    
   1225000   1.0167636      18.407454      70.400212    
   1226000   1.0193552      18.070726      70.256969    
   1227000   0.98221614     17.847348      70.068195    
   1228000   0.97372223     17.869147      69.916288    
   1229000   1.0439899      17.299775      69.90757     
   1230000   1.0140026      17.376052      69.678634    
   1231000   1.0101181      17.904278      69.726265    
   1232000   1.0208804      17.84987       69.792098    
   1233000   0.94418104     18.031893      69.642355    
   1234000   0.9606614      17.442361      69.662134    
   1235000   1.0194894      18.122013      69.842816    
   1236000   0.94915681     18.052638      69.802176    
   1237000   0.99369284     18.350659      69.604887    
   1238000   1.047046       18.166186      69.618519    
   1239000   0.9905203      18.20282       69.592812    
   1240000   1.011171       17.566766      69.614196    
   1241000   1.0328927      18.239719      69.619534    
   1242000   1.0012422      17.507619      69.401019    
   1243000   0.94206629     17.526278      69.25261     
   1244000   1.0123076      18.262577      69.329935    
   1245000   1.0209658      17.706093      69.126933    
   1246000   0.98526784     18.163858      69.128229    
   1247000   0.9762243      17.934654      68.962211    
   1248000   1.0794994      18.556671      68.799512    
   1249000   1.0404387      18.25069       68.699354    
   1250000   0.97255324     18.126547      68.600179    
   1251000   0.95154486     17.073434      68.574149    
   1252000   1.0314025      18.042769      68.474948    
   1253000   1.0091939      17.977147      68.011325    
   1254000   1.0208276      17.656124      67.990705    
   1255000   1.0059345      18.081302      67.920929    
   1256000   1.0056549      17.601492      67.848101    
   1257000   0.9898449      17.310734      67.788759    
   1258000   0.97531383     16.963833      67.44319     
   1259000   1.0098149      17.558682      67.3656      
   1260000   0.97783613     18.046816      67.349074    
   1261000   1.0234452      17.827295      67.539361    
   1262000   0.97719672     17.909871      67.284687    
   1263000   0.95344565     17.733166      67.260888    
   1264000   1.0238611      18.289645      67.030789    
   1265000   0.99967192     17.51614       67.062387    
   1266000   0.99716707     17.515647      66.994165    
   1267000   1.009826       18.443911      66.909592    
   1268000   0.98924828     17.707094      67.161935    
   1269000   1.038968       17.817372      67.28755     
   1270000   1.0055277      18.162671      67.021497    
   1271000   1.0362094      17.586453      67.254143    
   1272000   1.057134       17.790405      67.181356    
   1273000   1.0296164      18.340701      66.939633    
   1274000   1.0781818      17.845124      66.851217    
   1275000   0.92692865     17.700902      66.562728    
   1276000   0.97979002     17.449265      66.14878     
   1277000   0.98697214     17.888113      66.197073    
   1278000   1.0229417      17.750437      65.91332     
   1279000   0.97836867     18.030092      65.558632    
   1280000   1.0082567      18.106589      65.252834    
   1281000   0.99912013     17.83812       65.06374     
   1282000   0.99142661     17.740746      65.047649    
   1283000   0.99248137     17.728501      64.92029     
   1284000   0.9838691      18.133322      64.911939    
   1285000   0.9958198      17.60901       64.844473    
   1286000   1.0185553      18.000813      64.790922    
   1287000   1.0502658      17.988993      64.743603    
   1288000   1.0225211      18.449048      64.523438    
   1289000   1.0415865      18.083176      64.338714    
   1290000   1.0559353      18.01984       64.41671     
   1291000   1.0067994      17.458263      64.506024    
   1292000   0.95736314     17.825539      64.342423    
   1293000   0.97714907     17.229816      64.325565    
   1294000   0.98002421     18.178898      64.397185    
   1295000   1.0354728      18.033642      64.347545    
   1296000   0.99719995     17.498146      64.096896    
   1297000   1.0392355      17.774739      64.173009    
   1298000   1.0211178      17.807284      63.844435    
   1299000   0.99354891     17.586065      63.822254    
   1300000   0.96650442     17.943148      63.509976    
   1301000   1.0279076      18.240904      62.986383    
   1302000   1.026051       18.317002      62.687671    
   1303000   1.0323646      17.781589      62.649872    
   1304000   0.99249614     18.108654      62.859738    
   1305000   1.0346151      17.733675      62.699479    
   1306000   0.99634612     17.612545      62.699003    
   1307000   0.99581698     18.057662      62.744923    
   1308000   0.99038513     17.563125      62.490781    
   1309000   1.0262528      18.286095      62.294352    
   1310000   0.9925564      17.939332      62.262877    
   1311000   0.9966885      18.155714      62.288672    
   1312000   0.96428678     17.737764      62.123658    
   1313000   1.0485358      17.568495      61.983636    
   1314000   1.0534314      17.512849      61.987984    
   1315000   1.0572948      17.477182      61.946324    
   1316000   1.0002226      17.065506      61.74397     
   1317000   1.0194966      17.807408      61.764996    
   1318000   1.0020276      17.586008      61.673613    
   1319000   0.98922363     17.847457      61.616425    
   1320000   0.99860611     17.998753      61.438715    
   1321000   1.0255454      17.650385      61.114195    
   1322000   1.0588552      18.205629      60.707001    
   1323000   1.0068902      17.996373      60.585315    
   1324000   1.02572        18.198709      60.396755    
   1325000   1.000573       17.437296      60.350405    
   1326000   0.99932888     17.690634      60.190099    
   1327000   1.0537801      17.429955      60.268934    
   1328000   1.0192372      17.511838      60.377608    
   1329000   1.0402762      18.24463       60.473226    
   1330000   0.9759208      18.023879      60.215933    
   1331000   1.0400128      17.709463      60.006492    
   1332000   0.96621744     17.945399      60.067652    
   1333000   0.99620307     17.609281      59.971483    
   1334000   1.0635768      18.408627      59.689027    
   1335000   1.0235581      17.523999      59.640233    
   1336000   1.0584459      17.338463      59.588654    
   1337000   0.98006944     17.884482      59.711423    
   1338000   0.98011865     17.776552      59.4617      
   1339000   1.0075538      18.011503      59.165717    
   1340000   0.99907282     17.742832      59.176826    
   1341000   0.99412675     17.273477      59.310801    
   1342000   0.97941642     17.421426      59.274095    
   1343000   0.98985563     17.198171      59.226295    
   1344000   0.98316216     17.393899      59.267654    
   1345000   0.99806067     17.522071      59.147155    
   1346000   0.99202676     18.136471      59.181539    
   1347000   1.0236737      17.459424      58.950548    
   1348000   1.034267       17.435472      59.025191    
   1349000   0.99813079     17.891899      58.90873     
   1350000   1.0419019      17.946367      58.880963    
   1351000   0.97913563     17.653512      58.737748    
   1352000   1.047955       17.770353      58.671135    
   1353000   0.97877147     17.970764      58.543294    
   1354000   0.96756517     17.841232      58.509497    
   1355000   0.98024504     17.46505       58.614777    
   1356000   1.0058523      17.978466      58.47446     
   1357000   1.0238604      18.260809      58.499063    
   1358000   1.0253661      18.134111      58.709149    
   1359000   0.99056297     17.457209      58.756861    
   1360000   0.98225506     17.899201      58.802555    
   1361000   0.99857169     17.123097      58.68035     
   1362000   0.98595551     17.33036       58.528468    
   1363000   1.0111064      17.975997      58.401089    
   1364000   1.0126653      17.611531      58.144795    
   1365000   0.96533621     18.025761      58.03579     
   1366000   0.98462992     17.752581      57.674368    
   1367000   0.93647367     18.007354      57.572993    
   1368000   1.0072312      17.400811      57.466876    
   1369000   1.0260656      18.145902      57.336072    
   1370000   0.9974443      18.164006      57.278492    
   1371000   1.0141161      18.035343      57.384526    
   1372000   1.013694       17.714878      57.34972     
   1373000   1.0057148      17.653742      57.135384    
   1374000   1.0287801      17.14611       56.985816    
   1375000   1.0216706      17.856199      56.842153    
   1376000   0.99694105     17.839288      56.769504    
   1377000   1.0228232      18.032218      56.47991     
   1378000   1.039627       18.051687      56.653636    
   1379000   1.0359089      17.777221      56.445946    
   1380000   1.0494801      18.056591      56.513357    
   1381000   0.96615564     18.029909      56.496882    
   1382000   1.0086001      17.708724      56.479705    
   1383000   0.97800893     17.583725      56.251329    
   1384000   1.0442618      17.820454      56.202208    
   1385000   1.0439717      17.994301      55.766402    
   1386000   1.0049271      17.845918      55.820309    
   1387000   0.93848408     17.230431      55.528218    
   1388000   0.98585306     17.418306      55.591594    
   1389000   0.97983047     17.361671      55.420193    
   1390000   0.98696383     17.898623      55.312788    
   1391000   0.99927158     17.590809      55.402377    
   1392000   0.97010027     17.591094      55.273211    
   1393000   1.0424839      17.300327      55.323977    
   1394000   1.0252713      18.052704      55.041761    
   1395000   0.99480899     17.84268       55.123015    
   1396000   1.0213939      17.742029      55.031486    
   1397000   1.039759       18.106898      54.977782    
   1398000   0.99752172     17.644741      54.916609    
   1399000   0.97348312     17.924295      54.710367    
   1400000   1.0216949      17.765602      54.864417    
   1401000   0.96658388     18.124604      54.67807     
   1402000   0.95395465     17.300392      54.516636    
   1403000   1.0535903      18.008394      54.163013    
   1404000   1.0104903      17.240052      54.072943    
   1405000   0.94735403     17.742706      53.734744    
   1406000   1.0125382      18.130661      53.410634    
   1407000   0.99560123     17.573531      53.346786    
   1408000   1.0051297      18.107977      53.238012    
   1409000   1.0121894      18.016381      53.328051    
   1410000   0.97399556     18.327519      53.365305    
   1411000   1.006657       17.562855      53.361474    
   1412000   1.0272018      17.846682      53.489766    
   1413000   0.99160885     17.501456      53.375565    
   1414000   1.0221999      18.141325      53.096415    
   1415000   1.0718869      17.839938      52.790294    
   1416000   0.98087936     17.747622      52.522207    
   1417000   1.0009319      17.731791      52.318839    
   1418000   1.0300628      18.258519      52.379127    
   1419000   1.0528583      17.710906      52.232078    
   1420000   0.96096617     17.259485      51.930537    
   1421000   0.95602922     17.99837       51.867445    
   1422000   1.0000216      17.804549      51.727301    
   1423000   0.96714533     17.969267      51.455096    
   1424000   0.95111432     18.022743      51.254827    
   1425000   0.97950906     17.855371      51.130034    
   1426000   0.97055754     17.141914      50.993362    
   1427000   1.0096518      17.571755      51.010878    
   1428000   1.007194       17.563731      50.973627    
   1429000   0.97079021     17.348357      51.014731    
   1430000   1.0443409      18.0101        50.886441    
   1431000   1.0358219      17.387346      51.173452    
   1432000   0.9693397      17.509228      51.441543    
   1433000   1.0007742      18.061767      51.20595     
   1434000   0.97902889     17.743764      51.079262    
   1435000   1.0119937      17.854735      50.991235    
   1436000   0.99322064     17.661413      51.238647    
   1437000   1.0120399      17.773428      51.044402    
   1438000   0.98058293     17.70581       50.859125    
   1439000   1.019979       17.550165      50.875577    
   1440000   1.0296959      17.469894      50.826369    
   1441000   0.95541831     17.982695      50.861716    
   1442000   0.94812296     18.021559      51.133348    
   1443000   1.0028611      17.475322      51.025721    
   1444000   1.032202       17.756002      50.938337    
   1445000   1.041692       17.279911      50.921581    
   1446000   0.94872872     18.116474      50.929703    
   1447000   0.98592321     17.362739      50.613198    
   1448000   1.0010529      18.052618      50.769756    
   1449000   0.96190913     17.63718       50.826637    
   1450000   1.0114092      17.426153      50.90284     
   1451000   1.0698849      17.903236      50.751047    
   1452000   1.0136587      17.642992      50.551852    
   1453000   0.94509502     17.381393      50.63008     
   1454000   0.98749212     17.500014      50.514263    
   1455000   0.97231248     17.936769      50.413721    
   1456000   1.047578       17.980787      50.149315    
   1457000   1.0430162      17.986375      49.884274    
   1458000   1.0122214      17.620741      49.943042    
   1459000   0.97630351     17.619533      50.002975    
   1460000   0.98583502     17.514428      49.981541    
   1461000   0.98857791     17.206465      49.492057    
   1462000   1.0416322      17.199088      49.143308    
   1463000   0.97644377     18.036751      49.098903    
   1464000   0.98996778     17.832654      49.105427    
   1465000   0.95806747     17.525341      48.918647    
   1466000   1.017618       17.329349      48.915671    
   1467000   1.0213649      17.289287      48.654091    
   1468000   0.97589067     17.99426       48.277397    
   1469000   1.0212532      17.175777      48.459772    
   1470000   0.97427621     17.780041      48.082516    
   1471000   0.98527748     17.827674      48.189325    
   1472000   0.98475437     16.594304      48.26173     
   1473000   0.9887335      17.395819      47.964095    
   1474000   0.98392438     17.652908      47.778301    
   1475000   1.0603192      17.794429      47.654365    
   1476000   0.99607852     17.781678      47.573098    
   1477000   1.0045111      17.920429      47.464263    
   1478000   1.0197689      18.072777      47.278694    
   1479000   1.002852       17.488597      46.849963    
   1480000   1.0116768      17.490368      46.942647    
   1481000   0.98676584     17.435872      46.903426    
   1482000   0.95512822     17.375051      46.827322    
   1483000   0.97193151     17.4022        46.860652    
   1484000   1.0255251      17.295422      46.928013    
   1485000   0.98141018     17.55619       46.744822    
   1486000   0.98401316     17.450136      46.878517    
   1487000   0.99858314     17.83623       46.824134    
   1488000   0.96516227     17.738145      46.599281    
   1489000   0.99875936     16.789831      46.459928    
   1490000   1.005014       18.306976      46.515716    
   1491000   0.99960975     17.563822      46.161525    
   1492000   0.99245606     18.154651      46.058704    
   1493000   1.0334386      17.611758      45.921926    
   1494000   1.0156593      17.474655      45.998619    
   1495000   1.0431481      17.43583       46.032225    
   1496000   0.97961761     17.60782       45.919581    
   1497000   0.98242118     17.488059      45.924613    
   1498000   0.9901274      17.45885       45.714748    
   1499000   0.93469754     17.934881      45.896867    
   1500000   1.0583225      17.817344      45.978071    
   1501000   1.0017526      18.49229       45.819072    
   1502000   1.0064535      17.211892      45.817301    
   1503000   1.0074386      17.948946      45.548884    
   1504000   1.0002281      17.74437       45.511235    
   1505000   0.98124031     18.00896       45.289057    
   1506000   0.97056159     17.248905      45.163405    
   1507000   0.98671267     17.387511      45.089805    
   1508000   1.0291835      17.49147       44.709761    
   1509000   1.0332044      18.112984      44.697365    
   1510000   0.96989161     17.500551      44.637972    
   1511000   0.97334857     17.149523      44.533664    
   1512000   0.99043109     17.231411      44.550351    
   1513000   1.0107353      17.366933      44.453173    
   1514000   0.9609088      17.223555      44.439403    
   1515000   1.0139889      17.963107      44.547647    
   1516000   0.99195979     17.680441      44.622989    
   1517000   1.0212759      17.984341      44.561452    
   1518000   1.026708       17.902698      44.446004    
   1519000   0.99472992     17.661778      44.567942    
   1520000   0.95202432     17.573053      44.644341    
   1521000   0.99818677     17.849336      44.425484    
   1522000   0.99482169     17.84371       44.430414    
   1523000   1.0017159      17.011452      44.343225    
   1524000   0.99098272     17.934687      44.055634    
   1525000   0.97365057     17.755828      43.879168    
   1526000   0.96632932     17.789532      43.834115    
   1527000   1.0274038      17.630378      43.60845     
   1528000   0.9486384      17.792358      43.329537    
   1529000   0.99854146     17.731646      43.096462    
   1530000   0.95096739     17.415281      43.02342     
   1531000   0.98057373     17.552273      43.194121    
   1532000   1.0146764      17.683107      43.247666    
   1533000   1.0131689      17.481916      43.364474    
   1534000   0.99947821     17.17747       43.152599    
   1535000   1.0370235      17.318443      43.084516    
   1536000   1.0213153      17.586821      42.903139    
   1537000   0.99305295     17.164457      42.974139    
   1538000   1.0390609      17.557105      43.199378    
   1539000   1.0290429      17.185344      43.079936    
   1540000   0.99834236     17.395103      43.319192    
   1541000   0.96434115     17.307449      43.273031    
   1542000   0.99148369     17.404616      43.287055    
   1543000   1.0264611      17.508352      43.028909    
   1544000   1.0189071      17.23779       43.098773    
   1545000   1.0276157      18.234266      43.10563     
   1546000   0.98933749     17.134342      43.037299    
   1547000   1.0064279      17.138436      42.999533    
   1548000   1.0003285      17.417974      42.937603    
   1549000   1.0087644      17.0206        42.802878    
   1550000   0.97129051     17.607642      42.787745    
   1551000   1.0074875      17.269417      42.676423    
   1552000   1.0178956      17.460528      42.195608    
   1553000   0.96527285     17.555583      42.175458    
   1554000   0.99912585     17.438206      42.461744    
   1555000   0.95064387     17.40863       42.570743    
   1556000   1.0201573      17.565705      42.527225    
   1557000   0.99526368     17.889234      42.296587    
   1558000   0.97524663     17.883309      42.480816    
   1559000   0.95749733     17.206768      42.611066    
   1560000   0.98561514     17.899329      42.28553     
   1561000   1.0191744      17.36876       42.282258    
   1562000   0.99490549     17.968363      42.094991    
   1563000   1.0134785      18.194639      41.916944    
   1564000   1.0473172      17.260263      42.022525    
   1565000   1.0433592      17.260749      41.917833    
   1566000   1.0492879      17.826778      41.709361    
   1567000   0.96363118     17.611048      41.577554    
   1568000   0.99889959     17.580769      41.385586    
   1569000   0.98730872     17.720712      41.163129    
   1570000   1.0580014      18.045297      41.060008    
   1571000   0.99812553     18.011045      41.082153    
   1572000   1.0441867      17.636614      41.17569     
   1573000   0.9776605      17.307788      41.237003    
   1574000   1.0464227      17.731487      41.177284    
   1575000   1.0308883      17.83596       41.172873    
   1576000   1.0160454      17.511278      41.039668    
   1577000   1.0049228      17.827476      41.035686    
   1578000   1.0350381      18.03881       40.836019    
   1579000   0.99525953     17.867176      40.78694     
   1580000   1.0122647      17.320425      40.764208    
   1581000   0.98756227     17.500758      40.803445    
   1582000   1.0254597      17.812999      40.637335    
   1583000   1.0571082      17.577879      40.598919    
   1584000   1.0215963      17.665094      40.528783    
   1585000   1.012936       16.732463      40.336808    
   1586000   0.96979458     17.563136      40.458278    
   1587000   0.97991786     17.477835      40.516069    
   1588000   0.95320686     18.224149      40.538188    
   1589000   1.0549808      17.815611      40.57597     
   1590000   0.97972446     17.100754      40.616602    
   1591000   1.0016277      17.440724      40.883309    
   1592000   1.0469983      18.020539      40.877613    
   1593000   0.9747132      17.866035      40.829281    
   1594000   1.0248439      17.721455      40.697486    
   1595000   1.0038334      17.539068      40.515294    
   1596000   1.0234861      17.743581      40.294598    
   1597000   1.0371751      17.423293      40.13768     
   1598000   0.99465611     17.828934      40.08883     
   1599000   0.98382121     17.683945      40.00819     
   1600000   0.95078814     17.48159       39.750213    
   1601000   1.0423612      17.72707       39.737622    
   1602000   0.99087916     17.418097      39.659761    
   1603000   1.0071763      17.608585      39.721876    
   1604000   0.97453731     17.096808      39.45736     
   1605000   0.9771925      18.161529      39.49077     
   1606000   0.99687895     17.401405      39.417565    
   1607000   1.0653237      17.612502      39.257866    
   1608000   1.009805       17.439748      39.326261    
   1609000   1.052918       17.791824      39.121536    
   1610000   1.0316702      17.452885      39.117364    
   1611000   1.004862       18.084142      39.101992    
   1612000   0.94563937     16.907669      38.858441    
   1613000   1.008435       18.005954      38.772433    
   1614000   1.001634       17.313687      38.660892    
   1615000   0.96462949     17.589129      38.597478    
   1616000   0.96925922     17.294545      38.644341    
   1617000   0.98714779     16.924412      38.386873    
   1618000   1.0147026      17.409705      38.162113    
   1619000   0.99653678     17.478093      38.306477    
   1620000   1.0337609      17.819302      38.221016    
   1621000   0.98425878     17.28767       38.092026    
   1622000   0.97094758     16.955986      38.040588    
   1623000   1.0289845      18.035988      37.916651    
   1624000   1.0315128      16.972659      37.484651    
   1625000   1.0029751      17.12819       37.378242    
   1626000   1.0323915      17.498463      37.124526    
   1627000   1.013462       17.735112      37.124491    
   1628000   0.99146554     17.583901      37.145929    
   1629000   1.0168451      18.036959      36.84027     
   1630000   0.97473627     17.104592      36.715538    
   1631000   0.9847316      17.801723      36.848944    
   1632000   0.9894756      17.084264      36.842941    
   1633000   1.0199795      17.377185      36.51756     
   1634000   1.0543796      17.490203      36.359264    
   1635000   1.0064164      17.922535      36.241286    
   1636000   0.99282544     17.894296      36.009887    
   1637000   1.0058712      17.625987      35.883781    
   1638000   1.0410566      17.603992      35.707439    
   1639000   1.0279546      17.524046      35.490377    
   1640000   1.0011322      17.404053      35.502353    
   1641000   1.01154        18.30236       35.520539    
   1642000   1.0172571      17.737508      35.657687    
   1643000   0.99808981     17.752255      35.708991    
   1644000   0.98749398     17.490519      35.430949    
   1645000   0.99819629     17.662888      35.222838    
   1646000   1.0065887      17.710179      35.10905     
   1647000   0.98222973     17.60727       35.04955     
   1648000   0.98457917     17.348197      35.100155    
   1649000   1.0518457      18.046965      35.126986    
   1650000   0.96961327     17.882031      35.377644    
   1651000   1.0169005      17.518013      35.251016    
   1652000   0.97488822     16.895777      35.233543    
   1653000   0.99109935     18.21145       35.168768    
   1654000   1.0159768      17.465614      34.829905    
   1655000   1.0320974      17.257456      34.789634    
   1656000   0.96264467     16.934778      34.575591    
   1657000   1.0189742      17.551533      34.584601    
   1658000   1.0060239      17.76134       34.569227    
   1659000   0.95559371     17.20438       34.59252     
   1660000   0.9824549      16.572799      34.423767    
   1661000   1.0261621      17.08101       34.482111    
   1662000   0.96883834     17.520947      34.391064    
   1663000   0.97145333     17.698405      34.457949    
   1664000   0.95218698     17.267595      34.496478    
   1665000   1.0011649      17.970157      34.402209    
   1666000   0.98815077     18.254049      34.391136    
   1667000   1.026765       17.81789       34.328479    
   1668000   1.0292579      17.362547      34.249392    
   1669000   1.0054449      17.357947      33.992073    
   1670000   1.0112892      16.999505      33.822125    
   1671000   1.0312165      17.872105      33.886748    
   1672000   1.0275463      17.265955      33.563826    
   1673000   1.005121       18.086403      33.484253    
   1674000   1.013885       17.822452      33.403461    
   1675000   0.93615553     17.326564      33.446312    
   1676000   0.9870789      16.702497      33.434526    
   1677000   0.93780452     17.815257      33.337616    
   1678000   1.000775       18.092267      33.218796    
   1679000   1.0492035      17.491967      33.406507    
   1680000   0.98998693     16.869078      33.447514    
   1681000   1.0480328      17.21592       33.410417    
   1682000   0.9790389      17.637283      33.331744    
   1683000   0.98413881     17.616891      33.347606    
   1684000   0.91299543     16.916686      33.180731    
   1685000   0.97671618     16.815692      33.096938    
   1686000   1.0099558      18.308804      32.970157    
   1687000   0.9907654      18.040147      33.125511    
   1688000   1.0232947      16.927087      33.167583    
   1689000   0.98327928     16.917725      33.370686    
   1690000   0.93476816     17.534526      33.371452    
   1691000   0.95854893     18.064267      33.55516     
   1692000   0.94340601     17.879273      33.786241    
   1693000   0.99764094     17.462108      33.693877    
   1694000   0.99310761     18.056478      33.482432    
   1695000   0.97753307     16.642502      33.398834    
   1696000   0.99143168     17.522342      33.410465    
   1697000   1.0113309      17.465628      33.638288    
   1698000   0.99561436     17.190975      33.357084    
   1699000   0.99770753     17.559422      33.220533    
   1700000   0.98479272     17.721782      33.142151    
   1701000   1.028163       17.955797      33.091188    
   1702000   0.97543523     17.142254      33.021675    
   1703000   0.98867389     17.524361      32.821012    
   1704000   0.97116736     17.857328      32.750307    
   1705000   1.0415644      17.395702      32.929229    
   1706000   0.98070218     17.364489      32.85008     
   1707000   1.0097389      16.909554      32.57516     
   1708000   0.98676616     17.216867      32.094049    
   1709000   1.0137778      17.03566       32.033536    
   1710000   1.0223704      17.704907      32.020854    
   1711000   1.0006709      17.317031      31.914516    
   1712000   0.97414468     17.565624      31.706938    
   1713000   1.0076262      17.256551      31.750577    
   1714000   1.0192116      17.4275        31.587124    
   1715000   0.96982138     17.827586      31.202047    
   1716000   1.000332       17.367336      31.041935    
   1717000   0.99369211     17.314403      30.720629    
   1718000   1.0282007      17.783003      30.629126    
   1719000   1.0576546      17.168091      30.654019    
   1720000   1.078132       17.469366      30.780232    
   1721000   0.99151879     17.412176      30.896718    
   1722000   1.0150435      17.480202      30.946045    
   1723000   1.0398992      17.554894      31.063173    
   1724000   0.9742174      17.402218      31.029223    
   1725000   1.0404764      17.163578      31.095145    
   1726000   0.98801795     17.242893      31.248803    
   1727000   1.0031243      16.587886      31.173621    
   1728000   0.96096666     17.546543      31.234002    
   1729000   1.006707       17.264982      30.9815      
   1730000   1.0247637      17.552907      30.854329    
   1731000   0.97067065     17.680405      30.799559    
   1732000   0.96493476     17.183958      30.622403    
   1733000   1.0063698      17.406147      30.364554    
   1734000   1.0185321      18.187798      30.2152      
   1735000   0.98412909     17.357317      29.751155    
   1736000   1.0196287      17.523774      29.603275    
   1737000   0.96564752     17.272769      29.615407    
   1738000   1.0179866      17.443841      29.583606    
   1739000   0.93960751     17.064466      29.574631    
   1740000   1.0392408      18.021542      29.690001    
   1741000   0.98269572     17.356774      29.58459     
   1742000   0.98408104     17.452981      29.697561    
   1743000   1.0347213      17.193359      29.636273    
   1744000   0.97889482     18.10573       29.671982    
   1745000   0.95175636     16.758333      29.639375    
   1746000   0.9905453      17.68501       29.419328    
   1747000   0.99653204     17.460848      29.303087    
   1748000   1.000843       17.104714      29.208839    
   1749000   1.0235071      17.728794      29.242465    
   1750000   0.98762886     17.488961      28.907871    
   1751000   1.068268       17.294254      28.695578    
   1752000   1.0465091      17.349822      28.644356    
   1753000   1.0045257      17.582802      28.321674    
   1754000   1.0333371      16.959851      28.290587    
   1755000   0.99492988     17.338212      28.296512    
   1756000   0.96404339     17.123073      28.23707     
   1757000   1.0166552      16.906754      28.186279    
   1758000   1.0231567      17.520784      28.03301     
   1759000   0.98917973     17.183071      28.011966    
   1760000   1.0018156      17.842955      28.136182    
   1761000   0.9656102      17.474489      28.167035    
   1762000   1.0165174      17.132202      28.100475    
   1763000   0.99293854     16.720042      27.886778    
   1764000   0.9760143      17.334532      27.676093    
   1765000   1.0189713      17.427938      27.48567     
   1766000   0.92260532     16.858461      27.702663    
   1767000   0.97661277     17.406172      27.843818    
   1768000   1.037822       17.393572      27.869886    
   1769000   0.98903339     17.911437      27.982141    
   1770000   1.0148307      17.706881      27.966729    
   1771000   1.0517289      17.751095      28.006596    
   1772000   0.98514125     17.834598      27.809203    
   1773000   0.94491188     16.751665      27.763234    
   1774000   1.0149602      17.531854      28.066917    
   1775000   0.97580357     18.19943       27.866651    
   1776000   1.0281677      18.079136      27.867772    
   1777000   0.98097294     17.449398      27.816782    
   1778000   1.0262565      17.116675      27.790533    
   1779000   1.0396877      17.469824      27.781957    
   1780000   1.0164766      17.334312      27.705786    
   1781000   1.0490794      17.713675      27.515574    
   1782000   1.0197866      17.230296      27.475234    
   1783000   0.95668287     16.780882      27.460184    
   1784000   0.95927607     17.704043      27.594877    
   1785000   1.0142129      17.554903      27.280795    
   1786000   0.96264077     17.08403       27.285457    
   1787000   1.0353187      17.618132      27.205529    
   1788000   1.0361382      17.708634      26.963673    
   1789000   1.0419784      17.360014      26.732977    
   1790000   0.91354628     17.075618      26.562202    
   1791000   0.96902716     17.589006      26.673304    
   1792000   1.0063816      17.415274      26.795663    
   1793000   1.017285       17.577843      26.75941     
   1794000   1.0012122      17.613852      26.778406    
   1795000   0.96955908     17.585987      26.792108    
   1796000   0.99063494     17.87507       26.698425    
   1797000   1.0140999      17.796228      26.743239    
   1798000   0.98412        17.522123      26.64311     
   1799000   0.97553915     17.250362      26.615201    
   1800000   0.96221857     17.201366      26.351772    
   1801000   0.9737505      16.98134       26.133895    
   1802000   0.9641115      17.188295      26.239441    
   1803000   1.0197329      18.077627      26.160138    
   1804000   1.0942056      17.923509      26.019468    
   1805000   1.0301134      17.62754       25.878765    
   1806000   1.0288359      17.450516      25.597656    
   1807000   1.0235782      16.997071      25.504605    
   1808000   1.0399398      16.871141      25.385757    
   1809000   1.024734       17.767943      25.351403    
   1810000   0.94942393     17.372798      25.254226    
   1811000   0.99135173     17.623764      25.160376    
   1812000   1.0226185      17.857783      25.17257     
   1813000   1.0088458      17.981787      24.976825    
   1814000   1.0035283      17.352869      24.955209    
   1815000   1.001906       17.086023      25.036382    
   1816000   1.0081964      17.515588      24.825221    
   1817000   1.0115275      17.401551      24.97861     
   1818000   0.97970925     17.207799      24.842458    
   1819000   1.0101742      17.623274      24.865509    
   1820000   0.97938773     16.478949      24.511047    
   1821000   0.96437988     17.266956      24.305239    
   1822000   1.0255578      17.572385      24.280286    
   1823000   0.99551525     17.43506       24.148323    
   1824000   1.0366212      17.580458      24.021376    
   1825000   1.0298202      17.521391      24.009283    
   1826000   0.95231121     17.390898      23.952105    
   1827000   0.98153816     17.350108      23.768535    
   1828000   1.0120511      17.854918      23.504674    
   1829000   1.0231067      17.161535      23.370445    
   1830000   0.99662351     16.97613       23.550288    
   1831000   1.0476691      16.825037      23.49295     
   1832000   0.98011884     17.451454      23.670643    
   1833000   1.012811       17.968652      23.449083    
   1834000   0.94823478     17.549307      23.376239    
   1835000   1.0616376      16.997409      23.346252    
   1836000   0.94113041     17.641813      23.399396    
   1837000   0.99705506     17.164655      23.479997    
   1838000   0.94209837     17.077262      23.447439    
   1839000   0.93779705     17.079255      23.298837    
   1840000   0.97393091     16.590332      23.281967    
   1841000   1.0290634      17.815406      23.2684      
   1842000   0.9340682      16.944067      23.134882    
   1843000   0.9704863      17.015905      22.821868    
   1844000   0.98024425     17.803645      22.576504    
   1845000   0.95658215     17.227023      22.455038    
   1846000   1.0071407      17.388066      22.450833    
   1847000   0.97885546     17.902031      22.399401    
   1848000   0.94822868     16.596959      22.417235    
   1849000   0.99603985     17.833821      22.358198    
   1850000   1.0192195      17.139387      22.364673    
   1851000   1.046705       16.948135      22.373128    
   1852000   1.0146705      17.454538      22.153492    
   1853000   1.0207885      16.714863      22.160444    
   1854000   1.0437583      17.997133      22.066191    
   1855000   1.0544879      17.429305      21.889738    
   1856000   0.97265404     18.200164      21.705902    
   1857000   1.0446906      16.817983      21.776473    
   1858000   0.98705085     18.313183      21.705041    
   1859000   1.0123111      17.725485      21.674763    
   1860000   0.99513031     16.619562      21.651501    
   1861000   1.0171417      17.648625      21.690271    
   1862000   1.0250843      17.127122      21.620158    
   1863000   1.0397355      17.619062      21.443161    
   1864000   1.012034       17.322021      21.528075    
   1865000   1.0240613      17.568036      21.459395    
   1866000   0.997353       17.20862       21.506859    
   1867000   0.99711431     17.58694       21.457721    
   1868000   1.0334055      17.591256      21.365312    
   1869000   1.0224321      17.956308      21.141315    
   1870000   1.0190643      17.928127      21.063198    
   1871000   0.97090069     17.904906      20.97159     
   1872000   0.99798177     17.32384       20.916341    
   1873000   1.0107185      17.682489      20.783064    
   1874000   0.99886395     17.060157      20.778555    
   1875000   1.0081497      17.428266      20.563844    
   1876000   0.9891859      16.773547      20.325806    
   1877000   1.0238411      17.684838      20.230313    
   1878000   0.96994504     16.718342      20.073902    
   1879000   1.0308266      17.687732      19.958052    
   1880000   0.98252225     17.301024      19.828431    
   1881000   0.99868696     16.714071      19.873715    
   1882000   0.97402337     17.182876      19.928228    
   1883000   0.95893382     16.704868      19.992835    
   1884000   0.99133304     17.75934       20.138472    
   1885000   1.0627265      16.659334      20.152445    
   1886000   1.015243       17.411705      20.062715    
   1887000   1.0348445      17.135792      19.72321     
   1888000   0.98258558     17.426665      19.744826    
   1889000   1.0222721      17.45455       19.859075    
   1890000   1.003942       17.391667      19.867039    
   1891000   1.0038756      17.647177      19.650574    
   1892000   1.0421429      17.637331      19.359736    
   1893000   1.009501       17.477489      19.336456    
   1894000   0.97885132     17.508216      19.466837    
   1895000   1.0814798      17.755802      19.176579    
   1896000   1.0062177      17.809318      18.894605    
   1897000   0.98369731     17.695129      18.889926    
   1898000   1.0150594      17.085499      18.52116     
   1899000   1.0207033      17.261274      18.477533    
   1900000   1.0063072      17.001032      18.395247    
   1901000   0.98712439     17.131698      18.259675    
   1902000   0.95554893     16.956995      18.254455    
   1903000   1.028978       17.447565      18.213292    
   1904000   0.99924491     18.132814      17.697364    
   1905000   0.98849134     17.01536       17.808721    
   1906000   1.0011768      17.058614      17.855841    
   1907000   0.98674638     17.042441      17.735913    
   1908000   0.97476451     16.783032      17.582729    
   1909000   1.0317795      16.981092      17.432898    
   1910000   0.99503047     17.514985      17.452461    
   1911000   0.99021477     17.707119      17.167506    
   1912000   1.0256483      17.197108      16.933459    
   1913000   1.0025883      17.832503      16.461775    
   1914000   0.97876629     17.204087      16.329588    
   1915000   1.0445541      16.813703      16.352348    
   1916000   0.96434058     17.1219        16.092424    
   1917000   1.0271845      17.232542      16.174963    
   1918000   1.0180224      16.697288      16.076904    
   1919000   0.99255651     17.175498      15.736659    
   1920000   1.0153463      17.586604      15.52556     
   1921000   0.99082209     17.407743      15.433306    
   1922000   1.0144375      16.660894      15.188081    
   1923000   0.99342377     17.468045      15.069206    
   1924000   1.0288993      17.564869      14.835297    
   1925000   1.0058508      17.068916      14.605592    
   1926000   1.0474472      17.171514      14.51568     
   1927000   0.9920712      17.097954      14.391791    
   1928000   0.98911514     17.16997       14.208968    
   1929000   1.0020979      17.333554      13.950994    
   1930000   1.0050016      17.47553       13.901999    
   1931000   1.0286576      17.255399      13.94259     
   1932000   0.98994574     17.413883      13.776291    
   1933000   1.0246981      17.746914      13.560752    
   1934000   1.0003054      17.281162      13.537656    
   1935000   0.99597553     16.896361      13.347437    
   1936000   0.98633792     17.127682      13.126978    
   1937000   1.021589       17.375859      13.122915    
   1938000   0.97601617     17.542874      12.855581    
   1939000   0.99509401     17.068201      12.724017    
   1940000   1.0603762      17.699195      12.689713    
   1941000   0.95317392     17.21801       12.808909    
   1942000   0.98947574     17.144737      13.10101     
   1943000   1.0399941      17.395634      13.198108    
   1944000   0.98668054     16.990466      13.109559    
   1945000   1.0266818      18.148825      13.080485    
   1946000   1.0351484      17.701261      12.945726    
   1947000   1.0023155      17.111512      12.870127    
   1948000   1.0072187      16.897928      12.888958    
   1949000   1.0099755      16.761203      12.879218    
   1950000   1.0361678      17.054091      12.806266    
   1951000   1.0479266      17.60825       12.935354    
   1952000   0.97074625     17.448311      12.795712    
   1953000   1.0041636      17.742788      12.630125    
   1954000   1.0039049      17.291009      12.541738    
   1955000   1.0290795      17.589972      12.450383    
   1956000   1.0352188      17.441534      12.169384    
   1957000   0.98428056     17.130795      11.94021     
   1958000   0.96776121     17.31161       11.777637    
   1959000   0.95925188     17.129173      11.920796    
   1960000   0.99714677     17.409135      11.72271     
   1961000   1.0499229      16.896821      11.827766    
   1962000   1.037681       17.910285      11.78463     
   1963000   1.0202392      17.206884      11.676288    
   1964000   1.0439812      17.153803      11.575494    
   1965000   0.98965519     17.257315      11.410953    
   1966000   1.0299626      17.383176      11.383791    
   1967000   1.0151183      16.823943      10.993984    
   1968000   0.95986732     17.39777       10.793901    
   1969000   0.98123902     17.58573       10.723813    
   1970000   1.0678928      16.968122      10.412313    
   1971000   0.98721179     16.889387      10.473252    
   1972000   0.97865909     17.470595      10.086536    
   1973000   1.0048071      17.937344      9.9780512    
   1974000   0.98374384     16.658418      9.7976403    
   1975000   0.98459749     16.537594      9.6195023    
   1976000   1.0361958      17.007868      9.24561      
   1977000   1.0138234      17.272275      9.179532     
   1978000   0.98158129     17.167748      8.9976932    
   1979000   0.99582537     16.988581      8.7092603    
   1980000   1.0057842      16.192264      8.6509558    
   1981000   1.0178273      17.313282      8.6255729    
   1982000   1.0270862      17.215141      8.2731969    
   1983000   0.97694797     17.267039      8.1060014    
   1984000   0.97248771     16.712335      8.0401189    
   1985000   0.94065757     17.466357      7.9295221    
   1986000   1.0530429      17.581494      8.25919      
   1987000   1.039465       17.488028      8.0274328    
   1988000   0.99957357     17.123511      8.0623832    
   1989000   1.0061129      17.23639       7.9540376    
   1990000   0.99882737     17.630773      8.0235217    
   1991000   1.0083341      17.096677      7.8951883    
   1992000   0.98971821     16.987688      7.9594417    
   1993000   0.96177945     17.44891       7.8936069    
   1994000   1.0359052      17.263476      7.8107143    
   1995000   1.0080992      17.112842      7.6407241    
   1996000   1.0395318      17.218622      7.354107     
   1997000   0.99464467     16.925873      7.1235543    
   1998000   0.96042029     17.364269      6.9587182    
   1999000   0.98323538     17.207333      6.7770745    
   2000000   1.0046864      16.671856      6.5779751    
   2001000   1.0076139      16.825506      6.3323203    
   2002000   0.98058509     17.273496      6.0247174    
   2003000   0.98741552     17.563733      5.8460592    
   2004000   1.0169402      17.004531      5.8402335    
   2005000   1.0325559      17.159765      5.5414826    
   2006000   1.0479373      17.255492      5.5233682    
   2007000   1.0057917      17.06631       5.5250346    
   2008000   0.99408331     17.261628      5.3721876    
   2009000   0.94152642     16.550807      5.269816     
   2010000   1.0019278      17.2355        5.1092987    
Fix halt condition for fix-id 3 met on step 2011000 with value 4.938652107727721 (src/fix_halt.cpp:237)
   2011000   0.96438278     17.043738      4.9386521    
Loop time of 2365.04 on 4 procs for 1911000 steps with 800 atoms

Performance: 698128.547 tau/day, 808.019 timesteps/s
125.1% CPU use with 2 MPI tasks x 2 OpenMP threads

MPI task timing breakdown:
Section |  min time  |  avg time  |  max time  |%varavg| %total
---------------------------------------------------------------
Pair    | 160.14     | 240.42     | 320.69     | 517.7 | 10.17
Bond    | 18.846     | 24.844     | 30.841     | 120.3 |  1.05
Neigh   | 1796.7     | 1796.8     | 1796.8     |   0.0 | 75.97
Comm    | 135.34     | 220.9      | 306.45     | 575.6 |  9.34
Output  | 4.6017     | 4.6653     | 4.729      |   2.9 |  0.20
Modify  | 32.954     | 44.783     | 56.612     | 176.8 |  1.89
Other   |            | 32.68      |            |       |  1.38

Nlocal:            400 ave         800 max           0 min
Histogram: 1 0 0 0 0 0 0 0 0 1
Nghost:          195.5 ave         391 max           0 min
Histogram: 1 0 0 0 0 0 0 0 0 1
Neighs:          94452 ave      188904 max           0 min
Histogram: 1 0 0 0 0 0 0 0 0 1

Total # of neighbors = 188904
Ave neighs/atom = 236.13
Ave special neighs/atom = 1.9975
Neighbor list builds = 17989
Dangerous builds = 0

# This simulation is done
# Move onto the next one
clear
  using 2 OpenMP thread(s) per MPI task
package omp 0
using multi-threaded neighbor list subroutines
next f
jump SELF

###
# Reference paper:
# K. Kremer and G. S. Grest
# Dynamics of entangled linear polymer melts: A molecular-dynamics simulation
# J Chem Phys 92, 5057 (1990)

##################################
# MIHIR: for branched polymers
# LJ minimum first to expand and explore, then collapse
###

###
# Looping through the various linear polymers to simulate,
# define variables to switch through
variable f index bb100nuc0bl0bn0d30tot100 bb200nuc0bl0bn0d30tot200 bb300nuc0bl0bn0d30tot300 bb400nuc0bl0bn0d30tot400 bb500nuc0bl0bn0d30tot500 bb600nuc0bl0bn0d30tot600 bb700nuc0bl0bn0d30tot700 bb800nuc0bl0bn0d30tot800 bb900nuc0bl0bn0d30tot900 bb1000nuc0bl0bn0d30tot1000 bb1100nuc0bl0bn0d30tot1100 bb1200nuc0bl0bn0d30tot1200
###


###
# Box and units  (use LJ units and periodic boundaries)
###

units lj
log linear/logs/$f.log
log linear/logs/bb900nuc0bl0bn0d30tot900.log
