#atom_style bond #no stiffness
atom_style angle #with stiffness

boundary        p p p
###
# Pair interactions require lists of neighbours to be calculated
###

#neighbor 0.3 bin
neighbor 4 bin

neigh_modify every 1 delay 1 check yes
atom_modify sort 0 0
### Generate RESTART file, SPECIAL format, not a .txt file ###
### Useful if simulation crashes ###

restart 1000000 nuc5branch4/restarts2/$f.restart
restart 1000000 nuc5branch4/restarts2/bb300nuc5bl50bn4d30tot800.restart
#############################



### READ "start" data file ###

read_data nuc5branch4/$f.dat
read_data nuc5branch4/bb300nuc5bl50bn4d30tot800.dat
Reading data file ...
  orthogonal box = (-1000 -1000 -1000) to (1000 1000 1000)
  1 by 1 by 1 MPI processor grid
  reading atoms ...
  801 atoms
  scanning bonds ...
  3 = max bonds/atom
  scanning angles ...
  6 = max angles/atom
  reading bonds ...
  800 bonds
  reading angles ...
  814 angles
Finding 1-2 1-3 1-4 neighbors ...
  special bond factors lj:    0        0        0       
  special bond factors coul:  0        0        0       
     4 = max # of 1-2 neighbors
     4 = max # of 1-3 neighbors
     8 = max # of 1-4 neighbors
    12 = max # of special neighbors
  special bonds CPU = 0.000 seconds
  read_data CPU = 0.050 seconds

######################

### READ "REstart" data file ###

######################



###
# Define groups (atom type 1 is group 'all')
###
group all type 1
801 atoms in group all


###
# Dump configs - "simple dumpings"
###

###
# Dump configs + box coords
###

dump   1   all   custom   1000  nuc5branch4/trjs2/$f.lammpstrj  id  x y z  ix iy iz
dump   1   all   custom   1000  nuc5branch4/trjs2/bb300nuc5bl50bn4d30tot800.lammpstrj  id  x y z  ix iy iz
dump_modify   1   format line "%d %.5f %.5f %.5f %d %d %d"

########################################################################


###################################################################
# Stiffness term
#
# E = K * (1+cos(theta)), K>0
#
angle_style   cosine
#change this coefficient to change stiffness (e.g. 1,5,10)
angle_coeff   1 1.0
###################################################################

###################################################################
# Pair interaction between non-bonded atoms
#
#  Lennard-Jones 12-6 potential with cutoff:
#  potential E=4epsilon[ (sigma/r)^12 - (sigma/r)^6]  for r<r_cut
#
#  1.12246 = 2^(1/6) is the minimum of the potential


pair_style      lj/cut 1.12246152962189
#pair_style      lj/cut 3

#
#  pair_modify shift yes adds a constant to the potential such

#  that E(r_cut)=0. Forces remains unchanged.
#

pair_modify     shift yes

#
#  pair_coeff for lj/cut, specify 4:
#    * atom type interacting with
#    * atom type
#    * epsilon (energy units)
#    * sigma (distance units)
#

pair_coeff      1 1 1.0 1.0
###################################################################

###################################################################
# Pair interaction between non-bonded atoms
#
#  soft potential, for PUSHING apart overlapping atoms
#  potential E=A*(1 + cos(pi*r/r_c))
#
#  1.12246 = 2^(1/6) is the cut-off r_c

#pair_style     soft 1.12246152962189

#
#  pair_coeff for soft, specify 3:
#    * atom type interacting with
#    * atom type
#    * A
#
#

#pair_coeff      1 1 100.0
###################################################################

###################################################################
# Pair interaction between bonded atoms
#
# Fene potential + Lennard Jones 12-6:

#
#  E= - 0.5 K R0^2 ln[ 1- (r/R0)^2]
#     + 4epsilon[ (sigma/r)^12 - (sigma/r)^6] + epsilon
#

bond_style   fene


#
# For style fene, specify:
#   * bond type
#   * K (energy/distance^2)
#   * R0 (distance)
#   * epsilon (energy)  (LJ component)
#   * sigma (distance)  (LJ component)
#


special_bonds fene #<=== I M P O R T A N T (new command)
Finding 1-2 1-3 1-4 neighbors ...
  special bond factors lj:    0        1        1       
  special bond factors coul:  0        1        1       
     4 = max # of 1-2 neighbors
    12 = max # of special neighbors
  special bonds CPU = 0.000 seconds

bond_coeff   1   30   2   1.0   1.0


###################################################

###################################################################
# Pair interaction between bonded atoms
#
# Harmonic potential:
#
#  E= K * (R-R0)^2
#

#bond_style   harmonic

#
# For style harmonic, specify:
#   * bond type
#   * K (energy/distance^2)
#   * R0 (distance)
#

#bond_coeff   1   60.0   1.0
#bond_coeff   2   harmonic 0.1   1.0

###################################################
compute 1 all gyration
variable rog equal c_1
#compute 2 all coord/atom cutoff 1.1

#dump 2 all custom 10000 contact_number.dump id c_2


###
# Set up fixes
###
thermo_style   custom   step  temp enthalpy c_1
fix 1 all nve   ###NVE ensemble

fix 2 all   langevin   1.0 1.0 1.0  778655   ###Langevin integrator Tstart Tstop 1/friction rndseed


##### Sample thermodynamic info  (temperature, energy, pressure, etc.) #####
thermo 1000









############################################################################

###
# set timestep of integrator

timestep 0.01

###
# run integration for a number of steps
###
#run 0
#variable r equal c_1
#if "$r < 63.1" then "quit 1"

# lj potential minimum, cause molecule to explore
run 100000
Generated 0 of 0 mixed pair_coeff terms from geometric mixing rule
Last active /omp style is angle_style cosine/omp
Neighbor list info ...
  update: every = 1 steps, delay = 1 steps, check = yes
  max neighbors/atom: 2000, page size: 100000
  master list distance cutoff = 5.1224615
  ghost atom cutoff = 5.1224615
  binsize = 2.5612308, bins = 781 781 781
  1 neighbor lists, perpetual/occasional/extra = 1 0 0
  (1) pair lj/cut/omp, perpetual
      attributes: half, newton on, omp
      pair build: half/bin/newton/omp
      stencil: half/bin/3d
      bin: standard
WARNING: Communication cutoff 5.12246152962189 is shorter than a bond length based estimate of 5.455. This may lead to errors. (src/comm.cpp:723)
Per MPI rank memory allocation (min/avg/max) = 1862 | 1862 | 1862 Mbytes
   Step          Temp         Enthalpy         c_1      
         0   0              13.259332      61.008859    
      1000   1.0302499      19.146345      60.129863    
      2000   1.0077771      19.655636      59.443352    
      3000   1.0401696      19.17318       59.072461    
      4000   0.97113097     19.430075      58.657131    
      5000   0.98602215     19.362396      57.852262    
      6000   0.98237372     19.798485      57.459763    
      7000   1.0082576      19.66753       57.037563    
      8000   1.0367159      20.116007      56.694944    
      9000   1.0043389      20.013469      56.368093    
     10000   1.0181826      19.971688      55.900074    
     11000   0.97604532     19.864408      55.809532    
     12000   1.0288091      20.244211      55.612346    
     13000   0.99412923     19.954186      55.348144    
     14000   0.95047032     19.873445      55.095568    
     15000   0.99088223     19.96467       54.943542    
     16000   0.98575642     19.950845      54.730654    
     17000   0.97991611     20.231715      54.507727    
     18000   1.0110038      20.165286      54.325239    
     19000   0.98852065     20.240903      54.061234    
     20000   0.97957935     20.334302      53.617503    
     21000   1.0026723      20.421854      53.224398    
     22000   1.0341658      19.739006      53.217327    
     23000   1.0330887      20.223618      53.030009    
     24000   1.0319369      20.599342      52.81348     
     25000   1.003616       20.312585      52.63797     
     26000   0.99591262     20.781182      52.630256    
     27000   1.0311004      20.175743      52.597782    
     28000   0.99250874     20.625846      52.496958    
     29000   1.038179       20.451584      52.378707    
     30000   1.0602458      20.62646       52.021995    
     31000   0.99056414     20.593031      51.805309    
     32000   1.0232553      20.822779      51.703397    
     33000   0.98919425     21.04016       51.989976    
     34000   1.0204719      20.040022      51.833747    
     35000   1.0974145      19.94577       51.963698    
     36000   0.99922455     20.217782      51.738935    
     37000   1.0570658      20.495033      51.5418      
     38000   1.0046222      20.234637      51.16382     
     39000   1.0177163      20.079362      51.231691    
     40000   0.99781013     20.55101       51.155209    
     41000   1.0310382      20.864975      51.2099      
     42000   0.99113733     19.78991       51.14044     
     43000   1.0325345      20.241105      51.31323     
     44000   1.0037833      20.16421       51.078382    
     45000   1.052136       21.297058      50.980232    
     46000   1.0220847      20.330653      50.70829     
     47000   0.99836858     20.412632      50.666105    
     48000   0.98369128     20.913836      50.720249    
     49000   0.99423859     20.569105      50.611701    
     50000   0.9970555      20.338103      50.523531    
     51000   1.0210033      20.080017      50.347168    
     52000   1.0359916      20.467815      50.368712    
     53000   1.0103555      20.509993      50.493215    
     54000   1.0025834      20.368457      50.000704    
     55000   0.99464014     20.724609      49.630081    
     56000   0.98740803     20.246409      49.962619    
     57000   1.0561462      20.459624      49.815874    
     58000   0.97289709     20.482175      49.570375    
     59000   0.98044837     20.639449      49.642862    
     60000   0.99831307     20.235914      49.678109    
     61000   1.0266553      20.548197      49.423096    
     62000   1.0198617      20.235118      49.602484    
     63000   1.0099794      21.247745      49.625142    
     64000   0.98646369     20.07039       49.665661    
     65000   0.96093506     20.201795      49.509939    
     66000   0.96616325     20.402942      49.583757    
     67000   1.0510699      20.849849      49.429752    
     68000   0.98299818     20.013625      49.317112    
     69000   1.0343825      21.034611      49.435398    
     70000   0.96265175     20.087869      49.418517    
     71000   0.98964541     20.07769       49.249807    
     72000   0.97577808     20.531141      49.050749    
     73000   0.94749686     20.625762      49.000253    
     74000   0.97603151     20.091693      48.977438    
     75000   0.99028859     20.334332      48.988357    
     76000   0.99520444     20.41666       48.928765    
     77000   1.0129416      20.779015      48.878724    
     78000   1.0134028      20.527671      48.55467     
     79000   1.0060555      20.58789       48.669137    
     80000   0.9925761      20.59388       48.67888     
     81000   0.97574505     20.140373      48.51411     
     82000   0.99330139     20.332662      48.355893    
     83000   0.97340659     20.492245      48.190765    
     84000   1.0802314      20.608571      47.900712    
     85000   1.0384497      20.756667      47.933928    
     86000   0.99988632     20.696225      47.703302    
     87000   1.007937       20.264574      47.504239    
     88000   0.99777619     20.20262       47.048627    
     89000   1.014764       20.474548      46.806417    
     90000   0.94050136     20.585925      46.784777    
     91000   0.996189       20.562746      46.700791    
     92000   0.9903925      20.561169      46.573826    
     93000   0.94669191     20.724241      46.709393    
     94000   0.9959811      20.54947       46.595342    
     95000   0.98617203     21.041536      46.31292     
     96000   1.016357       21.021421      46.162687    
     97000   0.94853305     20.92673       46.067254    
     98000   0.99318921     21.008721      45.764482    
     99000   0.93487366     20.071494      45.643788    
    100000   0.99436878     20.209965      45.75985     
Loop time of 347.503 on 2 procs for 100000 steps with 801 atoms

Performance: 248630.898 tau/day, 287.767 timesteps/s
102.4% CPU use with 1 MPI tasks x 2 OpenMP threads

MPI task timing breakdown:
Section |  min time  |  avg time  |  max time  |%varavg| %total
---------------------------------------------------------------
Pair    | 1.1697     | 1.1697     | 1.1697     |   0.0 |  0.34
Bond    | 1.6196     | 1.6196     | 1.6196     |   0.0 |  0.47
Neigh   | 340.77     | 340.77     | 340.77     |   0.0 | 98.06
Comm    | 0.027341   | 0.027341   | 0.027341   |   0.0 |  0.01
Output  | 0.21023    | 0.21023    | 0.21023    |   0.0 |  0.06
Modify  | 3.4466     | 3.4466     | 3.4466     |   0.0 |  0.99
Other   |            | 0.2566     |            |       |  0.07

Nlocal:            801 ave         801 max         801 min
Histogram: 1 0 0 0 0 0 0 0 0 0
Nghost:              0 ave           0 max           0 min
Histogram: 1 0 0 0 0 0 0 0 0 0
Neighs:           7551 ave        7551 max        7551 min
Histogram: 1 0 0 0 0 0 0 0 0 0

Total # of neighbors = 7551
Ave neighs/atom = 9.4269663
Ave special neighs/atom = 1.9975031
Neighbor list builds = 1168
Dangerous builds = 0

# Replace lj potential, now collapse
pair_style      lj/cut 3

# Cutoff simul when gyration under 10
# Variable created with equal requires v_ + 'name'
fix 3 all halt 1000 v_rog < 7

run 3000000
Generated 0 of 0 mixed pair_coeff terms from geometric mixing rule
Last active /omp style is angle_style cosine/omp
Per MPI rank memory allocation (min/avg/max) = 1862 | 1862 | 1862 Mbytes
   Step          Temp         Enthalpy         c_1      
    100000   0.99436878     19.295032      45.75985     
    101000   0.98030289     18.992926      45.605179    
    102000   0.98017847     19.407216      45.539266    
    103000   0.99394726     19.327294      45.226487    
    104000   1.0194209      19.32205       45.105765    
    105000   0.99741141     18.82635       44.934873    
    106000   0.98032795     18.662274      44.676152    
    107000   0.99971161     19.026745      44.452873    
    108000   1.0194611      17.881369      44.422271    
    109000   0.96287945     18.318625      44.30385     
    110000   1.0127957      17.972396      44.098935    
    111000   0.9839375      18.647241      44.041652    
    112000   1.0198696      18.214486      43.963757    
    113000   1.0036938      18.453354      43.982771    
    114000   1.0021867      17.455768      43.679468    
    115000   0.9664893      18.579085      43.731131    
    116000   0.95930019     17.777148      43.277575    
    117000   1.1099198      18.224204      43.180107    
    118000   0.984156       18.237347      42.889558    
    119000   1.0291464      18.76662       42.568709    
    120000   0.98631494     17.768887      42.168164    
    121000   1.0353041      18.424508      42.202863    
    122000   0.93897061     18.339981      42.283998    
    123000   1.035973       17.990961      41.898235    
    124000   0.94305088     18.107452      41.700614    
    125000   1.0066106      19.094319      41.785126    
    126000   0.98723727     18.082327      41.582695    
    127000   0.97900418     18.599348      41.330656    
    128000   1.0096737      18.238478      41.220328    
    129000   1.0606952      18.138522      41.084699    
    130000   0.95149876     17.133913      41.209211    
    131000   1.0524454      18.495559      41.298714    
    132000   0.98605337     18.349092      41.186049    
    133000   0.99572612     17.950092      41.250855    
    134000   1.0422215      18.48559       41.211454    
    135000   0.93549365     17.830097      41.341316    
    136000   1.0050832      17.732308      41.101084    
    137000   1.0100216      18.486027      40.815573    
    138000   1.0341068      17.809805      40.770348    
    139000   0.96295806     17.991291      40.764833    
    140000   1.0143376      17.64861       40.554325    
    141000   1.0186241      18.186728      40.43067     
    142000   0.97871813     17.894365      40.220878    
    143000   0.98660161     17.492304      39.926518    
    144000   1.0146061      18.291503      39.874408    
    145000   0.99431809     18.173673      39.938913    
    146000   1.0060945      17.723072      39.825003    
    147000   1.0467445      18.092155      39.708519    
    148000   0.9933762      17.562187      39.623249    
    149000   0.99582363     18.640236      39.511561    
    150000   0.98486228     18.182469      39.210643    
    151000   1.0141238      17.443195      39.159806    
    152000   1.002548       17.840492      39.179842    
    153000   1.0076614      18.365222      39.055353    
    154000   1.0036496      17.727852      38.931826    
    155000   1.0100181      18.127114      38.851931    
    156000   1.0407522      18.444936      38.811053    
    157000   1.0049549      17.24834       38.679886    
    158000   1.0071963      17.643065      38.445997    
    159000   0.9935132      18.245591      38.050849    
    160000   0.97036118     17.832771      37.876384    
    161000   0.97671633     17.882471      37.61098     
    162000   0.97800557     18.070711      37.628723    
    163000   0.97039013     17.499195      37.632894    
    164000   0.99503125     17.991614      37.435778    
    165000   0.97220877     17.723745      37.531463    
    166000   0.96986236     18.223392      37.742234    
    167000   1.0056952      18.364757      37.440493    
    168000   0.94814517     18.409742      37.390619    
    169000   1.0270718      17.652315      37.40015     
    170000   1.0455899      18.035736      37.218834    
    171000   0.96115458     18.303657      36.995632    
    172000   1.0094587      17.802677      36.645496    
    173000   0.97066674     18.385286      36.400916    
    174000   1.0387115      18.034832      36.331637    
    175000   1.0117143      17.755111      36.178691    
    176000   0.99802916     18.080709      35.958752    
    177000   0.98842719     18.223707      35.97408     
    178000   1.0051431      18.136019      35.826148    
    179000   1.0014825      18.281544      35.675826    
    180000   0.95347418     17.55018       35.553194    
    181000   1.0083493      17.798134      35.302036    
    182000   1.05705        18.076609      34.872844    
    183000   1.0229041      17.851027      34.831252    
    184000   0.99013453     17.194755      34.802526    
    185000   1.0200128      17.669365      34.745798    
    186000   0.97555278     17.859817      34.572068    
    187000   1.022232       17.963748      34.536946    
    188000   0.99586893     17.50719       34.266241    
    189000   1.0631439      17.752121      34.306114    
    190000   1.0226606      17.472003      33.985199    
    191000   1.0580154      18.293021      34.016459    
    192000   1.002068       18.158228      33.77012     
    193000   1.0715082      18.457085      33.569428    
    194000   1.0559135      17.90072       33.680964    
    195000   0.98342833     18.134114      33.613441    
    196000   0.97353066     18.301155      33.658702    
    197000   0.98355304     18.266717      33.545085    
    198000   0.97302143     17.798297      33.610114    
    199000   1.0145196      18.077973      33.509905    
    200000   0.94441679     18.144816      33.364373    
    201000   1.0180479      18.238656      33.268424    
    202000   0.95798112     17.679334      33.036376    
    203000   0.97781345     18.264174      33.019004    
    204000   1.0108295      18.08759       33.096888    
    205000   0.99170683     17.832764      33.084807    
    206000   0.97640111     17.740438      32.775502    
    207000   1.0085961      17.873686      32.837869    
    208000   0.96044129     17.899686      32.678937    
    209000   0.98443213     18.04992       32.392922    
    210000   0.98444811     18.369593      31.967473    
    211000   1.0124525      17.965215      31.896378    
    212000   1.0629604      18.967139      31.809532    
    213000   0.96033842     17.775644      31.294411    
    214000   1.0382989      18.144463      30.964938    
    215000   1.0684921      18.035297      30.683016    
    216000   0.99388431     17.779845      30.593696    
    217000   0.96430313     18.548893      30.688616    
    218000   0.95124718     18.104497      30.748984    
    219000   0.98740847     17.396344      30.787287    
    220000   0.97999763     17.313059      30.570961    
    221000   1.002911       17.595123      30.400007    
    222000   0.91380767     17.51383       30.408936    
    223000   1.0008313      18.131607      30.67301     
    224000   0.97485397     18.00661       30.750059    
    225000   0.97182217     17.141987      30.829886    
    226000   1.0314733      18.190081      30.736949    
    227000   0.99134174     18.11747       30.681824    
    228000   0.98842874     17.209382      30.664104    
    229000   1.0659097      17.834439      30.563846    
    230000   1.0097386      17.793793      30.532601    
    231000   0.98201854     18.011338      30.234219    
    232000   1.020886       17.897185      30.237828    
    233000   0.99919435     18.01501       30.173814    
    234000   1.0102616      17.478615      30.10688     
    235000   1.0318237      17.645937      29.789742    
    236000   1.0420769      17.47108       29.597367    
    237000   0.97541688     17.732828      29.579152    
    238000   0.98613098     17.634909      29.581731    
    239000   0.99051589     17.511636      29.410064    
    240000   1.0392926      17.720983      29.098875    
    241000   0.97836823     17.559328      28.869325    
    242000   0.9945032      18.075296      28.761812    
    243000   0.9908019      17.940652      28.783556    
    244000   0.99655193     17.120858      28.642509    
    245000   0.95764888     18.348464      28.683358    
    246000   1.0129603      17.92279       28.405914    
    247000   1.0039317      17.516874      28.392512    
    248000   0.96923543     17.54507       28.091736    
    249000   1.025298       18.140365      28.277752    
    250000   0.99160272     17.407787      28.264443    
    251000   1.0330089      17.517039      27.884703    
    252000   0.99650011     18.090083      27.925922    
    253000   0.99637823     17.596007      27.649464    
    254000   0.99655877     17.210747      27.72199     
    255000   0.98513244     17.407762      27.668231    
    256000   0.98404752     17.648325      27.368797    
    257000   0.95227839     17.301961      27.273749    
    258000   1.005006       17.761732      26.923918    
    259000   0.99128725     17.175778      26.731569    
    260000   1.0210189      17.371689      26.692076    
    261000   0.97668701     17.606103      26.706863    
    262000   1.0507008      17.87898       26.479421    
    263000   1.0255641      17.579488      26.243435    
    264000   1.0108191      17.354029      26.156851    
    265000   1.0099346      17.870716      26.161963    
    266000   0.99887175     17.469667      25.983136    
    267000   0.97031292     17.028279      26.042122    
    268000   0.99643326     18.154593      25.698359    
    269000   1.0079926      17.556439      25.870129    
    270000   1.0059893      17.47463       25.865345    
    271000   0.99482964     18.376549      25.891657    
    272000   0.97128654     17.168013      25.719057    
    273000   1.0163872      17.881272      25.694639    
    274000   0.97607961     17.715231      25.555085    
    275000   1.0177677      17.388376      25.55474     
    276000   1.019964       17.584581      25.510087    
    277000   1.0245949      17.83917       25.505769    
    278000   0.98803855     18.271719      25.373708    
    279000   1.0137407      17.446263      25.282909    
    280000   1.00141        17.175904      25.212814    
    281000   1.0052636      17.516109      25.079617    
    282000   1.0222405      16.971549      24.933181    
    283000   0.99611449     17.208139      24.926102    
    284000   0.98612034     17.11395       24.965695    
    285000   0.9939003      17.808093      25.015362    
    286000   0.98177288     17.49102       24.914037    
    287000   1.0064261      17.976685      24.425364    
    288000   0.96607261     17.280038      24.514131    
    289000   1.0344091      17.089828      24.409368    
    290000   0.98632681     17.507103      24.294237    
    291000   1.0413477      17.827056      24.294641    
    292000   1.0286203      17.516877      24.245086    
    293000   1.0026377      17.419663      24.190448    
    294000   0.95562333     17.115444      24.096164    
    295000   0.94269769     17.659291      23.901648    
    296000   0.99143918     17.857841      23.599998    
    297000   0.99864234     17.474911      23.355835    
    298000   1.0141701      17.085992      23.170549    
    299000   1.0309635      17.323068      22.977447    
    300000   0.96951988     16.94729       22.893514    
    301000   1.011151       18.006643      22.771936    
    302000   0.99297304     17.588374      22.335178    
    303000   0.9705678      17.548504      22.263194    
    304000   0.98089858     17.701551      22.085773    
    305000   0.99328098     17.855328      22.047617    
    306000   0.96065993     17.804988      22.111442    
    307000   1.0359198      17.734639      22.129969    
    308000   0.97490712     17.349306      22.13227     
    309000   0.99455673     17.913351      21.949692    
    310000   0.98063656     17.602618      21.850958    
    311000   1.0255061      17.291788      21.872984    
    312000   0.98801279     17.598473      21.994057    
    313000   1.0406613      17.479763      21.732607    
    314000   0.97074317     17.287429      21.694379    
    315000   1.00144        17.189496      21.623834    
    316000   1.0563154      17.222805      21.484462    
    317000   1.0183601      17.069811      21.328665    
    318000   0.95282417     16.911192      21.342638    
    319000   1.0422643      17.793192      21.357533    
    320000   0.96759974     17.418761      21.233438    
    321000   1.0134803      16.717619      21.220313    
    322000   1.0531225      18.026512      21.211768    
    323000   1.0140283      17.526553      21.153835    
    324000   1.0179499      17.62539       21.210858    
    325000   0.95519508     16.816621      20.981835    
    326000   0.99724102     17.708786      20.726966    
    327000   1.0028953      17.32038       20.746985    
    328000   1.0056835      17.439858      20.997916    
    329000   0.97179202     17.928517      20.601997    
    330000   1.0308789      18.313887      20.489797    
    331000   0.9909829      17.477708      20.35529     
    332000   1.0000324      17.226235      20.209746    
    333000   1.0047531      17.482925      19.979964    
    334000   1.021934       17.042466      19.736462    
    335000   1.0472015      17.327693      19.551991    
    336000   1.008132       17.693373      19.651056    
    337000   1.0529295      17.060887      19.497061    
    338000   1.0771596      18.541977      19.60162     
    339000   0.98323443     17.823573      19.354511    
    340000   0.99705378     16.874633      19.087523    
    341000   1.0270007      18.115245      18.708953    
    342000   0.97572391     17.341018      18.83303     
    343000   0.92800438     17.02675       18.785681    
    344000   1.0127122      17.891025      18.666588    
    345000   1.0080695      17.733087      18.323244    
    346000   1.0198638      18.005624      18.340391    
    347000   1.0110808      16.4212        18.231955    
    348000   1.0202342      16.950326      18.165598    
    349000   1.0379335      17.504438      18.024776    
    350000   0.9915309      17.356159      17.943984    
    351000   1.0148547      17.19447       17.803126    
    352000   1.0424622      17.394879      17.639821    
    353000   0.99331087     17.342237      17.479978    
    354000   1.0304684      16.226933      17.276474    
    355000   1.0043523      17.308524      17.113454    
    356000   1.0050532      16.948163      17.007607    
    357000   1.0305158      17.428654      16.981092    
    358000   1.0256222      17.45573       16.896646    
    359000   1.0048067      17.293753      16.972684    
    360000   0.98717131     17.203477      16.687466    
    361000   1.0108428      17.428351      16.516874    
    362000   1.0800714      17.075717      16.39404     
    363000   0.98357157     17.324149      16.247686    
    364000   0.98669613     17.192618      16.063151    
    365000   1.0357704      17.201254      16.258295    
    366000   0.99641666     17.288784      16.186729    
    367000   1.0315774      17.185463      16.200919    
    368000   0.96842115     17.648403      16.167138    
    369000   0.97904218     17.384278      16.059669    
    370000   0.97745307     18.12729       15.981184    
    371000   1.0207399      17.422468      16.003494    
    372000   1.0259079      17.231785      15.878778    
    373000   1.0439789      17.208637      15.836817    
    374000   0.9152263      17.382309      15.691434    
    375000   1.0532108      17.206491      15.646252    
    376000   0.97249913     17.338757      15.570101    
    377000   0.99528581     17.003369      15.326766    
    378000   1.0155287      17.418378      15.36126     
    379000   1.0280908      16.705453      15.347867    
    380000   0.98968027     16.679053      15.113875    
    381000   0.97234889     17.252753      14.901745    
    382000   0.97597407     18.087318      14.870414    
    383000   0.95494912     17.152949      14.625406    
    384000   1.0402721      17.08056       14.500976    
    385000   0.98534819     17.170961      14.69757     
    386000   0.99899732     17.254773      14.976573    
    387000   1.0230172      17.162657      14.74691     
    388000   1.0025419      17.080251      14.513307    
    389000   0.99728313     17.220506      14.54374     
    390000   1.0053746      16.953324      14.617652    
    391000   0.99739341     17.409436      14.72503     
    392000   1.03094        17.704205      14.944688    
    393000   1.0733907      17.385547      14.783472    
    394000   0.98377316     17.672747      14.585947    
    395000   0.99613679     17.501235      14.628504    
    396000   0.95300987     17.339879      14.542522    
    397000   0.98406192     17.917704      14.321835    
    398000   1.020274       17.530488      14.308153    
    399000   0.97288258     17.785263      14.440719    
    400000   1.0129813      17.277242      14.121783    
    401000   1.0321867      17.653034      14.048415    
    402000   0.99826792     17.257143      13.765692    
    403000   0.94735169     16.92304       13.722392    
    404000   1.0377319      16.594288      13.649169    
    405000   1.0414887      17.450327      13.702022    
    406000   0.97016062     17.405862      13.541371    
    407000   1.046894       17.531032      13.636315    
    408000   0.9871674      17.408489      13.268628    
    409000   1.0049488      17.257601      13.298267    
    410000   1.0239905      17.500347      13.42132     
    411000   1.0353368      17.684235      13.313603    
    412000   0.95390483     17.290064      13.269706    
    413000   0.99576971     16.939198      13.286811    
    414000   1.0796332      17.62361       13.505833    
    415000   0.97862091     16.395624      13.672046    
    416000   0.98855702     17.303561      13.717876    
    417000   0.98661602     17.197257      13.614719    
    418000   0.97699886     17.252601      13.791252    
    419000   1.0158462      17.445396      13.826324    
    420000   0.98603954     16.993302      13.944319    
    421000   0.98438443     17.913416      13.843374    
    422000   1.0125133      17.111593      13.847489    
    423000   0.99451208     17.44619       13.53933     
    424000   0.97609356     16.756145      13.46832     
    425000   0.96873136     17.425741      13.49609     
    426000   0.96439156     17.663369      13.498871    
    427000   1.0087892      17.055852      13.375965    
    428000   0.99901739     16.381188      13.518976    
    429000   0.95547062     17.027756      13.340745    
    430000   0.97761282     17.009536      13.252754    
    431000   1.0308648      17.622448      13.073175    
    432000   0.93666065     16.818611      12.876119    
    433000   0.96735058     17.734361      12.818053    
    434000   1.0034725      17.640291      12.651483    
    435000   0.97708376     17.40188       12.351504    
    436000   1.0312903      17.418958      12.46075     
    437000   1.0635034      17.240788      12.524558    
    438000   0.96661003     17.614076      12.389918    
    439000   1.0235297      17.861736      12.242944    
    440000   0.96606628     17.508436      12.23612     
    441000   1.0052329      17.405778      11.84677     
    442000   0.9824713      17.344751      11.759509    
    443000   1.0324803      16.941554      11.696053    
    444000   0.94438422     17.109546      11.632432    
    445000   0.96978691     16.859736      11.571073    
    446000   1.0000305      17.330239      11.192128    
    447000   0.94964781     17.809472      10.892581    
    448000   1.0025332      17.20126       10.776299    
    449000   1.0120068      17.607031      10.625251    
    450000   1.0144188      17.083173      10.529635    
    451000   1.0364693      17.13998       10.409478    
    452000   1.0308303      17.047088      10.378918    
    453000   0.97246446     16.608008      10.291575    
    454000   1.0233888      17.649565      10.269513    
    455000   1.0492542      17.677488      10.223113    
    456000   1.0035389      17.265094      10.040366    
    457000   1.0054941      17.717344      10.095562    
    458000   0.93631626     16.994434      9.9650956    
    459000   0.98926326     17.09323       10.117893    
    460000   1.023608       18.027102      9.9411185    
    461000   0.96417413     17.311198      10.116309    
    462000   0.99851868     17.066131      9.9330324    
    463000   0.9919969      16.907151      9.7587185    
    464000   0.96733338     17.397335      9.6426439    
    465000   0.9573703      16.48018       9.6812424    
    466000   0.98656708     17.204613      9.858848     
    467000   1.0263446      17.087679      9.6630918    
    468000   0.96576423     16.889042      9.9110838    
    469000   1.0016319      16.747222      9.6546047    
    470000   1.0686033      17.230861      9.9124316    
    471000   0.98566248     17.122704      9.8254932    
    472000   1.0439571      17.446188      9.6518578    
    473000   1.012735       16.857724      9.7800267    
    474000   0.95437827     17.138124      9.9776581    
    475000   1.0097501      16.569456      10.017431    
    476000   1.0105182      17.091935      9.9725411    
    477000   1.0176384      17.665279      9.9196334    
    478000   1.010869       17.296742      9.7086904    
    479000   1.0097296      16.928102      9.5368515    
    480000   0.98508028     16.777109      9.4490142    
    481000   1.0227256      17.368036      9.4841245    
    482000   1.0025329      17.485157      9.3614636    
    483000   0.9867707      17.497939      9.4852707    
    484000   1.0105543      16.977157      9.3901171    
    485000   1.0065647      16.284375      9.3812699    
    486000   1.0135287      16.5346        9.3502876    
    487000   0.99243796     17.350263      9.221701     
    488000   1.0041637      17.544972      9.2116293    
    489000   1.0079974      17.066056      9.3499384    
    490000   0.98551164     17.112044      9.5428366    
    491000   0.9888534      17.565428      9.4896111    
    492000   1.0032425      17.171007      9.2576091    
    493000   0.97842637     16.968533      9.1065163    
    494000   0.99405712     17.196235      9.1427064    
    495000   0.93481268     17.22885       8.6335308    
    496000   1.0072815      17.650677      8.5222383    
    497000   1.030825       17.67034       8.532433     
    498000   1.0579183      17.63156       8.5496295    
    499000   1.0194616      16.672847      8.4124005    
    500000   0.9668537      17.269803      8.4126218    
    501000   0.96029849     17.175926      8.4161178    
    502000   1.0324545      17.543022      8.339593     
    503000   1.0367814      16.826145      8.3202462    
    504000   1.0197843      17.315338      8.3814318    
    505000   1.0006701      17.351015      8.3588182    
    506000   1.0001574      16.627371      8.504108     
    507000   1.0165835      17.295749      8.2696624    
    508000   1.0246617      17.001962      8.3526493    
    509000   0.99708926     17.222486      8.5559763    
    510000   0.98942034     17.748032      8.4374403    
    511000   1.0045444      17.644996      8.2727342    
    512000   1.0443069      17.205802      8.1967508    
    513000   0.98297342     17.960182      8.1746043    
    514000   0.97756051     17.172905      8.1632437    
    515000   1.0060529      17.363284      8.0928626    
    516000   0.99786066     17.313151      7.9777361    
    517000   1.0547947      17.370018      7.7504382    
    518000   0.93031618     17.002563      7.4979853    
    519000   0.94752611     16.544056      7.2946638    
    520000   0.9606242      16.798028      7.3812278    
    521000   1.0103841      17.233858      7.3488051    
    522000   0.99245852     17.215621      7.4874155    
    523000   0.96231993     17.113135      7.4873979    
    524000   0.99884351     16.954568      7.3363469    
    525000   0.97972627     16.924177      7.0461329    
Fix halt condition for fix-id 3 met on step 526000 with value 6.782811153651865 (src/fix_halt.cpp:237)
    526000   1.0037179      17.04852       6.7828112    
Loop time of 522.807 on 2 procs for 426000 steps with 801 atoms

Performance: 704014.407 tau/day, 814.831 timesteps/s
126.8% CPU use with 1 MPI tasks x 2 OpenMP threads

MPI task timing breakdown:
Section |  min time  |  avg time  |  max time  |%varavg| %total
---------------------------------------------------------------
Pair    | 109.76     | 109.76     | 109.76     |   0.0 | 21.00
Bond    | 7.5165     | 7.5165     | 7.5165     |   0.0 |  1.44
Neigh   | 387.57     | 387.57     | 387.57     |   0.0 | 74.13
Comm    | 0.13795    | 0.13795    | 0.13795    |   0.0 |  0.03
Output  | 0.90647    | 0.90647    | 0.90647    |   0.0 |  0.17
Modify  | 15.708     | 15.708     | 15.708     |   0.0 |  3.00
Other   |            | 1.199      |            |       |  0.23

Nlocal:            801 ave         801 max         801 min
Histogram: 1 0 0 0 0 0 0 0 0 0
Nghost:              0 ave           0 max           0 min
Histogram: 1 0 0 0 0 0 0 0 0 0
Neighs:         145758 ave      145758 max      145758 min
Histogram: 1 0 0 0 0 0 0 0 0 0

Total # of neighbors = 145758
Ave neighs/atom = 181.97004
Ave special neighs/atom = 1.9975031
Neighbor list builds = 3482
Dangerous builds = 0

# This simulation is done
# Move onto the next one
clear
  using 2 OpenMP thread(s) per MPI task
package omp 0
using multi-threaded neighbor list subroutines
next f
jump SELF

###
# Reference paper:
# K. Kremer and G. S. Grest
# Dynamics of entangled linear polymer melts: A molecular-dynamics simulation
# J Chem Phys 92, 5057 (1990)

##################################
# MIHIR: for branched polymers
# LJ minimum first to expand and explore, then collapse
###

###
# Looping through the various nuc5branch4 polymers to simulate,
# define variables to switch through
variable f index bb37nuc5bl6bn4d30tot100 bb75nuc5bl12bn4d30tot200 bb112nuc5bl18bn4d30tot300 bb150nuc5bl25bn4d30tot400 bb187nuc5bl31bn4d30tot500 bb225nuc5bl37bn4d30tot600 bb262nuc5bl43bn4d30tot700 bb300nuc5bl50bn4d30tot800 bb337nuc5bl56bn4d30tot900 bb375nuc5bl62bn4d30tot1000 bb412nuc5bl68bn4d30tot1100 bb450nuc5bl75bn4d30tot1200
# variable f index bb75nuc5bl12bn4d30tot200
# variable f index bb337nuc5bl56bn4d30tot900
###


###
# Box and units  (use LJ units and periodic boundaries)
###

units lj
log nuc5branch4/logs2/$f.log
log nuc5branch4/logs2/bb337nuc5bl56bn4d30tot900.log
