#atom_style bond #no stiffness
atom_style angle #with stiffness

boundary        p p p
###
# Pair interactions require lists of neighbours to be calculated
###

#neighbor 0.3 bin
neighbor 4 bin

neigh_modify every 1 delay 1 check yes
atom_modify sort 0 0
### Generate RESTART file, SPECIAL format, not a .txt file ###
### Useful if simulation crashes ###

restart 1000000 nuc3branch4/restarts/$f.restart
restart 1000000 nuc3branch4/restarts/bb240nuc3bl60bn4d30tot600.restart
#############################



### READ "start" data file ###

read_data nuc3branch4/$f.dat
read_data nuc3branch4/bb240nuc3bl60bn4d30tot600.dat
Reading data file ...
  orthogonal box = (-1000 -1000 -1000) to (1000 1000 1000)
  1 by 1 by 1 MPI processor grid
  reading atoms ...
  601 atoms
  scanning bonds ...
  3 = max bonds/atom
  scanning angles ...
  6 = max angles/atom
  reading bonds ...
  600 bonds
  reading angles ...
  608 angles
Finding 1-2 1-3 1-4 neighbors ...
  special bond factors lj:    0        0        0       
  special bond factors coul:  0        0        0       
     4 = max # of 1-2 neighbors
     4 = max # of 1-3 neighbors
     8 = max # of 1-4 neighbors
    12 = max # of special neighbors
  special bonds CPU = 0.001 seconds
  read_data CPU = 0.039 seconds

######################

### READ "REstart" data file ###

######################



###
# Define groups (atom type 1 is group 'all')
###
group all type 1
601 atoms in group all


###
# Dump configs - "simple dumpings"
###

###
# Dump configs + box coords
###

dump   1   all   custom   1000  nuc3branch4/trjs/$f.lammpstrj  id  x y z  ix iy iz
dump   1   all   custom   1000  nuc3branch4/trjs/bb240nuc3bl60bn4d30tot600.lammpstrj  id  x y z  ix iy iz
dump_modify   1   format line "%d %.5f %.5f %.5f %d %d %d"

########################################################################


###################################################################
# Stiffness term
#
# E = K * (1+cos(theta)), K>0
#
angle_style   cosine
#change this coefficient to change stiffness (e.g. 1,5,10)
angle_coeff   1 1.0
###################################################################

###################################################################
# Pair interaction between non-bonded atoms
#
#  Lennard-Jones 12-6 potential with cutoff:
#  potential E=4epsilon[ (sigma/r)^12 - (sigma/r)^6]  for r<r_cut
#
#  1.12246 = 2^(1/6) is the minimum of the potential


pair_style      lj/cut 1.12246152962189
#pair_style      lj/cut 3

#
#  pair_modify shift yes adds a constant to the potential such

#  that E(r_cut)=0. Forces remains unchanged.
#

pair_modify     shift yes

#
#  pair_coeff for lj/cut, specify 4:
#    * atom type interacting with
#    * atom type
#    * epsilon (energy units)
#    * sigma (distance units)
#

pair_coeff      1 1 1.0 1.0
###################################################################

###################################################################
# Pair interaction between non-bonded atoms
#
#  soft potential, for PUSHING apart overlapping atoms
#  potential E=A*(1 + cos(pi*r/r_c))
#
#  1.12246 = 2^(1/6) is the cut-off r_c

#pair_style     soft 1.12246152962189

#
#  pair_coeff for soft, specify 3:
#    * atom type interacting with
#    * atom type
#    * A
#
#

#pair_coeff      1 1 100.0
###################################################################

###################################################################
# Pair interaction between bonded atoms
#
# Fene potential + Lennard Jones 12-6:

#
#  E= - 0.5 K R0^2 ln[ 1- (r/R0)^2]
#     + 4epsilon[ (sigma/r)^12 - (sigma/r)^6] + epsilon
#

bond_style   fene


#
# For style fene, specify:
#   * bond type
#   * K (energy/distance^2)
#   * R0 (distance)
#   * epsilon (energy)  (LJ component)
#   * sigma (distance)  (LJ component)
#


special_bonds fene #<=== I M P O R T A N T (new command)
Finding 1-2 1-3 1-4 neighbors ...
  special bond factors lj:    0        1        1       
  special bond factors coul:  0        1        1       
     4 = max # of 1-2 neighbors
    12 = max # of special neighbors
  special bonds CPU = 0.000 seconds

bond_coeff   1   30   2   1.0   1.0


###################################################

###################################################################
# Pair interaction between bonded atoms
#
# Harmonic potential:
#
#  E= K * (R-R0)^2
#

#bond_style   harmonic

#
# For style harmonic, specify:
#   * bond type
#   * K (energy/distance^2)
#   * R0 (distance)
#

#bond_coeff   1   60.0   1.0
#bond_coeff   2   harmonic 0.1   1.0

###################################################
compute 1 all gyration
variable rog equal c_1
#compute 2 all coord/atom cutoff 1.1

#dump 2 all custom 10000 contact_number.dump id c_2


###
# Set up fixes
###
thermo_style   custom   step  temp enthalpy c_1
fix 1 all nve   ###NVE ensemble

fix 2 all   langevin   1.0 1.0 1.0  100103   ###Langevin integrator Tstart Tstop 1/friction rndseed


##### Sample thermodynamic info  (temperature, energy, pressure, etc.) #####
thermo 1000









############################################################################

###
# set timestep of integrator

timestep 0.01

###
# run integration for a number of steps
###
#run 0
#variable r equal c_1
#if "$r < 63.1" then "quit 1"

# lj potential minimum, cause molecule to explore
run 100000
Generated 0 of 0 mixed pair_coeff terms from geometric mixing rule
Neighbor list info ...
  update: every = 1 steps, delay = 1 steps, check = yes
  max neighbors/atom: 2000, page size: 100000
  master list distance cutoff = 5.1224615
  ghost atom cutoff = 5.1224615
  binsize = 2.5612308, bins = 781 781 781
  1 neighbor lists, perpetual/occasional/extra = 1 0 0
  (1) pair lj/cut, perpetual
      attributes: half, newton on
      pair build: half/bin/newton
      stencil: half/bin/3d
      bin: standard
WARNING: Communication cutoff 5.12246152962189 is shorter than a bond length based estimate of 5.455. This may lead to errors. (src/comm.cpp:723)
Per MPI rank memory allocation (min/avg/max) = 1861 | 1861 | 1861 Mbytes
   Step          Temp         Enthalpy         c_1      
         0   0              13.256716      52.28199     
      1000   0.99195053     18.244815      51.28595     
      2000   0.96853305     19.748979      50.467926    
      3000   1.0612518      19.77457       49.797372    
      4000   1.050001       19.470298      49.055685    
      5000   0.99478626     19.605636      48.483724    
      6000   1.038962       19.873567      48.114465    
      7000   0.98234688     19.60694       47.813128    
      8000   0.95457415     19.610003      47.728488    
      9000   0.9988876      19.626783      47.44689     
     10000   1.0294842      20.063606      47.07024     
     11000   1.0025431      19.694217      46.695944    
     12000   1.0005025      19.967556      46.386021    
     13000   0.98262253     19.530031      45.98627     
     14000   0.99928773     20.516731      46.054879    
     15000   0.99148126     19.798678      45.786843    
     16000   0.96644932     20.475815      45.668566    
     17000   0.9580317      19.944342      45.435259    
     18000   1.0060447      20.200091      45.079873    
     19000   0.98818989     20.19774       44.613388    
     20000   0.99706614     20.044879      44.463018    
     21000   1.0225879      20.201505      43.971118    
     22000   0.97045919     20.41051       43.834986    
     23000   1.0153085      19.942939      43.558017    
     24000   0.93773588     20.120191      43.352852    
     25000   1.006688       20.03719       43.024532    
     26000   0.9769318      19.826851      42.581383    
     27000   0.98401786     20.476097      42.436552    
     28000   1.00237        19.910633      42.29732     
     29000   0.97621359     20.070524      42.428328    
     30000   1.0204462      20.099597      42.135382    
     31000   1.0400085      20.438206      41.929103    
     32000   1.0673574      20.618075      41.785932    
     33000   0.93542892     19.826008      41.662534    
     34000   1.027815       20.451905      41.565299    
     35000   1.0050944      19.844692      41.344637    
     36000   1.0281902      20.182593      40.990109    
     37000   1.0058703      20.092879      40.932458    
     38000   0.94317914     19.951845      40.771617    
     39000   1.02275        20.427752      40.297379    
     40000   0.98025869     19.993223      40.156967    
     41000   1.0652752      20.65708       40.216043    
     42000   0.98439208     20.252951      40.336332    
     43000   1.0139301      21.427308      40.247679    
     44000   0.97200358     20.20807       39.914896    
     45000   1.0026439      20.547175      39.649237    
     46000   0.9937407      20.371865      39.455719    
     47000   0.9983852      19.936648      39.343759    
     48000   0.98388036     20.135321      39.489471    
     49000   0.98402276     20.54817       39.373072    
     50000   0.97795202     20.251305      39.426138    
     51000   1.0222848      20.838569      39.430728    
     52000   0.98508006     20.14632       39.384319    
     53000   1.0041189      19.805385      39.302705    
     54000   1.0097945      20.820343      39.175403    
     55000   0.98408608     20.935729      38.863085    
     56000   0.99428278     20.380146      39.016252    
     57000   0.96215331     20.761029      38.71634     
     58000   0.9490729      20.112789      38.662819    
     59000   0.96278677     20.135468      38.444715    
     60000   0.99788801     20.725204      38.155087    
     61000   0.92399958     20.290272      38.1134      
     62000   0.98377963     20.353143      37.928621    
     63000   0.98490965     20.991689      38.022042    
     64000   1.0128101      20.919539      37.664222    
     65000   1.0000351      20.342227      37.465694    
     66000   0.97370011     20.266904      37.100628    
     67000   0.99696177     20.020153      36.681111    
     68000   1.0042763      20.918302      36.576288    
     69000   0.98248025     20.372988      36.827988    
     70000   0.99806144     20.191361      36.755463    
     71000   1.0198095      20.353036      36.510196    
     72000   1.0059775      20.497608      36.483902    
     73000   0.96839949     20.509945      36.394308    
     74000   1.0286982      21.017611      36.300173    
     75000   0.93992141     19.889132      36.246078    
     76000   0.95119364     20.443792      36.649505    
     77000   1.0035286      20.138666      36.375288    
     78000   1.0415317      20.915871      36.406469    
     79000   0.96024055     20.509123      37.072362    
     80000   0.9646423      20.597086      36.841598    
     81000   1.0136483      20.450048      36.870124    
     82000   1.0214398      20.45775       36.749868    
     83000   0.97872706     19.929873      36.562484    
     84000   0.98838473     20.123743      36.325333    
     85000   1.0083658      20.336193      36.109721    
     86000   0.97738787     20.906434      35.988443    
     87000   1.1084096      20.632218      35.968702    
     88000   1.0009028      20.608883      35.889018    
     89000   1.0286411      19.68312       36.010249    
     90000   1.0606273      20.742516      36.188023    
     91000   1.0760774      19.93291       35.902528    
     92000   0.97771566     20.644174      35.801313    
     93000   0.98154791     20.446735      35.920879    
     94000   1.020542       20.23131       35.80676     
     95000   1.0149463      20.833472      35.724617    
     96000   0.99955605     20.421449      35.483369    
     97000   1.0418268      21.089643      35.409401    
     98000   1.0343171      20.689323      35.293616    
     99000   0.95403323     20.258503      35.166653    
    100000   1.02507        20.897639      35.05092     
Loop time of 254.207 on 1 procs for 100000 steps with 601 atoms

Performance: 339880.249 tau/day, 393.380 timesteps/s
100.0% CPU use with 1 MPI tasks x 1 OpenMP threads

MPI task timing breakdown:
Section |  min time  |  avg time  |  max time  |%varavg| %total
---------------------------------------------------------------
Pair    | 1.5629     | 1.5629     | 1.5629     |   0.0 |  0.61
Bond    | 2.5535     | 2.5535     | 2.5535     |   0.0 |  1.00
Neigh   | 246.96     | 246.96     | 246.96     |   0.0 | 97.15
Comm    | 0.025349   | 0.025349   | 0.025349   |   0.0 |  0.01
Output  | 0.18325    | 0.18325    | 0.18325    |   0.0 |  0.07
Modify  | 2.7142     | 2.7142     | 2.7142     |   0.0 |  1.07
Other   |            | 0.2088     |            |       |  0.08

Nlocal:            601 ave         601 max         601 min
Histogram: 1 0 0 0 0 0 0 0 0 0
Nghost:              0 ave           0 max           0 min
Histogram: 1 0 0 0 0 0 0 0 0 0
Neighs:           5509 ave        5509 max        5509 min
Histogram: 1 0 0 0 0 0 0 0 0 0

Total # of neighbors = 5509
Ave neighs/atom = 9.1663894
Ave special neighs/atom = 1.9966722
Neighbor list builds = 1126
Dangerous builds = 0

# Replace lj potential, now collapse
pair_style      lj/cut 3

# Cutoff simul when gyration under 10
# Variable created with equal requires v_ + 'name'
fix 3 all halt 1000 v_rog < 7

run 3000000
Generated 0 of 0 mixed pair_coeff terms from geometric mixing rule
Per MPI rank memory allocation (min/avg/max) = 1861 | 1861 | 1861 Mbytes
   Step          Temp         Enthalpy         c_1      
    100000   1.02507        19.982194      35.05092     
    101000   0.99990812     20.134901      34.751542    
    102000   0.99376369     19.290507      34.501589    
    103000   0.95313829     19.972487      34.259445    
    104000   0.99972314     19.625617      34.001011    
    105000   0.96567264     18.857078      33.742457    
    106000   1.0415584      18.82461       33.676411    
    107000   0.94652008     18.608712      33.348316    
    108000   0.96148782     19.271069      32.916865    
    109000   1.0296623      19.742497      32.839274    
    110000   0.99028223     19.18254       32.782353    
    111000   0.97664484     18.284708      32.527226    
    112000   1.0045535      19.00345       32.141602    
    113000   1.0167941      18.532424      31.955016    
    114000   1.0207596      17.918785      31.845759    
    115000   1.0006204      18.303794      31.599402    
    116000   1.0020157      18.177758      31.247096    
    117000   0.97183246     18.018726      30.873033    
    118000   1.0004115      17.958576      30.990732    
    119000   1.0444735      18.079533      30.744915    
    120000   1.010058       18.295519      30.378867    
    121000   1.0051336      18.064925      30.175048    
    122000   1.0575334      17.936262      30.081677    
    123000   0.99673393     18.103962      29.899227    
    124000   0.98742731     17.534539      30.083243    
    125000   0.96673226     18.362024      30.185823    
    126000   1.042214       18.779439      29.732157    
    127000   0.93506837     17.878239      29.717818    
    128000   1.0883626      18.965546      29.554904    
    129000   0.99465275     17.883173      29.352791    
    130000   0.97919255     17.36154       29.315841    
    131000   0.98838489     18.285848      29.380241    
    132000   1.0011787      17.47784       29.060658    
    133000   1.0011957      17.642749      28.881687    
    134000   1.0164754      17.997135      28.617127    
    135000   1.0362341      17.83275       28.408535    
    136000   0.99395412     17.686666      28.423162    
    137000   1.0205999      17.759852      28.352338    
    138000   0.92734568     17.268706      28.075572    
    139000   1.0018795      18.407857      28.036069    
    140000   0.9652624      17.916985      27.811478    
    141000   1.0260243      17.779033      27.719073    
    142000   0.99224528     18.448643      27.268992    
    143000   1.0351087      18.015391      27.006694    
    144000   1.0466372      17.346282      27.072747    
    145000   0.97359841     17.498739      27.174795    
    146000   0.98110442     17.728912      27.094938    
    147000   0.99856392     18.143605      26.866266    
    148000   0.99505241     17.752697      26.544597    
    149000   1.0059702      17.642589      26.673121    
    150000   1.0209882      17.995146      26.393695    
    151000   1.0062584      17.881207      26.456232    
    152000   0.98120457     17.644068      26.512196    
    153000   1.0033133      18.071989      26.121814    
    154000   0.99633155     18.075859      26.227064    
    155000   0.98311221     18.462182      26.087733    
    156000   0.95254584     17.89799       25.663308    
    157000   1.0008977      17.421986      25.524769    
    158000   1.0515333      18.411428      25.479796    
    159000   0.93907196     19.031267      25.68158     
    160000   0.97822029     17.925676      25.685988    
    161000   0.96636784     17.866366      25.594463    
    162000   1.0160607      17.522215      25.460567    
    163000   0.98223435     17.511979      25.241496    
    164000   1.0010668      17.23176       25.05969     
    165000   0.98671134     17.492885      25.117069    
    166000   1.0203807      18.026278      24.975699    
    167000   0.96138054     17.588439      24.496215    
    168000   0.95374655     17.915698      24.188715    
    169000   1.0099392      18.104402      24.359614    
    170000   0.98268567     18.14342       24.338816    
    171000   0.97662218     17.887368      24.392886    
    172000   0.99461331     18.328274      24.559525    
    173000   1.0797727      17.627852      24.638331    
    174000   0.96212082     18.068907      24.56504     
    175000   0.99117676     17.993662      24.724739    
    176000   0.99999116     17.429868      24.729372    
    177000   0.9952507      17.703956      24.545962    
    178000   1.0102738      17.735483      24.304607    
    179000   1.0047881      18.452595      24.114514    
    180000   1.0237643      17.833119      23.880891    
    181000   0.98157095     17.86002       23.974926    
    182000   1.0069532      17.633565      23.824342    
    183000   1.0746093      17.599086      23.511731    
    184000   1.0402264      17.372873      23.46281     
    185000   0.9570507      16.716714      23.577591    
    186000   0.96197663     18.150892      23.355094    
    187000   0.98073819     17.33412       23.019359    
    188000   1.0138697      17.433688      23.00363     
    189000   1.0052239      17.837698      22.949656    
    190000   1.0158258      17.513065      22.828592    
    191000   1.0143802      17.196484      22.882316    
    192000   0.97258442     17.628621      22.552474    
    193000   1.0199747      18.141395      22.365257    
    194000   1.0208462      17.430388      22.269955    
    195000   0.99575603     17.874898      22.005055    
    196000   1.0301196      18.218569      22.167017    
    197000   0.9709451      18.347035      22.388271    
    198000   0.91529426     18.036671      22.256536    
    199000   0.97788847     17.539234      21.895587    
    200000   0.98672449     17.708748      21.794742    
    201000   1.0114389      17.697427      21.751359    
    202000   0.98127014     18.300959      21.687921    
    203000   1.0277179      17.536096      21.454865    
    204000   0.98010449     17.470323      21.068233    
    205000   1.0200425      17.350185      20.565117    
    206000   0.98061569     17.063805      20.294689    
    207000   1.0182008      17.553092      20.385428    
    208000   0.94591122     17.431858      20.246795    
    209000   0.95447555     17.900007      20.223971    
    210000   0.97567958     17.335901      20.427254    
    211000   0.98920457     17.714021      20.212462    
    212000   1.0369894      17.443116      20.074778    
    213000   1.0353311      17.961198      19.984256    
    214000   0.98220506     18.124453      19.882708    
    215000   0.99870946     18.037324      19.77269     
    216000   0.98119614     17.757757      19.54436     
    217000   0.98313127     18.228462      19.265383    
    218000   0.97674713     17.139178      19.042769    
    219000   0.97604722     18.103875      19.130775    
    220000   1.0136243      17.52339       19.186686    
    221000   1.0132024      17.377804      19.409082    
    222000   0.95292119     17.728361      19.155793    
    223000   0.93594236     17.812305      18.997168    
    224000   0.99213696     17.834601      18.905019    
    225000   1.0063513      17.74513       18.882537    
    226000   1.0037018      17.837446      19.159941    
    227000   1.0272916      17.734388      19.124375    
    228000   1.0378375      17.33338       19.119474    
    229000   1.0553837      17.04114       18.889594    
    230000   0.9899649      17.759774      18.750276    
    231000   1.0136295      18.305192      18.571042    
    232000   0.96235112     17.010562      18.446631    
    233000   0.99198644     16.793121      17.970727    
    234000   0.97977721     17.555848      17.776228    
    235000   1.0420448      17.135197      17.463051    
    236000   0.9719577      16.878227      17.155012    
    237000   1.0776463      17.576132      17.038324    
    238000   0.98476196     17.714651      16.780449    
    239000   1.0039906      17.509154      16.795285    
    240000   1.0115545      18.349705      16.522768    
    241000   0.96353746     17.606947      16.448105    
    242000   0.95567965     17.042491      16.067688    
    243000   1.0347779      17.315665      15.812445    
    244000   1.0020513      18.283084      15.787238    
    245000   1.0005175      18.299126      15.667109    
    246000   1.0108146      17.365004      15.700641    
    247000   1.023405       18.442242      15.677746    
    248000   1.0110413      17.524058      15.571368    
    249000   1.0211421      18.580673      15.613864    
    250000   1.0205861      18.424792      15.162       
    251000   1.0338573      18.207289      14.820324    
    252000   1.0291805      17.57194       14.457333    
    253000   0.99248219     17.789514      14.285785    
    254000   1.0404282      17.513941      14.188278    
    255000   0.97436006     17.335635      14.024565    
    256000   0.97191409     17.442614      13.833449    
    257000   0.99197929     17.106276      13.77424     
    258000   1.0327494      17.922162      13.456627    
    259000   0.99817156     17.489126      13.233105    
    260000   1.024342       18.12237       13.043541    
    261000   0.95508123     17.395683      12.660191    
    262000   1.0186331      17.9765        12.642416    
    263000   1.0190739      17.770512      12.889571    
    264000   0.98433608     17.627463      12.930882    
    265000   0.92294717     17.534008      12.515894    
    266000   1.032975       17.669646      12.379708    
    267000   1.0333859      17.324229      12.144167    
    268000   1.0176229      17.72443       11.818888    
    269000   1.0022901      17.46817       11.713789    
    270000   1.023096       17.91424       11.823445    
    271000   0.9301103      17.327954      11.858456    
    272000   0.97386229     17.911841      11.75536     
    273000   1.0422727      18.506647      11.427999    
    274000   1.061466       17.482587      11.256347    
    275000   0.9692852      18.172212      10.960658    
    276000   0.97524434     17.789032      10.725163    
    277000   0.9740951      17.185867      10.489029    
    278000   1.0267041      16.88624       10.077926    
    279000   1.0573399      17.685153      10.176456    
    280000   1.0145907      16.632726      10.026402    
    281000   1.0461574      17.725856      9.9630176    
    282000   0.99402972     16.979519      9.6176142    
    283000   0.95789297     17.068425      9.5767075    
    284000   0.9926763      17.123518      9.4582348    
    285000   1.0043341      17.823813      9.4966108    
    286000   0.97303042     17.051604      9.2533517    
    287000   0.99865823     17.752239      9.3539362    
    288000   0.98685043     17.640068      9.353315     
    289000   0.99375648     17.402636      9.6619386    
    290000   1.0496782      17.184493      9.7128165    
    291000   1.0038726      17.164055      9.328028     
    292000   1.0453607      17.276078      9.3862005    
    293000   1.0480563      17.974302      9.1134853    
    294000   1.014467       17.726558      9.0113917    
    295000   0.94165617     18.699848      8.7439129    
    296000   1.0581679      17.522063      8.9370619    
    297000   1.0421719      17.808123      8.910718     
    298000   0.99437065     17.456374      8.9519606    
    299000   1.0070373      17.473342      8.8384927    
    300000   0.97369771     16.687525      8.610581     
    301000   1.0271078      17.699828      8.7237431    
    302000   1.0151196      17.163909      8.7834311    
    303000   1.0151953      17.10363       8.7559599    
    304000   1.0023181      17.107294      8.792947     
    305000   1.0291334      17.862716      8.5844806    
    306000   0.98787399     17.692451      8.5457055    
    307000   1.0000888      17.171468      8.4937583    
    308000   0.9923391      17.379424      8.5228148    
    309000   0.95233079     16.902456      8.338809     
    310000   1.018162       17.378884      8.0809657    
    311000   0.99182482     17.728767      8.1838038    
    312000   1.0603315      17.628175      8.1787159    
    313000   0.97869076     17.121457      7.8379726    
    314000   1.0010993      17.038376      7.623318     
    315000   1.0122289      17.845488      7.4173629    
    316000   1.0088736      17.256519      7.3507715    
    317000   0.99369388     17.022535      7.3156091    
    318000   1.0293744      16.910501      7.3783912    
    319000   0.94296186     17.601942      7.09208      
Fix halt condition for fix-id 3 met on step 320000 with value 6.901455481631976 (src/fix_halt.cpp:237)
    320000   0.98136025     17.594361      6.9014555    
Loop time of 387.981 on 1 procs for 220000 steps with 601 atoms

Performance: 489920.567 tau/day, 567.038 timesteps/s
99.9% CPU use with 1 MPI tasks x 1 OpenMP threads

MPI task timing breakdown:
Section |  min time  |  avg time  |  max time  |%varavg| %total
---------------------------------------------------------------
Pair    | 83.919     | 83.919     | 83.919     |   0.0 | 21.63
Bond    | 6.7058     | 6.7058     | 6.7058     |   0.0 |  1.73
Neigh   | 288.73     | 288.73     | 288.73     |   0.0 | 74.42
Comm    | 0.1139     | 0.1139     | 0.1139     |   0.0 |  0.03
Output  | 0.50921    | 0.50921    | 0.50921    |   0.0 |  0.13
Modify  | 7.0597     | 7.0597     | 7.0597     |   0.0 |  1.82
Other   |            | 0.9418     |            |       |  0.24

Nlocal:            601 ave         601 max         601 min
Histogram: 1 0 0 0 0 0 0 0 0 0
Nghost:              0 ave           0 max           0 min
Histogram: 1 0 0 0 0 0 0 0 0 0
Neighs:          85244 ave       85244 max       85244 min
Histogram: 1 0 0 0 0 0 0 0 0 0

Total # of neighbors = 85244
Ave neighs/atom = 141.83694
Ave special neighs/atom = 1.9966722
Neighbor list builds = 1754
Dangerous builds = 0

# This simulation is done
# Move onto the next one
clear
OMP_NUM_THREADS environment is not set. Defaulting to 1 thread. (src/comm.cpp:98)
  using 1 OpenMP thread(s) per MPI task
next f
jump SELF

###
# Reference paper:
# K. Kremer and G. S. Grest
# Dynamics of entangled linear polymer melts: A molecular-dynamics simulation
# J Chem Phys 92, 5057 (1990)

##################################
# MIHIR: for branched polymers
# LJ minimum first to expand and explore, then collapse
###

###
# Looping through the various nuc3branch4 polymers to simulate,
# define variables to switch through
variable f index bb40nuc3bl10bn4d30tot100 bb80nuc3bl20bn4d30tot200 bb120nuc3bl30bn4d30tot300 bb160nuc3bl40bn4d30tot400 bb200nuc3bl50bn4d30tot500 bb240nuc3bl60bn4d30tot600 bb280nuc3bl70bn4d30tot700 bb320nuc3bl80bn4d30tot800 bb360nuc3bl90bn4d30tot900 bb400nuc3bl100bn4d30tot1000 bb440nuc3bl110bn4d30tot1100 bb480nuc3bl120bn4d30tot1200
###


###
# Box and units  (use LJ units and periodic boundaries)
###

units lj
log nuc3branch4/logs/$f.log
log nuc3branch4/logs/bb280nuc3bl70bn4d30tot700.log
