#atom_style bond #no stiffness
atom_style angle #with stiffness

boundary        p p p
###
# Pair interactions require lists of neighbours to be calculated
###

#neighbor 0.3 bin
neighbor 4 bin

neigh_modify every 1 delay 1 check yes
atom_modify sort 0 0
### Generate RESTART file, SPECIAL format, not a .txt file ###
### Useful if simulation crashes ###

restart 1000000 nuc3branch4/restarts/$f.restart
restart 1000000 nuc3branch4/restarts/bb320nuc3bl80bn4d30tot800.restart
#############################



### READ "start" data file ###

read_data nuc3branch4/$f.dat
read_data nuc3branch4/bb320nuc3bl80bn4d30tot800.dat
Reading data file ...
  orthogonal box = (-1000 -1000 -1000) to (1000 1000 1000)
  1 by 1 by 1 MPI processor grid
  reading atoms ...
  801 atoms
  scanning bonds ...
  3 = max bonds/atom
  scanning angles ...
  6 = max angles/atom
  reading bonds ...
  800 bonds
  reading angles ...
  808 angles
Finding 1-2 1-3 1-4 neighbors ...
  special bond factors lj:    0        0        0       
  special bond factors coul:  0        0        0       
     4 = max # of 1-2 neighbors
     4 = max # of 1-3 neighbors
     8 = max # of 1-4 neighbors
    12 = max # of special neighbors
  special bonds CPU = 0.001 seconds
  read_data CPU = 0.051 seconds

######################

### READ "REstart" data file ###

######################



###
# Define groups (atom type 1 is group 'all')
###
group all type 1
801 atoms in group all


###
# Dump configs - "simple dumpings"
###

###
# Dump configs + box coords
###

dump   1   all   custom   1000  nuc3branch4/trjs/$f.lammpstrj  id  x y z  ix iy iz
dump   1   all   custom   1000  nuc3branch4/trjs/bb320nuc3bl80bn4d30tot800.lammpstrj  id  x y z  ix iy iz
dump_modify   1   format line "%d %.5f %.5f %.5f %d %d %d"

########################################################################


###################################################################
# Stiffness term
#
# E = K * (1+cos(theta)), K>0
#
angle_style   cosine
#change this coefficient to change stiffness (e.g. 1,5,10)
angle_coeff   1 1.0
###################################################################

###################################################################
# Pair interaction between non-bonded atoms
#
#  Lennard-Jones 12-6 potential with cutoff:
#  potential E=4epsilon[ (sigma/r)^12 - (sigma/r)^6]  for r<r_cut
#
#  1.12246 = 2^(1/6) is the minimum of the potential


pair_style      lj/cut 1.12246152962189
#pair_style      lj/cut 3

#
#  pair_modify shift yes adds a constant to the potential such

#  that E(r_cut)=0. Forces remains unchanged.
#

pair_modify     shift yes

#
#  pair_coeff for lj/cut, specify 4:
#    * atom type interacting with
#    * atom type
#    * epsilon (energy units)
#    * sigma (distance units)
#

pair_coeff      1 1 1.0 1.0
###################################################################

###################################################################
# Pair interaction between non-bonded atoms
#
#  soft potential, for PUSHING apart overlapping atoms
#  potential E=A*(1 + cos(pi*r/r_c))
#
#  1.12246 = 2^(1/6) is the cut-off r_c

#pair_style     soft 1.12246152962189

#
#  pair_coeff for soft, specify 3:
#    * atom type interacting with
#    * atom type
#    * A
#
#

#pair_coeff      1 1 100.0
###################################################################

###################################################################
# Pair interaction between bonded atoms
#
# Fene potential + Lennard Jones 12-6:

#
#  E= - 0.5 K R0^2 ln[ 1- (r/R0)^2]
#     + 4epsilon[ (sigma/r)^12 - (sigma/r)^6] + epsilon
#

bond_style   fene


#
# For style fene, specify:
#   * bond type
#   * K (energy/distance^2)
#   * R0 (distance)
#   * epsilon (energy)  (LJ component)
#   * sigma (distance)  (LJ component)
#


special_bonds fene #<=== I M P O R T A N T (new command)
Finding 1-2 1-3 1-4 neighbors ...
  special bond factors lj:    0        1        1       
  special bond factors coul:  0        1        1       
     4 = max # of 1-2 neighbors
    12 = max # of special neighbors
  special bonds CPU = 0.000 seconds

bond_coeff   1   30   2   1.0   1.0


###################################################

###################################################################
# Pair interaction between bonded atoms
#
# Harmonic potential:
#
#  E= K * (R-R0)^2
#

#bond_style   harmonic

#
# For style harmonic, specify:
#   * bond type
#   * K (energy/distance^2)
#   * R0 (distance)
#

#bond_coeff   1   60.0   1.0
#bond_coeff   2   harmonic 0.1   1.0

###################################################
compute 1 all gyration
variable rog equal c_1
#compute 2 all coord/atom cutoff 1.1

#dump 2 all custom 10000 contact_number.dump id c_2


###
# Set up fixes
###
thermo_style   custom   step  temp enthalpy c_1
fix 1 all nve   ###NVE ensemble

fix 2 all   langevin   1.0 1.0 1.0  100103   ###Langevin integrator Tstart Tstop 1/friction rndseed


##### Sample thermodynamic info  (temperature, energy, pressure, etc.) #####
thermo 1000









############################################################################

###
# set timestep of integrator

timestep 0.01

###
# run integration for a number of steps
###
#run 0
#variable r equal c_1
#if "$r < 63.1" then "quit 1"

# lj potential minimum, cause molecule to explore
run 100000
Generated 0 of 0 mixed pair_coeff terms from geometric mixing rule
Neighbor list info ...
  update: every = 1 steps, delay = 1 steps, check = yes
  max neighbors/atom: 2000, page size: 100000
  master list distance cutoff = 5.1224615
  ghost atom cutoff = 5.1224615
  binsize = 2.5612308, bins = 781 781 781
  1 neighbor lists, perpetual/occasional/extra = 1 0 0
  (1) pair lj/cut, perpetual
      attributes: half, newton on
      pair build: half/bin/newton
      stencil: half/bin/3d
      bin: standard
WARNING: Communication cutoff 5.12246152962189 is shorter than a bond length based estimate of 5.455. This may lead to errors. (src/comm.cpp:723)
Per MPI rank memory allocation (min/avg/max) = 1861 | 1861 | 1861 Mbytes
   Step          Temp         Enthalpy         c_1      
         0   0              13.259555      71.570058    
      1000   1.0197507      18.286729      70.702765    
      2000   1.0065468      18.241179      70.016812    
      3000   1.027656       19.051451      69.299728    
      4000   0.9999091      19.361613      68.837923    
      5000   0.97799652     18.871241      68.329366    
      6000   0.99072972     19.255562      67.939593    
      7000   1.0017994      19.717313      67.465219    
      8000   1.0121835      19.313404      67.220025    
      9000   0.97540582     19.38263       66.674868    
     10000   1.0032531      19.561427      66.309829    
     11000   1.0205198      19.434053      66.112675    
     12000   0.9767694      19.448751      65.573224    
     13000   0.99401479     19.906186      65.471941    
     14000   1.0373093      20.073825      65.220657    
     15000   0.96202705     19.416167      64.56662     
     16000   1.0217788      19.579577      64.188298    
     17000   1.0056433      19.385138      63.863826    
     18000   1.0052724      20.177062      63.437479    
     19000   0.98372964     19.747682      63.379697    
     20000   1.0415353      20.336386      63.040633    
     21000   0.93993096     20.239042      62.622894    
     22000   1.0196836      20.59122       62.493894    
     23000   0.96352229     19.675646      62.096464    
     24000   1.0471162      20.433286      61.738064    
     25000   0.94329156     20.370063      61.464716    
     26000   1.0010563      19.912552      61.344282    
     27000   1.0192571      20.067085      60.914941    
     28000   1.0560907      19.794745      60.734707    
     29000   0.99211148     19.787015      60.38368     
     30000   1.0101424      20.58088       60.154112    
     31000   1.0278352      20.54692       60.094899    
     32000   0.98325643     20.090453      59.755174    
     33000   1.0101093      20.326358      59.954571    
     34000   0.99612545     20.016596      59.761958    
     35000   0.99737519     20.089271      59.829997    
     36000   1.0225123      20.196475      59.439818    
     37000   1.0127273      20.675509      58.987401    
     38000   1.038084       20.84169       59.050268    
     39000   0.97923607     20.046226      58.766092    
     40000   1.0012887      20.296903      58.801895    
     41000   1.025078       20.449225      58.490697    
     42000   0.99954128     20.382385      58.143335    
     43000   1.011634       20.451977      57.84509     
     44000   0.96987679     19.997593      57.62424     
     45000   0.96802695     20.586779      57.543355    
     46000   1.0189402      20.183185      57.521189    
     47000   1.0096318      20.155136      57.405716    
     48000   1.0017413      20.478026      57.182784    
     49000   1.0345123      20.496374      56.796789    
     50000   1.0552791      19.973792      56.531264    
     51000   0.98949239     20.240852      56.469933    
     52000   1.002502       20.275908      56.360592    
     53000   0.99613244     20.281242      56.589531    
     54000   1.0267026      20.561858      56.584424    
     55000   1.0399048      20.148148      56.294239    
     56000   0.98760336     20.883585      56.312067    
     57000   1.0294584      20.632554      56.064781    
     58000   1.038972       20.217216      56.167679    
     59000   0.97031022     20.445468      56.13538     
     60000   0.96019173     20.123217      56.058806    
     61000   0.98416589     19.875766      56.04925     
     62000   0.98875631     20.465173      55.973735    
     63000   1.0355262      20.584485      55.897498    
     64000   0.98938832     20.703956      55.767196    
     65000   1.0259048      20.443972      55.692697    
     66000   1.0244119      20.776118      55.660758    
     67000   1.0032666      20.98096       55.757393    
     68000   1.0032774      20.541778      55.695409    
     69000   0.98761445     19.951335      55.734222    
     70000   1.0107833      20.416527      55.404391    
     71000   0.9696975      20.205016      55.403884    
     72000   0.97280067     20.877218      55.342366    
     73000   0.98717233     20.16164       55.282469    
     74000   0.97807261     20.865014      55.26491     
     75000   0.99375856     20.447041      55.017428    
     76000   0.98965655     19.726962      55.042621    
     77000   0.97478271     19.94081       54.89123     
     78000   0.94790424     20.521555      54.554003    
     79000   1.0260629      20.729686      54.485793    
     80000   1.0240587      20.56486       54.725821    
     81000   1.0061118      20.24394       54.811274    
     82000   0.97038655     19.348632      54.617293    
     83000   1.0308417      20.345888      54.701091    
     84000   0.98572324     20.236116      54.509061    
     85000   0.96040245     20.742496      54.374043    
     86000   0.98050199     20.44272       54.157482    
     87000   0.98610049     20.212783      54.066894    
     88000   1.00228        20.562316      53.966379    
     89000   1.0496396      20.704477      53.814009    
     90000   0.9635977      20.046167      53.858334    
     91000   0.99620167     20.138015      53.818217    
     92000   0.96124713     20.400603      53.182218    
     93000   0.96627162     20.413617      53.067134    
     94000   0.97021965     20.353972      53.023004    
     95000   0.94744417     20.226128      53.020964    
     96000   1.0290804      20.412557      52.713822    
     97000   0.98881046     20.594205      52.597602    
     98000   0.9283935      20.419824      52.375121    
     99000   0.99414149     20.577779      52.217763    
    100000   0.98661029     20.203187      51.992725    
Loop time of 264.075 on 1 procs for 100000 steps with 801 atoms

Performance: 327179.491 tau/day, 378.680 timesteps/s
100.0% CPU use with 1 MPI tasks x 1 OpenMP threads

MPI task timing breakdown:
Section |  min time  |  avg time  |  max time  |%varavg| %total
---------------------------------------------------------------
Pair    | 1.8016     | 1.8016     | 1.8016     |   0.0 |  0.68
Bond    | 3.788      | 3.788      | 3.788      |   0.0 |  1.43
Neigh   | 254.41     | 254.41     | 254.41     |   0.0 | 96.34
Comm    | 0.031518   | 0.031518   | 0.031518   |   0.0 |  0.01
Output  | 0.19723    | 0.19723    | 0.19723    |   0.0 |  0.07
Modify  | 3.5797     | 3.5797     | 3.5797     |   0.0 |  1.36
Other   |            | 0.2699     |            |       |  0.10

Nlocal:            801 ave         801 max         801 min
Histogram: 1 0 0 0 0 0 0 0 0 0
Nghost:              0 ave           0 max           0 min
Histogram: 1 0 0 0 0 0 0 0 0 0
Neighs:           6833 ave        6833 max        6833 min
Histogram: 1 0 0 0 0 0 0 0 0 0

Total # of neighbors = 6833
Ave neighs/atom = 8.5305868
Ave special neighs/atom = 1.9975031
Neighbor list builds = 1145
Dangerous builds = 0

# Replace lj potential, now collapse
pair_style      lj/cut 3

# Cutoff simul when gyration under 10
# Variable created with equal requires v_ + 'name'
fix 3 all halt 1000 v_rog < 7

run 3000000
Generated 0 of 0 mixed pair_coeff terms from geometric mixing rule
Per MPI rank memory allocation (min/avg/max) = 1861 | 1861 | 1861 Mbytes
   Step          Temp         Enthalpy         c_1      
    100000   0.98661029     19.386029      51.992725    
    101000   0.98442652     19.938941      51.72028     
    102000   1.0330292      19.568535      51.593005    
    103000   1.0182527      19.548067      51.648919    
    104000   1.0193226      19.569944      51.485522    
    105000   0.95877281     19.694773      51.176331    
    106000   0.96441286     19.162         50.719903    
    107000   0.98064346     19.921373      50.337065    
    108000   0.95971215     19.06417       50.15204     
    109000   0.99124451     18.908511      50.050391    
    110000   1.0204477      18.760751      49.827798    
    111000   1.0668614      19.405103      49.626306    
    112000   1.0069627      19.022777      49.490419    
    113000   1.0127389      18.691679      49.484031    
    114000   0.99600121     18.565547      49.213451    
    115000   1.0516613      18.955931      49.029807    
    116000   0.98920984     18.695707      49.031977    
    117000   1.0267865      18.782086      48.849151    
    118000   0.99543043     18.852397      48.490097    
    119000   1.0215477      18.692116      48.203853    
    120000   0.98873016     19.061443      48.046714    
    121000   1.011105       17.93795       47.872236    
    122000   0.96763119     18.850727      47.729768    
    123000   1.0108276      18.895029      47.565245    
    124000   1.0110951      18.382266      47.754067    
    125000   1.0104725      18.368228      47.472391    
    126000   0.99306147     18.185477      47.159936    
    127000   0.98159681     18.367715      47.122708    
    128000   1.0027764      19.170218      47.20191     
    129000   0.99336287     17.959088      47.070359    
    130000   0.98333166     18.452296      46.768539    
    131000   0.97439489     18.123411      46.534355    
    132000   0.98488741     18.5809        46.341256    
    133000   1.001953       18.524165      46.08711     
    134000   0.99446799     18.734531      45.959451    
    135000   1.0094161      18.982718      45.71898     
    136000   0.95583991     17.781076      45.684454    
    137000   0.9721292      17.919895      45.488614    
    138000   0.98597365     17.63446       45.475599    
    139000   0.99195809     17.435288      45.191627    
    140000   0.98967128     17.515452      45.089802    
    141000   1.0253461      18.110571      44.858514    
    142000   1.0122052      18.335374      44.703367    
    143000   1.0494788      18.056471      44.413864    
    144000   1.0172287      17.875676      44.416761    
    145000   0.98498425     17.713596      44.541024    
    146000   0.99147514     16.949758      44.282435    
    147000   0.91332438     17.564795      44.149002    
    148000   0.98053068     18.385013      44.21591     
    149000   1.0120104      18.076771      43.907332    
    150000   0.97107842     17.536528      43.892994    
    151000   0.98538299     17.630075      43.78576     
    152000   1.0295594      18.007132      43.641997    
    153000   0.95213682     17.609036      43.363307    
    154000   1.0312678      17.749281      43.231665    
    155000   1.0449828      18.384172      43.099601    
    156000   0.99189294     17.946215      42.844173    
    157000   1.034376       18.011867      42.546251    
    158000   1.0182495      18.255913      42.695184    
    159000   0.98015582     17.805728      42.561834    
    160000   0.97769774     17.960996      42.376213    
    161000   1.0077497      17.369977      42.065603    
    162000   1.0046176      18.16537       42.250061    
    163000   0.9919963      17.459951      42.328317    
    164000   1.036679       18.209099      42.206238    
    165000   1.0634639      18.023899      41.860206    
    166000   0.95117176     17.26173       41.823657    
    167000   1.039161       17.803106      41.908063    
    168000   1.0228295      17.700112      41.825362    
    169000   1.0141006      18.22719       41.754726    
    170000   0.96775117     17.752208      41.841666    
    171000   0.95852298     16.927234      41.6282      
    172000   1.0145554      17.490498      41.124513    
    173000   1.0119497      18.169741      41.125744    
    174000   1.0198242      18.522834      40.815188    
    175000   0.98849737     17.691939      40.872884    
    176000   1.0416113      17.924383      41.040054    
    177000   1.0218092      17.847834      41.013745    
    178000   0.99215645     17.18033       40.673471    
    179000   0.99206875     18.03417       40.836302    
    180000   0.99525277     17.442819      40.844555    
    181000   1.0199512      17.269797      40.957742    
    182000   0.96666017     17.395646      40.751591    
    183000   1.0241619      18.373296      40.543002    
    184000   1.035898       17.973334      40.383721    
    185000   1.0388452      17.716936      40.345058    
    186000   1.0167148      18.080347      40.103152    
    187000   0.99038742     18.48899       40.134373    
    188000   1.030501       18.141035      40.307068    
    189000   0.99501094     17.404139      40.154899    
    190000   1.0150137      18.502342      39.825795    
    191000   1.0010427      17.73778       39.594796    
    192000   1.0047877      18.393626      39.401163    
    193000   1.0135895      17.224987      39.239973    
    194000   0.98264163     18.390594      39.517717    
    195000   1.0452208      17.762394      39.203824    
    196000   0.96973669     17.353396      38.841326    
    197000   1.0390276      17.360328      38.591728    
    198000   0.98600084     17.555621      38.033325    
    199000   1.0031823      18.156129      37.905492    
    200000   1.0644789      17.872313      37.68791     
    201000   0.99569397     18.60873       37.530692    
    202000   0.99804598     18.396976      37.491927    
    203000   1.0044626      18.400657      37.555653    
    204000   1.0022356      18.005238      37.492356    
    205000   0.97685328     18.065371      37.508455    
    206000   1.0044506      17.91751       37.42081     
    207000   0.99326256     17.076845      37.133034    
    208000   1.0058823      17.815857      36.998165    
    209000   1.0594938      18.209982      36.873222    
    210000   0.99095396     17.88442       36.692445    
    211000   1.0080252      17.533898      36.581976    
    212000   0.97910986     17.986507      36.516626    
    213000   0.98374767     17.89324       36.487216    
    214000   1.0043289      17.720718      36.476827    
    215000   1.02324        17.547457      36.570722    
    216000   1.0005889      17.944768      36.547629    
    217000   1.0492569      17.585392      36.397284    
    218000   0.96913527     17.639882      36.309923    
    219000   1.0019202      17.077059      36.009316    
    220000   1.0351695      17.774351      35.919223    
    221000   1.0012098      18.314354      35.798556    
    222000   1.0053621      17.457406      35.624189    
    223000   1.0205103      16.990612      35.557244    
    224000   0.99742476     16.967437      35.732023    
    225000   1.0218882      17.676167      35.845199    
    226000   0.97313359     17.841995      35.418373    
    227000   1.0226206      17.25452       35.449515    
    228000   0.97731578     17.591384      35.204681    
    229000   1.0330796      17.607231      35.157749    
    230000   0.98265692     17.542572      35.228166    
    231000   1.0118661      18.353926      35.005484    
    232000   1.070669       17.886393      35.165552    
    233000   0.96746886     17.56705       34.901139    
    234000   0.98286537     17.632017      34.783889    
    235000   0.97532965     17.982407      34.821822    
    236000   0.97342921     17.890495      34.634611    
    237000   0.95574531     17.673982      34.557864    
    238000   0.97406384     18.117629      34.459485    
    239000   0.98425746     18.383706      34.149794    
    240000   0.99453689     17.857924      34.158796    
    241000   0.97552159     17.699723      34.051032    
    242000   0.99357783     17.974001      34.094651    
    243000   0.96027894     17.441061      34.19722     
    244000   1.035221       17.519865      34.184703    
    245000   1.0056008      16.812374      34.247053    
    246000   1.0294832      17.495507      34.171159    
    247000   0.99196136     17.058154      34.129679    
    248000   0.94603364     16.935301      34.122624    
    249000   0.98254391     18.006226      34.254754    
    250000   0.99911273     17.736932      34.136042    
    251000   1.0062344      17.631671      34.300309    
    252000   1.0591356      18.302145      34.060645    
    253000   1.0188563      18.094174      33.747337    
    254000   1.044802       17.801367      33.370006    
    255000   0.99077949     17.484052      33.093914    
    256000   0.99276924     17.135934      32.699163    
    257000   0.99979811     17.779016      33.003555    
    258000   0.9960053      17.285983      32.786814    
    259000   1.010913       17.277232      32.68128     
    260000   0.9953695      17.403084      32.836838    
    261000   0.9936789      17.87507       32.514228    
    262000   0.99603471     16.613458      32.420701    
    263000   0.98028124     16.945888      32.505002    
    264000   0.98476407     17.564854      32.367353    
    265000   0.96759983     17.93947       32.28233     
    266000   0.99695011     17.819         32.332587    
    267000   0.9910107      17.744255      32.317319    
    268000   0.98968726     18.010928      32.433461    
    269000   1.0256235      18.131147      32.659381    
    270000   1.0479321      17.925485      32.558635    
    271000   0.99220521     17.706382      32.682369    
    272000   1.0063938      17.324907      32.575674    
    273000   1.009496       17.545958      32.414522    
    274000   0.99078776     18.047564      32.064555    
    275000   0.96663022     17.753937      32.023003    
    276000   0.98995583     17.22419       31.841815    
    277000   0.94463724     17.525708      31.773597    
    278000   0.99865258     17.355807      31.58349     
    279000   1.058757       17.570491      31.62534     
    280000   1.0534847      17.529493      31.60497     
    281000   1.031586       18.804542      31.635074    
    282000   1.0161101      18.088201      31.629252    
    283000   1.0610459      17.794877      31.790169    
    284000   1.0213395      18.403102      31.631002    
    285000   0.95318958     18.11057       31.883987    
    286000   1.000176       17.702977      31.996559    
    287000   0.99724288     17.414393      32.037259    
    288000   0.99996027     17.296211      32.210588    
    289000   0.94821781     17.733287      32.264262    
    290000   0.9347814      17.264742      32.280903    
    291000   1.0092509      17.917355      32.237136    
    292000   1.0256164      17.50868       32.243522    
    293000   0.99756555     17.882603      32.332239    
    294000   1.0308918      17.697813      32.151809    
    295000   0.99136699     17.852765      32.162269    
    296000   0.99884737     17.398033      31.962109    
    297000   1.0313401      17.674279      32.129411    
    298000   0.99869891     17.547792      32.105734    
    299000   1.0272966      17.846827      32.410456    
    300000   0.97536487     17.291978      32.275566    
    301000   0.99557062     18.206368      32.274844    
    302000   1.0030896      18.120114      32.254405    
    303000   1.013675       17.788397      32.080864    
    304000   0.98963218     17.885535      31.978098    
    305000   1.0262663      18.098026      31.645491    
    306000   1.0056339      18.156125      31.696274    
    307000   1.0109793      17.629387      31.724512    
    308000   0.99651993     17.486813      31.422607    
    309000   1.040736       17.313939      31.447929    
    310000   1.0282994      17.753195      31.060781    
    311000   1.0384887      17.76103       30.940397    
    312000   0.97757639     17.514477      30.809142    
    313000   0.98002649     17.996143      30.822339    
    314000   1.0027438      17.311694      30.726692    
    315000   0.9878463      17.613271      30.403929    
    316000   1.0202509      17.649051      30.197962    
    317000   1.0390936      17.491973      30.513067    
    318000   0.99001797     18.605734      30.443821    
    319000   0.97230215     17.721087      30.426372    
    320000   1.0078332      17.945313      30.260951    
    321000   1.0360417      16.853412      30.216723    
    322000   1.0569819      18.535286      30.27472     
    323000   0.97764907     17.517202      30.288077    
    324000   0.99765634     17.507025      30.292912    
    325000   0.99254378     17.636932      30.42409     
    326000   1.0000965      17.511426      30.363802    
    327000   0.97656136     17.570157      30.386383    
    328000   0.95201134     17.474253      30.342746    
    329000   1.0012534      18.232258      30.216808    
    330000   0.99789509     18.288305      30.011179    
    331000   0.99373493     17.561077      30.057168    
    332000   1.0030649      18.182263      29.775338    
    333000   1.0433074      17.193209      29.92212     
    334000   1.0152337      17.91476       29.885633    
    335000   1.0452598      17.348535      29.653261    
    336000   0.99739896     17.73052       29.773143    
    337000   1.0145641      18.261086      29.814883    
    338000   0.96734158     16.914081      29.638849    
    339000   1.0095575      17.949097      29.385433    
    340000   1.0235302      17.453611      29.286025    
    341000   1.011783       17.414546      29.032826    
    342000   0.98071728     18.065224      28.943786    
    343000   0.93923194     17.527871      28.942399    
    344000   1.0168955      17.653913      28.918971    
    345000   0.99782316     17.594551      28.829009    
    346000   0.97696051     16.845231      28.849237    
    347000   1.0428424      17.808689      28.939757    
    348000   1.0513003      17.102047      28.73373     
    349000   1.0367175      17.604765      28.400774    
    350000   1.0139531      17.544869      28.150142    
    351000   1.0296389      18.087949      27.967729    
    352000   0.97513028     17.232084      27.833581    
    353000   0.99949408     17.555039      27.662486    
    354000   0.99327833     17.08339       27.476892    
    355000   1.0277223      17.149463      27.259971    
    356000   1.031609       18.333083      27.275021    
    357000   1.0028372      18.237381      27.367845    
    358000   1.0125241      17.495337      27.350697    
    359000   1.0556305      17.764277      27.082474    
    360000   0.96412829     17.187296      26.854537    
    361000   0.96745959     17.363244      26.652951    
    362000   0.99946518     17.02216       26.352917    
    363000   0.93683156     17.517119      26.235803    
    364000   0.96733309     17.13809       25.916287    
    365000   0.99947425     17.566727      25.68472     
    366000   1.0079743      17.100598      25.927728    
    367000   0.98860116     17.867929      25.81696     
    368000   0.97689277     17.641556      25.884911    
    369000   1.0565278      17.369584      25.820491    
    370000   1.0009992      17.489019      25.76623     
    371000   1.0270503      17.462524      25.626744    
    372000   1.0298634      17.466061      25.577405    
    373000   0.96266334     17.638078      25.324039    
    374000   0.98663392     17.916361      25.135002    
    375000   0.99198787     17.611206      24.860588    
    376000   0.97893984     17.011984      24.577767    
    377000   0.9855106      17.778083      24.347647    
    378000   1.0165156      17.140543      24.247258    
    379000   1.0445475      17.728078      24.266051    
    380000   1.1071151      18.231649      24.064115    
    381000   1.0068086      17.712509      24.029858    
    382000   0.98286877     17.516566      23.790118    
    383000   1.0037202      17.270462      23.657548    
    384000   1.0472982      17.110274      23.778765    
    385000   0.98981415     18.22386       23.662502    
    386000   1.0128685      17.394209      23.764293    
    387000   1.0368282      17.860608      23.540149    
    388000   0.9869638      17.753382      23.313559    
    389000   1.0004393      18.435285      23.457412    
    390000   1.023982       17.56886       23.383447    
    391000   1.0040481      17.728759      23.351927    
    392000   0.96339952     17.209674      23.230561    
    393000   1.0294045      17.600022      23.343099    
    394000   0.98238226     17.433459      23.203376    
    395000   1.0199268      17.854095      22.880413    
    396000   1.02131        17.46734       22.650953    
    397000   0.99262392     17.155119      22.292127    
    398000   0.9512224      17.698869      21.946545    
    399000   0.97787414     17.162553      21.71974     
    400000   1.0284311      17.775351      21.588251    
    401000   1.0525093      17.623693      21.432152    
    402000   0.99840134     17.168595      21.575492    
    403000   1.0351576      18.069669      21.692581    
    404000   1.0105887      17.500721      21.652924    
    405000   0.98081728     17.581087      21.72248     
    406000   0.97003097     17.76903       21.596052    
    407000   0.97603982     17.495157      21.546017    
    408000   0.98222016     17.527052      21.344318    
    409000   0.9400824      17.601618      21.132693    
    410000   1.0566116      17.940123      21.056948    
    411000   0.9810013      17.312845      21.051932    
    412000   1.0179508      17.366275      20.977439    
    413000   0.96292972     17.1096        21.078115    
    414000   0.99544804     17.974684      21.029121    
    415000   0.9975068      17.366634      20.939719    
    416000   1.0310036      17.74603       20.841373    
    417000   1.0303975      16.642495      20.706541    
    418000   0.97483808     17.321126      20.545136    
    419000   0.9862466      16.877554      20.40702     
    420000   0.99583306     17.465828      20.33198     
    421000   1.0229714      17.642202      20.379251    
    422000   1.011897       17.232208      20.577799    
    423000   0.97935243     17.356752      20.610368    
    424000   1.0588611      17.827748      20.643886    
    425000   1.0040889      17.506402      20.620577    
    426000   1.0292917      17.04259       20.475046    
    427000   0.9891789      17.140908      20.588938    
    428000   1.0117832      17.634226      20.560475    
    429000   0.97571675     18.066067      20.358931    
    430000   0.97040613     17.336468      19.922892    
    431000   1.0457316      17.430138      19.777147    
    432000   1.0316569      17.637786      19.770112    
    433000   1.0058746      17.783861      19.977312    
    434000   1.0308149      17.780275      19.885382    
    435000   0.99693523     16.801296      19.751666    
    436000   0.99204019     17.505024      19.834832    
    437000   1.0188324      17.337617      19.6262      
    438000   0.96846213     17.436401      19.782152    
    439000   1.01371        17.342968      19.79784     
    440000   0.97170253     16.834319      19.846165    
    441000   0.98158111     17.329144      19.860622    
    442000   0.99146359     17.243648      19.716031    
    443000   0.99509839     17.676797      19.334414    
    444000   1.0000785      17.920722      19.258396    
    445000   0.99452546     17.557471      19.29844     
    446000   1.0194179      16.891711      19.127877    
    447000   1.0056509      17.274697      19.057976    
    448000   0.98411437     17.07336       18.793391    
    449000   1.0223508      17.235646      18.897078    
    450000   1.0055546      17.872779      18.775325    
    451000   0.99813839     17.408032      18.884847    
    452000   1.0123542      17.342234      18.842934    
    453000   1.0128321      17.236013      18.729288    
    454000   0.99279037     17.408437      18.720322    
    455000   1.0469599      17.475043      18.491098    
    456000   0.97979601     17.465487      18.402133    
    457000   0.95877807     17.25934       18.193052    
    458000   0.99325877     17.851579      18.106338    
    459000   0.9859101      17.572357      17.968256    
    460000   0.95264535     17.226726      17.821183    
    461000   0.9756973      17.259526      17.619976    
    462000   0.97636793     17.100959      17.434337    
    463000   1.0578973      17.435183      17.42835     
    464000   1.0127015      17.124047      17.505668    
    465000   0.97837629     16.756818      17.454208    
    466000   1.031202       17.487769      17.350078    
    467000   0.95253821     17.208592      17.354115    
    468000   0.97102633     17.166108      17.220976    
    469000   0.98204219     17.579709      17.072051    
    470000   0.9609157      17.349781      16.89335     
    471000   1.0326212      17.935891      16.791726    
    472000   1.0141796      17.286425      16.96346     
    473000   1.0304146      17.84146       16.915746    
    474000   1.0103436      17.736362      16.515218    
    475000   0.97699819     17.617782      16.204454    
    476000   1.0181766      18.110494      16.299059    
    477000   0.98883889     17.477829      16.247706    
    478000   0.97200304     17.42183       16.132892    
    479000   0.9878004      18.193286      16.067074    
    480000   1.0062927      17.681217      15.79169     
    481000   1.044271       18.064107      15.564806    
    482000   1.0001143      16.944575      15.615845    
    483000   0.98956755     17.912016      15.445749    
    484000   1.0249583      16.746996      15.591312    
    485000   0.95649497     17.246386      15.471369    
    486000   1.0044233      17.544955      15.261985    
    487000   0.99224444     17.140975      15.184498    
    488000   1.0283782      17.187885      15.081432    
    489000   1.0347918      17.586464      14.949314    
    490000   1.0448872      17.132155      15.032901    
    491000   1.0372824      17.54526       14.92716     
    492000   0.96870699     18.221523      14.678584    
    493000   1.0060297      17.976244      14.623224    
    494000   0.95743977     17.033547      14.284989    
    495000   0.97646769     17.427847      14.212879    
    496000   1.0405427      17.445913      14.241187    
    497000   0.98592221     16.835789      13.88039     
    498000   1.0149753      17.408655      13.696944    
    499000   1.0001111      17.915788      13.551656    
    500000   0.99379288     17.207933      13.689523    
    501000   1.0230547      17.4018        13.589986    
    502000   0.97170287     16.815287      13.419589    
    503000   0.97369305     17.362238      13.483933    
    504000   0.97849427     16.825848      13.470851    
    505000   1.0423295      17.017974      13.48937     
    506000   0.97783557     16.658196      13.500855    
    507000   1.0387481      17.141971      13.379888    
    508000   1.0450038      17.159215      13.584608    
    509000   0.98961112     16.465648      13.370994    
    510000   1.0002059      16.868304      13.389321    
    511000   0.97510759     17.439581      13.311582    
    512000   1.0336296      17.170734      13.19124     
    513000   1.01568        16.893673      13.110556    
    514000   1.0652204      17.672538      13.267739    
    515000   1.0123688      16.918971      13.357552    
    516000   1.0013117      16.781515      13.329778    
    517000   1.0190673      16.958909      13.215095    
    518000   1.0257699      17.389119      12.921888    
    519000   0.99926405     16.66851       12.959765    
    520000   0.99459484     17.409197      12.889934    
    521000   1.000221       17.488303      12.660944    
    522000   1.0491267      16.970956      12.601459    
    523000   1.0392419      17.310747      12.475041    
    524000   1.0132717      17.613018      12.447886    
    525000   1.0467171      17.380384      12.283717    
    526000   1.0009475      17.872808      12.104812    
    527000   1.0187881      17.953422      11.999228    
    528000   1.0049608      17.011125      12.015281    
    529000   1.032593       17.440865      12.028514    
    530000   0.99205194     16.888911      11.796216    
    531000   1.0541137      17.694037      11.603412    
    532000   0.994219       17.237784      11.48575     
    533000   1.0041538      16.689349      11.41682     
    534000   0.99246756     17.131588      11.271821    
    535000   0.98001147     17.001498      11.272392    
    536000   0.94879776     16.956684      11.081772    
    537000   0.99424046     17.307051      11.114283    
    538000   0.96715051     17.154259      11.247274    
    539000   0.97705721     17.521481      11.321836    
    540000   0.96620828     16.763105      11.30216     
    541000   1.0524477      17.587669      11.275725    
    542000   1.012341       17.623397      11.169502    
    543000   1.0179822      17.404287      11.045617    
    544000   0.98129423     17.595931      11.105156    
    545000   1.028251       17.238142      11.050039    
    546000   1.0028642      17.018439      10.735972    
    547000   1.024081       17.547227      10.637367    
    548000   0.99493529     17.791363      10.619523    
    549000   0.97240945     17.25606       10.551777    
    550000   1.0614135      17.551374      10.454949    
    551000   0.97333026     17.540994      10.219817    
    552000   1.0154911      17.097412      10.059288    
    553000   1.0300724      16.714664      9.972444     
    554000   0.94966556     16.028547      9.8709378    
    555000   1.0120879      16.70141       9.6377112    
    556000   1.061034       17.036613      9.6330471    
    557000   1.0061367      16.791404      9.4754559    
    558000   0.97032121     16.454926      9.5192296    
    559000   1.0276436      17.555255      9.409759     
    560000   0.9951331      16.863273      9.3427136    
    561000   0.99640616     16.859543      9.4038484    
    562000   1.020696       16.667924      9.4374153    
    563000   1.0049326      17.286274      9.4747318    
    564000   1.0080896      17.029657      9.2090296    
    565000   1.0350163      17.381039      9.2252649    
    566000   1.0003957      17.175528      9.3539482    
    567000   1.047593       17.115201      9.3651749    
    568000   1.0147845      17.734864      9.4585724    
    569000   0.98711778     16.992923      9.1200877    
    570000   1.0299207      17.680583      8.8887386    
    571000   0.99903692     16.892748      9.0887516    
    572000   0.97377745     17.233297      8.996105     
    573000   0.96291085     17.461354      9.0479169    
    574000   0.99403937     16.962985      9.1472896    
    575000   1.001655       17.032096      9.2239505    
    576000   0.99223762     17.418141      9.1378781    
    577000   1.0462683      17.614806      9.153021     
    578000   1.007098       17.887769      8.9734488    
    579000   0.99649195     16.997488      8.7175101    
    580000   1.0223576      17.717439      8.7774098    
    581000   0.97929266     16.892691      8.5222715    
    582000   0.99424268     17.50478       8.3054122    
    583000   1.0084753      17.290214      8.0244875    
    584000   0.98875441     16.952083      7.7949369    
    585000   0.98774874     16.777754      7.7761739    
    586000   0.98470698     16.818672      7.5053309    
    587000   0.95871982     17.289746      7.4547092    
    588000   0.99210245     17.099717      7.4733928    
    589000   1.0290585      17.100417      7.5031634    
    590000   0.94581151     17.264091      7.4163452    
    591000   1.0086202      17.38599       7.4524542    
    592000   1.0083327      17.106218      7.3061292    
    593000   0.97006374     17.576816      7.1331495    
    594000   0.97708309     17.147896      7.2038032    
    595000   1.0341412      17.024112      7.2302173    
    596000   1.0199562      17.254204      7.1097558    
Fix halt condition for fix-id 3 met on step 597000 with value 6.8779338659613405 (src/fix_halt.cpp:237)
    597000   0.99172189     17.764264      6.8779339    
Loop time of 700.911 on 1 procs for 497000 steps with 801 atoms

Performance: 612642.688 tau/day, 709.077 timesteps/s
99.9% CPU use with 1 MPI tasks x 1 OpenMP threads

MPI task timing breakdown:
Section |  min time  |  avg time  |  max time  |%varavg| %total
---------------------------------------------------------------
Pair    | 265.97     | 265.97     | 265.97     |   0.0 | 37.95
Bond    | 18.123     | 18.123     | 18.123     |   0.0 |  2.59
Neigh   | 395.29     | 395.29     | 395.29     |   0.0 | 56.40
Comm    | 0.20397    | 0.20397    | 0.20397    |   0.0 |  0.03
Output  | 1.0676     | 1.0676     | 1.0676     |   0.0 |  0.15
Modify  | 18.468     | 18.468     | 18.468     |   0.0 |  2.63
Other   |            | 1.787      |            |       |  0.26

Nlocal:            801 ave         801 max         801 min
Histogram: 1 0 0 0 0 0 0 0 0 0
Nghost:              0 ave           0 max           0 min
Histogram: 1 0 0 0 0 0 0 0 0 0
Neighs:         143950 ave      143950 max      143950 min
Histogram: 1 0 0 0 0 0 0 0 0 0

Total # of neighbors = 143950
Ave neighs/atom = 179.71286
Ave special neighs/atom = 1.9975031
Neighbor list builds = 4127
Dangerous builds = 0

# This simulation is done
# Move onto the next one
clear
OMP_NUM_THREADS environment is not set. Defaulting to 1 thread. (src/comm.cpp:98)
  using 1 OpenMP thread(s) per MPI task
next f
jump SELF

###
# Reference paper:
# K. Kremer and G. S. Grest
# Dynamics of entangled linear polymer melts: A molecular-dynamics simulation
# J Chem Phys 92, 5057 (1990)

##################################
# MIHIR: for branched polymers
# LJ minimum first to expand and explore, then collapse
###

###
# Looping through the various nuc3branch4 polymers to simulate,
# define variables to switch through
variable f index bb40nuc3bl10bn4d30tot100 bb80nuc3bl20bn4d30tot200 bb120nuc3bl30bn4d30tot300 bb160nuc3bl40bn4d30tot400 bb200nuc3bl50bn4d30tot500 bb240nuc3bl60bn4d30tot600 bb280nuc3bl70bn4d30tot700 bb320nuc3bl80bn4d30tot800 bb360nuc3bl90bn4d30tot900 bb400nuc3bl100bn4d30tot1000 bb440nuc3bl110bn4d30tot1100 bb480nuc3bl120bn4d30tot1200
###


###
# Box and units  (use LJ units and periodic boundaries)
###

units lj
log nuc3branch4/logs/$f.log
log nuc3branch4/logs/bb360nuc3bl90bn4d30tot900.log
