#atom_style bond #no stiffness
atom_style angle #with stiffness

boundary        p p p
###
# Pair interactions require lists of neighbours to be calculated
###

#neighbor 0.3 bin
neighbor 4 bin

neigh_modify every 1 delay 1 check yes
atom_modify sort 0 0
### Generate RESTART file, SPECIAL format, not a .txt file ###
### Useful if simulation crashes ###

restart 1000000 nuc3branch4/restarts/$f.restart
restart 1000000 nuc3branch4/restarts/bb480nuc3bl120bn4d30tot1200.restart
#############################



### READ "start" data file ###

read_data nuc3branch4/$f.dat
read_data nuc3branch4/bb480nuc3bl120bn4d30tot1200.dat
Reading data file ...
  orthogonal box = (-1000 -1000 -1000) to (1000 1000 1000)
  1 by 1 by 1 MPI processor grid
  reading atoms ...
  1201 atoms
  scanning bonds ...
  3 = max bonds/atom
  scanning angles ...
  6 = max angles/atom
  reading bonds ...
  1200 bonds
  reading angles ...
  1208 angles
Finding 1-2 1-3 1-4 neighbors ...
  special bond factors lj:    0        0        0       
  special bond factors coul:  0        0        0       
     4 = max # of 1-2 neighbors
     4 = max # of 1-3 neighbors
     8 = max # of 1-4 neighbors
    12 = max # of special neighbors
  special bonds CPU = 0.002 seconds
  read_data CPU = 0.094 seconds

######################

### READ "REstart" data file ###

######################



###
# Define groups (atom type 1 is group 'all')
###
group all type 1
1201 atoms in group all


###
# Dump configs - "simple dumpings"
###

###
# Dump configs + box coords
###

dump   1   all   custom   1000  nuc3branch4/trjs/$f.lammpstrj  id  x y z  ix iy iz
dump   1   all   custom   1000  nuc3branch4/trjs/bb480nuc3bl120bn4d30tot1200.lammpstrj  id  x y z  ix iy iz
dump_modify   1   format line "%d %.5f %.5f %.5f %d %d %d"

########################################################################


###################################################################
# Stiffness term
#
# E = K * (1+cos(theta)), K>0
#
angle_style   cosine
#change this coefficient to change stiffness (e.g. 1,5,10)
angle_coeff   1 1.0
###################################################################

###################################################################
# Pair interaction between non-bonded atoms
#
#  Lennard-Jones 12-6 potential with cutoff:
#  potential E=4epsilon[ (sigma/r)^12 - (sigma/r)^6]  for r<r_cut
#
#  1.12246 = 2^(1/6) is the minimum of the potential


pair_style      lj/cut 1.12246152962189
#pair_style      lj/cut 3

#
#  pair_modify shift yes adds a constant to the potential such

#  that E(r_cut)=0. Forces remains unchanged.
#

pair_modify     shift yes

#
#  pair_coeff for lj/cut, specify 4:
#    * atom type interacting with
#    * atom type
#    * epsilon (energy units)
#    * sigma (distance units)
#

pair_coeff      1 1 1.0 1.0
###################################################################

###################################################################
# Pair interaction between non-bonded atoms
#
#  soft potential, for PUSHING apart overlapping atoms
#  potential E=A*(1 + cos(pi*r/r_c))
#
#  1.12246 = 2^(1/6) is the cut-off r_c

#pair_style     soft 1.12246152962189

#
#  pair_coeff for soft, specify 3:
#    * atom type interacting with
#    * atom type
#    * A
#
#

#pair_coeff      1 1 100.0
###################################################################

###################################################################
# Pair interaction between bonded atoms
#
# Fene potential + Lennard Jones 12-6:

#
#  E= - 0.5 K R0^2 ln[ 1- (r/R0)^2]
#     + 4epsilon[ (sigma/r)^12 - (sigma/r)^6] + epsilon
#

bond_style   fene


#
# For style fene, specify:
#   * bond type
#   * K (energy/distance^2)
#   * R0 (distance)
#   * epsilon (energy)  (LJ component)
#   * sigma (distance)  (LJ component)
#


special_bonds fene #<=== I M P O R T A N T (new command)
Finding 1-2 1-3 1-4 neighbors ...
  special bond factors lj:    0        1        1       
  special bond factors coul:  0        1        1       
     4 = max # of 1-2 neighbors
    12 = max # of special neighbors
  special bonds CPU = 0.000 seconds

bond_coeff   1   30   2   1.0   1.0


###################################################

###################################################################
# Pair interaction between bonded atoms
#
# Harmonic potential:
#
#  E= K * (R-R0)^2
#

#bond_style   harmonic

#
# For style harmonic, specify:
#   * bond type
#   * K (energy/distance^2)
#   * R0 (distance)
#

#bond_coeff   1   60.0   1.0
#bond_coeff   2   harmonic 0.1   1.0

###################################################
compute 1 all gyration
variable rog equal c_1
#compute 2 all coord/atom cutoff 1.1

#dump 2 all custom 10000 contact_number.dump id c_2


###
# Set up fixes
###
thermo_style   custom   step  temp enthalpy c_1
fix 1 all nve   ###NVE ensemble

fix 2 all   langevin   1.0 1.0 1.0  100103   ###Langevin integrator Tstart Tstop 1/friction rndseed


##### Sample thermodynamic info  (temperature, energy, pressure, etc.) #####
thermo 1000









############################################################################

###
# set timestep of integrator

timestep 0.01

###
# run integration for a number of steps
###
#run 0
#variable r equal c_1
#if "$r < 63.1" then "quit 1"

# lj potential minimum, cause molecule to explore
run 100000
Generated 0 of 0 mixed pair_coeff terms from geometric mixing rule
Neighbor list info ...
  update: every = 1 steps, delay = 1 steps, check = yes
  max neighbors/atom: 2000, page size: 100000
  master list distance cutoff = 5.1224615
  ghost atom cutoff = 5.1224615
  binsize = 2.5612308, bins = 781 781 781
  1 neighbor lists, perpetual/occasional/extra = 1 0 0
  (1) pair lj/cut, perpetual
      attributes: half, newton on
      pair build: half/bin/newton
      stencil: half/bin/3d
      bin: standard
WARNING: Communication cutoff 5.12246152962189 is shorter than a bond length based estimate of 5.455. This may lead to errors. (src/comm.cpp:723)
Per MPI rank memory allocation (min/avg/max) = 1861 | 1861 | 1861 Mbytes
   Step          Temp         Enthalpy         c_1      
         0   0              13.283583      114.05129    
      1000   1.0306087      18.354151      113.49719    
      2000   1.0048287      18.632729      113.09153    
      3000   1.0171315      18.641057      112.42095    
      4000   1.0049147      18.501631      111.8978     
      5000   0.98879548     18.65494       111.25794    
      6000   0.97985366     18.747303      110.79771    
      7000   1.001057       19.071258      110.30534    
      8000   0.99273129     19.049279      110.01454    
      9000   0.99679821     18.911803      109.84248    
     10000   1.0269732      19.022558      109.68216    
     11000   0.96090487     19.030231      109.40767    
     12000   0.9881444      19.888899      109.06716    
     13000   1.015786       19.387939      108.69694    
     14000   1.0031966      19.160136      108.29101    
     15000   0.9807036      19.236907      108.04096    
     16000   1.0024944      18.975943      107.78894    
     17000   0.96964589     19.110676      107.64884    
     18000   1.0253594      19.406649      107.35297    
     19000   1.0170067      19.33406       106.92288    
     20000   0.99119675     19.796025      106.53116    
     21000   1.0006716      19.478173      106.21654    
     22000   0.976808       19.599264      106.23655    
     23000   0.95751161     19.587796      105.79022    
     24000   0.99302311     19.872218      105.37239    
     25000   0.97079186     19.732715      105.07238    
     26000   0.99736818     19.427458      104.80841    
     27000   0.97804228     19.857032      104.66722    
     28000   1.0162059      19.574041      104.59102    
     29000   1.023611       19.274625      104.30317    
     30000   1.0131087      20.076588      103.86663    
     31000   0.94492926     19.651181      103.53219    
     32000   0.99932144     19.723224      103.38048    
     33000   0.9839006      19.749707      103.12108    
     34000   0.99735849     19.265246      103.2712     
     35000   1.0230168      19.803119      103.09761    
     36000   1.0538725      19.681794      103.00852    
     37000   0.99253797     19.948773      102.86244    
     38000   1.0140434      19.824689      102.73033    
     39000   1.0387271      20.015766      102.75666    
     40000   0.98792729     19.956713      102.605      
     41000   1.0334112      19.836597      102.55245    
     42000   0.9597133      19.552823      102.32518    
     43000   1.0330412      20.119255      101.98001    
     44000   1.0088312      20.166752      101.87062    
     45000   1.011508       20.094908      101.88587    
     46000   0.996915       19.948086      101.62929    
     47000   1.0189974      19.874745      101.60964    
     48000   1.0356319      20.019187      101.44492    
     49000   1.0036904      19.596178      101.45222    
     50000   0.99554967     19.783855      101.31198    
     51000   1.0004567      19.882269      101.13563    
     52000   0.98689105     19.76499       100.97252    
     53000   1.0294548      19.902439      100.95339    
     54000   0.99981397     19.800068      100.79228    
     55000   1.0195342      20.251464      100.87165    
     56000   0.98421903     19.802093      100.7117     
     57000   0.97199806     19.523012      100.6802     
     58000   1.0043142      20.574807      100.62065    
     59000   0.97681876     19.891221      100.43849    
     60000   1.0447587      20.229343      100.63154    
     61000   0.9716113      19.63635       100.60781    
     62000   1.0029737      19.754346      100.51386    
     63000   1.07397        20.524204      100.42351    
     64000   1.0277906      19.851402      100.09368    
     65000   1.0003296      20.024183      100.16918    
     66000   1.0135164      20.391271      99.98256     
     67000   1.0304061      20.253509      99.943405    
     68000   1.0067804      19.567176      99.676295    
     69000   0.9870214      20.231052      99.333982    
     70000   1.0068727      19.595817      99.388014    
     71000   0.97254904     20.292392      99.430546    
     72000   1.0058638      20.308536      99.276223    
     73000   1.0382021      20.359565      99.243828    
     74000   0.9822988      19.896527      99.100996    
     75000   1.0065389      20.176061      98.831864    
     76000   0.99677898     20.06791       98.82618     
     77000   0.98669829     20.830705      98.590737    
     78000   0.97234132     19.696688      98.546178    
     79000   1.0121026      20.254501      98.343832    
     80000   1.0333826      20.53618       98.164766    
     81000   0.99090806     20.467616      97.877949    
     82000   1.0202291      20.160954      97.986126    
     83000   1.0065715      19.895244      97.773118    
     84000   0.98980528     19.939321      97.698791    
     85000   1.014638       20.397128      97.512506    
     86000   1.0048252      20.231211      97.311394    
     87000   1.0309875      20.343237      97.030785    
     88000   0.98355413     20.428036      96.949907    
     89000   1.0112655      20.068756      96.787019    
     90000   0.93204054     19.910303      96.62027     
     91000   0.98983699     19.782809      96.593507    
     92000   0.97445182     19.9319        96.459913    
     93000   0.94485063     20.245281      96.490374    
     94000   1.0313191      20.231802      96.368426    
     95000   1.0060012      20.422425      96.428519    
     96000   0.99387302     20.646571      96.292927    
     97000   0.9764883      20.013283      96.205405    
     98000   1.0071088      20.692433      96.008492    
     99000   0.98902608     20.306655      95.939573    
    100000   0.98181697     20.400227      95.802557    
Loop time of 303.768 on 1 procs for 100000 steps with 1201 atoms

Performance: 284427.149 tau/day, 329.198 timesteps/s
100.0% CPU use with 1 MPI tasks x 1 OpenMP threads

MPI task timing breakdown:
Section |  min time  |  avg time  |  max time  |%varavg| %total
---------------------------------------------------------------
Pair    | 2.2676     | 2.2676     | 2.2676     |   0.0 |  0.75
Bond    | 4.859      | 4.859      | 4.859      |   0.0 |  1.60
Neigh   | 290.9      | 290.9      | 290.9      |   0.0 | 95.76
Comm    | 0.036568   | 0.036568   | 0.036568   |   0.0 |  0.01
Output  | 0.27879    | 0.27879    | 0.27879    |   0.0 |  0.09
Modify  | 5.046      | 5.046      | 5.046      |   0.0 |  1.66
Other   |            | 0.3788     |            |       |  0.12

Nlocal:           1201 ave        1201 max        1201 min
Histogram: 1 0 0 0 0 0 0 0 0 0
Nghost:              0 ave           0 max           0 min
Histogram: 1 0 0 0 0 0 0 0 0 0
Neighs:           7739 ave        7739 max        7739 min
Histogram: 1 0 0 0 0 0 0 0 0 0

Total # of neighbors = 7739
Ave neighs/atom = 6.4437968
Ave special neighs/atom = 1.9983347
Neighbor list builds = 1178
Dangerous builds = 0

# Replace lj potential, now collapse
pair_style      lj/cut 3

# Cutoff simul when gyration under 10
# Variable created with equal requires v_ + 'name'
fix 3 all halt 1000 v_rog < 7

run 3000000
Generated 0 of 0 mixed pair_coeff terms from geometric mixing rule
Per MPI rank memory allocation (min/avg/max) = 1861 | 1861 | 1861 Mbytes
   Step          Temp         Enthalpy         c_1      
    100000   0.98181697     19.726403      95.802557    
    101000   0.99536978     19.553788      95.832398    
    102000   1.0008207      19.688407      95.509793    
    103000   1.023858       19.26387       95.436813    
    104000   1.019489       19.717989      95.315178    
    105000   1.0161543      19.548014      95.063833    
    106000   1.0292486      19.802803      94.878809    
    107000   1.0109739      19.402791      94.376152    
    108000   1.0282254      19.573278      94.404526    
    109000   1.0297012      19.700446      94.134578    
    110000   1.0205942      19.511025      93.970902    
    111000   0.95880392     19.308403      93.825759    
    112000   0.95339898     19.016872      93.701375    
    113000   0.96466947     19.665392      93.326927    
    114000   1.0027534      19.264743      93.288447    
    115000   0.95011218     19.355223      93.319962    
    116000   0.96557311     18.800591      93.013855    
    117000   1.0220877      19.264582      92.916473    
    118000   1.0003721      19.014576      92.855292    
    119000   0.97080008     18.539825      92.581049    
    120000   1.0216079      19.555933      92.228277    
    121000   1.0112456      19.389819      92.236144    
    122000   1.0259598      19.178969      91.973444    
    123000   0.99377218     19.027085      91.87552     
    124000   0.95977446     19.202928      91.736595    
    125000   1.0484616      19.393864      91.525482    
    126000   1.0030551      19.297404      91.418739    
    127000   1.0110028      18.780647      91.32879     
    128000   0.99771646     19.316662      91.307034    
    129000   0.98399391     18.836061      91.435516    
    130000   0.96532766     19.002993      91.188305    
    131000   1.000437       19.034753      91.007085    
    132000   0.97664596     19.288875      90.766284    
    133000   1.0237368      19.267744      90.72208     
    134000   0.96830386     18.907192      90.559437    
    135000   0.99631675     18.911262      90.222454    
    136000   0.96111465     18.699553      89.841307    
    137000   0.99791555     18.829505      89.828024    
    138000   1.0154482      18.644597      89.917984    
    139000   0.99909644     18.727218      89.684522    
    140000   0.98880769     18.691746      89.432155    
    141000   0.98324478     18.590803      89.453906    
    142000   0.97944195     18.870108      89.550606    
    143000   0.98775864     18.803945      89.406753    
    144000   0.98364159     19.05348       89.396794    
    145000   0.99331746     19.294148      89.318665    
    146000   1.031064       19.299066      89.348113    
    147000   0.99827627     19.083737      89.524145    
    148000   1.0318187      18.957153      89.465632    
    149000   1.0133527      18.983611      89.389981    
    150000   0.97175021     18.592251      89.018029    
    151000   0.97646675     18.59244       88.947149    
    152000   0.95815742     18.831667      88.748203    
    153000   1.0034423      18.518352      88.315114    
    154000   1.0316202      18.624759      88.240557    
    155000   1.0101243      18.622527      88.168748    
    156000   1.0209957      18.6246        88.096195    
    157000   1.0173161      19.1804        87.819712    
    158000   1.0188851      18.411856      87.557979    
    159000   1.019531       18.480156      87.50601     
    160000   1.0014621      18.827767      87.36395     
    161000   1.0083361      18.695763      87.262432    
    162000   0.99369957     18.627255      87.428183    
    163000   1.0001545      18.68617       87.364086    
    164000   1.0019339      18.403879      87.200371    
    165000   1.0412414      18.663181      86.948812    
    166000   1.0396083      18.919628      86.679572    
    167000   1.0544006      19.164026      86.457942    
    168000   0.99177537     18.543116      86.108095    
    169000   0.99758423     18.864738      85.983897    
    170000   0.99868611     18.496852      85.886991    
    171000   1.0011713      18.380785      85.790249    
    172000   0.95446856     18.681479      85.6386      
    173000   1.0019349      18.299982      85.503517    
    174000   0.98054415     18.748141      85.528786    
    175000   0.96096019     18.623312      85.467058    
    176000   0.9981508      18.351279      85.204035    
    177000   1.0036586      18.920212      85.04509     
    178000   0.98762742     18.390662      84.834833    
    179000   0.94817266     18.190711      84.617631    
    180000   1.0261336      18.643425      84.549348    
    181000   0.98073816     18.737039      84.421592    
    182000   0.96844873     18.074695      84.211283    
    183000   0.98090157     18.545894      84.129783    
    184000   1.0027124      18.429866      84.040415    
    185000   0.98717487     18.293738      83.909368    
    186000   0.99384653     18.554261      83.695778    
    187000   1.0029509      18.833531      83.601435    
    188000   0.99669809     18.327926      83.594666    
    189000   0.9842567      18.161727      83.529354    
    190000   0.98626208     18.591787      83.234851    
    191000   1.0317104      18.022812      83.09603     
    192000   1.0547324      18.530185      83.118297    
    193000   1.0090314      18.158868      82.796306    
    194000   1.0128097      18.297687      82.566354    
    195000   1.0039364      18.280574      82.381004    
    196000   1.0481268      18.679879      82.119687    
    197000   1.0068004      18.148893      81.822206    
    198000   0.973526       18.886129      81.622021    
    199000   1.0045979      17.814155      81.589933    
    200000   0.98075134     18.582886      81.268312    
    201000   1.0175437      18.354203      81.251103    
    202000   0.99145856     19.029605      81.126791    
    203000   1.0455167      18.991148      80.97752     
    204000   1.0127982      18.585659      80.912852    
    205000   1.037455       18.22144       80.702189    
    206000   1.016956       18.142892      80.465294    
    207000   1.0053639      18.072182      80.189893    
    208000   1.0016432      18.591577      79.851379    
    209000   1.0360469      18.397315      79.749769    
    210000   1.0053785      18.448852      79.701098    
    211000   1.0126636      18.052738      79.395873    
    212000   0.99520066     18.167218      79.020254    
    213000   1.0098063      18.106476      78.856246    
    214000   0.99057779     18.071865      78.968815    
    215000   0.96271648     18.08132       78.909682    
    216000   1.0091233      18.671659      78.950025    
    217000   0.97404861     18.400777      78.78359     
    218000   1.0075628      17.843354      78.471741    
    219000   1.0342807      18.336877      78.28472     
    220000   0.96849789     17.941678      78.315207    
    221000   0.9998673      18.366784      78.06815     
    222000   1.0239007      18.373426      77.9033      
    223000   0.97458395     17.480321      77.965874    
    224000   1.0296913      17.599565      77.996516    
    225000   0.96165429     18.054822      78.004165    
    226000   0.97985534     18.354444      78.027984    
    227000   1.0235172      17.887278      77.762091    
    228000   0.97459213     17.593583      77.67157     
    229000   0.9873662      18.108708      77.770146    
    230000   0.9449176      17.982502      77.741313    
    231000   1.0189492      17.952458      77.622873    
    232000   0.97120545     17.901958      77.528308    
    233000   1.001481       18.112896      77.710973    
    234000   1.0312538      18.242226      77.507518    
    235000   1.0652313      18.282282      77.358525    
    236000   1.0303259      17.841768      77.292743    
    237000   0.96879022     17.298395      77.152716    
    238000   1.0340315      18.221069      77.026685    
    239000   0.98186973     18.083842      77.071672    
    240000   1.0148487      18.18619       76.75601     
    241000   0.9891917      17.914137      76.396117    
    242000   0.99073725     18.016649      76.309119    
    243000   0.96342978     17.707091      76.128432    
    244000   0.97645917     17.92491       76.05012     
    245000   1.0189061      17.74013       76.061853    
    246000   0.98275265     17.99396       75.986678    
    247000   1.0153756      17.791654      75.897546    
    248000   0.98499027     17.756566      75.663798    
    249000   0.99528101     17.352894      75.418904    
    250000   0.97325413     17.955004      75.259023    
    251000   0.99440151     17.405185      75.140959    
    252000   1.001794       17.268365      75.079474    
    253000   1.0274805      17.534297      74.948254    
    254000   1.0196674      17.551284      75.005192    
    255000   1.0005449      17.241743      74.742062    
    256000   1.0341792      17.672008      74.592       
    257000   0.99706323     18.010272      74.616403    
    258000   0.99359442     17.921595      74.816976    
    259000   0.9883943      17.596624      74.598423    
    260000   0.98892365     17.538327      74.603832    
    261000   0.99964824     18.020318      74.558126    
    262000   0.99711115     17.833283      74.308566    
    263000   0.99346158     17.311659      74.124907    
    264000   1.0076033      17.415776      74.088106    
    265000   0.99344656     17.559504      73.925949    
    266000   1.0063699      18.023377      73.978565    
    267000   0.99546427     17.594961      73.836521    
    268000   1.0180625      17.405885      73.580767    
    269000   1.0031744      17.398743      73.305329    
    270000   0.99382441     17.629199      73.223677    
    271000   0.98293854     17.811427      73.028708    
    272000   1.0258023      17.49279       72.990128    
    273000   0.96252693     17.453709      73.028387    
    274000   1.0232712      18.071835      73.247679    
    275000   0.97682774     17.682149      73.436336    
    276000   1.0110382      17.851447      73.366539    
    277000   0.98473389     17.937875      73.531878    
    278000   1.0232517      17.65235       73.338628    
    279000   1.0109749      17.86135       73.412579    
    280000   0.97142326     17.549489      73.380843    
    281000   1.0100656      17.838004      73.208609    
    282000   1.0052692      17.954878      73.340394    
    283000   1.0002459      17.592412      73.273972    
    284000   0.9504643      17.831198      73.235477    
    285000   1.0028228      17.703778      73.114029    
    286000   1.0208197      17.139279      73.045902    
    287000   1.0092937      17.120313      72.843802    
    288000   0.98928268     17.881315      72.764635    
    289000   0.99234038     17.656155      72.647917    
    290000   1.0365158      17.846497      72.530366    
    291000   0.95586965     17.473223      72.409659    
    292000   0.97488239     18.352943      72.249884    
    293000   0.97834857     17.681064      72.146649    
    294000   0.97755189     17.74815       72.020768    
    295000   0.99673139     17.360988      71.969423    
    296000   1.0100827      17.80456       71.934315    
    297000   1.0018392      17.40687       71.934255    
    298000   0.9915645      18.321401      71.801736    
    299000   1.0061407      17.859391      71.615354    
    300000   0.96186966     17.349129      71.622935    
    301000   0.96033254     17.545134      71.690929    
    302000   1.0423862      17.63101       71.653363    
    303000   1.0131441      17.399336      71.663221    
    304000   1.0125652      17.681783      71.680395    
    305000   0.9875348      17.665298      71.618194    
    306000   0.99666726     18.035604      71.693271    
    307000   0.95570853     17.548388      71.519494    
    308000   1.0276322      17.659386      71.372356    
    309000   1.0205875      17.957384      71.318102    
    310000   1.0530548      18.370934      71.363285    
    311000   1.0074056      17.597092      71.147322    
    312000   0.98118606     17.856843      70.963683    
    313000   0.99819363     17.441994      70.929835    
    314000   1.0093108      17.783115      70.930408    
    315000   1.0055465      17.216071      70.791782    
    316000   0.97645854     17.575564      70.82574     
    317000   0.96831284     17.216755      70.662632    
    318000   1.0154127      17.466291      70.481323    
    319000   1.0335849      17.429146      69.95866     
    320000   0.98184222     17.373976      69.772239    
    321000   0.98778298     18.193367      69.718126    
    322000   1.0140647      17.826433      69.737582    
    323000   1.0049912      17.452848      69.753383    
    324000   0.97853472     17.924351      69.784109    
    325000   1.0281903      17.216337      69.697529    
    326000   0.99480822     17.610548      69.644764    
    327000   0.99881433     17.541352      69.708988    
    328000   1.0179285      17.352248      69.564974    
    329000   0.96198378     17.728295      69.480116    
    330000   1.007071       17.122041      69.514085    
    331000   1.0005765      17.646995      69.444565    
    332000   1.0004332      17.619667      69.326602    
    333000   1.0519657      17.483277      69.23438     
    334000   1.004814       17.485748      69.099166    
    335000   1.0374595      17.89372       68.970998    
    336000   1.0089873      17.529632      68.961022    
    337000   1.0329986      17.180852      69.05816     
    338000   1.0187877      17.334423      69.046383    
    339000   1.054371       18.018903      69.042864    
    340000   1.0200108      17.578905      68.718049    
    341000   1.0337067      17.73307       68.607095    
    342000   1.0229521      17.95713       68.399565    
    343000   0.99678393     17.41642       67.976227    
    344000   0.99805606     17.78433       67.964419    
    345000   0.98784828     17.735781      67.810357    
    346000   0.96397049     17.572413      67.559668    
    347000   1.0096706      18.130648      67.549408    
    348000   1.0404151      17.662126      67.328272    
    349000   1.0429574      18.248659      67.209221    
    350000   1.0207794      17.840444      66.928876    
    351000   0.99691578     17.28743       66.734168    
    352000   0.96240059     16.901418      66.626334    
    353000   0.99137148     17.90396       66.561051    
    354000   0.99870236     17.696338      66.45455     
    355000   0.94873657     17.412959      66.392196    
    356000   0.95317348     17.554816      66.14234     
    357000   1.0572855      17.485937      66.338075    
    358000   1.0228288      17.92605       66.413234    
    359000   1.0248098      17.45564       66.432408    
    360000   1.0119166      17.75392       66.387833    
    361000   0.99463677     17.941851      66.380344    
    362000   0.98536078     16.922616      66.353431    
    363000   1.0262982      17.914548      66.268474    
    364000   1.0166599      17.738381      66.27055     
    365000   1.0021834      18.069086      66.148543    
    366000   0.95651421     18.078715      65.986636    
    367000   1.0278724      17.815238      65.919244    
    368000   1.0023642      17.785374      66.113679    
    369000   1.02041        17.97042       66.222419    
    370000   1.0074395      17.42414       66.242257    
    371000   1.0093402      18.009268      66.114018    
    372000   0.97313844     17.6114        65.964311    
    373000   1.0149006      17.942766      65.808725    
    374000   0.96750497     17.487054      65.930485    
    375000   0.97515996     17.969426      65.890067    
    376000   0.98749419     17.820905      65.795891    
    377000   0.96087512     17.158595      65.779909    
    378000   1.0479452      17.898651      65.708508    
    379000   1.0105493      17.431708      65.605769    
    380000   1.0015237      17.72493       65.610953    
    381000   0.97879217     17.258812      65.582711    
    382000   0.98605169     17.262904      65.578397    
    383000   1.0233402      17.470611      65.444042    
    384000   1.0279284      17.802249      65.375105    
    385000   0.97988904     17.58163       65.426401    
    386000   1.0082319      17.649788      65.500412    
    387000   0.99996151     17.584929      65.329865    
    388000   1.025986       17.91281       65.236302    
    389000   1.0089669      17.075224      65.305549    
    390000   1.0275008      17.117588      65.270522    
    391000   0.97577866     17.39053       65.304481    
    392000   1.0084348      18.061233      65.27181     
    393000   0.96957384     17.608274      65.233121    
    394000   1.0024754      17.845471      65.175237    
    395000   1.0102214      18.239145      65.188335    
    396000   1.004743       17.765877      65.280961    
    397000   0.99312477     17.608248      65.25399     
    398000   1.0177509      18.123456      65.088374    
    399000   0.98368218     17.921223      65.030317    
    400000   1.037767       17.219067      64.962375    
    401000   1.0169956      17.269283      64.913282    
    402000   0.97377978     17.661747      64.776393    
    403000   0.97396032     17.116617      64.818017    
    404000   1.0284442      18.01496       64.702364    
    405000   1.0095101      17.535903      64.692524    
    406000   0.99592579     17.033663      64.504693    
    407000   1.0144745      17.743949      64.491227    
    408000   1.0156736      17.867737      64.395555    
    409000   1.0239062      17.29662       64.408452    
    410000   1.0047074      17.357545      64.201938    
    411000   1.0220742      17.854602      64.101705    
    412000   0.96063595     17.391279      63.880002    
    413000   1.007725       17.83915       63.961125    
    414000   0.99826624     17.151065      63.931541    
    415000   0.97393805     17.427877      64.084193    
    416000   1.0182385      17.259618      64.129689    
    417000   1.0167021      17.909125      64.016189    
    418000   1.0030682      17.665844      63.831314    
    419000   0.99729271     17.761994      63.843231    
    420000   0.99317382     17.52044       64.074086    
    421000   0.98702894     17.240133      64.176931    
    422000   1.0058527      17.734405      64.036843    
    423000   1.018445       17.741443      63.839641    
    424000   1.0069182      17.921605      63.752858    
    425000   1.0067121      16.927202      63.677595    
    426000   0.98604331     17.945208      63.566953    
    427000   1.0293321      17.172418      63.372322    
    428000   0.95986173     17.810492      63.349755    
    429000   0.96851129     17.849497      63.265164    
    430000   0.98245219     16.896454      63.357144    
    431000   1.0550863      18.355511      63.352036    
    432000   1.0254147      18.071317      63.363679    
    433000   0.98247155     17.829405      63.472393    
    434000   0.99756042     17.716619      63.458176    
    435000   0.98312552     17.66385       63.602945    
    436000   1.0077828      17.733325      63.794228    
    437000   0.96841301     17.892899      63.872829    
    438000   1.028337       18.028066      63.664274    
    439000   1.0061987      17.313012      63.51363     
    440000   1.0040354      17.347381      63.425573    
    441000   1.0411796      17.348032      63.272168    
    442000   1.0058878      17.70169       63.31832     
    443000   1.0243215      17.821224      63.268781    
    444000   0.96923303     17.272852      63.071735    
    445000   1.0299682      17.835247      62.908423    
    446000   1.0357062      17.683069      62.916591    
    447000   1.0093302      17.726499      62.731728    
    448000   0.98986586     17.326524      62.745227    
    449000   1.0001267      18.010123      62.73059     
    450000   0.99816049     17.502032      62.647216    
    451000   1.0210574      17.889871      62.568867    
    452000   1.0195254      18.179169      62.641452    
    453000   1.0025802      18.114707      62.665626    
    454000   1.0017056      17.15463       62.403149    
    455000   0.9744242      17.821298      62.292239    
    456000   1.0394175      18.049125      62.093162    
    457000   0.98064583     17.840725      62.028675    
    458000   1.0049116      17.897856      61.899136    
    459000   0.97949258     17.478957      61.739125    
    460000   0.9842738      17.280077      61.627133    
    461000   0.99705422     17.536008      61.696434    
    462000   1.0037191      17.169413      61.625059    
    463000   1.0054247      17.355442      61.412313    
    464000   0.99618966     17.544058      61.367978    
    465000   1.0102872      17.638705      61.376134    
    466000   0.97982143     17.737022      61.366587    
    467000   1.0048747      17.548418      61.188699    
    468000   0.99101195     17.733963      61.224292    
    469000   0.99756099     17.717693      61.380181    
    470000   1.0037819      17.515139      61.37838     
    471000   1.0048087      17.751224      61.278783    
    472000   1.0131801      17.443309      61.266778    
    473000   1.0249379      17.958183      61.372954    
    474000   1.0337203      17.736005      61.295663    
    475000   1.0252433      17.318445      61.069672    
    476000   0.96239353     17.260176      61.005574    
    477000   0.97837894     17.17138       60.812407    
    478000   0.9915201      17.669859      60.795745    
    479000   0.99389113     17.57531       60.826884    
    480000   0.98008603     17.872501      60.882451    
    481000   1.0031874      17.802762      60.79472     
    482000   1.010406       17.259072      60.762411    
    483000   1.0229042      17.48191       60.819639    
    484000   0.97968532     17.591724      60.856274    
    485000   1.0003066      17.872811      60.830221    
    486000   0.94430961     17.878413      60.705285    
    487000   0.95755633     17.738671      60.77778     
    488000   1.0011213      18.2661        60.806382    
    489000   1.0013078      17.987056      60.867023    
    490000   1.0313793      17.940259      60.975023    
    491000   0.99703725     17.015065      60.731705    
    492000   0.98744497     17.414042      60.63821     
    493000   1.0030601      17.022482      60.710014    
    494000   0.99874928     17.704195      60.704613    
    495000   1.0175388      18.010362      60.754333    
    496000   0.98998843     17.365382      60.724141    
    497000   1.0235522      17.453354      60.525736    
    498000   0.97904931     17.713014      60.361797    
    499000   0.95484135     17.710815      60.041305    
    500000   1.0015231      17.399249      59.93204     
    501000   1.0016145      17.319871      59.945569    
    502000   1.039883       17.830544      59.765093    
    503000   1.0118656      17.970109      59.757959    
    504000   0.98907143     17.581301      59.710916    
    505000   0.99533465     17.212834      59.530598    
    506000   0.98566619     17.405574      59.405001    
    507000   1.0323556      18.009305      59.428006    
    508000   1.0039818      18.101964      59.485705    
    509000   0.95823583     17.60375       59.161067    
    510000   1.0233425      17.742885      58.867171    
    511000   0.99121647     17.529773      58.793874    
    512000   1.001978       17.420887      58.687856    
    513000   0.98555706     17.693051      58.29637     
    514000   0.98645302     18.010033      58.220061    
    515000   0.99625278     17.4422        58.419607    
    516000   0.98798351     17.134748      58.652007    
    517000   0.99834506     17.485557      58.621865    
    518000   1.0117332      18.044507      58.886323    
    519000   0.9668277      17.344863      58.658093    
    520000   1.0130569      18.258405      58.492591    
    521000   1.006312       17.226242      58.391408    
    522000   0.9807018      17.770553      58.394219    
    523000   0.99540948     17.716612      58.36907     
    524000   0.99312726     17.251005      58.241809    
    525000   0.9826141      17.346882      58.200981    
    526000   1.005108       18.059207      58.301907    
    527000   0.98767962     17.483469      58.461887    
    528000   1.0207835      17.516707      58.298029    
    529000   1.0317045      17.940695      58.449264    
    530000   1.020282       16.955451      58.264495    
    531000   1.0485821      17.751911      58.221594    
    532000   1.0170193      17.223399      58.231532    
    533000   1.0015785      17.446545      57.974705    
    534000   0.99750512     17.301691      57.844984    
    535000   0.96552921     17.615885      57.542931    
    536000   1.017314       17.869279      57.635948    
    537000   0.99227696     17.609854      57.633148    
    538000   1.0112075      17.741028      57.640671    
    539000   1.0021029      17.716513      57.5391      
    540000   1.0335184      17.607102      57.381964    
    541000   1.0184548      17.101384      57.402076    
    542000   1.004091       17.558497      57.240957    
    543000   1.0013537      17.688676      57.102112    
    544000   1.0067568      17.730462      57.073879    
    545000   0.99547389     17.707348      57.093734    
    546000   0.98570975     17.772085      57.093349    
    547000   1.0075952      17.37526       57.104213    
    548000   0.9948897      17.846396      57.012414    
    549000   1.0405304      18.070203      56.828582    
    550000   1.0104549      17.302413      56.700151    
    551000   1.020006       17.94782       56.547951    
    552000   0.98654776     18.123623      56.445652    
    553000   0.99089851     17.541972      56.376501    
    554000   0.98262956     17.448657      56.295409    
    555000   1.0359711      17.427957      56.154004    
    556000   1.0002138      17.55035       56.132238    
    557000   1.0092111      17.562408      56.114516    
    558000   0.99429206     17.626862      55.985627    
    559000   1.0037539      17.963529      55.712555    
    560000   0.99037082     17.891461      55.667373    
    561000   0.96824008     17.509138      55.630825    
    562000   1.0217829      17.475684      55.717976    
    563000   0.98634566     18.089175      55.586746    
    564000   0.98961351     17.537556      55.394485    
    565000   1.0030036      18.095885      55.340867    
    566000   0.98408165     18.162794      55.287427    
    567000   1.0055574      17.938859      55.100183    
    568000   0.98014124     17.698325      55.066776    
    569000   0.99176111     17.648218      55.007197    
    570000   0.99817181     17.578139      54.906652    
    571000   1.0130317      17.470222      55.056375    
    572000   1.0300152      18.481121      55.015669    
    573000   1.0129789      17.296087      54.929801    
    574000   0.97509666     17.545463      54.802885    
    575000   1.0337144      17.950344      54.836132    
    576000   1.0135271      17.784469      54.843936    
    577000   1.0048086      17.652641      54.94203     
    578000   0.94088272     16.90573       54.947699    
    579000   1.006832       17.86146       54.780339    
    580000   1.0016554      17.448305      54.697909    
    581000   1.0307959      17.26881       54.765536    
    582000   0.97402166     17.44006       54.79284     
    583000   1.0192303      17.478881      54.778268    
    584000   0.99541158     18.090053      54.687426    
    585000   1.0127091      17.222299      54.725169    
    586000   1.0110987      17.041026      54.68009     
    587000   1.0381166      17.80532       54.772036    
    588000   0.98432447     17.741867      54.949526    
    589000   1.0077268      17.643699      54.868097    
    590000   0.97813339     17.556267      54.95787     
    591000   1.0012004      17.304226      54.888978    
    592000   1.0225101      17.081256      54.876216    
    593000   0.99729247     17.184168      54.980525    
    594000   1.0193506      17.350136      55.004261    
    595000   0.99805917     18.346476      54.894409    
    596000   0.98598359     17.745783      54.632487    
    597000   0.99486148     17.284602      54.326801    
    598000   1.0048201      17.546147      54.075432    
    599000   1.0125569      17.451815      54.214638    
    600000   1.0069285      17.662342      54.324549    
    601000   0.98024748     17.599128      54.161055    
    602000   0.98997187     17.373284      54.106425    
    603000   0.99712046     17.95713       53.840872    
    604000   0.99692793     17.90029       53.435327    
    605000   1.049605       18.243253      53.183427    
    606000   1.0624936      17.216235      52.896385    
    607000   1.0257836      17.284764      52.546112    
    608000   0.99331055     17.324065      52.285842    
    609000   0.98159399     17.189779      52.265836    
    610000   0.99924851     17.751865      52.121304    
    611000   1.0084958      17.329113      52.034199    
    612000   1.0065025      17.90156       51.978102    
    613000   0.98331816     17.768122      52.122393    
    614000   0.98888874     17.64233       52.06717     
    615000   0.99298593     17.38792       52.011181    
    616000   1.0202728      17.489532      51.964085    
    617000   1.0017737      17.265562      51.697593    
    618000   0.98928101     17.801993      51.581995    
    619000   1.0198117      17.343518      51.516697    
    620000   1.0037908      17.266699      51.464536    
    621000   0.9716785      17.483161      51.623658    
    622000   0.98279322     17.695108      51.501772    
    623000   0.9771433      17.828538      51.426457    
    624000   1.0094628      17.68625       51.524172    
    625000   0.95885408     17.710401      51.617748    
    626000   1.0047281      17.719123      51.510985    
    627000   0.99899182     17.420452      51.444375    
    628000   0.99653649     17.228457      51.432039    
    629000   1.0045275      17.601658      51.403303    
    630000   1.015726       17.667328      51.164316    
    631000   1.0385792      17.960104      51.294031    
    632000   0.99010663     17.461363      51.338352    
    633000   1.0210401      17.889298      51.469109    
    634000   1.0433686      17.457711      51.456604    
    635000   0.98346611     17.112947      51.282965    
    636000   0.94754293     17.817834      51.159462    
    637000   0.99486188     17.406107      51.233562    
    638000   1.033502       17.984326      51.205861    
    639000   0.99658394     17.847142      51.052102    
    640000   0.98181685     17.087866      50.812325    
    641000   0.97975563     17.623597      50.830101    
    642000   0.99965065     17.246786      50.836966    
    643000   0.95184665     17.152827      50.606997    
    644000   1.0519467      17.676812      50.566804    
    645000   0.98821989     17.616704      50.470682    
    646000   0.98325295     17.563833      50.249043    
    647000   1.0058511      17.453029      50.252635    
    648000   1.0384231      18.424331      50.161847    
    649000   0.9950438      17.54824       50.067804    
    650000   1.0057421      17.218758      49.934684    
    651000   1.0159222      17.384964      50.096718    
    652000   0.96663193     17.004971      50.082194    
    653000   0.96928057     17.529296      49.890237    
    654000   0.98967282     17.503657      49.898235    
    655000   0.96792569     17.644493      49.785847    
    656000   1.006219       17.717277      49.638983    
    657000   0.96818343     17.535726      49.760808    
    658000   0.95431009     17.36477       49.875449    
    659000   1.0069591      17.606511      49.813699    
    660000   1.0045329      17.617547      49.630882    
    661000   1.0271809      17.295976      49.729145    
    662000   0.95375302     17.509705      49.85401     
    663000   1.0030032      17.830656      49.552098    
    664000   1.0252432      17.731593      49.254941    
    665000   0.98925631     17.005334      49.200608    
    666000   1.0306786      17.834396      49.220547    
    667000   1.0045733      17.356607      49.125144    
    668000   0.96904008     17.207606      49.014787    
    669000   0.98741336     17.284872      48.878218    
    670000   0.96784635     16.985843      48.711618    
    671000   0.95352865     17.258001      48.657791    
    672000   1.0085731      17.585145      48.648695    
    673000   0.93374718     17.385745      48.534012    
    674000   1.0030592      17.829276      48.582168    
    675000   0.97855838     17.755815      48.52507     
    676000   0.97241233     17.319653      48.338962    
    677000   0.98486701     17.339055      48.381427    
    678000   0.99750465     17.502158      48.421513    
    679000   1.0408775      18.08366       48.261614    
    680000   1.024685       17.773828      48.163115    
    681000   0.9952448      17.660133      48.262261    
    682000   1.0203005      17.398216      48.159789    
    683000   0.97803797     17.710812      48.13177     
    684000   1.0031608      17.448783      48.016297    
    685000   0.99462435     17.657002      48.1079      
    686000   0.9698352      17.473339      48.182304    
    687000   1.0281549      17.08742       47.980761    
    688000   1.0577878      17.911502      47.868449    
    689000   1.0116084      17.138961      47.935098    
    690000   0.99529981     17.217802      47.85858     
    691000   1.0198246      17.282158      47.560528    
    692000   0.99945526     17.580897      47.493981    
    693000   0.9787923      17.504241      47.328196    
    694000   0.9909473      17.332014      47.024107    
    695000   1.0373297      17.795412      47.169269    
    696000   0.96087143     17.168049      47.33079     
    697000   0.96291533     17.646765      47.376169    
    698000   0.96036198     17.308023      47.257055    
    699000   0.98362161     17.302641      47.302693    
    700000   1.0111641      17.178098      47.236415    
    701000   0.99142699     17.343137      47.246897    
    702000   0.99946126     17.431638      47.237404    
    703000   0.97697677     17.542795      47.196687    
    704000   0.95151913     17.512202      47.030499    
    705000   0.97610703     18.431552      47.095384    
    706000   0.98476541     17.544277      47.075012    
    707000   1.0043101      17.91679       47.144205    
    708000   1.0253876      17.917695      46.947732    
    709000   0.98838814     17.608375      46.749461    
    710000   0.97723625     17.175795      46.661412    
    711000   1.0239602      17.278456      46.532951    
    712000   1.0058671      16.617773      46.550099    
    713000   1.0260948      17.265541      46.359453    
    714000   0.96324236     16.778318      46.116514    
    715000   0.93087559     17.392258      45.970534    
    716000   0.98458554     17.478593      45.793457    
    717000   1.0398996      17.226707      45.715672    
    718000   0.94997162     17.072723      45.813912    
    719000   0.97505252     17.444684      45.786942    
    720000   0.96107128     17.39722       45.533734    
    721000   0.99932515     17.334787      45.419086    
    722000   1.0423783      17.853862      45.326499    
    723000   1.0411992      17.541851      45.385808    
    724000   0.94513671     17.094709      45.346342    
    725000   1.0324637      17.648996      45.296959    
    726000   1.0340359      17.812447      45.276276    
    727000   1.0024421      17.83016       45.167969    
    728000   0.99839063     17.697587      45.315319    
    729000   1.0009067      17.23435       45.374562    
    730000   1.0353124      17.820486      45.206493    
    731000   1.0143994      17.247258      45.095307    
    732000   0.96016478     17.783119      45.018765    
    733000   1.0074269      17.459065      44.790406    
    734000   1.0365979      18.024215      44.945802    
    735000   1.0446347      17.594087      44.883288    
    736000   0.94427484     17.303767      44.779385    
    737000   1.0461772      17.542819      44.682182    
    738000   1.0127294      17.472079      44.661259    
    739000   0.98091778     16.78948       44.640753    
    740000   0.99260076     17.360414      44.566414    
    741000   1.0062539      16.823267      44.481916    
    742000   1.0175719      17.554326      44.184587    
    743000   0.99239335     17.165499      43.990012    
    744000   1.0030307      17.261413      43.770182    
    745000   0.96804563     17.146352      43.791398    
    746000   1.03245        17.66397       43.907286    
    747000   1.0059737      17.614006      43.459252    
    748000   1.0226372      16.943856      43.188278    
    749000   1.0332941      17.492788      43.075029    
    750000   0.9715123      17.184524      42.929115    
    751000   0.99642593     17.163368      42.773064    
    752000   1.0146687      17.502927      42.948101    
    753000   1.0006155      16.745784      42.626006    
    754000   1.0131289      17.445228      42.493258    
    755000   1.0332772      17.04566       42.510441    
    756000   1.0340264      17.608851      42.378159    
    757000   1.0201419      17.614516      42.258843    
    758000   1.0263853      17.716543      42.142292    
    759000   1.0442541      17.067168      42.149999    
    760000   1.0051065      17.547735      42.168235    
    761000   1.0121877      17.448821      42.057596    
    762000   1.0162331      17.474775      42.042905    
    763000   1.0039761      16.875775      41.644895    
    764000   1.0426084      18.142573      41.583923    
    765000   1.0178908      17.315225      41.61265     
    766000   0.98887651     17.518581      41.696923    
    767000   0.98097008     17.268722      41.804701    
    768000   1.0023723      17.658987      41.769404    
    769000   0.98736715     17.546482      41.759468    
    770000   1.044437       18.037786      41.670002    
    771000   0.97895203     17.315404      41.712019    
    772000   0.99299436     17.599525      41.310876    
    773000   0.98907641     17.075168      41.33834     
    774000   1.01628        18.005736      41.287779    
    775000   1.0007263      17.768978      40.891602    
    776000   1.0166865      17.121841      40.899388    
    777000   0.97440251     16.912205      40.966547    
    778000   1.0074488      17.519524      41.108065    
    779000   0.98537135     17.5192        40.930479    
    780000   0.98280203     17.582911      40.919966    
    781000   1.028999       17.687379      40.834033    
    782000   1.0089626      17.241656      40.700491    
    783000   0.97928176     17.518375      40.891211    
    784000   0.98590144     16.978775      40.944863    
    785000   1.019313       17.661805      40.894446    
    786000   0.9869896      17.882292      40.903461    
    787000   0.98826988     17.260537      40.796844    
    788000   1.029652       17.993368      40.809231    
    789000   0.95759479     17.523397      40.716669    
    790000   1.0305844      17.715366      40.743699    
    791000   1.0076965      17.475591      40.636436    
    792000   0.97325839     17.435111      40.604541    
    793000   0.99949335     17.65605       40.467985    
    794000   1.0201978      17.646109      40.502534    
    795000   1.0276862      17.698951      40.460111    
    796000   0.98257177     17.772135      40.435411    
    797000   1.0013465      17.38724       40.457202    
    798000   1.0464458      17.792468      40.306761    
    799000   0.98994557     17.710509      40.286444    
    800000   1.0217762      17.520185      40.551601    
    801000   1.0403628      17.281529      40.459733    
    802000   0.9874694      17.344171      40.594017    
    803000   1.0058682      17.676722      40.169321    
    804000   0.95633515     17.65211       40.071841    
    805000   1.0138502      17.729969      40.032558    
    806000   0.98334633     17.284404      40.008433    
    807000   0.99301728     17.259695      39.930365    
    808000   0.98242254     17.449356      39.844051    
    809000   1.0409858      18.157086      39.656932    
    810000   1.0022444      17.704468      39.505733    
    811000   1.0696172      17.639493      39.525782    
    812000   0.98297558     17.298259      39.275329    
    813000   0.97376705     17.656879      39.471539    
    814000   1.0400396      17.637928      39.227346    
    815000   1.0087435      17.435696      38.893432    
    816000   1.0116244      17.78807       38.80545     
    817000   0.99800211     16.793669      38.773084    
    818000   0.9730063      17.451629      38.568019    
    819000   1.0031779      16.869672      38.692653    
    820000   1.0213467      17.369309      38.541622    
    821000   0.99011765     17.102546      38.635264    
    822000   0.99405628     17.096194      38.766287    
    823000   1.0305164      17.134084      38.809965    
    824000   1.0310931      17.980156      38.714005    
    825000   0.99069373     16.840217      38.563735    
    826000   1.0373502      17.518604      38.43585     
    827000   1.0223859      17.139722      38.339243    
    828000   1.0200837      17.463593      38.205203    
    829000   1.0407899      17.848742      38.052302    
    830000   1.0109356      17.129279      37.819223    
    831000   1.0169203      17.624006      37.539569    
    832000   0.99983784     17.290661      37.391638    
    833000   0.98736962     17.032593      37.223669    
    834000   1.0524779      17.382843      37.047199    
    835000   1.0275367      17.691335      37.227037    
    836000   1.0042677      17.409726      37.016122    
    837000   1.0156279      17.462768      36.812217    
    838000   1.007685       17.169178      36.623514    
    839000   0.9998795      17.656789      36.589466    
    840000   0.96238871     17.444631      36.389138    
    841000   0.9953766      17.698935      36.416342    
    842000   0.99240853     17.304623      36.511654    
    843000   0.98402855     17.200747      36.40675     
    844000   1.0136707      16.92501       36.182981    
    845000   1.0371369      17.673588      35.96148     
    846000   0.99764587     16.93173       35.708811    
    847000   1.0187504      17.81311       35.584863    
    848000   1.0070957      17.118966      35.614399    
    849000   0.94618103     17.558197      35.514539    
    850000   1.0120824      17.566083      35.442985    
    851000   1.0279319      17.320093      35.289756    
    852000   1.0415245      17.804054      35.305568    
    853000   1.0271144      17.405872      35.228928    
    854000   1.0243988      17.289532      35.194743    
    855000   1.0146085      17.499824      35.023226    
    856000   0.98782232     17.349082      34.933861    
    857000   0.99184035     17.438177      34.898067    
    858000   0.96783335     17.274398      34.874646    
    859000   1.0260462      17.529576      34.681142    
    860000   1.0188236      18.049046      34.630744    
    861000   1.0171275      17.428348      34.439344    
    862000   1.0408489      17.24422       34.264121    
    863000   0.99777901     17.240248      34.42174     
    864000   0.97077049     17.645555      34.56133     
    865000   1.0391683      17.388373      34.593482    
    866000   0.98950492     17.351433      34.49574     
    867000   0.98394102     17.515429      34.485696    
    868000   1.0422287      16.967649      34.308264    
    869000   1.0015225      17.347326      34.215814    
    870000   0.99651971     17.108354      34.171316    
    871000   1.0078854      17.282429      33.938755    
    872000   0.99989466     17.397693      33.850856    
    873000   0.97425443     17.142704      33.801116    
    874000   1.0452084      17.383449      33.761744    
    875000   0.99141155     17.501468      33.732804    
    876000   1.0218896      17.387813      33.67364     
    877000   1.0131167      17.39372       33.579675    
    878000   1.0069126      16.874006      33.55903     
    879000   0.98430578     17.581437      33.47831     
    880000   0.99410242     17.280661      33.222501    
    881000   1.0193121      17.27745       33.281164    
    882000   0.94597724     17.361334      33.13739     
    883000   1.0097408      17.586551      32.871384    
    884000   0.95534597     16.747241      32.87361     
    885000   1.0152498      17.201384      32.550005    
    886000   0.98476998     17.19502       32.538147    
    887000   0.99514553     17.807434      32.50705     
    888000   1.0348028      17.935534      32.465499    
    889000   1.0096493      16.775905      32.56625     
    890000   0.98223557     17.019528      32.529539    
    891000   1.0450215      16.986774      32.270454    
    892000   1.0268685      17.264143      32.166526    
    893000   1.0067531      17.19697       32.01878     
    894000   1.005244       17.667365      32.045859    
    895000   0.99639275     17.306262      31.986014    
    896000   1.0265247      17.228101      31.938893    
    897000   0.99469826     16.999179      31.882721    
    898000   1.0091521      17.383511      31.719067    
    899000   1.0064118      17.862312      31.701141    
    900000   0.98063067     17.849755      31.69027     
    901000   0.99948872     17.267411      31.818735    
    902000   0.98874166     17.184276      31.824523    
    903000   0.98223003     17.391118      31.800333    
    904000   0.99992475     17.283355      31.754966    
    905000   1.0286494      17.361666      31.416427    
    906000   0.99108936     16.856505      31.118069    
    907000   0.98426419     17.607146      30.987768    
    908000   0.99708358     17.657381      31.002431    
    909000   1.0259409      17.85852       30.887916    
    910000   1.0214986      17.531183      30.674056    
    911000   1.0135563      17.348495      30.620514    
    912000   1.023289       16.851055      30.597115    
    913000   0.98131529     17.33031       30.469232    
    914000   1.0206305      17.206258      30.343428    
    915000   1.0219811      17.408728      30.109307    
    916000   0.96481619     17.028866      29.947257    
    917000   1.031242       17.164577      29.840236    
    918000   0.98940085     17.472384      29.796734    
    919000   0.97634587     17.227961      29.731065    
    920000   1.0072067      16.899011      29.735803    
    921000   1.008521       17.484642      29.735151    
    922000   0.96290538     16.909669      29.838923    
    923000   0.99351793     17.337267      29.918646    
    924000   1.0041486      17.354337      29.843632    
    925000   1.0060668      17.225169      29.913072    
    926000   0.99028581     17.518494      29.827166    
    927000   1.0280535      17.636573      29.85163     
    928000   1.0241737      17.433905      30.029348    
    929000   1.0215385      17.622619      29.919251    
    930000   1.0124166      17.23644       29.703417    
    931000   0.9982363      17.318517      29.876533    
    932000   1.0088224      16.748505      29.659075    
    933000   0.98167836     17.690962      29.452435    
    934000   1.010208       17.567541      29.075885    
    935000   0.98437761     17.825122      28.767698    
    936000   1.014962       17.344988      28.810882    
    937000   0.97615949     17.356041      28.660597    
    938000   0.97072789     17.147674      28.624586    
    939000   0.97722535     17.356487      28.49884     
    940000   0.98538927     17.335567      28.247943    
    941000   1.0113722      17.184156      28.345523    
    942000   0.96242407     17.034239      28.221367    
    943000   1.0209879      17.236688      28.233924    
    944000   1.0032566      17.340437      28.335399    
    945000   1.0157647      17.477819      28.282102    
    946000   1.0176969      17.582564      28.377132    
    947000   1.0298223      17.295396      28.262724    
    948000   1.0362717      17.142468      28.091475    
    949000   0.95395601     16.948446      27.912348    
    950000   0.99507445     17.138917      28.021665    
    951000   0.97120724     17.268635      28.227632    
    952000   0.98259601     17.173166      28.093307    
    953000   0.96332966     17.450411      28.083786    
    954000   1.0086414      17.456591      28.02252     
    955000   0.97681974     17.389191      27.72201     
    956000   0.95910013     17.275567      27.649748    
    957000   0.98916996     17.490565      27.719724    
    958000   1.0149404      17.138851      27.771662    
    959000   0.99573067     17.263296      27.71622     
    960000   1.0292984      17.346819      27.577568    
    961000   1.0338319      17.540089      27.404605    
    962000   0.98498096     17.576841      27.060962    
    963000   0.99891782     17.251098      27.144407    
    964000   0.9977946      17.653225      27.089962    
    965000   0.98923575     17.342588      27.244572    
    966000   0.99935992     17.212307      27.220359    
    967000   0.99056698     16.87015       27.270217    
    968000   0.98950417     17.477875      27.194662    
    969000   1.0242217      17.635457      26.990088    
    970000   0.98183685     16.994565      26.973991    
    971000   1.0264762      17.585829      26.633264    
    972000   0.97702821     16.986408      26.721722    
    973000   1.0000229      17.500361      26.651276    
    974000   1.0468244      16.72469       26.593274    
    975000   1.0320185      16.894758      26.668996    
    976000   1.0103847      17.192043      26.420329    
    977000   1.0244784      17.173619      26.261841    
    978000   1.0211608      17.165778      26.179888    
    979000   1.0012128      16.899921      26.099777    
    980000   0.96593402     17.012564      26.100534    
    981000   1.0198443      17.87346       26.086122    
    982000   1.0352937      17.018188      26.132598    
    983000   0.97732531     17.594194      26.388784    
    984000   0.98258486     17.146187      26.318984    
    985000   0.98006876     17.176602      26.428841    
    986000   1.0108525      17.300874      26.367384    
    987000   0.9888431      17.746937      26.385132    
    988000   1.0385212      17.414353      26.387773    
    989000   0.96076588     17.122533      26.506345    
    990000   1.0221838      17.684289      26.347021    
    991000   0.98499828     17.101371      26.246464    
    992000   0.98013777     16.871585      26.22018     
    993000   0.99595121     17.320498      26.196158    
    994000   1.0146119      17.622977      26.156769    
    995000   1.0277411      17.367341      26.077905    
    996000   1.0084163      16.846964      26.030048    
    997000   1.0028584      17.07256       26.14797     
    998000   0.96656753     17.335071      26.051315    
    999000   0.99250928     17.511344      26.170588    
   1000000   0.97073011     17.419369      25.9381      
   1001000   1.0486456      17.48213       25.730466    
   1002000   0.99643443     17.395955      25.651021    
   1003000   1.0187272      16.951546      25.870905    
   1004000   1.0017977      17.847425      25.81588     
   1005000   1.0055518      17.611577      25.702621    
   1006000   0.99059206     17.053202      25.488624    
   1007000   1.0006433      17.437786      25.29907     
   1008000   1.0221251      17.229818      25.35969     
   1009000   0.97852012     17.50197       25.444801    
   1010000   1.0301369      17.221331      25.539068    
   1011000   1.034137       17.792467      25.676635    
   1012000   0.99372693     17.53069       25.657102    
   1013000   1.0117304      17.110644      25.852877    
   1014000   1.0537888      17.649804      25.579892    
   1015000   1.0031615      17.138221      25.511294    
   1016000   0.97769902     17.448693      25.402862    
   1017000   1.0022272      17.030228      25.19295     
   1018000   1.0168562      16.923682      25.155587    
   1019000   0.95854346     17.04795       25.012189    
   1020000   0.97064576     16.56359       24.865377    
   1021000   1.0443899      17.038373      24.769613    
   1022000   1.0099752      16.942391      24.563711    
   1023000   0.95570731     17.748597      24.455122    
   1024000   1.0036136      17.635278      24.302612    
   1025000   1.0197946      17.399779      24.288853    
   1026000   0.97521314     17.512002      24.14728     
   1027000   0.9721214      17.541414      24.03665     
   1028000   0.96390379     17.16794       24.034208    
   1029000   0.99537441     16.818631      23.972837    
   1030000   1.0201928      17.581423      24.002548    
   1031000   1.0384022      17.220966      23.925316    
   1032000   0.98484088     16.65285       23.70656     
   1033000   1.0065503      17.770558      23.714548    
   1034000   1.0330135      17.523294      23.428504    
   1035000   0.9947729      17.363437      23.533377    
   1036000   0.97871136     17.36395       23.316237    
   1037000   1.0078422      17.04705       23.251849    
   1038000   1.0143187      16.984255      23.165032    
   1039000   1.0130236      17.199718      23.115136    
   1040000   1.0064396      16.838424      23.107686    
   1041000   0.99805769     17.043251      23.004129    
   1042000   0.998036       17.051711      22.920228    
   1043000   1.0065359      17.529351      22.883968    
   1044000   0.98664681     17.668905      22.927865    
   1045000   0.99013878     17.130591      22.82692     
   1046000   0.95021032     17.100331      22.788023    
   1047000   1.0137438      17.255148      22.719728    
   1048000   0.99662433     17.03015       22.70861     
   1049000   1.0116531      17.092527      22.66357     
   1050000   1.0060665      17.554169      22.66465     
   1051000   1.0299687      17.546954      22.489546    
   1052000   1.0160191      17.182082      22.713038    
   1053000   0.98252459     17.290391      22.619696    
   1054000   1.0221971      17.331984      22.679464    
   1055000   1.0154724      17.720167      22.570189    
   1056000   1.0132706      17.760946      22.395501    
   1057000   0.97527252     17.429908      22.549795    
   1058000   0.98658589     17.972207      22.375021    
   1059000   0.96959486     17.602637      22.3499      
   1060000   1.0750353      17.46125       22.168149    
   1061000   1.0144658      17.132259      22.237024    
   1062000   0.98229629     17.417152      22.110788    
   1063000   1.0220176      17.389566      22.089867    
   1064000   0.99319693     17.591231      21.967       
   1065000   0.97669766     17.809133      21.826922    
   1066000   1.0012544      17.382595      22.096545    
   1067000   1.0065647      17.552539      22.261142    
   1068000   0.99022762     17.368039      22.053266    
   1069000   1.0122989      17.122807      22.044781    
   1070000   1.0186765      16.595059      21.997372    
   1071000   1.0047568      17.008888      21.923528    
   1072000   1.0566693      16.969629      21.795053    
   1073000   1.0148341      17.353212      21.544066    
   1074000   1.0139742      17.463082      21.554844    
   1075000   1.0195304      17.555965      21.452511    
   1076000   0.99758817     17.462247      21.351783    
   1077000   1.0379668      17.523845      21.348313    
   1078000   0.98320799     16.35208       21.328052    
   1079000   1.0035657      17.264371      21.21592     
   1080000   0.97384738     17.309008      21.057869    
   1081000   1.0413179      18.151274      20.994148    
   1082000   0.97965109     17.08162       20.79749     
   1083000   1.0236149      17.648404      20.647487    
   1084000   0.94997015     17.375909      20.567075    
   1085000   1.0103919      16.88264       20.403568    
   1086000   1.0227276      17.203261      20.405172    
   1087000   0.99708373     17.638301      20.314387    
   1088000   1.0284684      17.17356       20.060421    
   1089000   1.0360047      17.825178      20.015014    
   1090000   0.99406011     17.427975      19.730981    
   1091000   1.0021865      16.801731      19.450882    
   1092000   1.042443       17.104678      19.20047     
   1093000   0.96791238     17.434975      19.267635    
   1094000   1.0202206      16.672194      19.327667    
   1095000   1.0063421      17.625585      19.507387    
   1096000   0.98682184     17.546108      19.584424    
   1097000   1.0380087      17.029016      19.517681    
   1098000   0.95246222     17.284819      19.347161    
   1099000   1.0323665      17.171963      19.325656    
   1100000   0.95544515     17.196308      19.27123     
   1101000   1.0089499      16.773282      18.958282    
   1102000   1.0527793      17.365841      18.958683    
   1103000   0.97099792     17.186127      18.937763    
   1104000   1.023752       17.638036      18.881438    
   1105000   1.0136937      17.560508      18.932081    
   1106000   0.98355866     17.404476      18.774591    
   1107000   1.0182568      16.814865      18.775626    
   1108000   1.0148802      17.191685      18.803747    
   1109000   1.0071028      17.806513      18.700156    
   1110000   1.0260422      17.105754      18.410787    
   1111000   0.98975366     17.832747      18.414692    
   1112000   1.0009553      17.417473      18.19878     
   1113000   0.97692387     17.629287      17.909125    
   1114000   1.0271526      17.080659      17.759973    
   1115000   1.0270133      17.678516      17.540009    
   1116000   1.0289281      17.163421      17.562092    
   1117000   0.97396823     16.963599      17.670554    
   1118000   1.0023762      17.711814      17.657921    
   1119000   1.0304597      17.207838      17.619301    
   1120000   1.0094697      17.417841      17.63331     
   1121000   0.94854091     17.675492      17.411798    
   1122000   1.0210671      17.478942      17.287297    
   1123000   1.0362987      17.66728       17.390825    
   1124000   1.017986       17.104595      17.272429    
   1125000   0.98408426     16.760822      17.206546    
   1126000   1.0087435      17.57802       17.104784    
   1127000   0.99689296     17.342833      17.012957    
   1128000   0.99189741     17.304073      16.979185    
   1129000   0.97800341     17.46476       16.855273    
   1130000   1.0123374      17.510448      16.965657    
   1131000   1.0023864      17.401051      17.097564    
   1132000   1.0217921      17.212898      16.941757    
   1133000   1.00714        17.139155      16.926956    
   1134000   1.0035944      17.95267       16.895465    
   1135000   0.98515098     17.051873      16.991083    
   1136000   0.99056409     16.912518      17.071927    
   1137000   1.0415236      17.358525      17.124405    
   1138000   0.98928621     17.126327      17.124632    
   1139000   0.97752337     17.011072      17.152458    
   1140000   1.0024266      17.538259      17.130421    
   1141000   1.0124746      17.496088      17.329423    
   1142000   1.0085612      17.239132      17.381269    
   1143000   0.98782923     16.835782      17.385422    
   1144000   0.9880837      17.275654      17.32241     
   1145000   0.99227371     16.917254      17.569841    
   1146000   1.0042777      16.842626      17.499905    
   1147000   1.0034655      17.034576      17.294487    
   1148000   0.974805       16.822973      17.13089     
   1149000   1.0096836      17.122206      16.993128    
   1150000   0.9673304      17.043424      17.053313    
   1151000   1.0113858      17.646504      17.065211    
   1152000   0.98958409     17.689584      17.153545    
   1153000   1.0055201      17.325885      17.217367    
   1154000   0.99239445     17.2928        17.194744    
   1155000   1.0287637      17.452979      16.942363    
   1156000   0.9549389      17.149673      16.822109    
   1157000   0.97976446     16.961639      16.824816    
   1158000   1.076207       17.45939       16.592278    
   1159000   1.0140318      17.556627      16.362479    
   1160000   1.0040267      16.491556      16.350151    
   1161000   0.9590463      16.538318      16.217621    
   1162000   1.0084241      17.365394      16.244445    
   1163000   0.9975867      17.326014      16.240584    
   1164000   0.97642459     17.313831      16.341278    
   1165000   1.004272       16.760797      16.407462    
   1166000   0.97622205     16.735876      16.230964    
   1167000   0.98738445     17.201453      16.081734    
   1168000   1.0380171      17.600729      15.972285    
   1169000   0.9649481      17.507131      15.816783    
   1170000   0.98096864     17.446964      15.832624    
   1171000   0.99949775     17.524739      15.850099    
   1172000   0.96321064     17.791382      15.707151    
   1173000   0.95931384     17.257696      15.878465    
   1174000   0.98853763     17.565691      15.849874    
   1175000   0.96920194     17.76115       15.706197    
   1176000   0.99071145     16.975109      15.671691    
   1177000   1.038753       17.095352      15.496011    
   1178000   0.98660563     17.676898      15.31561     
   1179000   1.0197878      17.338197      15.422256    
   1180000   0.96607274     17.058844      15.375993    
   1181000   1.0159587      17.412549      15.326094    
   1182000   0.97375587     16.835139      15.275611    
   1183000   1.0001356      17.568545      15.227002    
   1184000   1.0002611      17.552191      15.142489    
   1185000   0.98015269     17.528397      15.131141    
   1186000   1.0470489      17.340847      15.105383    
   1187000   1.0014673      17.317227      15.069781    
   1188000   1.0578506      17.222747      14.752164    
   1189000   0.98644859     16.65851       14.76112     
   1190000   1.0560691      17.615024      14.663039    
   1191000   1.0039065      17.460686      14.749301    
   1192000   0.9984197      17.23088       14.777721    
   1193000   0.98585957     17.46572       14.779272    
   1194000   0.99773512     17.26482       14.926735    
   1195000   0.96457932     16.94517       14.941654    
   1196000   1.0513798      18.009562      14.9066      
   1197000   0.98794099     17.241166      14.640169    
   1198000   1.0075825      16.775453      14.55937     
   1199000   0.96626197     17.097311      14.449903    
   1200000   0.96635514     16.515554      14.4414      
   1201000   0.97647197     17.386395      14.338761    
   1202000   1.0109394      17.314309      14.248852    
   1203000   0.99114858     16.904258      14.172182    
   1204000   1.0239967      17.195179      14.185384    
   1205000   1.0241472      17.352337      14.120094    
   1206000   1.0277746      16.923943      13.995131    
   1207000   0.99057268     17.331815      13.776542    
   1208000   0.96859849     17.536826      13.824038    
   1209000   1.0020579      17.265324      13.593059    
   1210000   1.0239119      17.736462      13.3246      
   1211000   0.98943526     17.082538      13.190047    
   1212000   0.98700587     17.885578      13.083064    
   1213000   1.0049441      17.074034      12.898722    
   1214000   1.002422       16.805782      12.893482    
   1215000   1.0025025      17.132046      12.761449    
   1216000   1.0092097      16.84119       12.529382    
   1217000   1.0405755      17.204195      12.529664    
   1218000   0.98192285     17.160566      12.571731    
   1219000   1.0145173      17.104778      12.356785    
   1220000   0.98528558     17.30965       12.257926    
   1221000   0.99534326     17.585959      12.238546    
   1222000   1.0032386      17.232494      12.206737    
   1223000   0.96588634     17.515319      12.236195    
   1224000   1.0046651      17.382833      12.173278    
   1225000   1.0486515      17.232295      12.01075     
   1226000   1.003882       16.956862      12.007917    
   1227000   1.0080767      17.062701      11.790241    
   1228000   0.97091877     16.922397      11.658474    
   1229000   0.97941476     16.998969      11.524385    
   1230000   0.9899699      17.486637      11.2917      
   1231000   1.0057726      17.252556      11.18398     
   1232000   1.013144       17.20228       10.975611    
   1233000   0.98433483     17.341839      11.008481    
   1234000   1.0180801      17.138966      10.919927    
   1235000   1.0344827      17.175517      10.940117    
   1236000   0.98428191     16.927308      10.847567    
   1237000   0.99279811     16.625011      10.658921    
   1238000   0.99782434     17.206886      10.6058      
   1239000   0.98612486     16.989694      10.679172    
   1240000   1.0210277      17.403727      10.596719    
   1241000   0.98083509     16.66074       10.425691    
   1242000   1.0156606      17.721575      10.460001    
   1243000   0.99940891     17.39036       10.610976    
   1244000   0.99867341     17.319498      10.624366    
   1245000   0.96691896     17.011019      10.784049    
   1246000   1.0177243      16.883283      10.779641    
   1247000   0.99775494     16.693209      10.737505    
   1248000   1.0415389      17.132982      10.627917    
   1249000   0.99723691     16.805467      10.736913    
   1250000   1.0003746      17.113906      10.546146    
   1251000   1.0002136      17.060682      10.312882    
   1252000   1.0210216      17.419704      10.152189    
   1253000   1.0137977      17.317068      10.125551    
   1254000   1.0176393      17.083298      10.277828    
   1255000   1.0129053      17.327821      10.295388    
   1256000   0.98724587     17.151507      10.194043    
   1257000   1.0094296      17.339499      10.199969    
   1258000   1.0074876      17.196148      10.155648    
   1259000   0.98037692     17.356274      9.9682515    
   1260000   0.99182433     16.786266      9.8749514    
   1261000   1.0438532      17.009672      9.6634356    
   1262000   1.0258159      16.861495      9.6991732    
   1263000   0.98413884     17.094685      9.7417213    
   1264000   1.0017183      17.331554      9.6518057    
   1265000   0.98724871     17.28034       9.6959908    
   1266000   1.0354455      17.426647      9.7397884    
   1267000   1.0650518      17.138886      9.5987014    
   1268000   1.0017546      16.741614      9.5803856    
   1269000   0.98647883     16.949663      9.6652261    
   1270000   0.98390275     16.774285      9.873276     
   1271000   1.0046953      17.377701      9.9805692    
   1272000   0.98804739     17.129193      9.8985243    
   1273000   0.93116141     16.61778       9.8587307    
   1274000   1.0398337      16.966506      10.022311    
   1275000   1.0057409      17.279285      10.02076     
   1276000   1.0039309      16.806709      9.9457893    
   1277000   0.99444696     16.755847      10.051421    
   1278000   0.99907257     17.280005      10.069367    
   1279000   1.0071584      17.613614      10.10372     
   1280000   0.97562178     17.041478      10.002771    
   1281000   0.99066393     16.754061      9.9233818    
   1282000   1.0318868      17.132838      9.8956124    
   1283000   0.96692916     17.393926      9.93209      
   1284000   1.0203279      16.734084      9.7949021    
   1285000   0.97803239     16.720492      9.6993473    
   1286000   0.99547485     17.166965      9.5873461    
   1287000   0.9773255      17.017285      9.4130358    
   1288000   0.98748498     17.132611      9.5981487    
   1289000   0.9635318      17.390241      9.7238358    
   1290000   1.0660471      17.259003      9.7515908    
   1291000   0.98611499     16.807648      9.628999     
   1292000   0.97705223     16.42248       9.6115853    
   1293000   1.038398       17.0777        9.4299476    
   1294000   1.0359037      17.426515      9.4369574    
   1295000   1.0039391      16.743476      9.4926909    
   1296000   0.97885209     16.365275      9.3171982    
   1297000   1.0006833      17.178532      9.4412168    
   1298000   1.0160788      16.727747      9.5497325    
   1299000   0.981045       17.367782      9.6044204    
   1300000   1.0337873      16.796714      9.7091067    
   1301000   1.0057713      17.661435      9.5614287    
   1302000   0.99297707     17.257526      9.5301811    
   1303000   0.99761192     17.226344      9.6695716    
   1304000   0.97802976     16.263736      9.7437247    
   1305000   0.96885258     16.858308      9.5684993    
   1306000   0.98929513     16.57775       9.4972987    
   1307000   1.0320151      17.074653      9.3353786    
   1308000   0.97513782     17.087593      9.084868     
   1309000   0.98413257     17.140683      9.0458359    
   1310000   0.98124306     17.645114      9.1620818    
   1311000   0.99489621     17.306688      9.3053763    
   1312000   0.99004278     16.683046      9.2619088    
   1313000   0.97227465     16.984627      9.2660017    
   1314000   0.96994416     16.569607      9.1449026    
   1315000   0.9998821      17.008287      9.1409654    
   1316000   0.99055151     16.737929      8.9336004    
   1317000   1.0074742      16.930109      8.7679581    
   1318000   1.0038134      16.991243      8.7172655    
   1319000   1.0072045      16.931305      8.6333276    
   1320000   1.0253878      16.863773      8.3992869    
   1321000   0.98535745     16.904554      8.255445     
   1322000   1.0346371      16.941911      8.4330999    
   1323000   1.0236169      17.623078      8.5065858    
   1324000   0.99414795     16.509039      8.4889575    
   1325000   1.0225739      16.894472      8.3522851    
   1326000   1.023977       17.19975       8.2635978    
   1327000   0.97309094     16.792411      8.101082     
   1328000   1.0003197      17.498351      8.1338136    
   1329000   1.0092113      16.914515      8.0198385    
   1330000   1.0227877      17.186181      7.7106249    
   1331000   0.98173646     17.267562      7.4821019    
   1332000   1.0229385      17.465869      7.273401     
   1333000   1.0452697      17.358663      7.151791     
Fix halt condition for fix-id 3 met on step 1334000 with value 6.975533421488563 (src/fix_halt.cpp:237)
   1334000   0.99114067     17.076308      6.9755334    
Loop time of 2001.98 on 1 procs for 1234000 steps with 1201 atoms

Performance: 532560.807 tau/day, 616.390 timesteps/s
100.0% CPU use with 1 MPI tasks x 1 OpenMP threads

MPI task timing breakdown:
Section |  min time  |  avg time  |  max time  |%varavg| %total
---------------------------------------------------------------
Pair    | 1010.4     | 1010.4     | 1010.4     |   0.0 | 50.47
Bond    | 61.051     | 61.051     | 61.051     |   0.0 |  3.05
Neigh   | 857.97     | 857.97     | 857.97     |   0.0 | 42.86
Comm    | 0.54986    | 0.54986    | 0.54986    |   0.0 |  0.03
Output  | 3.3091     | 3.3091     | 3.3091     |   0.0 |  0.17
Modify  | 63.188     | 63.188     | 63.188     |   0.0 |  3.16
Other   |            | 5.473      |            |       |  0.27

Nlocal:           1201 ave        1201 max        1201 min
Histogram: 1 0 0 0 0 0 0 0 0 0
Nghost:              0 ave           0 max           0 min
Histogram: 1 0 0 0 0 0 0 0 0 0
Neighs:         287048 ave      287048 max      287048 min
Histogram: 1 0 0 0 0 0 0 0 0 0

Total # of neighbors = 287048
Ave neighs/atom = 239.00749
Ave special neighs/atom = 1.9983347
Neighbor list builds = 10894
Dangerous builds = 0

# This simulation is done
# Move onto the next one
clear
OMP_NUM_THREADS environment is not set. Defaulting to 1 thread. (src/comm.cpp:98)
  using 1 OpenMP thread(s) per MPI task
next f
jump SELF

Total wall time: 3:00:36
