#atom_style bond #no stiffness
atom_style angle #with stiffness

boundary        p p p
###
# Pair interactions require lists of neighbours to be calculated
###

#neighbor 0.3 bin
neighbor 4 bin

neigh_modify every 1 delay 1 check yes
atom_modify sort 0 0
### Generate RESTART file, SPECIAL format, not a .txt file ###
### Useful if simulation crashes ###

restart 1000000 linear/restarts3/$f.restart
restart 1000000 linear/restarts3/bb1100nuc0bl0bn0d30tot1100.restart
#############################



### READ "start" data file ###

read_data linear/$f.dat
read_data linear/bb1100nuc0bl0bn0d30tot1100.dat
Reading data file ...
  orthogonal box = (-1000 -1000 -1000) to (1000 1000 1000)
  1 by 1 by 1 MPI processor grid
  reading atoms ...
  1100 atoms
  scanning bonds ...
  1 = max bonds/atom
  scanning angles ...
  1 = max angles/atom
  reading bonds ...
  1099 bonds
  reading angles ...
  1098 angles
Finding 1-2 1-3 1-4 neighbors ...
  special bond factors lj:    0        0        0       
  special bond factors coul:  0        0        0       
     2 = max # of 1-2 neighbors
     2 = max # of 1-3 neighbors
     4 = max # of 1-4 neighbors
     6 = max # of special neighbors
  special bonds CPU = 0.003 seconds
  read_data CPU = 0.089 seconds

######################

### READ "REstart" data file ###

######################



###
# Define groups (atom type 1 is group 'all')
###
group all type 1
1100 atoms in group all


###
# Dump configs - "simple dumpings"
###

###
# Dump configs + box coords
###

dump   1   all   custom   1000  linear/trjs3/$f.lammpstrj  id  x y z  ix iy iz
dump   1   all   custom   1000  linear/trjs3/bb1100nuc0bl0bn0d30tot1100.lammpstrj  id  x y z  ix iy iz
dump_modify   1   format line "%d %.5f %.5f %.5f %d %d %d"

########################################################################


###################################################################
# Stiffness term
#
# E = K * (1+cos(theta)), K>0
#
angle_style   cosine
#change this coefficient to change stiffness (e.g. 1,5,10)
angle_coeff   1 1.0
###################################################################

###################################################################
# Pair interaction between non-bonded atoms
#
#  Lennard-Jones 12-6 potential with cutoff:
#  potential E=4epsilon[ (sigma/r)^12 - (sigma/r)^6]  for r<r_cut
#
#  1.12246 = 2^(1/6) is the minimum of the potential


pair_style      lj/cut 1.12246152962189
#pair_style      lj/cut 3

#
#  pair_modify shift yes adds a constant to the potential such

#  that E(r_cut)=0. Forces remains unchanged.
#

pair_modify     shift yes

#
#  pair_coeff for lj/cut, specify 4:
#    * atom type interacting with
#    * atom type
#    * epsilon (energy units)
#    * sigma (distance units)
#

pair_coeff      1 1 1.0 1.0
###################################################################

###################################################################
# Pair interaction between non-bonded atoms
#
#  soft potential, for PUSHING apart overlapping atoms
#  potential E=A*(1 + cos(pi*r/r_c))
#
#  1.12246 = 2^(1/6) is the cut-off r_c

#pair_style     soft 1.12246152962189

#
#  pair_coeff for soft, specify 3:
#    * atom type interacting with
#    * atom type
#    * A
#
#

#pair_coeff      1 1 100.0
###################################################################

###################################################################
# Pair interaction between bonded atoms
#
# Fene potential + Lennard Jones 12-6:

#
#  E= - 0.5 K R0^2 ln[ 1- (r/R0)^2]
#     + 4epsilon[ (sigma/r)^12 - (sigma/r)^6] + epsilon
#

bond_style   fene


#
# For style fene, specify:
#   * bond type
#   * K (energy/distance^2)
#   * R0 (distance)
#   * epsilon (energy)  (LJ component)
#   * sigma (distance)  (LJ component)
#


special_bonds fene #<=== I M P O R T A N T (new command)
Finding 1-2 1-3 1-4 neighbors ...
  special bond factors lj:    0        1        1       
  special bond factors coul:  0        1        1       
     2 = max # of 1-2 neighbors
     6 = max # of special neighbors
  special bonds CPU = 0.000 seconds

bond_coeff   1   30   2   1.0   1.0


###################################################

###################################################################
# Pair interaction between bonded atoms
#
# Harmonic potential:
#
#  E= K * (R-R0)^2
#

#bond_style   harmonic

#
# For style harmonic, specify:
#   * bond type
#   * K (energy/distance^2)
#   * R0 (distance)
#

#bond_coeff   1   60.0   1.0
#bond_coeff   2   harmonic 0.1   1.0

###################################################
compute 1 all gyration
variable rog equal c_1
#compute 2 all coord/atom cutoff 1.1

#dump 2 all custom 10000 contact_number.dump id c_2


###
# Set up fixes
###
thermo_style   custom   step  temp enthalpy c_1
fix 1 all nve   ###NVE ensemble

fix 2 all   langevin   1.0 1.0 1.0  158102   ###Langevin integrator Tstart Tstop 1/friction rndseed


##### Sample thermodynamic info  (temperature, energy, pressure, etc.) #####
thermo 1000









############################################################################

###
# set timestep of integrator

timestep 0.01

###
# run integration for a number of steps
###
#run 0
#variable r equal c_1
#if "$r < 63.1" then "quit 1"

# lj potential minimum, cause molecule to explore
run 100000
Generated 0 of 0 mixed pair_coeff terms from geometric mixing rule
Last active /omp style is angle_style cosine/omp
Neighbor list info ...
  update: every = 1 steps, delay = 1 steps, check = yes
  max neighbors/atom: 2000, page size: 100000
  master list distance cutoff = 5.1224615
  ghost atom cutoff = 5.1224615
  binsize = 2.5612308, bins = 781 781 781
  1 neighbor lists, perpetual/occasional/extra = 1 0 0
  (1) pair lj/cut/omp, perpetual
      attributes: half, newton on, omp
      pair build: half/bin/newton/omp
      stencil: half/bin/3d
      bin: standard
WARNING: Communication cutoff 5.12246152962189 is shorter than a bond length based estimate of 5.455. This may lead to errors. (src/comm.cpp:723)
Per MPI rank memory allocation (min/avg/max) = 1860 | 1860 | 1860 Mbytes
   Step          Temp         Enthalpy         c_1      
         0   0              13.414597      275.00021    
      1000   0.94664863     18.6996        274.89738    
      2000   1.0331867      18.582744      274.7223     
      3000   1.0027864      18.680164      274.51508    
      4000   0.97410498     18.669603      274.28747    
      5000   1.0406101      18.450809      274.02662    
      6000   0.97880298     18.586468      273.76124    
      7000   0.9787385      18.464098      273.73227    
      8000   0.99471698     18.869283      273.53275    
      9000   0.97609317     18.91186       273.10753    
     10000   0.98042284     18.847823      272.98944    
     11000   0.96873206     18.970489      272.86312    
     12000   1.0035277      19.071949      272.75882    
     13000   0.99290926     18.56236       272.49425    
     14000   0.99696569     19.088298      272.27116    
     15000   1.0000756      19.145608      272.30141    
     16000   1.0063791      19.678858      272.27154    
     17000   0.99389223     18.518665      272.06096    
     18000   1.0028709      18.935554      271.68615    
     19000   0.99282624     18.869572      271.54468    
     20000   1.0134537      18.950381      271.57173    
     21000   1.0489255      19.010327      271.35718    
     22000   1.011413       18.820407      271.15388    
     23000   1.0234815      18.525105      270.87103    
     24000   1.0250167      19.404365      270.66351    
     25000   1.0151275      19.569182      270.70872    
     26000   0.99774233     18.723582      270.48263    
     27000   1.0358402      19.417122      270.37921    
     28000   0.98212255     18.471206      270.25111    
     29000   0.99880101     19.038795      270.06368    
     30000   1.0291219      18.5501        269.91942    
     31000   0.99062108     19.568811      269.71891    
     32000   0.98329559     19.334443      269.37582    
     33000   0.98706213     19.254744      269.44273    
     34000   0.97348212     19.077093      269.50572    
     35000   1.0376613      19.24837       269.46356    
     36000   1.0168566      19.073719      269.21576    
     37000   0.97537796     19.242194      269.16898    
     38000   1.004839       19.406966      269.13862    
     39000   0.95473719     18.99831       269.22758    
     40000   1.0162437      19.119144      269.26698    
     41000   0.9820816      18.839788      269.18861    
     42000   1.0045216      18.962968      269.11131    
     43000   1.019376       19.000283      269.0749     
     44000   1.0065294      19.309563      268.86101    
     45000   0.98154695     18.607564      268.67906    
     46000   0.99039021     19.436128      268.59877    
     47000   0.99210379     19.27265       268.4542     
     48000   1.0112991      19.15597       268.43397    
     49000   1.0099079      18.638808      268.46896    
     50000   0.99691565     18.794932      268.29412    
     51000   1.0357813      19.370731      268.32998    
     52000   0.9685077      19.172258      268.07059    
     53000   0.98995397     18.838932      268.12535    
     54000   1.0394615      19.154249      267.89245    
     55000   1.0595891      19.229896      267.72827    
     56000   0.9801412      19.209584      267.60233    
     57000   0.99121382     19.365518      267.4329     
     58000   1.0339227      19.095873      267.15883    
     59000   1.0447738      19.766947      266.98383    
     60000   1.0379089      19.509454      266.96368    
     61000   1.0061792      19.081298      266.90201    
     62000   1.0095095      19.221122      266.77784    
     63000   0.9734187      18.741683      266.51613    
     64000   1.0200756      19.326612      266.42635    
     65000   1.0240526      19.236898      266.25868    
     66000   1.0008397      19.284786      266.23437    
     67000   0.98156041     19.272268      265.95464    
     68000   1.0337864      18.964725      265.93364    
     69000   0.96102866     18.684474      265.89611    
     70000   0.98575684     19.609167      265.87915    
     71000   1.0757094      19.598055      266.05826    
     72000   1.0473258      18.971793      265.88617    
     73000   0.95056287     19.248398      265.66971    
     74000   0.99419898     19.050805      265.59634    
     75000   1.0331996      19.950593      265.35048    
     76000   1.0265105      19.409419      265.34272    
     77000   0.95798856     19.080199      265.19094    
     78000   1.002263       19.244499      265.00007    
     79000   1.0234067      19.37956       264.74012    
     80000   0.9757862      19.362906      264.64722    
     81000   0.95425416     18.850684      264.54868    
     82000   1.0148272      19.109912      264.43269    
     83000   1.0206385      19.22218       264.48958    
     84000   1.0012867      19.506932      264.43534    
     85000   1.003708       19.111079      264.33111    
     86000   0.98268844     19.377895      264.34034    
     87000   1.0254652      19.399467      264.06706    
     88000   1.009626       18.802467      263.94196    
     89000   1.0356534      19.426505      263.99411    
     90000   0.98314241     19.040629      264.0154     
     91000   0.99613077     19.192338      263.74572    
     92000   1.0326973      19.834937      263.41967    
     93000   0.9905268      19.619402      263.24857    
     94000   0.9816867      18.977139      263.13923    
     95000   1.0336588      19.274793      262.98358    
     96000   1.012284       19.395906      262.70975    
     97000   1.0098019      19.327443      262.48825    
     98000   0.9807379      19.015226      262.43384    
     99000   0.97050581     19.004491      262.31493    
    100000   0.97637099     18.73097       262.08152    
Loop time of 371.069 on 2 procs for 100000 steps with 1100 atoms

Performance: 232841.054 tau/day, 269.492 timesteps/s
102.6% CPU use with 1 MPI tasks x 2 OpenMP threads

MPI task timing breakdown:
Section |  min time  |  avg time  |  max time  |%varavg| %total
---------------------------------------------------------------
Pair    | 0.92644    | 0.92644    | 0.92644    |   0.0 |  0.25
Bond    | 2.1442     | 2.1442     | 2.1442     |   0.0 |  0.58
Neigh   | 362.75     | 362.75     | 362.75     |   0.0 | 97.76
Comm    | 0.034177   | 0.034177   | 0.034177   |   0.0 |  0.01
Output  | 0.2265     | 0.2265     | 0.2265     |   0.0 |  0.06
Modify  | 4.647      | 4.647      | 4.647      |   0.0 |  1.25
Other   |            | 0.343      |            |       |  0.09

Nlocal:           1100 ave        1100 max        1100 min
Histogram: 1 0 0 0 0 0 0 0 0 0
Nghost:              0 ave           0 max           0 min
Histogram: 1 0 0 0 0 0 0 0 0 0
Neighs:           5255 ave        5255 max        5255 min
Histogram: 1 0 0 0 0 0 0 0 0 0

Total # of neighbors = 5255
Ave neighs/atom = 4.7772727
Ave special neighs/atom = 1.9981818
Neighbor list builds = 1060
Dangerous builds = 0

# Replace lj potential, now collapse
pair_style      lj/cut 3

# Cutoff simul when gyration under 5
# Variable created with equal requires v_ + 'name'
fix 3 all halt 1000 v_rog < 7

run 5000000
Generated 0 of 0 mixed pair_coeff terms from geometric mixing rule
Last active /omp style is angle_style cosine/omp
Per MPI rank memory allocation (min/avg/max) = 1860 | 1860 | 1860 Mbytes
   Step          Temp         Enthalpy         c_1      
    100000   0.97637099     18.325705      262.08152    
    101000   0.96430643     19.075205      261.96504    
    102000   1.0078059      19.023702      262.02696    
    103000   0.99339393     18.842074      261.95413    
    104000   0.9932605      19.090971      261.7743     
    105000   0.9865164      18.959289      261.57113    
    106000   1.0298116      18.779398      261.31724    
    107000   0.99391516     18.799446      261.21081    
    108000   1.0193457      18.977151      260.97048    
    109000   1.0337519      19.151544      260.85255    
    110000   0.99495566     19.071567      260.70897    
    111000   0.98406433     18.856706      260.52938    
    112000   0.99073498     19.543326      260.14621    
    113000   0.9722989      19.415401      259.9915     
    114000   0.98553957     19.117337      260.09778    
    115000   1.041581       18.577921      259.81257    
    116000   1.0023045      18.903954      259.7661     
    117000   1.0346376      19.091003      259.55784    
    118000   0.98714163     18.610591      259.44532    
    119000   1.0109008      19.302003      259.30454    
    120000   1.0190144      18.999273      259.15655    
    121000   0.97787497     19.252872      259.11492    
    122000   0.9978409      19.086011      258.86768    
    123000   1.0992161      19.495037      258.58264    
    124000   0.98687263     19.000369      258.41933    
    125000   1.0313285      18.744742      258.34003    
    126000   1.0052159      19.094749      258.12032    
    127000   0.96915217     18.787968      257.78884    
    128000   1.0051243      19.370724      257.51706    
    129000   1.0104468      19.059392      257.53994    
    130000   0.99107962     18.703973      257.493      
    131000   1.0620837      18.821649      257.25325    
    132000   0.98478247     18.980014      257.07379    
    133000   0.97107639     19.019671      257.14303    
    134000   1.0007102      18.634559      257.11199    
    135000   0.99325569     19.189134      256.92946    
    136000   1.0207326      18.424021      256.68642    
    137000   1.0263656      19.129755      256.5915     
    138000   1.0411989      19.027634      256.62768    
    139000   0.98728058     19.245575      256.36395    
    140000   1.0367712      19.173951      255.78756    
    141000   1.0176355      18.980406      255.78878    
    142000   1.0236471      19.09598       255.70195    
    143000   0.97025512     18.489802      255.62987    
    144000   1.0023806      18.885578      255.52922    
    145000   1.0216636      18.649923      255.33005    
    146000   1.016122       18.926408      255.24708    
    147000   1.0035454      18.835909      255.15716    
    148000   0.99221316     19.297914      255.15002    
    149000   1.0473584      19.575173      254.86452    
    150000   1.0155964      18.698603      254.65937    
    151000   1.0120001      18.574406      254.54397    
    152000   0.98003075     19.14055       254.54784    
    153000   0.98202984     19.047558      254.15415    
    154000   0.99678138     19.46469       253.90528    
    155000   0.97381059     18.744011      253.80612    
    156000   0.9745205      18.959014      253.66721    
    157000   1.0472247      18.901488      253.98142    
    158000   0.99697346     18.774015      253.88677    
    159000   1.0474859      19.107882      253.79159    
    160000   0.97548824     18.82592       253.79865    
    161000   0.99841226     18.43198       253.8327     
    162000   0.97681479     18.689946      253.55525    
    163000   0.98088422     19.435296      253.32617    
    164000   0.99846173     18.93435       253.21137    
    165000   0.98099378     18.287729      253.11378    
    166000   0.96925843     19.05818       252.76277    
    167000   1.0465171      19.150787      252.40109    
    168000   0.99564065     19.452342      252.2499     
    169000   0.9409596      18.41692       252.14689    
    170000   0.99650251     19.067273      251.98726    
    171000   1.0017036      18.558624      251.82236    
    172000   1.0022716      19.105843      251.62761    
    173000   0.95787547     18.742688      251.53699    
    174000   0.98123674     18.764247      251.31705    
    175000   1.0108264      19.118415      251.04563    
    176000   0.98924612     19.000372      251.0531     
    177000   1.0238587      19.017591      250.87761    
    178000   1.0188186      18.914235      250.61344    
    179000   1.0195365      19.013222      250.60084    
    180000   0.97200167     18.797541      250.37843    
    181000   1.0046793      18.903128      250.12604    
    182000   1.0546145      19.487727      250.04444    
    183000   1.0241013      18.847631      249.85351    
    184000   0.99240755     18.85518       249.77648    
    185000   1.0446504      18.509382      249.60699    
    186000   1.0372626      18.643897      249.3395     
    187000   1.0312163      19.229406      249.20285    
    188000   0.99907439     19.226969      248.89005    
    189000   1.009552       19.059045      248.80851    
    190000   1.0389371      19.408924      248.79754    
    191000   0.9744684      18.679391      248.50543    
    192000   0.987709       18.692515      248.34155    
    193000   1.0318571      19.224968      248.17586    
    194000   0.99245104     19.009037      248.03894    
    195000   1.0063096      19.273157      247.77544    
    196000   1.0136066      19.402943      247.6895     
    197000   0.98312239     19.167692      247.5536     
    198000   1.0116674      18.795907      247.34858    
    199000   1.0301184      19.11087       247.33688    
    200000   1.0050105      19.115445      247.25205    
    201000   1.0014009      18.819152      247.11249    
    202000   0.95500809     18.490372      246.9661     
    203000   0.98800104     18.652903      246.55211    
    204000   0.99773513     18.974272      246.64024    
    205000   1.0221989      18.762402      246.66772    
    206000   1.0260985      19.222391      246.42502    
    207000   0.98737273     18.833441      246.29303    
    208000   0.95608326     19.148874      246.25367    
    209000   0.99319788     19.236322      246.13755    
    210000   1.0134994      18.841299      245.8406     
    211000   1.0418621      18.725189      245.6478     
    212000   1.0345866      18.826984      245.74314    
    213000   1.0391489      18.756505      245.64428    
    214000   1.0031592      19.298246      245.46936    
    215000   0.96594116     19.065924      245.22601    
    216000   0.94969204     18.983789      245.11288    
    217000   1.0205765      19.182612      245.09532    
    218000   1.0130269      19.043608      244.95809    
    219000   1.0163228      19.15482       244.86694    
    220000   0.99779049     19.044208      244.7118     
    221000   0.98120147     19.071493      244.70793    
    222000   0.98268607     19.050994      244.65494    
    223000   0.98880446     18.765692      244.69747    
    224000   1.0121546      18.693355      244.50434    
    225000   1.0346673      18.809219      244.37425    
    226000   1.0496441      19.418009      243.94602    
    227000   0.97280611     18.929262      243.63242    
    228000   0.97916696     18.814409      243.45096    
    229000   0.95966235     19.11362       243.4282     
    230000   1.0223039      18.947321      243.40193    
    231000   0.95507058     19.11397       243.19833    
    232000   1.0211608      19.258473      242.90903    
    233000   0.99690118     19.182504      242.76424    
    234000   1.0535082      19.024572      242.55724    
    235000   1.0067026      19.221157      242.44046    
    236000   0.97913227     19.377816      242.37752    
    237000   1.011209       19.126986      242.2259     
    238000   0.9975354      18.953869      242.17328    
    239000   0.98311204     18.84693       242.23774    
    240000   1.0588425      19.167804      242.22711    
    241000   1.0424385      19.277613      241.87495    
    242000   1.0354889      19.254412      241.76316    
    243000   1.0087415      19.161806      241.78782    
    244000   1.0612249      19.3526        241.58447    
    245000   1.0265428      19.137593      241.25178    
    246000   1.0208183      19.001824      241.17858    
    247000   0.97163634     18.967162      241.16543    
    248000   0.98256452     18.573152      241.08157    
    249000   1.0111663      18.77728       241.04188    
    250000   1.0023377      18.662741      241.05427    
    251000   1.0388607      18.787858      241.06059    
    252000   1.0221065      19.252563      241.18557    
    253000   1.0499265      19.460477      240.94502    
    254000   1.0163374      18.881256      240.81723    
    255000   0.99111027     19.433157      240.48867    
    256000   0.98432351     19.185923      240.31322    
    257000   1.0361507      19.37865       240.20091    
    258000   0.95831425     18.861491      239.89018    
    259000   0.9922897      18.692723      239.73335    
    260000   0.96792335     19.057372      239.38067    
    261000   1.0394012      19.392602      239.15936    
    262000   1.0037923      19.175177      239.07286    
    263000   1.0204582      19.323811      239.08285    
    264000   0.97685202     19.392256      238.90592    
    265000   1.0027886      19.046255      238.94407    
    266000   1.0373267      19.622749      238.69555    
    267000   1.0382062      19.130339      238.49838    
    268000   1.0443347      19.363179      238.35117    
    269000   0.98305747     19.107145      238.21685    
    270000   1.0361926      19.293051      237.97689    
    271000   1.025404       19.099619      237.8446     
    272000   0.97842689     19.270622      237.68172    
    273000   0.97189288     19.206465      237.73335    
    274000   0.98162071     18.858225      237.58453    
    275000   0.99866026     19.262827      237.4025     
    276000   1.0509795      19.281405      237.35141    
    277000   1.0132994      19.312675      237.26364    
    278000   0.98775405     18.84134       236.98759    
    279000   0.981067       18.842512      236.90218    
    280000   1.0404114      19.129807      236.89898    
    281000   0.99960397     18.487994      236.92951    
    282000   0.99922276     19.184759      236.82213    
    283000   0.99489195     18.938448      236.82641    
    284000   0.97489723     19.155799      236.76437    
    285000   1.0326765      19.342912      236.66791    
    286000   0.94835319     18.773456      236.43219    
    287000   1.0370447      19.081781      236.27248    
    288000   1.0128963      18.91809       236.18331    
    289000   1.0088967      19.393253      236.15207    
    290000   0.97941071     18.664343      236.04124    
    291000   1.044474       19.119969      235.65782    
    292000   0.98348172     19.151847      235.19248    
    293000   1.0330594      18.811434      235.04667    
    294000   0.95790962     18.733433      235.04881    
    295000   1.0060882      18.698978      234.75189    
    296000   1.0253508      19.730759      234.39388    
    297000   0.98488985     18.824792      234.17683    
    298000   1.0201046      19.207452      233.91256    
    299000   1.0183421      19.301838      234.05164    
    300000   0.974635       19.189095      234.06743    
    301000   0.95428954     18.724371      233.78376    
    302000   0.9922059      19.298996      233.73366    
    303000   0.98880848     18.283985      233.74114    
    304000   0.97806789     18.561153      233.58716    
    305000   1.0082468      19.514757      233.41276    
    306000   1.0082072      19.067017      233.19332    
    307000   0.97402038     18.92937       232.97562    
    308000   1.0292809      18.868803      232.9205     
    309000   1.0069889      18.839112      232.53472    
    310000   1.0311457      18.624631      232.40973    
    311000   1.0568764      19.067343      232.59453    
    312000   0.98638688     19.10336       232.6265     
    313000   0.99562474     19.388146      232.48396    
    314000   0.93402131     18.678048      232.34755    
    315000   1.0378831      18.738081      232.36282    
    316000   1.0739954      19.147348      232.2191     
    317000   0.96345375     18.654523      232.32091    
    318000   0.99340465     18.914113      232.10861    
    319000   0.99992264     19.202514      232.03383    
    320000   1.0063891      19.305543      232.06051    
    321000   0.97231562     18.770682      231.82025    
    322000   0.97708154     19.054636      231.72608    
    323000   1.0111939      19.182478      231.55056    
    324000   0.97749801     19.070159      231.45039    
    325000   1.0071555      19.18843       231.11938    
    326000   0.99044308     18.999176      230.89982    
    327000   1.031454       18.602059      230.7418     
    328000   1.0382255      19.377617      230.76147    
    329000   0.99151471     19.032505      230.88715    
    330000   1.0303104      19.268849      230.94698    
    331000   0.96003469     18.742856      231.17264    
    332000   0.98409173     18.959205      230.91636    
    333000   1.0268502      18.996169      230.89465    
    334000   1.0207383      19.087392      230.74237    
    335000   1.0070305      18.945168      230.51963    
    336000   0.99065877     18.975283      230.41573    
    337000   0.97452513     18.547245      230.32464    
    338000   1.0417569      18.555754      229.92866    
    339000   1.002918       19.165855      229.87402    
    340000   0.97726872     19.118374      229.9285     
    341000   0.99154215     18.756287      229.81479    
    342000   1.0321229      19.504739      229.93264    
    343000   0.97319966     18.946676      229.87563    
    344000   1.0104177      19.07983       229.84389    
    345000   1.0153951      19.062897      229.8194     
    346000   1.012973       19.190533      229.77532    
    347000   0.98879966     19.147622      229.70982    
    348000   1.0055137      18.682564      229.56366    
    349000   1.0038143      18.896736      229.39968    
    350000   0.97587725     18.724666      229.12727    
    351000   0.99779236     18.634493      229.0378     
    352000   0.98683255     19.215335      228.78185    
    353000   0.98443252     19.45764       228.62586    
    354000   0.95949731     18.555564      228.51932    
    355000   0.97931615     18.963927      228.54912    
    356000   0.97214495     18.929088      228.48984    
    357000   0.96728796     18.75221       228.39785    
    358000   1.0031638      18.92406       228.20296    
    359000   1.0011689      19.306843      228.3331     
    360000   0.9499695      18.529669      228.16891    
    361000   1.0209336      18.766384      228.22773    
    362000   0.98555571     19.255947      228.15327    
    363000   0.97876052     19.094044      228.00202    
    364000   1.0467964      19.038627      227.69101    
    365000   0.97866142     18.980762      227.8414     
    366000   1.0382944      19.134281      227.77412    
    367000   0.96887409     19.204962      227.42092    
    368000   1.0239582      18.649956      227.17096    
    369000   1.0092486      19.139796      227.16378    
    370000   1.0192298      19.00045       227.09345    
    371000   1.0431992      19.27611       226.90891    
    372000   1.0347163      18.69454       226.89879    
    373000   1.0107907      18.964459      226.89305    
    374000   0.9760568      18.44727       226.81533    
    375000   0.99193804     19.216689      226.5901     
    376000   0.97509096     19.250377      226.43642    
    377000   1.025449       18.969349      226.31534    
    378000   1.051317       18.921122      226.23641    
    379000   0.97633779     19.168972      226.08329    
    380000   0.98788152     19.279241      226.05095    
    381000   0.94721404     19.236306      225.8798     
    382000   1.0574021      19.052158      225.92509    
    383000   1.0251515      19.176995      226.07237    
    384000   0.97486054     18.852312      226.09596    
    385000   0.98634336     18.726925      225.90935    
    386000   0.99233578     18.969482      225.6271     
    387000   0.9830276      18.592485      225.55025    
    388000   0.99014333     19.093782      225.34642    
    389000   0.99107465     18.481494      225.583      
    390000   0.95114506     18.896066      225.30312    
    391000   1.0037874      19.134087      225.13782    
    392000   0.96805208     18.701357      225.17011    
    393000   1.0001436      19.461006      225.08571    
    394000   0.99460352     19.148133      225.03029    
    395000   1.0054534      18.985673      225.08739    
    396000   1.003701       19.042424      225.13052    
    397000   1.0175721      19.032387      225.05953    
    398000   0.99684465     18.984604      225.10685    
    399000   1.0008089      18.527566      225.00101    
    400000   1.0066816      18.439083      224.83675    
    401000   1.0119287      18.600608      224.68497    
    402000   1.025053       19.420824      224.59645    
    403000   1.0251806      18.640684      224.75768    
    404000   0.99403164     18.733755      224.42573    
    405000   0.98823114     18.8913        224.24732    
    406000   0.97344806     18.84698       224.04538    
    407000   0.99239653     18.352456      223.95115    
    408000   1.023913       18.980472      223.46565    
    409000   1.0029071      18.631194      223.17891    
    410000   0.99482695     19.058895      223.09251    
    411000   0.99348788     18.661622      222.96594    
    412000   0.99557301     19.025676      222.82251    
    413000   1.0250865      19.274629      222.78391    
    414000   0.98421315     19.163168      222.65096    
    415000   0.96863475     18.769016      222.59863    
    416000   0.97846799     18.771983      222.62261    
    417000   0.98431534     18.918882      222.54296    
    418000   1.0088502      18.764156      222.53026    
    419000   0.9745981      18.881185      222.48725    
    420000   0.98502445     18.908603      222.51105    
    421000   0.99067926     18.424645      222.23043    
    422000   1.0583914      19.488588      221.88362    
    423000   1.0311155      19.127538      221.87157    
    424000   0.98260119     18.922927      221.93367    
    425000   1.0031307      19.030919      221.77878    
    426000   1.036202       18.612105      221.80128    
    427000   1.01274        18.417049      221.62192    
    428000   1.0215099      19.203993      221.70883    
    429000   1.0083344      18.73386       221.62503    
    430000   0.96409582     18.570527      221.65117    
    431000   0.99869508     18.770707      221.36383    
    432000   1.0365819      18.990644      221.34932    
    433000   1.0079208      19.125392      221.13257    
    434000   0.9866944      18.621445      220.99774    
    435000   0.97892613     18.927761      220.61715    
    436000   1.0187176      19.337808      220.49507    
    437000   0.99023344     18.560467      220.41783    
    438000   0.99033674     18.605482      220.20366    
    439000   1.0154238      18.566833      220.17629    
    440000   0.95851267     18.603188      220.04279    
    441000   0.99138018     18.780064      219.87766    
    442000   0.99053653     19.037332      219.66189    
    443000   0.99468649     18.425195      219.27341    
    444000   0.99516121     18.839224      219.10182    
    445000   1.0186547      19.01985       219.15087    
    446000   0.98643425     18.754544      219.0229     
    447000   0.98395467     18.954124      218.90643    
    448000   1.0118062      18.926092      218.85871    
    449000   0.96956252     18.485383      218.79627    
    450000   0.95910561     19.124093      218.67111    
    451000   1.0263269      19.464387      218.54573    
    452000   0.97143938     18.955438      218.3959     
    453000   1.0355841      19.307617      218.39397    
    454000   1.0001595      18.864515      218.07986    
    455000   1.029611       19.104367      217.91087    
    456000   1.0194514      18.744195      217.86567    
    457000   1.0215441      18.808372      217.53753    
    458000   1.0331986      18.743259      217.35732    
    459000   1.0184366      18.636009      217.41659    
    460000   1.0027746      18.989418      217.45169    
    461000   0.9851433      18.885374      217.27706    
    462000   0.96165453     18.784094      217.37582    
    463000   1.0180935      18.72672       217.44256    
    464000   0.98239798     18.754801      217.29288    
    465000   1.022068       18.53707       217.21837    
    466000   0.96204679     18.860868      217.06403    
    467000   0.98556219     18.654543      217.12314    
    468000   0.96837658     18.863363      217.11386    
    469000   1.0058712      18.588906      217.10509    
    470000   1.0182194      18.622404      216.75712    
    471000   0.99924163     18.987661      216.58975    
    472000   1.023676       18.748614      216.57331    
    473000   0.9995264      18.955331      216.47263    
    474000   0.97741455     18.548346      216.26669    
    475000   0.97309488     18.74545       216.15527    
    476000   1.0043869      18.760899      216.19624    
    477000   0.99280233     18.43448       216.17533    
    478000   1.047336       18.798236      216.00728    
    479000   0.98609113     18.884564      215.87748    
    480000   1.0018009      19.192249      215.98516    
    481000   1.0282117      18.900988      216.08747    
    482000   0.99948605     19.084054      216.084      
    483000   0.99470023     18.715782      215.70277    
    484000   1.0189792      19.017425      215.90185    
    485000   1.0076005      18.844485      215.69242    
    486000   1.0089124      18.68592       215.61011    
    487000   1.015116       18.974478      215.18888    
    488000   0.97606134     18.851345      214.94946    
    489000   0.97582998     19.039617      214.8712     
    490000   1.0492821      18.963125      214.98099    
    491000   0.94892627     18.32694       214.79921    
    492000   0.97361068     18.17179       214.72698    
    493000   0.94921604     18.395229      214.79772    
    494000   1.0033073      19.052854      214.63852    
    495000   1.0111808      19.265369      214.67367    
    496000   0.96214094     18.902465      214.55391    
    497000   0.98307242     18.891485      214.51608    
    498000   1.0097774      18.65976       214.38296    
    499000   1.0005018      19.134016      214.18867    
    500000   0.97318095     18.17252       213.97563    
    501000   1.0163007      18.658031      213.89791    
    502000   1.0142189      18.993134      213.83689    
    503000   0.98975351     19.261628      213.59918    
    504000   0.98888619     18.502257      213.5964     
    505000   1.0162703      18.323944      213.63028    
    506000   1.0099462      18.620022      213.61719    
    507000   0.99692773     18.719713      213.41215    
    508000   1.0329687      18.815025      213.40782    
    509000   1.0340079      18.714178      213.45358    
    510000   0.99441993     19.107111      213.26659    
    511000   0.98707991     18.956612      213.08614    
    512000   0.9890599      19.266116      213.02914    
    513000   0.99564081     18.616981      212.79604    
    514000   0.96910844     18.950487      212.47838    
    515000   1.0028003      19.031593      212.35723    
    516000   0.9675974      18.688888      212.25608    
    517000   1.0101302      18.949176      212.12832    
    518000   1.0300091      19.313595      212.06608    
    519000   0.99577578     18.5949        212.17413    
    520000   0.98576947     19.086535      212.14612    
    521000   0.96785746     18.706761      212.08404    
    522000   1.001394       18.664268      211.89287    
    523000   0.96619761     18.836155      211.87541    
    524000   1.0135955      18.819407      211.83248    
    525000   1.0062856      18.625382      211.69116    
    526000   0.98276534     18.794976      211.69771    
    527000   1.0065838      18.781458      211.66536    
    528000   1.0034061      19.009189      211.63989    
    529000   1.0096191      18.890837      211.40606    
    530000   1.0019118      18.711794      211.4982     
    531000   0.96552236     18.745717      211.41187    
    532000   0.9919955      18.832722      211.20656    
    533000   1.0212157      18.73495       211.19117    
    534000   1.0041006      19.084548      211.37749    
    535000   1.0168268      18.32853       211.2927     
    536000   0.98452538     18.622861      210.95768    
    537000   1.0304171      19.117751      210.92465    
    538000   1.0012944      18.759975      210.88605    
    539000   0.97825184     18.807672      210.9365     
    540000   1.0040717      18.619221      210.87791    
    541000   0.98124389     18.433688      211.06256    
    542000   1.0100689      19.028756      211.26474    
    543000   0.98229332     18.67045       211.1989     
    544000   1.0148993      18.817633      211.1962     
    545000   1.0071098      18.768992      210.99397    
    546000   1.0080417      18.927069      210.89577    
    547000   0.995369       18.50766       210.86366    
    548000   0.98209958     18.774088      210.83485    
    549000   0.99613776     18.270178      210.55223    
    550000   0.96353769     18.522384      210.3234     
    551000   1.0086677      18.65728       210.31267    
    552000   1.0169102      18.865586      210.29257    
    553000   1.0102457      18.948223      210.21614    
    554000   1.01014        18.749634      210.05213    
    555000   1.0076493      18.676776      209.96816    
    556000   0.97490512     18.855452      209.75971    
    557000   1.0212338      19.215142      209.44435    
    558000   0.98467528     19.343311      209.42064    
    559000   1.0256619      18.774622      209.4121     
    560000   1.0096633      18.928369      209.19444    
    561000   1.0065699      18.453907      209.08431    
    562000   0.97211353     19.022635      209.08262    
    563000   0.99045475     18.738678      208.88425    
    564000   0.99132235     18.704598      208.74504    
    565000   0.98615129     18.731416      208.59988    
    566000   0.97802449     18.676668      208.3707     
    567000   0.99339226     18.699268      208.07175    
    568000   1.020533       19.309285      208.05275    
    569000   0.96447552     19.044417      207.86339    
    570000   1.0459499      18.529713      208.01345    
    571000   1.0106612      18.761153      207.91258    
    572000   1.0073778      18.743866      207.96634    
    573000   1.0024585      18.868619      207.87429    
    574000   0.96968487     18.770813      207.8987     
    575000   0.97397169     18.67334       207.70581    
    576000   1.0203913      18.748627      207.63954    
    577000   0.98138372     18.786519      207.55858    
    578000   0.95392011     19.250899      207.50634    
    579000   1.012201       19.024504      207.32745    
    580000   0.95496443     19.220756      207.3866     
    581000   0.99567782     18.55017       207.45452    
    582000   1.0223966      18.629523      207.37581    
    583000   0.9858941      18.831168      207.28541    
    584000   0.97863585     18.618385      207.25472    
    585000   1.0043029      18.598645      207.18803    
    586000   0.99770968     18.615149      207.22179    
    587000   1.0439221      18.673298      207.11347    
    588000   0.993889       19.096205      207.12577    
    589000   0.99505231     18.507271      207.26945    
    590000   0.97721295     19.053444      207.17828    
    591000   1.0445928      18.486949      207.02579    
    592000   1.0291323      18.32696       206.85296    
    593000   0.99462555     18.827281      206.59595    
    594000   1.0082084      18.786625      206.59938    
    595000   1.0027536      18.794634      206.65798    
    596000   0.97581453     18.472411      206.4249     
    597000   0.98272595     18.387242      206.26185    
    598000   0.9992953      19.211606      206.03465    
    599000   1.0073707      18.457739      205.75697    
    600000   0.96037757     19.005566      205.6669     
    601000   1.0025904      18.89304       205.61168    
    602000   1.044103       19.024469      205.50003    
    603000   0.98649411     18.862995      205.51864    
    604000   1.032953       18.547372      205.48739    
    605000   0.97884584     18.83148       205.38625    
    606000   1.0347141      18.915743      205.52209    
    607000   0.99936045     19.036245      205.51319    
    608000   1.0074358      18.832716      205.38072    
    609000   1.0398484      18.611826      205.48485    
    610000   0.96492365     18.212816      205.69181    
    611000   1.0482242      18.578617      205.54939    
    612000   1.0150736      18.502524      205.5649     
    613000   1.0764851      19.22621       205.61935    
    614000   1.0150249      18.591956      205.81434    
    615000   0.99126742     18.565509      206.02772    
    616000   1.0056505      18.680983      205.95076    
    617000   0.97331688     18.989453      205.85382    
    618000   1.0205341      18.25121       205.8855     
    619000   0.99287873     18.832023      206.01074    
    620000   1.0098775      18.318367      205.9329     
    621000   1.0046041      18.889882      205.9811     
    622000   0.98032696     18.595422      206.03996    
    623000   0.99990864     18.650478      205.81044    
    624000   0.99892337     18.820653      205.78609    
    625000   0.98192318     19.048594      206.07243    
    626000   0.98868639     18.849175      206.17902    
    627000   1.0089485      18.826921      206.22168    
    628000   1.0286725      18.867655      206.17635    
    629000   0.96752837     19.059142      206.04431    
    630000   0.96851254     18.478969      206.01752    
    631000   1.0075468      18.737385      205.84512    
    632000   1.0272855      18.109993      205.85859    
    633000   0.97953941     19.201645      205.80634    
    634000   1.0364476      18.934383      205.83026    
    635000   1.0147124      18.390554      205.90728    
    636000   1.0511337      18.947474      205.63501    
    637000   0.9947082      18.771259      205.76961    
    638000   0.97699317     18.594702      205.8077     
    639000   0.9761586      18.700625      205.72856    
    640000   1.0245703      18.523967      205.58208    
    641000   0.98022372     18.290131      205.35486    
    642000   0.98685799     18.808105      205.28748    
    643000   1.0045655      18.381818      205.21078    
    644000   1.0262922      19.548161      205.00678    
    645000   1.0254298      18.600506      204.73345    
    646000   1.0030906      19.223891      204.55251    
    647000   0.97609672     18.770364      204.62945    
    648000   0.9885111      18.393812      204.65284    
    649000   1.0184371      18.927491      204.23986    
    650000   0.99516962     18.168028      204.13905    
    651000   0.99126783     18.888961      204.00175    
    652000   0.99382356     18.731816      204.0559     
    653000   1.0322581      18.684586      203.95329    
    654000   0.97522774     18.508804      203.66482    
    655000   1.0048076      18.315949      203.57332    
    656000   0.99419832     18.743843      203.40965    
    657000   1.0193791      18.488434      203.28403    
    658000   0.97456673     18.993309      203.00275    
    659000   1.0073521      18.817366      202.7266     
    660000   0.9784804      18.723251      202.5907     
    661000   1.0247217      18.503055      202.35367    
    662000   1.0151222      18.662593      202.37561    
    663000   1.0494564      18.805609      202.3261     
    664000   0.97023978     18.767378      202.22598    
    665000   1.0127795      18.898935      202.21591    
    666000   0.98821447     19.146655      202.01482    
    667000   1.0090837      18.82705       202.00653    
    668000   0.9510576      18.912941      201.75029    
    669000   0.9969949      18.947525      201.69846    
    670000   1.0072686      18.629114      201.48463    
    671000   0.96081422     18.556758      201.36119    
    672000   0.99978853     18.983026      201.30066    
    673000   0.98465989     18.68345       201.19186    
    674000   0.99412191     19.006289      200.85896    
    675000   1.0213771      18.600996      200.84838    
    676000   0.94276586     18.55808       200.78142    
    677000   0.96607074     19.159668      200.81512    
    678000   0.97539794     18.604293      200.82564    
    679000   0.9971036      18.84094       200.69954    
    680000   1.0455053      19.165399      200.49873    
    681000   1.0080362      18.697435      200.23956    
    682000   0.99350042     18.994716      200.10786    
    683000   0.97837073     18.83053       199.98411    
    684000   1.0229124      19.216177      200.09512    
    685000   1.0243131      18.657049      200.05462    
    686000   0.98981854     18.670673      199.86766    
    687000   0.97157533     18.309899      199.83115    
    688000   0.96811765     18.847466      199.70507    
    689000   1.0094255      18.686633      199.60792    
    690000   0.99907403     18.749996      199.6151     
    691000   0.99674469     19.000055      199.55825    
    692000   1.0193328      19.313024      199.48361    
    693000   1.0138829      18.440814      199.42934    
    694000   0.98960325     18.682626      199.3392     
    695000   0.97978698     18.303824      199.1641     
    696000   0.99894314     19.314065      199.09616    
    697000   0.99535748     18.547208      198.66178    
    698000   0.95097194     18.374344      198.74163    
    699000   0.99660234     18.667192      198.59951    
    700000   1.0682564      18.971976      198.38945    
    701000   0.96891985     18.658251      198.24633    
    702000   1.0149451      18.777267      198.23366    
    703000   1.0156612      18.361108      197.97915    
    704000   0.99792311     18.625856      197.91807    
    705000   0.96151408     19.040181      198.01895    
    706000   0.99395569     18.300887      197.84275    
    707000   1.0017396      18.512673      197.72884    
    708000   0.96520367     18.691871      197.43291    
    709000   0.97636458     18.791467      197.2751     
    710000   0.96350179     18.318479      197.27727    
    711000   1.0456016      18.8958        196.98915    
    712000   1.0107101      18.563702      196.9562     
    713000   1.0176009      18.926695      196.83267    
    714000   0.96795012     19.264955      196.56108    
    715000   0.99264841     18.838614      196.41348    
    716000   0.96845204     18.578394      196.48935    
    717000   1.0251302      19.106168      196.06915    
    718000   0.98756838     18.734451      195.85012    
    719000   0.98693366     18.586624      195.64616    
    720000   1.0437677      18.319896      195.54691    
    721000   1.0016293      18.927707      195.2514     
    722000   0.98456243     18.611265      195.15856    
    723000   0.96823793     18.664805      195.05113    
    724000   1.0311429      19.169932      195.02557    
    725000   1.0303634      18.614309      195.06624    
    726000   0.98356889     19.052608      195.0238     
    727000   1.014208       19.024855      194.91846    
    728000   0.98192606     18.673813      194.69568    
    729000   0.98845248     18.749472      194.71352    
    730000   1.0022144      18.571331      194.71876    
    731000   0.93513155     18.783514      194.7613     
    732000   0.99729996     18.73413       194.72887    
    733000   0.97024225     18.550982      194.83821    
    734000   1.0136387      19.071554      194.71889    
    735000   0.97598086     18.841439      194.62804    
    736000   0.97025237     18.685078      194.69902    
    737000   0.95828551     18.842161      194.62518    
    738000   1.0283053      18.45458       194.5985     
    739000   0.97228676     18.799807      194.47407    
    740000   0.99125297     18.217295      194.47357    
    741000   1.0478037      18.577026      194.46318    
    742000   1.0470158      18.650879      194.47689    
    743000   0.96807883     18.628424      194.29873    
    744000   1.0020698      18.502544      194.14238    
    745000   1.0637276      18.661606      194.05442    
    746000   1.0012341      18.857661      194.11393    
    747000   0.99608526     18.449929      194.10279    
    748000   1.0037568      18.591552      194.1634     
    749000   0.98872943     18.998037      194.06606    
    750000   0.99341233     18.686308      194.048      
    751000   0.9288066      18.65337       194.04298    
    752000   0.9976067      18.429661      194.00385    
    753000   1.0188347      18.567403      193.86204    
    754000   1.0505282      18.62683       193.84754    
    755000   0.9749465      18.368541      193.68575    
    756000   1.0220396      18.898033      193.78849    
    757000   1.0237008      18.822353      193.8078     
    758000   0.99928024     18.878169      193.64353    
    759000   0.99870946     19.137613      193.58367    
    760000   1.026912       18.529074      193.65034    
    761000   0.98397439     19.077387      193.48234    
    762000   0.97072367     18.572218      193.33901    
    763000   0.93689309     17.853611      193.22066    
    764000   0.99996328     18.389191      192.90727    
    765000   1.0074695      18.412147      192.93393    
    766000   0.99328802     18.840311      192.93382    
    767000   0.9911734      18.354674      192.67944    
    768000   0.95943326     18.523749      192.49909    
    769000   0.96220478     18.551947      192.39798    
    770000   1.0092288      18.828804      192.38825    
    771000   1.0214423      19.0476        192.51458    
    772000   0.9927889      19.031681      192.58103    
    773000   0.97757342     19.501366      192.4312     
    774000   0.99328124     18.560324      192.20045    
    775000   1.0183241      18.986743      192.33141    
    776000   1.0377609      18.735631      192.34404    
    777000   0.94605894     18.927753      192.31099    
    778000   1.0104812      18.883142      192.31578    
    779000   0.9458111      18.535588      192.32804    
    780000   1.0290007      18.816195      192.20664    
    781000   0.98964433     18.616826      191.92438    
    782000   1.0380086      19.179883      191.87243    
    783000   1.0091339      18.223764      191.86178    
    784000   0.98108441     18.645824      191.79213    
    785000   0.98708644     18.765775      191.55618    
    786000   0.93893753     18.286089      191.46639    
    787000   0.98476773     18.616618      191.498      
    788000   0.9807053      18.668436      191.60995    
    789000   1.0291113      18.698241      191.33898    
    790000   0.98227368     18.446719      191.15809    
    791000   1.0163477      18.536933      191.16556    
    792000   0.9714735      19.012448      190.88543    
    793000   1.0070006      18.662779      190.93184    
    794000   0.97847217     18.977491      190.96491    
    795000   1.0113319      18.634342      191.14013    
    796000   0.98165783     18.498942      191.00406    
    797000   1.0001532      18.746403      190.88542    
    798000   0.98127946     18.375461      190.76382    
    799000   1.0325739      18.993547      190.67616    
    800000   1.0060426      18.574727      190.70838    
    801000   0.99045372     18.359936      190.70945    
    802000   1.001289       18.8739        190.55786    
    803000   1.0182629      18.801361      190.41536    
    804000   0.99326239     18.701373      190.27568    
    805000   1.0196024      18.55852       190.33066    
    806000   1.0298115      18.882211      190.35878    
    807000   0.99346104     18.904003      190.37929    
    808000   0.98674703     18.225848      190.46575    
    809000   1.0189343      18.74416       190.29421    
    810000   0.98169206     18.600839      190.10839    
    811000   0.99495875     18.515499      189.84992    
    812000   1.0225457      18.67359       189.83001    
    813000   1.0260287      18.74572       189.64612    
    814000   0.98844643     18.390453      189.45516    
    815000   0.97915965     18.11742       189.4961     
    816000   0.99321469     18.934279      189.45825    
    817000   0.96446607     18.981467      189.35324    
    818000   0.9921997      18.826675      189.23836    
    819000   1.0072419      18.872575      189.13753    
    820000   0.98042944     18.193584      189.05391    
    821000   1.0036357      18.907111      189.09589    
    822000   0.99216151     18.366553      189.03112    
    823000   1.0137706      18.610382      189.0012     
    824000   1.0123961      18.549574      189.0378     
    825000   0.98459884     18.19517       188.97737    
    826000   0.985965       18.602002      188.81592    
    827000   0.99786652     18.544895      188.82377    
    828000   1.0015739      18.432308      188.75089    
    829000   0.9905257      18.664599      188.68835    
    830000   0.99830049     18.467922      188.42733    
    831000   0.98479414     18.828166      188.12339    
    832000   1.0115428      18.890808      188.17694    
    833000   0.9994509      18.303341      187.95276    
    834000   1.0129087      19.155671      187.89729    
    835000   1.0448206      18.963199      187.8504     
    836000   1.0127622      18.764097      187.54459    
    837000   0.97356664     18.618606      187.22514    
    838000   1.0256284      18.399565      187.15845    
    839000   1.0161262      19.053099      187.00321    
    840000   1.021357       18.32822       186.63859    
    841000   1.0349318      18.484981      186.44686    
    842000   0.9904428      18.137321      186.2905     
    843000   0.96755958     18.752402      186.16422    
    844000   0.96013531     18.557247      186.13271    
    845000   1.0107088      19.145376      186.40778    
    846000   0.98481087     18.77666       186.53992    
    847000   0.95361345     18.596807      186.68075    
    848000   0.97059417     18.605329      186.51834    
    849000   0.95932499     18.272411      186.35875    
    850000   1.0441005      19.004343      186.38949    
    851000   0.99418899     19.195337      186.35244    
    852000   0.99237208     18.12319       186.30728    
    853000   1.0010594      18.493466      186.09782    
    854000   0.97921179     18.832453      185.906      
    855000   0.98571039     18.079158      185.81416    
    856000   1.0121413      18.594485      185.91101    
    857000   1.0000217      18.582668      185.64964    
    858000   0.96378827     18.944011      185.69733    
    859000   1.0024756      18.602081      185.64796    
    860000   0.99445418     18.607305      185.5729     
    861000   1.0065484      18.600938      185.19945    
    862000   0.98725681     18.926801      185.083      
    863000   0.97432137     18.630472      185.08899    
    864000   0.98456763     18.1998        184.92576    
    865000   1.0295129      18.636522      184.9732     
    866000   1.0397328      18.885885      184.50165    
    867000   1.0362082      18.929444      184.59917    
    868000   0.99647283     18.213765      184.45799    
    869000   0.99673734     19.072832      184.22008    
    870000   1.0093119      18.514465      183.98023    
    871000   0.99636367     18.68919       183.8688     
    872000   0.95830751     18.340849      183.76509    
    873000   0.94760096     18.511203      183.82612    
    874000   0.98484177     18.377343      183.66141    
    875000   1.0103422      19.086387      183.53653    
    876000   1.0407507      18.85593       183.63796    
    877000   0.9962947      18.848375      183.66979    
    878000   1.0140505      19.077498      183.64101    
    879000   0.99824511     18.332872      183.58708    
    880000   1.0162081      18.869527      183.72747    
    881000   0.97899987     18.001159      183.70556    
    882000   1.0143184      18.840434      183.60931    
    883000   1.0183347      18.776292      183.65845    
    884000   0.90925825     18.344286      183.61533    
    885000   1.001663       18.787524      183.67546    
    886000   1.0282228      18.356513      183.47676    
    887000   0.9562348      19.258831      183.49866    
    888000   1.0179984      18.987493      183.40014    
    889000   0.95435176     18.746537      183.32471    
    890000   0.98841267     19.120596      183.10411    
    891000   1.0270792      18.962644      182.91752    
    892000   0.988582       19.124248      183.048      
    893000   0.97591262     18.848077      183.00363    
    894000   1.0164338      19.001803      182.92051    
    895000   0.99855391     19.001745      182.81954    
    896000   0.99030421     18.681795      182.76139    
    897000   0.98864189     18.677918      182.49599    
    898000   1.0090837      18.810568      182.3506     
    899000   0.97715078     18.604225      182.13367    
    900000   1.0362567      18.462065      182.07798    
    901000   1.0337863      18.497364      182.03125    
    902000   0.99643199     18.363625      182.19947    
    903000   1.0376341      18.863046      182.33786    
    904000   0.99273506     18.198458      182.24291    
    905000   0.99614894     18.50294       182.26181    
    906000   0.99277307     18.501977      182.29885    
    907000   0.98499356     18.140971      182.20472    
    908000   0.99245114     18.533555      182.14108    
    909000   1.0090699      18.461962      182.16984    
    910000   0.92833126     18.598967      181.97122    
    911000   0.99290767     18.496035      181.54328    
    912000   1.0024821      18.37936       181.55774    
    913000   1.0361755      19.182563      181.38943    
    914000   1.0380317      18.750033      181.09282    
    915000   0.97669722     18.401925      180.94675    
    916000   0.99974778     18.920242      180.60295    
    917000   0.96733442     18.06726       180.59555    
    918000   0.94651804     18.418156      180.7403     
    919000   1.0026201      18.764335      180.74966    
    920000   1.0299659      18.669461      181.05651    
    921000   0.99100268     18.980488      180.86305    
    922000   1.0144542      18.800839      180.60482    
    923000   0.99518266     18.584143      180.66384    
    924000   0.98872313     18.528526      180.79631    
    925000   1.0372017      18.927366      180.66197    
    926000   1.0281036      19.011152      180.78255    
    927000   0.97999945     18.899832      180.69855    
    928000   0.9932338      18.669142      180.60245    
    929000   1.013077       19.17694       180.38509    
    930000   0.98241428     18.492661      180.5523     
    931000   1.0152917      19.11138       180.45577    
    932000   0.97954829     18.173722      180.49193    
    933000   0.96064111     18.796753      180.4776     
    934000   1.0045209      18.518979      180.40879    
    935000   1.0402407      18.602572      180.28255    
    936000   0.95467247     19.109215      180.14182    
    937000   1.0285098      18.549665      180.36472    
    938000   1.0130125      19.04229       180.25693    
    939000   1.0285895      18.756755      179.98849    
    940000   1.0202802      19.006971      179.99193    
    941000   0.99361061     18.514705      180.10557    
    942000   1.0250744      18.876857      180.17884    
    943000   1.0039058      19.139144      180.09196    
    944000   1.0076131      18.867344      180.04759    
    945000   0.99984922     18.575807      179.97936    
    946000   0.97781273     18.385992      179.77484    
    947000   0.98654965     18.935838      179.72752    
    948000   0.97729557     18.675215      179.75648    
    949000   1.0026752      18.348931      179.70717    
    950000   0.98271069     18.170905      179.68608    
    951000   0.97897335     18.62101       179.42299    
    952000   0.9851688      18.393141      179.25859    
    953000   1.0134554      18.477912      179.18331    
    954000   1.0120953      18.081828      179.01297    
    955000   0.98289395     18.547583      178.60471    
    956000   1.0590596      19.369663      178.55427    
    957000   0.98126523     18.898017      178.6151     
    958000   1.0288338      18.310275      178.58698    
    959000   0.9517558      18.656327      178.3785     
    960000   1.0597247      18.654227      178.17554    
    961000   1.0154673      18.589243      178.13152    
    962000   1.0198247      19.009909      178.15627    
    963000   0.98435037     18.647736      178.04027    
    964000   1.0433669      18.704082      177.88869    
    965000   1.0410463      19.194476      177.77869    
    966000   1.0470838      18.803389      177.74547    
    967000   0.98903049     18.36413       177.60145    
    968000   0.97110683     18.893801      177.42241    
    969000   0.95127599     18.364423      177.26524    
    970000   0.99909224     18.385809      176.95418    
    971000   0.99409427     18.66115       177.05255    
    972000   0.96277158     18.979365      177.22452    
    973000   0.97719607     18.710883      177.37481    
    974000   1.0099857      18.443011      177.23438    
    975000   1.0383996      18.617575      177.05921    
    976000   0.97746544     18.452284      177.1849     
    977000   1.0145883      18.781481      177.07256    
    978000   0.96502827     18.821025      177.13329    
    979000   0.97854494     18.86674       176.82529    
    980000   0.97929769     18.541014      176.87209    
    981000   1.0101874      18.926335      176.98703    
    982000   1.0085235      18.211926      176.85479    
    983000   0.98274666     18.318315      176.74393    
    984000   0.99249484     18.737437      176.78229    
    985000   1.0322201      18.318415      176.50704    
    986000   0.99377897     18.852283      176.57623    
    987000   0.99193903     18.02184       176.56802    
    988000   0.95568544     18.39426       176.61742    
    989000   0.96448371     18.969179      176.53199    
    990000   0.98644634     18.009968      176.45126    
    991000   1.0094849      18.409615      176.34305    
    992000   0.96564112     18.575414      176.44198    
    993000   0.97390014     18.57048       176.21514    
    994000   1.0430169      19.483162      176.35419    
    995000   1.0066326      18.486687      176.28426    
    996000   1.0225158      18.227968      176.14222    
    997000   1.026431       18.796465      176.19786    
    998000   0.99931698     18.661396      176.1607     
    999000   0.99434955     18.076917      175.87383    
   1000000   1.0443552      19.364818      175.78893    
   1001000   0.98780819     18.805295      175.84849    
   1002000   0.9449527      18.406493      175.54786    
   1003000   0.98989603     18.365551      175.26344    
   1004000   1.0391381      18.957523      174.87542    
   1005000   1.0050006      18.641712      174.84819    
   1006000   1.0389011      18.563687      174.86054    
   1007000   1.0339212      19.212953      175.02597    
   1008000   1.0388186      18.877916      174.92593    
   1009000   1.0140067      18.220031      174.74526    
   1010000   1.046607       18.722386      174.42724    
   1011000   1.0156642      19.031159      174.45842    
   1012000   1.0078742      18.527396      174.48148    
   1013000   1.0377535      18.568812      174.26856    
   1014000   1.0014014      18.402846      173.96748    
   1015000   1.0370685      18.700723      173.58262    
   1016000   1.0397922      19.157631      173.63695    
   1017000   1.007863       18.47857       173.54013    
   1018000   0.98435792     18.619924      173.229      
   1019000   0.99882274     18.870641      173.30528    
   1020000   1.0186295      18.408197      173.34007    
   1021000   0.96872154     18.464311      173.24305    
   1022000   0.97236714     18.422998      172.99547    
   1023000   1.0121711      19.470032      172.88396    
   1024000   1.0213151      18.681187      173.01939    
   1025000   0.96364065     18.610632      173.04599    
   1026000   1.0071932      18.871897      173.18744    
   1027000   0.98693506     18.416485      172.95551    
   1028000   0.98938701     18.268049      172.982      
   1029000   1.006675       18.90282       172.77173    
   1030000   1.0179145      18.640193      172.50959    
   1031000   0.9994667      18.668202      172.40187    
   1032000   0.99447443     18.523284      172.35243    
   1033000   0.9281249      18.353771      172.32192    
   1034000   0.97211475     18.214421      172.22188    
   1035000   1.0481985      18.860836      171.9365     
   1036000   0.9891715      18.527941      171.84233    
   1037000   0.96415614     19.128556      171.67003    
   1038000   1.0099161      18.160669      171.65449    
   1039000   1.0006532      18.721454      171.84049    
   1040000   1.0144842      18.904111      171.93917    
   1041000   1.0184754      18.386086      171.93343    
   1042000   1.013891       18.733888      172.08423    
   1043000   0.99733733     18.670736      171.92003    
   1044000   1.0037076      18.664406      171.66788    
   1045000   1.0334674      18.479699      171.46196    
   1046000   1.020997       18.36085       171.42092    
   1047000   0.98246842     18.768364      171.27904    
   1048000   1.0466297      18.890639      170.94567    
   1049000   0.96541645     18.271833      170.84449    
   1050000   1.032413       18.641198      170.61149    
   1051000   0.99795582     18.605239      170.63803    
   1052000   1.0112835      18.399785      170.48434    
   1053000   0.97581813     18.642865      170.49221    
   1054000   0.98230295     18.68831       170.34853    
   1055000   0.98799692     18.595745      170.3195     
   1056000   1.0487658      18.748992      170.14272    
   1057000   1.0217233      18.610626      170.12039    
   1058000   0.96979085     17.856123      170.00164    
   1059000   1.0092806      18.839649      170.01032    
   1060000   0.99484829     17.95347       170.02129    
   1061000   1.0110779      18.906579      169.82339    
   1062000   1.00392        18.527975      169.79368    
   1063000   1.0195756      18.474548      169.92116    
   1064000   0.99027356     18.649564      170.00621    
   1065000   0.98276302     18.077531      169.88691    
   1066000   1.0060745      19.184823      169.94198    
   1067000   0.99632512     18.9746        169.87802    
   1068000   0.99163866     18.921847      169.95659    
   1069000   1.021465       18.561038      169.82794    
   1070000   0.98755186     18.739117      169.66051    
   1071000   0.99106896     18.713175      169.70087    
   1072000   1.0330947      18.729608      169.66307    
   1073000   1.0059484      18.7656        169.63625    
   1074000   1.0047249      18.627065      169.46536    
   1075000   0.99084292     18.785445      169.42287    
   1076000   1.0134689      18.759604      169.21709    
   1077000   1.0096909      18.327011      169.23411    
   1078000   1.0361699      18.502292      169.08308    
   1079000   1.021305       18.122784      169.0029     
   1080000   1.0148869      18.439034      168.83789    
   1081000   0.98618269     18.792986      168.66494    
   1082000   0.96975855     19.148088      168.59783    
   1083000   1.0388396      18.570205      168.6069     
   1084000   0.97288493     18.625221      168.33018    
   1085000   0.99569931     19.016152      168.1254     
   1086000   1.002959       18.739925      168.03299    
   1087000   1.0178103      18.79142       168.16854    
   1088000   1.0460517      18.662686      168.31303    
   1089000   1.0023435      18.326265      168.27443    
   1090000   1.0156699      18.80888       168.35697    
   1091000   0.98677376     18.556232      168.21472    
   1092000   0.952188       18.515503      168.15602    
   1093000   0.9453951      18.671883      168.023      
   1094000   1.0063504      18.379211      168.08598    
   1095000   1.0130672      18.782359      168.19622    
   1096000   1.0172678      18.549753      168.273      
   1097000   0.99929064     17.976693      168.25277    
   1098000   1.0308202      18.040371      168.33975    
   1099000   1.0040045      18.810587      168.32606    
   1100000   0.96501567     18.972972      168.2189     
   1101000   0.98132925     18.698574      167.97785    
   1102000   1.0122952      18.916374      167.79615    
   1103000   0.9772089      18.140104      167.64875    
   1104000   0.97130271     18.841028      167.75782    
   1105000   0.97935474     18.165971      167.73924    
   1106000   1.0303621      17.919555      167.49262    
   1107000   0.96998931     18.623725      167.49317    
   1108000   0.98394206     19.067066      167.60135    
   1109000   0.98621082     18.083763      167.6073     
   1110000   0.94317011     17.734862      167.55337    
   1111000   0.99226473     18.877358      167.38649    
   1112000   1.0387024      19.350395      167.31102    
   1113000   0.96857199     18.21458       167.10531    
   1114000   0.93934996     18.347135      167.14921    
   1115000   1.0142902      18.427355      167.06394    
   1116000   1.0113079      18.244616      167.22227    
   1117000   0.99356635     18.425474      167.09864    
   1118000   1.0050746      18.380916      166.97012    
   1119000   1.0004669      18.471933      166.7436     
   1120000   1.0232629      18.669752      166.85303    
   1121000   0.95858294     18.352038      166.66547    
   1122000   1.0571617      18.818795      166.68131    
   1123000   0.9770354      18.072357      166.69723    
   1124000   1.0070576      19.038131      166.72999    
   1125000   0.99781163     18.075228      166.83216    
   1126000   0.98223495     18.595772      166.94597    
   1127000   0.9734447      18.396887      166.78504    
   1128000   1.0333597      18.237314      166.85804    
   1129000   1.0239806      18.310188      166.87564    
   1130000   1.0138038      18.48352       166.95469    
   1131000   1.0025786      18.339623      167.03202    
   1132000   0.96151327     18.260948      167.08338    
   1133000   1.0108045      18.707012      167.27986    
   1134000   1.0041284      18.676708      167.30535    
   1135000   1.0229974      18.454747      167.23889    
   1136000   1.0366899      18.598924      167.31645    
   1137000   0.96863535     18.77515       167.29144    
   1138000   1.0226829      18.514049      167.17277    
   1139000   1.0156751      18.547702      167.19458    
   1140000   1.0074391      18.337502      167.16262    
   1141000   0.99769134     18.075593      167.14984    
   1142000   0.98464937     18.104933      167.18262    
   1143000   0.93951702     18.639836      167.07897    
   1144000   1.0110923      18.187688      167.15296    
   1145000   1.0722358      18.386529      167.16771    
   1146000   0.9941659      18.715757      166.80335    
   1147000   1.0153093      18.678584      166.89465    
   1148000   0.94836924     18.485334      166.83883    
   1149000   1.0110094      18.596441      166.93731    
   1150000   1.0344517      18.330778      167.03684    
   1151000   0.98634129     17.873331      167.07391    
   1152000   0.99619966     19.075267      167.0226     
   1153000   0.97824957     18.071718      167.0488     
   1154000   1.0014608      17.985439      167.21325    
   1155000   0.99557115     18.508475      166.97039    
   1156000   0.97244494     18.315109      166.58877    
   1157000   1.0144556      18.211264      166.83939    
   1158000   0.99243553     18.727276      166.67889    
   1159000   0.99973211     18.228322      166.74448    
   1160000   1.0105029      18.706656      166.70227    
   1161000   1.0035624      18.198755      166.73986    
   1162000   0.93604325     18.445959      166.6175     
   1163000   0.99937823     18.817825      166.60789    
   1164000   0.95287512     18.149137      166.56731    
   1165000   1.0062765      18.641832      166.34249    
   1166000   1.00333        18.633753      166.32171    
   1167000   1.0457325      18.583031      166.1338     
   1168000   0.9803503      18.52562       165.97815    
   1169000   1.0041479      18.423067      166.02278    
   1170000   1.0337017      18.219323      165.8435     
   1171000   0.95636945     18.212312      165.65093    
   1172000   1.000658       18.294375      165.74933    
   1173000   0.97760734     18.459708      165.75915    
   1174000   0.99655445     18.320675      165.6995     
   1175000   1.026418       17.854244      165.78749    
   1176000   0.96006853     18.148934      165.52709    
   1177000   1.0359044      18.780825      165.47357    
   1178000   0.98448193     18.19773       165.25595    
   1179000   0.95911834     17.912865      165.04801    
   1180000   0.98523391     18.614358      164.89757    
   1181000   1.0334998      18.468677      164.73993    
   1182000   1.0061589      18.654287      164.69696    
   1183000   1.0191754      18.099102      164.40766    
   1184000   1.024499       18.414355      164.38572    
   1185000   0.99615254     18.091065      164.19089    
   1186000   0.98270451     18.780221      164.23487    
   1187000   1.0425442      18.789794      164.0041     
   1188000   0.96613163     17.851898      164.161      
   1189000   1.0306931      18.795634      164.14797    
   1190000   0.99990176     18.234848      164.01044    
   1191000   0.99666827     18.462553      164.2023     
   1192000   1.0152482      18.573063      164.31393    
   1193000   0.99588457     18.391797      164.33211    
   1194000   0.97642008     18.38051       164.36726    
   1195000   0.98987789     18.142174      164.25541    
   1196000   1.0115597      18.510015      163.97413    
   1197000   0.95730107     18.303567      163.85858    
   1198000   1.0345984      18.388656      163.84693    
   1199000   0.97292983     17.768232      164.03015    
   1200000   0.96776542     17.971706      164.22646    
   1201000   0.96687176     17.666151      164.11072    
   1202000   1.0087377      18.140254      163.83317    
   1203000   1.0003898      18.173454      163.85958    
   1204000   0.98887121     18.206298      163.63709    
   1205000   0.98828206     17.842902      163.62794    
   1206000   0.9533765      18.282934      163.69901    
   1207000   0.99248921     18.472677      163.53364    
   1208000   0.97851693     18.147039      163.42905    
   1209000   0.9786228      18.548012      163.53666    
   1210000   1.0184625      18.451196      163.34061    
   1211000   1.0196067      17.778112      163.19773    
   1212000   1.0199633      18.354699      163.21168    
   1213000   0.9979619      18.742682      163.25412    
   1214000   0.99980688     18.077934      163.23929    
   1215000   1.0006365      18.215098      163.27394    
   1216000   0.98767076     18.253116      163.37371    
   1217000   1.0014454      18.225222      163.31449    
   1218000   1.0051244      18.322754      163.07349    
   1219000   1.0437208      18.668993      163.10162    
   1220000   1.0238771      18.390254      163.21759    
   1221000   0.99498774     18.558144      162.92761    
   1222000   1.0062742      18.383945      162.90229    
   1223000   0.99346726     18.698881      162.82357    
   1224000   0.99661211     18.706858      162.57793    
   1225000   0.98388907     18.589197      162.50775    
   1226000   1.025553       18.589046      162.35203    
   1227000   1.0100461      18.675513      162.40626    
   1228000   0.96590734     17.785641      162.58788    
   1229000   1.0088752      19.066327      162.3655     
   1230000   1.033513       18.1608        162.14595    
   1231000   0.97751028     18.084095      161.90976    
   1232000   1.0103392      18.264461      161.78464    
   1233000   0.98162257     18.141642      161.66459    
   1234000   0.9939366      18.427095      161.6316     
   1235000   1.0468853      18.628433      161.60458    
   1236000   1.0214466      18.320556      161.47377    
   1237000   1.0033794      18.1133        161.33073    
   1238000   0.99760874     18.849116      161.35781    
   1239000   1.0347727      18.564731      161.26736    
   1240000   1.0346097      18.153876      161.22727    
   1241000   1.0311216      18.590333      161.11635    
   1242000   1.0383191      17.872928      160.93044    
   1243000   1.0352417      17.9063        160.69215    
   1244000   0.97015708     18.124685      160.6503     
   1245000   0.97777544     18.216131      160.65949    
   1246000   1.0067433      18.511417      160.66342    
   1247000   1.0348377      18.127996      160.60489    
   1248000   0.99504635     18.502817      160.67756    
   1249000   1.0237763      18.874398      160.82222    
   1250000   1.0323134      18.277709      160.64097    
   1251000   1.0272038      18.333108      160.65171    
   1252000   0.98610474     17.832083      160.63457    
   1253000   1.0134675      18.379263      160.48413    
   1254000   1.0107177      18.185512      160.41883    
   1255000   1.025402       18.522594      160.50515    
   1256000   0.96073239     18.312656      160.31202    
   1257000   1.0461529      18.768357      160.23047    
   1258000   1.0020758      18.374436      160.13087    
   1259000   0.99733249     18.254054      160.0089     
   1260000   0.99837428     18.220397      159.88349    
   1261000   1.0010315      17.742787      159.74373    
   1262000   1.0008836      18.31348       159.69974    
   1263000   1.0147474      18.881944      159.55134    
   1264000   1.0022106      18.133131      159.55033    
   1265000   1.0108418      18.340722      159.21492    
   1266000   0.99432725     17.795964      159.30241    
   1267000   1.0117758      18.853229      159.45003    
   1268000   0.99288341     18.600089      159.35176    
   1269000   1.030037       18.03732       159.05915    
   1270000   0.99932179     18.49623       158.75342    
   1271000   1.0073554      18.760207      158.63521    
   1272000   0.98813988     18.694977      158.60189    
   1273000   1.000091       18.773948      158.645      
   1274000   0.94196481     18.394851      158.52339    
   1275000   1.0271643      18.579925      158.35547    
   1276000   1.0291503      18.767729      158.15849    
   1277000   0.99981639     18.33492       157.80595    
   1278000   1.023103       18.289313      157.71358    
   1279000   0.98452667     18.334983      157.70575    
   1280000   0.99977083     19.083982      157.78625    
   1281000   1.0216292      18.340013      157.76979    
   1282000   1.0425559      18.379191      157.81442    
   1283000   1.0070833      18.58526       157.81728    
   1284000   1.0286476      18.495205      157.63958    
   1285000   1.0225872      18.554999      157.49083    
   1286000   0.9723632      18.157237      157.46001    
   1287000   1.0271091      18.339113      157.42776    
   1288000   1.0215189      18.506556      157.44511    
   1289000   0.97203071     18.303822      157.20608    
   1290000   1.0050612      18.820453      157.03345    
   1291000   0.98491514     18.548342      156.91336    
   1292000   1.0105617      18.527781      156.75653    
   1293000   1.0662869      18.599468      156.86776    
   1294000   0.95308858     17.944087      156.90376    
   1295000   0.98948125     18.185394      156.87218    
   1296000   1.0606971      18.193095      156.61891    
   1297000   1.0022971      18.510251      156.49849    
   1298000   1.0047549      18.388916      156.33646    
   1299000   0.98522926     18.339681      156.38724    
   1300000   0.9923759      17.951172      156.23416    
   1301000   1.0354239      18.309936      156.25764    
   1302000   1.022967       18.481675      156.30168    
   1303000   0.99440443     18.599316      156.39045    
   1304000   0.96733707     18.255637      156.42281    
   1305000   1.0399722      18.278449      156.36406    
   1306000   0.97237016     18.229961      156.1904     
   1307000   0.98798347     18.318371      156.21044    
   1308000   1.0074337      18.322786      156.08346    
   1309000   0.96028025     18.000868      156.04907    
   1310000   1.038709       18.318395      155.89885    
   1311000   0.99513032     18.014624      155.74203    
   1312000   1.0162878      18.133214      155.81874    
   1313000   1.0558523      18.607556      155.83174    
   1314000   1.0248033      18.935944      155.60236    
   1315000   0.96647659     18.049258      155.40868    
   1316000   0.9895008      18.101408      155.38226    
   1317000   1.017699       18.186811      155.24092    
   1318000   1.0187053      18.529289      155.28437    
   1319000   1.0149597      18.087591      155.32478    
   1320000   0.98580865     19.071622      155.34535    
   1321000   0.9862366      18.101399      155.18351    
   1322000   1.047794       18.575424      154.90101    
   1323000   0.96790442     18.111224      154.71718    
   1324000   1.0206568      18.313909      154.51971    
   1325000   0.98846226     18.512762      154.33124    
   1326000   0.95944847     18.494249      154.25573    
   1327000   0.96508154     18.050343      154.01413    
   1328000   0.97638652     17.799278      153.8703     
   1329000   0.99611216     18.258391      153.83234    
   1330000   0.98020714     18.288625      153.86071    
   1331000   0.9763144      18.671174      153.89304    
   1332000   1.0326214      18.473215      154.05538    
   1333000   1.0522117      18.787482      153.98162    
   1334000   0.99519984     17.914148      153.85207    
   1335000   1.0211139      18.347531      153.94328    
   1336000   1.0039207      18.232348      153.75487    
   1337000   0.99032191     17.647325      153.50472    
   1338000   0.99961919     18.210751      153.19982    
   1339000   1.0079411      19.107479      153.09052    
   1340000   0.99201905     18.393817      153.16528    
   1341000   1.0340096      18.441746      152.99743    
   1342000   1.054958       18.597517      153.01128    
   1343000   0.97967567     18.245772      153.10972    
   1344000   1.0204338      18.282584      153.06388    
   1345000   1.0402729      18.479212      152.84835    
   1346000   0.98842575     18.212115      152.81571    
   1347000   1.0202035      18.46874       152.79551    
   1348000   1.0021006      18.020631      152.80475    
   1349000   1.0143909      18.319461      152.73753    
   1350000   1.0073887      18.554429      152.64138    
   1351000   0.97155761     18.08245       152.40047    
   1352000   0.98351366     18.003901      152.29428    
   1353000   1.0465938      18.360106      152.373      
   1354000   0.97413621     18.191777      152.14889    
   1355000   0.9791178      18.184789      152.14281    
   1356000   0.97420841     18.171532      152.01838    
   1357000   1.0282599      17.995607      151.79407    
   1358000   1.0187911      18.232941      151.88674    
   1359000   0.97558126     18.248671      152.02023    
   1360000   1.0006079      18.522972      151.81928    
   1361000   0.99903909     17.89561       151.71324    
   1362000   1.0362137      18.817245      151.59988    
   1363000   1.0089219      18.500047      151.54502    
   1364000   0.9755853      18.580472      151.47344    
   1365000   0.9908176      18.405094      151.34835    
   1366000   1.0140303      18.638913      151.19937    
   1367000   1.0227574      18.427475      151.13467    
   1368000   1.0075648      17.831204      150.90505    
   1369000   1.0108659      18.387318      150.79818    
   1370000   1.0071142      18.409252      150.86626    
   1371000   1.0167592      18.305019      150.77919    
   1372000   0.99374531     18.245153      150.85176    
   1373000   1.0049992      18.108577      150.69329    
   1374000   1.0517941      18.294198      150.78525    
   1375000   1.0373518      18.692554      150.72356    
   1376000   0.97361009     18.022807      150.63499    
   1377000   1.0018344      18.196345      150.58193    
   1378000   1.0080885      18.098872      150.59442    
   1379000   0.98589213     18.142482      150.52242    
   1380000   1.007634       18.11985       150.37308    
   1381000   1.0259217      17.414983      150.26582    
   1382000   1.0299181      18.676837      150.19867    
   1383000   1.0100294      18.242484      150.09754    
   1384000   1.0009327      18.711468      149.93104    
   1385000   0.98074705     18.153603      149.79789    
   1386000   1.0372885      19.183632      149.55397    
   1387000   0.96675407     17.847605      149.82956    
   1388000   1.0145461      17.884383      149.80887    
   1389000   0.98089225     18.202061      149.80224    
   1390000   1.0208986      17.914467      149.58723    
   1391000   0.97365345     18.412139      149.50097    
   1392000   0.99382825     18.362666      149.3758     
   1393000   0.98219027     18.057951      149.24391    
   1394000   1.0044161      18.061709      148.97616    
   1395000   1.0299935      18.039939      148.93742    
   1396000   0.97997816     18.195151      149.07123    
   1397000   0.9827176      18.155599      148.99697    
   1398000   0.96946077     17.951528      149.00995    
   1399000   0.97323594     18.79159       148.99498    
   1400000   1.0064401      18.175738      148.9468     
   1401000   0.96885929     17.876661      148.96638    
   1402000   0.98817623     18.690116      149.01907    
   1403000   1.0241814      18.526731      149.14354    
   1404000   1.0192973      17.987979      149.15481    
   1405000   1.0175831      18.429522      149.1582     
   1406000   0.97525641     17.963662      149.02534    
   1407000   0.9960402      18.401477      149.09574    
   1408000   0.953498       18.733401      148.95787    
   1409000   1.0140085      17.915418      148.96608    
   1410000   0.93440794     18.024777      149.02565    
   1411000   1.0097975      18.295033      148.87844    
   1412000   1.0315952      18.332532      148.76542    
   1413000   0.99124798     18.366969      148.81794    
   1414000   1.0550223      18.41665       148.71004    
   1415000   1.0545849      18.510757      148.75341    
   1416000   1.0161767      18.222922      148.51707    
   1417000   0.98864845     18.687975      148.53734    
   1418000   1.02008        17.926896      148.54287    
   1419000   0.97629139     18.529636      148.43768    
   1420000   0.98263026     18.273449      148.52898    
   1421000   0.99412854     17.617598      148.73316    
   1422000   0.98356011     17.483291      148.67295    
   1423000   0.97077777     18.314943      148.46245    
   1424000   0.98915752     18.339716      148.35502    
   1425000   1.0061049      18.643945      148.43353    
   1426000   0.98614089     18.683566      148.50868    
   1427000   0.98643942     18.287866      148.51634    
   1428000   1.017615       18.720875      148.59858    
   1429000   0.92949193     18.488942      148.54507    
   1430000   0.99061868     18.501769      148.39257    
   1431000   0.98038725     18.112956      148.50658    
   1432000   0.97545267     17.872896      148.3383     
   1433000   1.0250209      18.253488      148.27951    
   1434000   1.0137929      18.388204      148.21868    
   1435000   1.0659053      18.991901      148.1491     
   1436000   1.0623297      18.389425      148.11505    
   1437000   1.0023508      18.127689      147.84392    
   1438000   0.99855002     18.337471      147.88066    
   1439000   0.97658475     18.145821      148.07846    
   1440000   1.0321524      18.033608      147.94906    
   1441000   1.0083796      18.569353      147.94956    
   1442000   0.96904437     18.487819      147.87299    
   1443000   1.0113118      18.391825      147.79833    
   1444000   1.0054248      18.822284      147.51657    
   1445000   1.0413639      18.378133      147.56062    
   1446000   1.0279881      18.207596      147.43234    
   1447000   1.0300593      18.305213      147.18547    
   1448000   1.0324351      18.023575      147.05696    
   1449000   0.97743288     17.937307      147.07792    
   1450000   1.0335134      18.802856      146.91256    
   1451000   1.0295019      18.36753       146.92092    
   1452000   0.95617426     18.005652      146.63353    
   1453000   1.0322063      18.491968      146.72951    
   1454000   0.9609725      18.046772      146.43472    
   1455000   1.0404295      18.742645      146.41538    
   1456000   1.0242287      18.620867      146.45912    
   1457000   1.0280177      18.691181      146.41386    
   1458000   1.0285772      17.9518        146.37927    
   1459000   1.0221672      18.196774      146.28662    
   1460000   1.0164397      18.570557      146.10751    
   1461000   1.0039725      18.156501      145.92483    
   1462000   1.0160047      18.410117      145.83825    
   1463000   1.0461656      18.423165      145.80437    
   1464000   0.99264723     18.265866      145.85123    
   1465000   1.0194607      18.161815      145.66226    
   1466000   0.98310719     18.280628      145.64364    
   1467000   0.97541306     18.356713      145.63292    
   1468000   1.0025024      18.319293      145.45416    
   1469000   1.0026722      18.137208      145.26798    
   1470000   0.96357878     17.951435      145.25043    
   1471000   1.0358814      18.281619      145.27028    
   1472000   0.97599016     18.185369      145.24546    
   1473000   1.0279743      18.800264      145.25952    
   1474000   1.0284681      19.08993       145.10554    
   1475000   1.0245957      17.996638      144.98077    
   1476000   0.95532098     18.141223      144.73406    
   1477000   1.0041072      17.976842      144.45218    
   1478000   0.9967833      17.803137      144.33829    
   1479000   1.069634       18.25627       144.08424    
   1480000   1.001134       18.133047      143.921      
   1481000   1.0119415      18.436594      143.84029    
   1482000   0.98815819     18.08795       143.64051    
   1483000   1.0116907      18.214005      143.53068    
   1484000   1.0052482      18.433919      143.35534    
   1485000   1.0223546      18.085649      143.4869     
   1486000   0.97264427     18.066402      143.28631    
   1487000   1.007063       18.786706      143.21972    
   1488000   1.0001762      18.500427      142.93496    
   1489000   0.99381251     18.181742      143.14747    
   1490000   1.0157213      17.99269       143.1155     
   1491000   1.0293206      18.185005      143.03828    
   1492000   0.97044472     18.440902      142.68642    
   1493000   1.0090859      18.334843      142.65379    
   1494000   1.04187        18.278063      142.66877    
   1495000   1.000602       17.617353      142.44785    
   1496000   0.98536204     17.984349      142.40749    
   1497000   1.0097766      18.334911      142.29539    
   1498000   1.0066586      18.390747      142.11813    
   1499000   1.0370513      18.81432       142.0833     
   1500000   1.0085592      18.707595      142.13354    
   1501000   1.0428514      18.332682      142.00194    
   1502000   1.0063112      19.398001      142.05405    
   1503000   0.99074197     18.14652       141.91512    
   1504000   0.98190515     18.474117      141.97596    
   1505000   1.0584203      18.481092      142.12264    
   1506000   0.99792105     18.079257      142.15196    
   1507000   1.0111749      17.933898      142.1286     
   1508000   0.98083641     18.300071      141.90182    
   1509000   1.0247645      18.289923      141.82021    
   1510000   1.0189281      17.884756      141.6712     
   1511000   1.0200232      17.490647      141.7379     
   1512000   1.0167216      18.353878      141.80307    
   1513000   1.0190469      18.21442       141.81859    
   1514000   1.048821       18.416801      141.89192    
   1515000   0.98673539     18.290405      141.51325    
   1516000   0.97107107     18.125917      141.54722    
   1517000   0.96717481     18.197358      141.55118    
   1518000   0.98340086     18.296542      141.54464    
   1519000   1.0113892      17.656063      141.52536    
   1520000   1.023723       18.379136      141.48173    
   1521000   0.9861889      17.710569      141.33054    
   1522000   1.0086765      18.647923      141.27078    
   1523000   0.96317049     18.488291      141.12578    
   1524000   0.94909262     18.363921      141.32605    
   1525000   0.97457893     18.032672      141.26395    
   1526000   1.0009312      18.148529      141.20646    
   1527000   0.98592805     18.343633      141.03668    
   1528000   1.0385257      17.971609      141.24188    
   1529000   0.98143332     18.206545      140.97897    
   1530000   0.96997729     17.625986      141.09625    
   1531000   0.9793328      18.269135      141.07011    
   1532000   1.0025449      18.221064      141.11537    
   1533000   1.0188611      18.473897      140.96494    
   1534000   1.001315       18.840421      141.1079     
   1535000   0.98152476     18.232609      141.11105    
   1536000   0.99688551     18.379356      141.01496    
   1537000   1.0100877      17.926414      140.88818    
   1538000   0.99476987     18.024234      140.61038    
   1539000   1.0229499      18.532896      140.54012    
   1540000   0.99014505     18.373196      140.65504    
   1541000   0.95911868     17.984076      140.57715    
   1542000   1.0359474      18.608359      140.5297     
   1543000   0.97629598     18.455975      140.45557    
   1544000   1.0217413      18.698766      140.43605    
   1545000   1.0181963      18.274987      140.42812    
   1546000   0.9864017      18.623741      140.22567    
   1547000   0.98484307     18.527015      140.29904    
   1548000   0.96015124     17.967202      140.16956    
   1549000   1.0360656      18.813147      140.18854    
   1550000   0.96026522     18.230334      140.22463    
   1551000   1.0003372      18.042058      140.15141    
   1552000   0.99564388     18.261003      139.92308    
   1553000   1.0102054      17.866998      139.97629    
   1554000   1.0260613      18.346198      139.70993    
   1555000   1.0144022      17.6465        139.83263    
   1556000   1.0047043      18.413565      139.74158    
   1557000   0.99321751     17.999246      139.50979    
   1558000   1.0265655      18.219937      139.26464    
   1559000   1.0084526      18.496016      139.2436     
   1560000   0.9997713      18.470546      139.31059    
   1561000   0.98096691     18.141595      139.49883    
   1562000   0.98797227     18.181973      139.27904    
   1563000   1.0050841      18.29885       139.11602    
   1564000   0.98757035     18.368027      139.06355    
   1565000   1.02127        18.393638      138.95469    
   1566000   0.9757231      18.226422      138.75051    
   1567000   1.0176601      18.295729      138.69349    
   1568000   0.97860112     18.178034      138.5497     
   1569000   0.96690072     18.943982      138.50601    
   1570000   1.0425439      18.771894      138.43903    
   1571000   0.98334407     17.944152      138.5079     
   1572000   1.0091377      18.525482      138.5315     
   1573000   1.0174651      18.417637      138.40442    
   1574000   1.0012895      18.43603       138.49216    
   1575000   1.0223443      18.4172        138.43346    
   1576000   0.98526187     18.060258      138.45211    
   1577000   1.0157388      18.158404      138.31236    
   1578000   1.0391593      18.025281      138.25758    
   1579000   1.0309212      18.15703       138.40307    
   1580000   1.0086237      18.217451      138.34197    
   1581000   1.007773       18.171787      138.17916    
   1582000   0.98325532     17.816611      138.14628    
   1583000   0.99681979     18.265783      138.09322    
   1584000   1.0189891      18.135746      137.96404    
   1585000   1.0348445      18.420351      137.85907    
   1586000   0.98566334     18.138576      137.84477    
   1587000   0.98296497     17.823999      137.73339    
   1588000   1.0058149      18.130621      137.61599    
   1589000   0.98321337     17.59948       137.44852    
   1590000   0.99712603     17.940201      137.30777    
   1591000   1.0600873      18.634747      137.17187    
   1592000   1.029068       18.421231      137.03194    
   1593000   1.0042583      18.113538      137.21615    
   1594000   1.0092275      18.366783      137.19748    
   1595000   0.99070972     17.964808      137.25034    
   1596000   0.96642907     18.057627      137.2532     
   1597000   1.0092777      18.102656      137.09281    
   1598000   0.98055484     18.127873      136.92538    
   1599000   1.0271089      17.971373      136.91907    
   1600000   0.99262329     18.122431      136.81397    
   1601000   0.99900012     18.051261      136.7705     
   1602000   1.0140785      17.491171      136.49263    
   1603000   0.98695977     17.928401      136.1618     
   1604000   1.0184368      17.993297      136.12607    
   1605000   0.97450504     18.136198      136.08638    
   1606000   0.95949518     17.918819      136.10318    
   1607000   1.0119594      18.038245      136.07136    
   1608000   1.0110388      18.489162      135.77035    
   1609000   0.99368708     18.234387      135.81396    
   1610000   0.99372167     18.129862      135.56441    
   1611000   0.9829659      18.337952      135.4511     
   1612000   0.97229444     17.557296      135.73174    
   1613000   0.9881654      17.756277      135.64657    
   1614000   1.0163068      17.956436      135.46797    
   1615000   1.0391378      18.365296      135.44239    
   1616000   1.0147994      18.305128      135.25041    
   1617000   0.99405619     18.011141      135.10212    
   1618000   1.0203082      18.128665      134.88736    
   1619000   0.98621136     17.81939       134.47077    
   1620000   1.0104016      18.229291      134.40366    
   1621000   1.0259669      18.609646      134.62881    
   1622000   0.99494204     18.161835      134.30974    
   1623000   0.99550725     18.417655      134.26949    
   1624000   0.99561853     18.019866      134.30801    
   1625000   0.96116376     18.291007      134.34857    
   1626000   1.0144905      18.355659      134.20962    
   1627000   0.9638168      18.233368      134.04374    
   1628000   0.98313501     18.25228       133.68746    
   1629000   0.99684814     18.214646      133.7798     
   1630000   0.95269817     18.34702       133.88141    
   1631000   0.98555298     18.312821      133.67929    
   1632000   1.0262291      18.281511      133.49018    
   1633000   0.99322311     18.058365      133.60266    
   1634000   1.0069851      18.34564       133.38543    
   1635000   0.98035416     18.297291      133.09158    
   1636000   0.97610777     18.116238      132.90762    
   1637000   1.0232757      17.937691      132.69873    
   1638000   0.99692845     18.246598      132.68694    
   1639000   1.0697167      18.368561      132.39939    
   1640000   0.98150181     18.145665      132.51685    
   1641000   1.0154535      17.993949      132.51295    
   1642000   1.0091034      17.947295      132.52623    
   1643000   0.98540145     18.118431      132.31186    
   1644000   0.9862419      18.37252       132.30659    
   1645000   0.96799096     18.448805      132.26408    
   1646000   1.0045912      18.25137       132.02082    
   1647000   0.97980916     18.168466      131.81029    
   1648000   1.0084972      17.971087      131.62279    
   1649000   0.98114986     18.127835      131.42014    
   1650000   1.0098904      18.719264      131.28254    
   1651000   1.0138894      18.265759      131.26222    
   1652000   1.0219786      18.018194      131.12744    
   1653000   0.99327819     18.238494      131.10699    
   1654000   1.038579       17.654616      131.00764    
   1655000   1.0316979      17.963319      130.79669    
   1656000   0.95095        18.147902      130.84604    
   1657000   1.0029912      18.006624      130.77766    
   1658000   0.97668064     18.15668       130.86524    
   1659000   0.95614439     18.217298      130.64187    
   1660000   0.95377805     18.767181      130.46501    
   1661000   0.96951611     18.491143      130.57031    
   1662000   0.97377326     17.606852      130.40061    
   1663000   0.99293198     18.302887      130.42067    
   1664000   1.0059131      18.021657      130.28104    
   1665000   0.96494403     17.053476      130.35885    
   1666000   1.0255587      17.879453      130.44442    
   1667000   1.0373373      18.094511      130.25871    
   1668000   0.99636537     17.771207      130.08704    
   1669000   1.0200155      18.486064      129.93283    
   1670000   1.0457845      18.097724      130.01985    
   1671000   0.99126754     18.648258      129.88438    
   1672000   1.0211354      18.197595      130.02691    
   1673000   0.9960479      18.152957      130.06045    
   1674000   0.96633799     18.131142      129.83021    
   1675000   0.98331045     17.987813      129.84545    
   1676000   0.98940588     18.303336      129.73986    
   1677000   1.0211364      19.052699      129.68069    
   1678000   0.98836132     18.476967      129.63739    
   1679000   0.9809511      18.27521       129.53675    
   1680000   0.99332028     18.251605      129.51881    
   1681000   0.97114644     17.679012      129.49351    
   1682000   1.0369737      18.448102      129.42717    
   1683000   0.98194102     18.136469      129.30923    
   1684000   0.99904908     17.457293      129.3506     
   1685000   1.0461558      18.512617      129.1797     
   1686000   1.0434542      18.218091      129.13583    
   1687000   0.96973234     18.208447      129.10996    
   1688000   0.99408913     17.760255      129.14453    
   1689000   1.0004335      17.783693      129.20026    
   1690000   1.0677886      18.386401      129.17445    
   1691000   0.98950788     17.723951      129.0811     
   1692000   0.96181135     18.152862      128.69006    
   1693000   1.0158287      18.064235      128.5024     
   1694000   1.0133411      18.696179      128.3777     
   1695000   1.0490428      18.527822      128.2677     
   1696000   1.0168219      18.056702      128.03728    
   1697000   1.0113921      18.589903      127.74305    
   1698000   1.0379478      18.29013       127.78638    
   1699000   0.98739253     18.202074      127.70444    
   1700000   0.98907392     18.321164      127.72067    
   1701000   0.99375228     17.675577      127.75049    
   1702000   0.95723066     17.455628      127.47033    
   1703000   1.0203065      18.205137      127.37181    
   1704000   0.98606136     18.325129      127.35804    
   1705000   1.0033928      18.038271      127.48941    
   1706000   0.99636219     18.267601      127.13952    
   1707000   1.0107829      17.846655      127.32147    
   1708000   1.0136197      18.34339       127.34629    
   1709000   1.0272375      18.465049      127.45093    
   1710000   1.0005156      17.960279      127.48902    
   1711000   0.99447731     17.981708      127.28748    
   1712000   1.0477624      17.882026      126.96109    
   1713000   1.0348562      18.188222      126.89547    
   1714000   0.99215316     17.891163      126.61488    
   1715000   1.0019554      18.049235      126.43914    
   1716000   0.94763989     18.027353      126.34528    
   1717000   0.98409966     17.435321      126.34917    
   1718000   1.0195064      18.081908      126.19708    
   1719000   1.0117666      18.062931      126.12245    
   1720000   0.98622345     18.262757      126.06795    
   1721000   1.0186733      17.858322      125.85685    
   1722000   1.0096257      18.299938      125.7572     
   1723000   1.0083244      17.911401      125.84452    
   1724000   0.97696988     17.344904      125.99187    
   1725000   1.0220595      18.178923      126.22503    
   1726000   1.007054       17.702531      126.33097    
   1727000   0.99285366     18.174177      126.25022    
   1728000   1.001791       18.050227      126.34394    
   1729000   0.95319033     17.862882      126.20267    
   1730000   0.99858522     17.832351      126.0309     
   1731000   1.0215383      17.903343      125.83469    
   1732000   1.0257207      18.171528      125.72906    
   1733000   1.0139648      18.264914      125.57452    
   1734000   0.99465508     18.316761      125.50302    
   1735000   0.98666777     17.988909      125.59643    
   1736000   0.992182       18.216846      125.66383    
   1737000   1.0101838      18.140393      125.63056    
   1738000   1.0241058      18.070562      125.60492    
   1739000   0.97784169     17.523932      125.6783     
   1740000   0.98841834     17.905412      125.70725    
   1741000   1.0022269      17.819366      125.68118    
   1742000   1.005467       18.108563      125.75531    
   1743000   1.0276509      17.979862      125.58694    
   1744000   0.9599672      18.061132      125.71686    
   1745000   0.96496698     18.284222      125.36395    
   1746000   0.96167227     17.795118      125.1669     
   1747000   1.0223226      17.859532      125.02335    
   1748000   0.99689287     17.667961      125.15066    
   1749000   1.0327261      17.904334      125.06859    
   1750000   1.0066994      18.386686      124.95357    
   1751000   0.98771288     17.595813      124.92115    
   1752000   1.0155407      17.950269      124.68798    
   1753000   1.0184463      18.113008      124.81023    
   1754000   1.0274632      18.063194      124.85982    
   1755000   1.0310452      18.363102      124.88913    
   1756000   0.95424829     17.99682       124.70438    
   1757000   0.9584254      17.524619      124.4655     
   1758000   0.98140513     18.152886      124.22082    
   1759000   0.95913822     17.670216      123.99426    
   1760000   0.99181116     18.117418      123.92268    
   1761000   0.99378411     18.143818      123.77395    
   1762000   0.95762671     18.170606      123.90537    
   1763000   0.99871189     18.591827      123.75332    
   1764000   0.99394607     18.368765      123.55741    
   1765000   1.0152764      17.800409      123.29351    
   1766000   0.97039766     17.848771      123.39627    
   1767000   0.99125028     18.094158      123.34438    
   1768000   0.98114965     18.030436      123.45061    
   1769000   0.97470589     18.560996      123.42803    
   1770000   0.96294574     17.694032      123.30626    
   1771000   1.0115699      17.560532      123.25929    
   1772000   0.97618377     18.039231      123.10262    
   1773000   1.0030273      18.692387      123.25581    
   1774000   0.96422688     17.985543      122.8898     
   1775000   1.0000339      18.089535      122.5744     
   1776000   0.98270543     17.817096      122.56731    
   1777000   0.98742071     17.990685      122.36861    
   1778000   0.99141379     18.468522      122.27043    
   1779000   1.0077559      18.426911      122.21091    
   1780000   1.036232       17.698269      121.95959    
   1781000   0.98760147     17.992782      121.63594    
   1782000   0.97823613     17.613945      121.88943    
   1783000   0.95360637     17.798363      121.95594    
   1784000   1.0092826      17.932798      121.91661    
   1785000   0.99648254     17.915928      121.80493    
   1786000   1.0194782      17.851921      121.83313    
   1787000   1.0132262      17.862639      121.6529     
   1788000   0.95069807     17.726652      121.53673    
   1789000   0.97506873     17.7221        121.37336    
   1790000   0.95257442     18.489186      121.37113    
   1791000   0.99978537     17.480634      121.62503    
   1792000   0.98577508     16.973776      121.57317    
   1793000   1.0085709      18.158736      121.45811    
   1794000   0.96356063     17.641728      121.4252     
   1795000   1.0105546      18.061024      121.44772    
   1796000   1.0224609      18.34775       121.48705    
   1797000   1.0320588      18.755985      121.37465    
   1798000   1.0298985      18.502692      121.10426    
   1799000   0.99960094     18.381963      120.93065    
   1800000   1.0027055      17.751772      120.90551    
   1801000   1.0378751      18.220323      120.95343    
   1802000   1.0486837      18.366175      121.04474    
   1803000   0.99241755     17.632692      120.95334    
   1804000   0.99830277     18.028256      120.73968    
   1805000   0.98915773     17.534267      120.61102    
   1806000   1.0205127      17.805855      120.57322    
   1807000   1.0531134      18.273373      120.50667    
   1808000   0.97001962     17.867758      120.1963     
   1809000   0.98741924     17.605779      119.84699    
   1810000   1.0019933      18.366769      119.56627    
   1811000   0.9574108      18.139235      119.22621    
   1812000   1.009364       18.055819      119.1562     
   1813000   0.98541224     17.814044      119.03258    
   1814000   1.0188407      18.133273      118.89058    
   1815000   1.0046386      17.572956      118.68002    
   1816000   1.0529738      17.73976       118.62914    
   1817000   0.97053827     17.721253      118.58981    
   1818000   1.0100471      18.005442      118.5139     
   1819000   1.0282666      17.536928      118.31387    
   1820000   1.0427997      17.334996      118.45845    
   1821000   0.95433755     17.701888      118.44412    
   1822000   1.0025702      17.831422      118.42841    
   1823000   1.025861       18.407521      118.45171    
   1824000   1.0151275      18.100773      118.17614    
   1825000   0.98596516     18.184021      118.04897    
   1826000   1.0303659      18.116914      118.00174    
   1827000   0.9849824      18.154178      117.89892    
   1828000   1.0158504      18.498684      117.81607    
   1829000   1.0228548      17.874758      117.60385    
   1830000   1.0007595      18.039322      117.56711    
   1831000   0.9863897      17.712567      117.11219    
   1832000   0.99460802     17.753886      117.08915    
   1833000   1.0231077      18.009669      117.1701     
   1834000   1.0180262      17.552979      117.13352    
   1835000   0.97413769     18.06676       117.19861    
   1836000   0.97677315     17.578071      117.36899    
   1837000   0.98790145     18.239606      117.37208    
   1838000   0.99879899     17.995244      117.54075    
   1839000   1.0058923      17.790254      117.45773    
   1840000   0.9991143      18.003946      117.48261    
   1841000   1.0060667      18.17826       117.39439    
   1842000   1.0503002      18.220566      117.45047    
   1843000   0.98540825     17.594811      117.19524    
   1844000   1.0252061      18.516066      117.10322    
   1845000   1.0205907      17.620645      117.11807    
   1846000   0.97656795     17.760613      117.13203    
   1847000   0.97241935     17.931755      116.7666     
   1848000   0.97907442     17.212949      116.80349    
   1849000   0.97706068     18.435301      116.83528    
   1850000   1.0572         18.298064      116.59194    
   1851000   0.99527049     18.002112      116.34918    
   1852000   0.97472547     17.761791      116.19176    
   1853000   1.0332007      18.306409      116.03494    
   1854000   1.0083936      17.228778      116.15707    
   1855000   0.98287525     17.874814      116.05181    
   1856000   1.0137814      18.356244      116.05576    
   1857000   1.0000357      18.166243      115.99998    
   1858000   0.9841139      18.374289      115.86919    
   1859000   0.94897398     17.234085      115.72332    
   1860000   0.99546241     18.045865      115.48931    
   1861000   1.0462005      18.281375      115.32714    
   1862000   0.98960829     17.764617      115.33071    
   1863000   1.017284       17.506409      115.35887    
   1864000   1.0035628      17.822463      115.2952     
   1865000   1.0200197      18.333282      115.18767    
   1866000   0.97239232     18.425161      115.12371    
   1867000   1.0101749      17.842621      114.93004    
   1868000   0.99624804     17.760395      114.81827    
   1869000   0.96946007     18.077433      114.81453    
   1870000   0.99122708     17.893827      114.59436    
   1871000   1.0350261      18.028754      114.50182    
   1872000   1.0106603      17.941397      114.67003    
   1873000   0.98029635     17.763838      114.76568    
   1874000   1.0080781      17.931294      114.69796    
   1875000   1.0159134      17.543709      114.74468    
   1876000   0.98948553     18.048354      114.2359     
   1877000   0.99905718     17.853894      114.06542    
   1878000   1.0079322      17.763633      114.21813    
   1879000   0.95374273     17.467609      114.13527    
   1880000   1.0105512      18.118973      114.0619     
   1881000   1.0057276      17.775172      113.88352    
   1882000   1.0093374      17.558897      113.6936     
   1883000   1.0004856      18.229513      113.6352     
   1884000   1.0165679      18.048054      113.58387    
   1885000   1.0095428      17.877164      113.38953    
   1886000   1.0569995      18.112614      113.19829    
   1887000   1.0510153      18.401753      113.02615    
   1888000   1.0032612      17.825595      112.81168    
   1889000   0.98663392     18.372298      112.73403    
   1890000   1.0083604      18.172455      112.81473    
   1891000   1.0019023      18.332994      112.87737    
   1892000   0.94836355     17.726929      112.82837    
   1893000   1.0232955      18.089555      112.57282    
   1894000   0.95579416     17.606941      112.40588    
   1895000   0.97331758     17.743333      112.43808    
   1896000   1.0149939      17.987266      112.38588    
   1897000   1.0562415      18.282233      112.34737    
   1898000   1.0457375      18.368632      112.38841    
   1899000   1.0605547      17.907173      112.23261    
   1900000   0.99951587     18.28548       112.31444    
   1901000   1.0216055      17.744067      112.37566    
   1902000   0.98398851     17.388195      112.20665    
   1903000   1.0084419      18.072614      111.94227    
   1904000   0.95861486     17.448165      111.74458    
   1905000   0.95711931     17.321784      111.69227    
   1906000   1.0140927      17.769492      111.61266    
   1907000   1.0257018      17.825704      111.39939    
   1908000   1.0006455      17.982151      111.44958    
   1909000   0.97499102     18.336268      111.34325    
   1910000   0.99339709     17.515505      111.31129    
   1911000   0.9813749      17.434336      111.15849    
   1912000   1.0260242      18.1935        111.12262    
   1913000   1.0191881      17.506949      111.0895     
   1914000   1.0315079      18.065517      111.00758    
   1915000   1.0139008      18.307608      111.078      
   1916000   0.99052754     17.954563      110.96166    
   1917000   0.9910406      17.803709      110.89729    
   1918000   1.0143077      18.053873      110.79563    
   1919000   1.0027746      17.769434      110.63641    
   1920000   1.034119       17.944991      110.54184    
   1921000   1.029571       17.807514      110.59189    
   1922000   1.0334633      17.632387      110.59342    
   1923000   0.98954634     17.60947       110.62623    
   1924000   0.97140943     17.894827      110.64231    
   1925000   0.98481449     18.465089      110.69831    
   1926000   0.99180383     17.697413      110.60745    
   1927000   1.0289707      18.139461      110.62357    
   1928000   0.95938432     18.196223      110.40314    
   1929000   1.0171202      17.820838      110.15727    
   1930000   0.98164602     17.553522      109.95231    
   1931000   1.0177863      17.763158      109.77584    
   1932000   0.9994458      17.621549      109.8302     
   1933000   0.98493059     17.729918      109.82622    
   1934000   0.97027695     17.812184      109.66368    
   1935000   1.0368056      18.047224      109.63695    
   1936000   1.0044951      17.788028      109.64045    
   1937000   1.0321386      17.950524      109.46653    
   1938000   1.0053072      17.919038      109.19533    
   1939000   1.0012319      17.498154      109.23257    
   1940000   0.9924233      18.002068      109.35929    
   1941000   0.99047295     18.008844      109.21427    
   1942000   0.94265645     18.089968      109.44178    
   1943000   0.973857       17.669952      109.43342    
   1944000   1.0362906      18.562658      109.55161    
   1945000   0.96671654     18.287328      109.55748    
   1946000   1.0283103      17.928286      109.66836    
   1947000   1.0320653      17.768919      109.58898    
   1948000   0.97912064     17.775721      109.56063    
   1949000   0.99280612     18.097742      109.3091     
   1950000   0.95321707     17.833958      109.26036    
   1951000   1.0030158      17.860313      109.15861    
   1952000   0.98575725     18.216191      108.94702    
   1953000   0.99605097     17.391081      108.85477    
   1954000   1.0171993      17.858003      108.75478    
   1955000   1.057651       17.748157      108.72027    
   1956000   0.98052311     17.880819      108.5646     
   1957000   1.0143131      17.885863      108.64721    
   1958000   1.0247016      17.573529      108.63939    
   1959000   1.000868       17.851966      108.52001    
   1960000   0.99170963     17.501861      108.30411    
   1961000   1.0098915      17.510003      108.06851    
   1962000   0.97760789     17.794217      108.23834    
   1963000   1.0494638      17.951398      108.40608    
   1964000   0.99543874     18.701051      108.02423    
   1965000   1.0582101      17.949934      107.76388    
   1966000   1.0102012      17.408973      107.5145     
   1967000   0.95723953     17.68177       107.47022    
   1968000   1.0012865      17.825586      107.32457    
   1969000   0.96658832     17.511255      107.07381    
   1970000   0.98757269     18.307404      107.15953    
   1971000   1.0290491      17.684324      107.15781    
   1972000   1.0072365      17.58959       106.90316    
   1973000   0.98960796     17.820935      106.67438    
   1974000   1.0074356      17.8332        106.58758    
   1975000   1.0070302      17.537398      106.7476     
   1976000   1.0261694      18.24028       106.73299    
   1977000   0.98234086     17.739978      106.80629    
   1978000   0.99896844     17.918395      106.61853    
   1979000   0.98239807     18.027994      106.53826    
   1980000   0.9590162      17.560962      106.66528    
   1981000   0.95746706     17.840305      106.76855    
   1982000   0.99328367     17.253971      106.60335    
   1983000   1.0071241      18.013368      106.42409    
   1984000   0.96015991     18.166507      106.58185    
   1985000   1.0059248      17.909079      106.50103    
   1986000   0.99595449     17.71756       106.47807    
   1987000   0.9781324      17.234765      106.38628    
   1988000   1.0575309      17.81978       106.26329    
   1989000   1.0199977      17.760935      106.36899    
   1990000   1.0795353      17.882918      106.20964    
   1991000   1.0053493      17.553445      105.95507    
   1992000   0.9814745      17.413302      106.07318    
   1993000   0.98516902     17.99738       106.28149    
   1994000   1.017932       17.793043      106.25257    
   1995000   1.0127218      17.896302      106.20019    
   1996000   0.96941419     17.259889      106.21298    
   1997000   0.96745799     17.669775      106.22953    
   1998000   1.0293845      17.659564      106.02954    
   1999000   0.98846002     18.122931      105.86351    
   2000000   1.0116432      17.860045      105.82947    
   2001000   0.98925994     18.619153      105.87221    
   2002000   1.0081285      17.936934      105.73179    
   2003000   1.0216471      17.356964      105.74       
   2004000   0.99898051     18.212885      105.59171    
   2005000   1.0019405      18.098056      105.80432    
   2006000   1.0065443      17.809754      105.5799     
   2007000   0.94429247     17.457032      105.49886    
   2008000   1.0117322      17.877535      105.39058    
   2009000   0.9875656      17.593507      105.59255    
   2010000   0.98821858     17.730286      105.37275    
   2011000   0.99108798     17.932989      105.12302    
   2012000   1.011309       17.957356      104.90472    
   2013000   1.0025145      17.694012      104.93286    
   2014000   1.0229116      18.175034      104.87846    
   2015000   1.014169       18.817836      104.76127    
   2016000   1.0076827      17.69908       104.68226    
   2017000   0.99437986     17.671899      104.76229    
   2018000   0.97290863     17.282703      104.75392    
   2019000   1.0068718      17.985264      104.61668    
   2020000   1.0205026      18.150379      104.44112    
   2021000   1.0014491      17.942212      104.34613    
   2022000   1.0410012      17.862771      104.30222    
   2023000   0.99350322     17.755089      104.35326    
   2024000   1.0254183      17.961758      104.43369    
   2025000   0.99328249     17.633917      104.57893    
   2026000   1.0452537      18.112979      104.56561    
   2027000   1.0375834      18.307196      104.59651    
   2028000   0.99653816     17.961502      104.5809     
   2029000   1.0170572      17.493434      104.59784    
   2030000   1.0211418      18.224452      104.6284     
   2031000   0.97385141     17.769762      104.76312    
   2032000   0.9524333      17.598114      104.98686    
   2033000   1.0022161      18.35747       104.86691    
   2034000   1.0034337      17.570798      104.68324    
   2035000   0.98711378     18.35028       104.5397     
   2036000   1.0195664      17.405756      104.38665    
   2037000   0.96034102     17.898716      104.2196     
   2038000   1.0163854      17.723498      104.02079    
   2039000   1.0407867      18.383573      103.92187    
   2040000   0.98765242     17.498753      103.56666    
   2041000   0.99779555     17.177692      103.52455    
   2042000   1.0169772      18.14359       103.37702    
   2043000   0.98627307     18.072764      103.31994    
   2044000   0.98478246     18.025591      102.87044    
   2045000   0.99752919     18.024024      102.84431    
   2046000   1.0402754      17.951701      102.86077    
   2047000   1.055008       17.809933      102.93348    
   2048000   0.99191145     17.353697      102.91726    
   2049000   0.98822393     17.454011      103.24529    
   2050000   1.0177859      17.509215      103.2074     
   2051000   1.0010745      17.601757      103.13157    
   2052000   1.0125531      18.425643      103.01186    
   2053000   1.0090371      17.892408      102.95301    
   2054000   1.0358958      17.933989      103.0207     
   2055000   1.010815       18.248154      103.01708    
   2056000   0.99506137     18.017992      103.0491     
   2057000   1.0295151      17.27745       103.07518    
   2058000   0.94568696     17.714417      103.12514    
   2059000   1.0496126      17.885015      103.11541    
   2060000   1.0462125      17.91457       103.14427    
   2061000   0.98875568     18.048183      102.82571    
   2062000   1.0427581      17.447896      102.71056    
   2063000   0.97022874     17.560048      102.68248    
   2064000   1.0082447      17.660602      102.70985    
   2065000   0.99057761     18.017532      102.63055    
   2066000   1.0222879      18.013912      102.6046     
   2067000   1.0219067      17.44001       102.49765    
   2068000   1.0201847      17.599358      102.47272    
   2069000   0.99074321     17.668246      102.34902    
   2070000   1.029965       18.03847       102.23671    
   2071000   0.99707069     17.937022      102.41089    
   2072000   1.0067191      17.409957      102.15846    
   2073000   1.0637353      18.248504      102.07492    
   2074000   0.99335828     18.10401       101.92185    
   2075000   0.96974308     17.325058      102.07838    
   2076000   0.9793129      17.100284      102.08068    
   2077000   0.98823081     17.787788      102.26357    
   2078000   1.000508       17.81488       102.2802     
   2079000   1.0013436      17.96049       102.35391    
   2080000   1.0358409      17.727731      102.21966    
   2081000   0.98421176     18.068755      102.28646    
   2082000   1.0064083      17.005909      102.31891    
   2083000   1.0316963      18.166612      102.33081    
   2084000   0.97171336     17.671219      102.30092    
   2085000   0.97468767     17.349399      102.38014    
   2086000   0.98437171     17.955528      102.22558    
   2087000   0.98242044     17.245263      101.89998    
   2088000   1.0083785      17.794928      101.86999    
   2089000   1.0289692      17.567012      102.00394    
   2090000   0.98253656     17.657453      101.8413     
   2091000   0.96715532     17.396299      101.91808    
   2092000   1.0645249      17.94089       101.85833    
   2093000   1.0150695      17.932366      101.82576    
   2094000   0.99516838     17.869715      101.70266    
   2095000   1.0151024      18.021814      101.60844    
   2096000   0.94989224     18.093127      101.45704    
   2097000   0.97085605     17.890981      101.38648    
   2098000   1.0206573      18.283902      101.22273    
   2099000   1.0063212      17.417354      101.08634    
   2100000   1.0043305      17.930467      100.93738    
   2101000   1.0446096      18.131046      100.93301    
   2102000   1.0182716      17.896707      100.91754    
   2103000   1.0095164      17.291309      100.72316    
   2104000   1.0195919      18.128686      100.78546    
   2105000   1.0133567      17.889713      100.71829    
   2106000   1.0141226      18.358596      100.61188    
   2107000   1.023081       17.548994      100.62353    
   2108000   1.0528846      18.212929      100.35659    
   2109000   0.92783952     17.855281      100.25673    
   2110000   0.97766496     16.900698      99.99384     
   2111000   0.97033299     17.525737      99.854308    
   2112000   1.0051962      17.563217      99.666091    
   2113000   0.99904734     17.767127      99.488659    
   2114000   1.0140557      17.524415      99.251776    
   2115000   1.0231744      17.412662      99.200595    
   2116000   1.0033633      17.798503      99.282295    
   2117000   0.99089202     18.013924      99.214701    
   2118000   1.0581967      18.218019      99.038432    
   2119000   1.0100693      17.774955      98.876289    
   2120000   1.0062909      17.448347      98.872786    
   2121000   1.0034628      17.453657      98.994947    
   2122000   0.98163134     17.677589      99.064015    
   2123000   0.97451355     17.743137      98.972623    
   2124000   1.042868       18.093263      98.922721    
   2125000   1.0168373      17.717818      98.973526    
   2126000   1.0240893      17.426569      98.757027    
   2127000   0.99528366     17.287922      98.819093    
   2128000   1.0098593      17.888936      98.807517    
   2129000   1.0285893      17.775186      98.592007    
   2130000   0.99997752     17.722959      98.581369    
   2131000   1.0189474      17.995353      98.586499    
   2132000   0.98186502     18.209927      98.701442    
   2133000   0.9799731      17.48879       98.806392    
   2134000   1.0173538      18.043869      98.970841    
   2135000   0.99174058     17.514014      99.221702    
   2136000   0.97441089     17.387919      99.30005     
   2137000   1.00018        17.441883      99.14673     
   2138000   0.9846727      17.407657      99.360035    
   2139000   1.0405176      17.90803       99.578447    
   2140000   0.96466172     17.800956      99.50832     
   2141000   0.99303302     17.655768      99.508309    
   2142000   0.9478282      17.870411      99.359779    
   2143000   0.99413182     18.221387      99.220858    
   2144000   0.97961857     18.062217      98.992929    
   2145000   0.97621191     17.418043      98.839752    
   2146000   1.011691       17.927796      98.845419    
   2147000   1.0253141      17.529659      98.732996    
   2148000   0.98780738     17.386422      98.432129    
   2149000   0.99860647     17.549799      98.204612    
   2150000   0.99541745     17.404456      98.101215    
   2151000   0.98135014     18.107695      97.857332    
   2152000   0.96972005     17.508179      97.921107    
   2153000   0.99196724     17.338529      97.951321    
   2154000   0.99744642     18.129482      97.951087    
   2155000   0.99791727     16.952134      97.579289    
   2156000   0.98353142     17.34477       97.283469    
   2157000   1.0002302      18.021128      97.161651    
   2158000   1.0317788      17.698241      97.120672    
   2159000   1.0143622      17.684074      97.030629    
   2160000   0.95206418     17.807893      96.93903     
   2161000   0.96957767     18.093762      96.855571    
   2162000   0.98499039     17.945976      96.828894    
   2163000   1.0115443      18.186918      96.801898    
   2164000   1.0613713      17.976982      96.649669    
   2165000   1.0059219      18.057787      96.927118    
   2166000   1.0333192      18.31225       96.864439    
   2167000   1.0176007      17.711476      96.778139    
   2168000   0.97425747     16.922009      96.856757    
   2169000   1.0262469      16.991579      96.773701    
   2170000   1.0175933      17.808035      96.731817    
   2171000   1.0199508      17.537585      96.456494    
   2172000   0.97491041     17.472536      96.294731    
   2173000   1.0151719      17.925394      96.240187    
   2174000   1.0448085      17.436284      96.133831    
   2175000   0.98214682     18.340478      95.901012    
   2176000   1.0231818      17.882759      95.597434    
   2177000   0.99165844     17.871854      95.493139    
   2178000   1.020154       17.342524      95.432231    
   2179000   0.99065458     17.367297      95.211535    
   2180000   1.0282833      17.470462      95.120821    
   2181000   0.97366076     17.585723      94.908155    
   2182000   1.0191115      18.040561      94.933836    
   2183000   1.0679766      18.300736      94.938106    
   2184000   1.0117447      17.899661      94.65576     
   2185000   1.0218716      17.58098       94.874776    
   2186000   1.0066358      18.250731      94.832821    
   2187000   1.0451494      18.105995      94.725551    
   2188000   0.98382291     17.504855      94.7311      
   2189000   1.022308       17.640208      94.54824     
   2190000   0.95742767     17.672679      94.457435    
   2191000   1.0117398      17.152976      94.487036    
   2192000   0.98806125     17.562721      94.281864    
   2193000   0.99894397     18.187042      94.233008    
   2194000   1.0086854      18.013111      94.043024    
   2195000   1.0272988      17.510254      94.012588    
   2196000   0.99608718     17.751386      93.908366    
   2197000   0.94525816     17.426597      93.897048    
   2198000   1.0141692      17.90818       93.768752    
   2199000   0.99030689     17.11625       93.645236    
   2200000   0.95856128     17.6223        93.650873    
   2201000   0.99886697     17.744819      93.392182    
   2202000   1.0321125      18.012427      93.211393    
   2203000   1.0155082      17.810878      93.001983    
   2204000   1.0009803      17.887224      92.807435    
   2205000   1.0020354      17.541522      92.434939    
   2206000   0.97429165     18.159849      92.337505    
   2207000   1.0327688      17.471734      91.962972    
   2208000   0.98354475     18.507721      91.789062    
   2209000   1.0001698      17.963282      91.68781     
   2210000   1.0124098      17.668333      91.840303    
   2211000   0.99027059     17.452083      91.807383    
   2212000   1.0037592      18.088383      91.653178    
   2213000   1.0210825      17.552594      91.775524    
   2214000   1.0156196      18.057229      91.791921    
   2215000   1.0155773      17.672832      91.917773    
   2216000   0.99158304     17.884671      91.854853    
   2217000   0.99631754     17.613603      91.607232    
   2218000   1.0266688      17.553127      91.631118    
   2219000   0.99151062     17.843019      91.744509    
   2220000   1.0008822      17.390989      91.588097    
   2221000   1.0065632      17.830056      91.631656    
   2222000   0.98405554     17.581707      91.517686    
   2223000   0.99038073     17.512247      91.38166     
   2224000   0.93168239     17.519453      91.564629    
   2225000   0.97015842     17.653199      91.722613    
   2226000   0.98878822     17.772215      91.647819    
   2227000   1.0093375      17.173162      91.405442    
   2228000   0.97916754     17.982265      91.11139     
   2229000   1.0048839      17.330318      91.1585      
   2230000   1.0204308      18.025909      91.195515    
   2231000   0.99842448     17.317467      91.207132    
   2232000   1.0332497      17.783064      91.050896    
   2233000   1.0207617      17.011241      91.156916    
   2234000   1.0243112      18.001534      91.161646    
   2235000   1.0109647      18.713143      91.068356    
   2236000   1.049761       17.569712      91.07101     
   2237000   1.0105947      17.441328      90.857001    
   2238000   0.98591898     17.719128      90.803644    
   2239000   0.98086424     17.541577      90.768932    
   2240000   1.0012679      17.679811      90.554766    
   2241000   1.0010824      18.0554        90.549012    
   2242000   0.97992109     17.90512       90.792383    
   2243000   0.96165513     17.511224      90.579642    
   2244000   0.9646975      17.920769      90.693558    
   2245000   1.019317       17.662933      90.680097    
   2246000   1.0338091      18.173006      90.704643    
   2247000   0.97836102     18.428389      90.575858    
   2248000   1.0749896      18.477593      90.567343    
   2249000   0.96785231     17.719042      90.582325    
   2250000   1.0196761      18.691068      90.581313    
   2251000   0.99411774     18.034523      90.256002    
   2252000   1.0087674      18.50987       90.176435    
   2253000   1.0218868      18.043829      90.116459    
   2254000   1.0055778      17.896658      89.807152    
   2255000   0.98830137     17.751207      89.836563    
   2256000   1.0154916      17.83218       89.740752    
   2257000   0.96731488     17.370455      89.675421    
   2258000   0.99057929     17.951067      89.632698    
   2259000   0.99677195     17.94322       89.8227      
   2260000   1.0011911      17.826526      89.844111    
   2261000   1.0362907      17.495638      89.814887    
   2262000   1.0219449      17.822362      89.990297    
   2263000   1.0427741      17.781193      89.926924    
   2264000   1.0217148      18.424776      89.724352    
   2265000   1.027336       17.668612      89.721622    
   2266000   0.96894937     17.425539      89.786076    
   2267000   1.0073468      17.50298       89.702814    
   2268000   0.97294197     17.408845      89.556627    
   2269000   1.03075        17.783073      89.666878    
   2270000   0.98188981     17.870553      89.768463    
   2271000   0.96417491     17.043204      89.636863    
   2272000   1.0038544      17.868622      89.598035    
   2273000   1.0036037      17.844493      89.61205     
   2274000   0.99441538     17.68638       89.76048     
   2275000   0.97563393     17.471043      89.587295    
   2276000   0.97295208     17.812502      89.674421    
   2277000   0.96985187     17.613607      89.553782    
   2278000   0.99108272     17.788032      89.451304    
   2279000   0.97707786     17.437133      89.317283    
   2280000   0.99337825     17.494587      89.261464    
   2281000   1.0122695      17.481447      88.982812    
   2282000   1.0294751      17.671555      88.623499    
   2283000   0.99421751     17.786636      88.728613    
   2284000   0.97232422     17.825865      88.601303    
   2285000   1.0013776      17.879942      88.580983    
   2286000   1.0170911      17.170312      88.427519    
   2287000   1.0480778      17.792405      88.193385    
   2288000   1.0314258      17.54802       88.200917    
   2289000   0.99337798     17.876566      88.041837    
   2290000   1.0452329      18.237297      87.935267    
   2291000   1.0001143      17.42074       87.688742    
   2292000   1.0143293      17.688761      87.695414    
   2293000   1.0233523      17.777972      87.669596    
   2294000   0.97876452     17.363324      87.569456    
   2295000   0.96741594     18.295873      87.495802    
   2296000   1.0126547      17.721071      87.419226    
   2297000   1.0027224      17.426535      87.183387    
   2298000   0.99201051     17.701388      87.025438    
   2299000   1.00127        17.598821      86.935258    
   2300000   1.035407       17.489748      87.025795    
   2301000   1.0244068      17.912446      87.062274    
   2302000   0.99080444     17.846057      87.274628    
   2303000   0.94514188     17.814278      87.273227    
   2304000   1.0089643      17.222171      87.212888    
   2305000   1.0041157      17.81343       87.18312     
   2306000   1.0513966      18.305839      87.237913    
   2307000   1.012969       17.52308       87.17556     
   2308000   1.0465893      17.714671      87.097315    
   2309000   0.99793924     17.447456      86.96468     
   2310000   0.99733789     18.304941      87.164536    
   2311000   1.0362345      17.83753       87.240873    
   2312000   0.98566083     18.21897       87.259776    
   2313000   0.99893219     17.741939      87.082165    
   2314000   0.98963532     17.235394      86.857427    
   2315000   1.0290111      17.563686      86.523169    
   2316000   1.0299281      17.622513      86.488632    
   2317000   0.99195973     17.44204       86.484001    
   2318000   1.0372247      17.926841      86.393658    
   2319000   0.98237394     17.664477      86.420424    
   2320000   0.99005137     17.533843      86.350666    
   2321000   0.98918039     17.088839      86.090226    
   2322000   1.0165862      17.54677       86.339782    
   2323000   0.99938191     17.563815      86.100313    
   2324000   0.97285039     16.867259      85.953071    
   2325000   1.0512409      17.610262      85.840378    
   2326000   1.0155504      17.641033      85.804063    
   2327000   1.0140666      17.767191      85.676898    
   2328000   0.9969903      17.666275      85.743816    
   2329000   1.0058636      17.696113      85.967059    
   2330000   1.0261166      17.343241      85.907903    
   2331000   0.96429838     17.589897      86.010316    
   2332000   0.99362694     17.641378      85.844492    
   2333000   1.0318094      17.87001       85.804439    
   2334000   1.0248319      17.823939      85.685812    
   2335000   1.0343741      18.227286      85.452598    
   2336000   1.0051028      17.659516      85.263065    
   2337000   1.0085458      17.725139      85.311002    
   2338000   0.98901744     17.228673      85.397364    
   2339000   1.0051505      17.889432      85.200094    
   2340000   1.0346762      17.677272      85.171227    
   2341000   1.0091808      17.740918      85.155501    
   2342000   0.99235496     17.395102      85.161085    
   2343000   1.0119247      17.998218      85.17739     
   2344000   1.002912       17.50369       85.036498    
   2345000   0.98996856     17.493771      85.064937    
   2346000   1.0019757      17.965694      84.714751    
   2347000   0.98775997     17.275405      84.903296    
   2348000   0.97330359     17.271385      85.025823    
   2349000   0.97976649     17.075536      84.911121    
   2350000   1.0649806      18.126326      84.793868    
   2351000   0.9970255      18.311718      84.812699    
   2352000   1.0227857      17.806434      84.581842    
   2353000   0.97933531     18.648964      84.664917    
   2354000   0.99949379     17.34165       84.431383    
   2355000   1.011327       17.31288       84.32018     
   2356000   1.0180675      17.85106       84.160206    
   2357000   1.0155621      17.756984      84.161488    
   2358000   1.043621       17.608209      84.145943    
   2359000   1.001029       17.541365      84.236479    
   2360000   1.0469458      18.188575      84.4641      
   2361000   0.99479668     17.704797      84.404183    
   2362000   0.9946556      17.038869      84.47332     
   2363000   1.0293625      17.914945      84.19518     
   2364000   1.005744       17.36454       84.049433    
   2365000   1.0051628      17.040562      84.227952    
   2366000   1.0070743      17.604559      84.123294    
   2367000   0.96468842     16.998507      83.863959    
   2368000   0.99702809     17.92007       83.725165    
   2369000   0.98480218     17.562729      83.470347    
   2370000   0.96384663     18.086841      83.598544    
   2371000   0.98153995     17.785554      83.53512     
   2372000   1.0076272      17.139399      83.656168    
   2373000   1.0278534      17.447368      83.781588    
   2374000   0.99347678     17.731488      83.711538    
   2375000   0.98479063     17.227773      83.573054    
   2376000   0.97421403     17.355314      83.589441    
   2377000   1.0223943      18.301176      83.561802    
   2378000   0.99036209     17.5825        83.398764    
   2379000   0.98573514     18.049918      83.429349    
   2380000   1.0427376      17.87178       83.179416    
   2381000   1.0329859      17.993497      83.078621    
   2382000   1.0076993      17.723293      82.890327    
   2383000   0.98915446     17.65257       82.829092    
   2384000   1.0031256      17.466658      82.781137    
   2385000   0.98775518     17.808371      82.69408     
   2386000   1.0471893      17.713679      82.73174     
   2387000   1.0071349      17.821625      82.936117    
   2388000   0.97516833     17.752271      82.787641    
   2389000   0.95141493     17.238537      82.797359    
   2390000   1.0267243      17.119498      82.804648    
   2391000   0.97604974     17.580994      82.847856    
   2392000   0.98954353     17.23925       82.574299    
   2393000   0.97260149     16.968411      82.287048    
   2394000   1.0235206      17.841371      82.213344    
   2395000   1.0135439      17.464309      82.122538    
   2396000   1.0135296      17.818913      81.866054    
   2397000   0.99453361     17.081017      82.011862    
   2398000   0.97468419     17.452999      81.947931    
   2399000   0.98997826     17.39345       82.043428    
   2400000   1.0258856      17.273957      82.108467    
   2401000   0.9733053      17.72806       81.959254    
   2402000   1.0144451      18.065596      81.823501    
   2403000   0.97778519     18.300825      81.782361    
   2404000   1.0103859      17.642596      81.570477    
   2405000   0.98674485     17.492086      81.264443    
   2406000   1.0063436      17.842834      81.060193    
   2407000   0.95856327     17.904878      80.775102    
   2408000   0.98383882     17.139312      80.700657    
   2409000   0.99520349     17.886208      80.626781    
   2410000   1.0225387      17.804466      80.64839     
   2411000   0.99812987     18.341345      80.630515    
   2412000   1.0279354      17.82322       80.799445    
   2413000   0.9674741      17.606748      81.02471     
   2414000   1.0285286      17.790152      80.965936    
   2415000   0.98804452     17.344234      80.847955    
   2416000   1.0260068      17.785198      80.809841    
   2417000   0.95209873     17.704368      80.72922     
   2418000   0.99509496     17.859309      80.641167    
   2419000   1.0534016      16.959477      80.744186    
   2420000   0.98304981     17.613648      80.498991    
   2421000   0.99928696     18.087086      80.430314    
   2422000   0.99577165     17.553721      80.586442    
   2423000   1.0274477      18.127855      80.686012    
   2424000   0.97767799     18.163638      80.692873    
   2425000   1.0189038      17.502167      80.393446    
   2426000   1.0260785      17.590683      80.21076     
   2427000   0.99089332     17.12968       80.340431    
   2428000   1.015282       16.842854      80.341497    
   2429000   1.0343485      17.625664      80.180945    
   2430000   0.99813699     17.287342      79.993376    
   2431000   1.0307357      17.803464      79.774004    
   2432000   0.99477844     17.854728      79.713273    
   2433000   0.98605373     17.41214       79.618613    
   2434000   1.0127287      17.427335      79.431735    
   2435000   1.013275       18.255805      79.181136    
   2436000   1.025939       17.454711      79.174431    
   2437000   0.9838296      17.43576       79.087132    
   2438000   1.0176389      18.123077      78.999944    
   2439000   0.98404557     17.334613      78.901327    
   2440000   0.98249801     17.842866      78.800324    
   2441000   1.0275516      17.820815      78.736733    
   2442000   1.0067599      17.755808      78.627263    
   2443000   1.0223992      17.774305      78.325686    
   2444000   1.0368851      17.626916      78.190747    
   2445000   0.97023964     17.068334      78.163072    
   2446000   0.98678046     17.632672      77.958063    
   2447000   1.0012792      17.990161      77.925649    
   2448000   0.99986149     17.833972      77.857508    
   2449000   1.0392379      18.204651      77.967208    
   2450000   1.0099941      17.871146      77.981106    
   2451000   1.0193134      17.446997      77.978713    
   2452000   0.9847831      17.615705      78.15723     
   2453000   1.0318217      18.057012      78.163473    
   2454000   1.0245394      17.808811      78.099937    
   2455000   1.0112503      17.758049      78.195496    
   2456000   0.95819251     16.964818      78.168964    
   2457000   1.0111093      17.24853       78.113734    
   2458000   0.97147496     17.714244      78.065547    
   2459000   0.96437716     17.185631      78.135635    
   2460000   1.0177415      17.806733      77.908663    
   2461000   0.98393514     16.958008      77.725857    
   2462000   0.98901589     17.010212      77.686462    
   2463000   1.0006967      17.289564      77.512504    
   2464000   1.0534611      16.859088      77.416194    
   2465000   1.0182261      17.229545      77.339537    
   2466000   0.97340685     17.75217       77.239174    
   2467000   1.0049078      18.116503      77.141923    
   2468000   1.0215628      17.683015      76.870218    
   2469000   1.0234538      17.081698      77.020287    
   2470000   0.9606355      17.731533      76.817676    
   2471000   0.98760497     17.535857      76.769572    
   2472000   1.022145       17.792014      76.671819    
   2473000   1.0481973      18.192849      76.517111    
   2474000   0.99506575     17.566758      76.397014    
   2475000   0.98622734     17.943793      76.229249    
   2476000   0.96672789     17.6791        76.56746     
   2477000   1.0078684      17.661623      76.381263    
   2478000   0.99999951     17.049304      76.369748    
   2479000   1.0087872      17.948542      76.267522    
   2480000   0.96219796     17.444735      76.162833    
   2481000   1.0028737      18.134524      75.995214    
   2482000   1.0022629      17.564008      75.834973    
   2483000   0.97835314     17.103756      75.740817    
   2484000   1.0215454      18.503357      75.693638    
   2485000   1.0212465      17.43823       75.673177    
   2486000   1.02028        17.269076      75.635562    
   2487000   0.96516088     17.043715      75.593499    
   2488000   1.0223451      17.741617      75.519954    
   2489000   0.99167227     17.542221      75.414309    
   2490000   0.97348561     17.606935      75.399648    
   2491000   1.0222026      17.423187      75.174551    
   2492000   1.0181469      17.864753      75.233032    
   2493000   1.024192       17.181155      75.228903    
   2494000   1.0504639      17.757204      75.168916    
   2495000   1.0114078      17.13301       75.307022    
   2496000   1.0112684      18.016685      75.199663    
   2497000   1.0038402      18.258749      75.156912    
   2498000   0.97352598     17.203078      75.172489    
   2499000   0.98633744     17.499319      74.9882      
   2500000   1.0092382      18.151417      74.852573    
   2501000   0.99123552     17.090276      74.710637    
   2502000   0.97742769     17.764051      74.82459     
   2503000   1.0382406      17.954753      74.719246    
   2504000   1.0265686      17.385898      74.840575    
   2505000   0.9647627      17.875587      75.024845    
   2506000   1.0005481      17.670254      74.957288    
   2507000   0.97434603     17.590365      74.887759    
   2508000   1.0056271      17.647944      74.960115    
   2509000   0.98043285     17.255253      74.90682     
   2510000   1.0157037      17.774274      74.780425    
   2511000   1.0367854      17.840884      74.671279    
   2512000   1.0211087      17.83094       74.643914    
   2513000   1.0083197      17.268921      74.472262    
   2514000   0.97919372     17.493222      74.414804    
   2515000   1.021551       17.505247      74.274821    
   2516000   0.96969123     17.675215      74.28429     
   2517000   0.98416527     17.504212      74.310075    
   2518000   0.99764457     17.779726      74.223256    
   2519000   1.0182131      17.584296      74.151257    
   2520000   1.0459083      17.619303      74.095329    
   2521000   1.0017482      17.801083      73.975269    
   2522000   1.0072219      16.867503      74.011214    
   2523000   0.9744942      17.795609      73.911047    
   2524000   0.9901171      17.427167      73.88828     
   2525000   1.0139094      17.856404      73.85757     
   2526000   0.94462545     17.222568      73.874571    
   2527000   1.0526215      18.184802      73.69364     
   2528000   0.99183543     18.263695      73.628418    
   2529000   1.0033393      17.573724      73.666548    
   2530000   1.0259015      17.921032      73.576399    
   2531000   1.0039652      17.683073      73.341307    
   2532000   1.0127567      17.860934      73.252002    
   2533000   0.9938426      17.540031      72.940716    
   2534000   0.98391656     17.946062      72.986837    
   2535000   0.93781052     17.505469      73.067215    
   2536000   0.98972856     18.094114      72.849041    
   2537000   1.0024213      17.555369      72.684078    
   2538000   1.0081408      18.222782      72.401176    
   2539000   1.0132731      17.608835      72.279061    
   2540000   0.99563793     17.773403      72.17331     
   2541000   0.9950812      17.426147      71.90071     
   2542000   0.98268332     17.893171      71.797717    
   2543000   1.0365844      17.45598       71.599382    
   2544000   1.0157154      17.558368      71.664228    
   2545000   0.94923426     16.876601      71.65871     
   2546000   0.98583662     17.237475      71.544274    
   2547000   0.99532698     17.055623      71.716896    
   2548000   0.9711482      17.763854      71.577412    
   2549000   0.99748284     17.336487      71.590728    
   2550000   1.0106278      17.55677       71.402395    
   2551000   0.98172931     17.600299      71.612039    
   2552000   0.9803369      17.758862      71.721998    
   2553000   0.99426768     18.087898      71.755547    
   2554000   0.97044227     17.040436      71.806256    
   2555000   0.98757252     17.723289      71.62942     
   2556000   1.0045196      17.700126      71.543317    
   2557000   1.0189995      17.442691      71.48584     
   2558000   0.98451617     17.581459      71.501578    
   2559000   0.99483553     17.257105      71.487317    
   2560000   1.0208958      17.33507       71.485788    
   2561000   0.9557818      17.78768       71.621337    
   2562000   1.0279079      17.940205      71.509202    
   2563000   1.0054971      17.43252       71.295682    
   2564000   1.0415063      17.370885      71.376868    
   2565000   0.96997648     17.539891      71.330097    
   2566000   1.0270895      17.63098       71.449088    
   2567000   1.0557825      17.385861      71.486372    
   2568000   1.0058388      18.298691      71.616539    
   2569000   0.9679741      17.536148      71.564298    
   2570000   0.99130823     17.858115      71.489579    
   2571000   0.99909183     17.548432      71.444554    
   2572000   1.0004998      17.426613      71.553482    
   2573000   1.0058473      16.94208       71.787757    
   2574000   0.99911081     17.152025      71.680718    
   2575000   0.99124886     17.195369      71.8032      
   2576000   1.0062028      17.111672      71.559405    
   2577000   0.98247192     17.203083      71.348721    
   2578000   0.98436028     17.962931      71.282691    
   2579000   0.97530632     17.537626      71.210504    
   2580000   0.96943098     17.641946      71.131809    
   2581000   0.99662794     17.243089      70.970891    
   2582000   1.0231586      17.540987      70.765587    
   2583000   1.0508746      17.506236      70.953819    
   2584000   1.0418862      17.787184      70.903898    
   2585000   0.98235033     17.48141       70.986836    
   2586000   0.98057135     17.777046      70.763731    
   2587000   0.98408557     17.456539      70.321218    
   2588000   1.0100238      17.337524      70.370847    
   2589000   0.98856387     17.528974      70.260328    
   2590000   0.97681512     17.135634      70.134974    
   2591000   0.99564656     17.402149      70.002593    
   2592000   0.98775573     17.271122      69.794376    
   2593000   1.0007392      17.534365      69.655762    
   2594000   1.0097524      17.902048      69.556642    
   2595000   1.0244322      17.274869      69.439237    
   2596000   0.95690266     17.578413      69.381152    
   2597000   1.0082209      16.993492      69.369535    
   2598000   0.97641246     17.534048      69.285331    
   2599000   0.99676433     17.61944       69.306439    
   2600000   0.99583422     17.281877      69.252406    
   2601000   1.0236387      17.461131      69.275512    
   2602000   0.96817683     17.574481      69.421966    
   2603000   0.99375431     18.088548      69.478804    
   2604000   1.0193636      16.938666      69.622983    
   2605000   0.99587035     17.714584      69.689835    
   2606000   0.99582266     17.813111      69.885723    
   2607000   1.0683345      17.518169      70.033272    
   2608000   0.98016731     17.517434      69.991989    
   2609000   1.0008592      17.461788      70.148916    
   2610000   1.0224229      17.308434      70.154236    
   2611000   1.0051147      17.337483      70.058894    
   2612000   0.9664169      17.461859      69.917696    
   2613000   1.0257505      17.599106      69.745925    
   2614000   0.99378172     17.325402      69.541118    
   2615000   0.97601334     17.708708      69.298405    
   2616000   0.98934788     17.31082       69.045944    
   2617000   0.95335783     17.663591      68.950521    
   2618000   0.99153693     17.362604      68.881085    
   2619000   0.96712909     17.589769      68.851193    
   2620000   1.0505163      17.714396      68.830554    
   2621000   0.97559936     17.983196      69.023112    
   2622000   0.96013254     17.520109      68.978576    
   2623000   1.0222353      18.165411      68.807568    
   2624000   1.0060493      17.861729      68.795709    
   2625000   1.0052262      17.436765      68.547283    
   2626000   1.0105551      17.188613      68.54014     
   2627000   1.0286854      17.33449       68.821765    
   2628000   0.95489121     17.565872      68.50144     
   2629000   0.98783761     17.004972      68.612735    
   2630000   1.0342665      17.379787      68.497953    
   2631000   1.008414       17.188017      68.429945    
   2632000   1.0347233      17.517144      68.388786    
   2633000   0.98807765     17.180227      68.437282    
   2634000   0.97214575     16.846562      68.350088    
   2635000   1.0391785      18.030725      68.071114    
   2636000   0.96930286     17.708746      68.096998    
   2637000   1.0069492      17.909881      68.127896    
   2638000   1.0507002      17.181525      68.219919    
   2639000   1.0038688      17.605254      68.076641    
   2640000   0.99563155     17.609036      67.851598    
   2641000   0.97736817     17.110819      67.808919    
   2642000   0.9878291      17.237888      67.557351    
   2643000   1.0189771      17.682023      67.46171     
   2644000   1.0037969      17.606825      67.512117    
   2645000   1.0116096      17.980549      67.437831    
   2646000   0.98983486     17.743182      67.327936    
   2647000   0.99806602     17.402015      67.47253     
   2648000   0.99859436     17.106494      67.291975    
   2649000   1.0412593      17.566698      67.212767    
   2650000   1.0002917      17.959791      67.030287    
   2651000   0.98635195     17.714771      67.128231    
   2652000   1.0078676      17.248419      66.985269    
   2653000   1.0253378      17.949046      66.855813    
   2654000   1.0005503      17.616703      66.863429    
   2655000   1.0314519      16.924511      66.888242    
   2656000   0.9972498      17.537035      67.010362    
   2657000   1.028452       17.373811      66.997396    
   2658000   1.0099046      17.335879      66.951193    
   2659000   1.0185863      18.012505      66.979019    
   2660000   1.0349814      17.392417      66.886625    
   2661000   0.99138813     17.512575      66.712359    
   2662000   1.0036198      17.494931      66.730049    
   2663000   1.0553448      16.791044      66.609647    
   2664000   1.0193504      17.390064      66.366578    
   2665000   0.97981654     17.155239      66.136618    
   2666000   1.0522243      17.064428      66.078699    
   2667000   1.0041576      18.415915      66.224378    
   2668000   0.97464807     17.538042      66.236958    
   2669000   0.98431027     17.373857      66.225725    
   2670000   0.99840922     17.700456      66.381997    
   2671000   1.0509557      17.25343       66.265873    
   2672000   0.99587106     17.056271      66.250058    
   2673000   1.0034531      17.137584      65.916875    
   2674000   1.020776       17.448332      65.680408    
   2675000   1.0063194      17.904341      65.458632    
   2676000   1.0096669      17.435902      65.208638    
   2677000   1.0545434      17.576077      65.116947    
   2678000   0.97417197     17.543551      64.915479    
   2679000   0.99436243     17.728518      64.622078    
   2680000   1.0035936      18.456402      64.704877    
   2681000   1.0176564      18.151978      64.839004    
   2682000   1.0626739      17.602535      64.763748    
   2683000   1.008929       17.500173      64.766813    
   2684000   1.0090866      17.601843      64.544055    
   2685000   1.0040642      18.012         64.284154    
   2686000   1.0141142      16.96857       64.001903    
   2687000   1.0162695      18.015855      63.812263    
   2688000   0.98337184     17.339592      63.613184    
   2689000   1.0228644      17.663712      63.799308    
   2690000   0.9724354      17.653809      63.676082    
   2691000   1.0021408      18.195228      63.433919    
   2692000   0.99937157     17.896835      63.4982      
   2693000   1.0172901      17.355642      63.253141    
   2694000   1.0163079      18.056054      63.156969    
   2695000   1.0114114      17.329049      63.102949    
   2696000   0.98056951     17.602208      62.941837    
   2697000   0.98627243     17.346061      62.736136    
   2698000   1.0168583      17.095914      62.751913    
   2699000   1.0044423      17.554991      62.593957    
   2700000   1.0091727      17.405677      62.538031    
   2701000   1.0043509      17.966858      62.264232    
   2702000   1.0033356      17.49519       62.28295     
   2703000   1.0185775      17.858571      62.17517     
   2704000   1.0321453      17.319405      62.135532    
   2705000   1.027942       17.662288      62.083084    
   2706000   1.009259       17.597911      62.088802    
   2707000   1.0110794      17.755155      62.15304     
   2708000   1.0113249      17.334578      61.991097    
   2709000   1.0154181      17.585909      62.170483    
   2710000   0.96903008     17.657558      62.204892    
   2711000   0.99521243     17.166939      62.310702    
   2712000   0.98717009     17.906985      62.138419    
   2713000   0.96496357     17.414488      61.944755    
   2714000   1.0205489      17.455046      61.794514    
   2715000   1.0167101      17.942449      61.742089    
   2716000   1.015804       17.569718      61.584373    
   2717000   0.96745061     16.763687      61.64778     
   2718000   1.0089279      17.446421      61.49676     
   2719000   1.001997       17.411594      61.368095    
   2720000   0.98490251     17.495536      61.068921    
   2721000   1.0097877      17.902565      61.019028    
   2722000   1.0253745      17.851612      60.893642    
   2723000   0.98963509     17.511393      60.752843    
   2724000   1.0113372      17.559374      60.704723    
   2725000   1.0331294      17.61554       60.545564    
   2726000   1.0105412      17.415183      60.381782    
   2727000   0.98638355     17.303589      60.364821    
   2728000   0.98048724     17.111649      60.094679    
   2729000   0.97908737     17.713314      59.931547    
   2730000   1.0461872      18.037884      59.803641    
   2731000   0.99322154     17.970215      59.68324     
   2732000   0.96927775     17.656256      59.744534    
   2733000   1.0398115      17.849769      59.87765     
   2734000   0.98506705     17.560074      59.98447     
   2735000   1.0035291      17.512579      59.936844    
   2736000   1.0120881      17.443429      59.921964    
   2737000   0.9882483      17.166442      59.598324    
   2738000   1.0233168      17.800703      59.508523    
   2739000   1.0217571      17.472056      59.4078      
   2740000   1.0121713      17.184033      59.208553    
   2741000   0.97630321     17.335041      59.251171    
   2742000   1.0280355      17.357384      59.158622    
   2743000   0.99642463     17.759882      59.048352    
   2744000   0.98517439     17.576658      58.840241    
   2745000   1.0045744      17.202275      58.688984    
   2746000   1.0039528      17.578533      58.570631    
   2747000   1.0482862      17.528901      58.485854    
   2748000   1.0145694      17.293269      58.417173    
   2749000   1.0218563      17.508037      58.305383    
   2750000   1.0799371      17.100912      58.26366     
   2751000   1.0047754      17.216342      58.166359    
   2752000   0.96902219     17.421849      58.130856    
   2753000   1.0133153      17.4437        57.91963     
   2754000   1.0089099      17.394616      57.918872    
   2755000   1.0014107      17.713814      57.688909    
   2756000   0.98193702     17.976667      57.46556     
   2757000   0.97685826     17.543338      57.296415    
   2758000   1.000461       17.608817      57.196352    
   2759000   0.9967473      17.105947      57.31732     
   2760000   1.0203238      17.103826      57.164992    
   2761000   1.0293474      17.48234       57.344988    
   2762000   0.99113233     17.390459      57.454858    
   2763000   1.0267619      17.310212      57.22214     
   2764000   1.0391923      17.579005      57.282978    
   2765000   0.95646258     17.105684      57.107789    
   2766000   0.97615874     17.247072      57.033586    
   2767000   1.0031497      17.720228      56.820239    
   2768000   1.0106096      17.837066      56.665938    
   2769000   1.014472       17.494425      56.634735    
   2770000   1.0484752      17.483463      56.570444    
   2771000   0.99004296     17.49622       56.621226    
   2772000   0.99604064     17.713901      56.392277    
   2773000   1.0063824      17.48061       56.332599    
   2774000   0.96675161     16.926055      56.150337    
   2775000   1.023392       17.416758      56.161004    
   2776000   0.99867606     17.266097      56.092168    
   2777000   1.0113777      17.918452      55.832067    
   2778000   1.0009794      17.391697      55.846281    
   2779000   0.98379123     17.62895       55.81984     
   2780000   0.99429459     17.445759      55.972993    
   2781000   1.0012364      17.651668      56.17693     
   2782000   0.98105919     17.497381      55.878701    
   2783000   0.96748877     17.469358      55.694454    
   2784000   0.98070582     17.569855      55.485844    
   2785000   0.98029045     16.856103      55.31571     
   2786000   1.0399477      17.453358      55.240994    
   2787000   1.0341499      17.918504      55.411685    
   2788000   1.0043029      17.270866      55.510008    
   2789000   0.9698762      17.617555      55.545081    
   2790000   1.04289        17.728389      55.678393    
   2791000   0.97379001     17.821895      55.677263    
   2792000   0.98204359     17.213407      55.711599    
   2793000   1.0000053      17.544657      55.65943     
   2794000   1.0163795      17.429544      55.668299    
   2795000   1.0202322      17.378108      55.678065    
   2796000   0.97817836     17.322857      55.628748    
   2797000   0.99971559     17.787651      55.628602    
   2798000   1.0007906      17.166558      55.820083    
   2799000   1.0118003      17.216995      55.653858    
   2800000   0.97739091     17.866         55.579629    
   2801000   0.96596839     17.229573      55.267031    
   2802000   0.99555368     16.763632      55.448071    
   2803000   0.98528247     17.439308      55.614865    
   2804000   1.0138199      17.545563      55.306033    
   2805000   1.0104348      17.434406      55.427895    
   2806000   0.9963489      17.149299      55.467613    
   2807000   0.9970471      17.614695      55.461072    
   2808000   0.96392355     17.395245      55.332972    
   2809000   0.96405556     16.423343      55.279107    
   2810000   0.98703206     17.390778      55.225083    
   2811000   0.97551465     16.816529      55.221351    
   2812000   1.020797       17.841692      55.299565    
   2813000   1.0251569      17.107958      55.204429    
   2814000   1.0074287      17.347489      55.21695     
   2815000   0.99909507     17.876724      54.985655    
   2816000   1.0042161      16.858116      54.93918     
   2817000   1.0197639      17.309327      54.752229    
   2818000   1.0011053      17.919778      54.544829    
   2819000   1.0245627      17.134826      54.442219    
   2820000   1.0246947      17.68436       54.329167    
   2821000   0.99730247     17.038533      54.333159    
   2822000   1.0153146      17.435511      54.333857    
   2823000   0.97177619     17.152227      54.312232    
   2824000   0.98001152     17.638714      54.261839    
   2825000   1.0222734      17.549689      54.117004    
   2826000   1.0189586      17.513189      54.024625    
   2827000   1.0125438      17.395696      53.967236    
   2828000   0.9731006      17.729602      53.995221    
   2829000   1.0656279      17.558194      53.893875    
   2830000   1.0213125      17.084327      53.829813    
   2831000   1.0230476      17.210574      53.957043    
   2832000   0.95949379     16.768072      54.067624    
   2833000   0.99004763     17.600865      53.85038     
   2834000   1.0151691      17.661878      53.86917     
   2835000   0.99547701     16.92801       53.666681    
   2836000   1.0123783      17.341692      53.777509    
   2837000   0.99622831     17.271864      53.611872    
   2838000   1.0120545      17.570639      53.474934    
   2839000   1.0184619      17.644876      53.418505    
   2840000   1.0091711      17.332704      53.196829    
   2841000   0.97803497     17.148002      53.088877    
   2842000   0.99728668     17.279247      53.139894    
   2843000   0.96989946     17.769583      52.938246    
   2844000   1.0217982      17.529494      53.031782    
   2845000   0.95184751     17.840568      52.794298    
   2846000   1.0524443      17.575152      52.699093    
   2847000   1.0041268      17.642657      52.582573    
   2848000   1.0577255      17.442617      52.368744    
   2849000   0.98732461     17.624169      52.418707    
   2850000   0.99650576     17.315718      52.489163    
   2851000   0.98378385     17.340144      52.430468    
   2852000   1.0252083      17.636763      52.272297    
   2853000   0.94183844     17.671111      52.154281    
   2854000   0.95743747     17.225898      52.177756    
   2855000   1.0087263      17.223054      52.135717    
   2856000   0.97039498     16.995429      52.137632    
   2857000   0.99967478     17.366454      52.214132    
   2858000   0.97544104     17.504225      52.239061    
   2859000   0.9935583      17.644349      51.909813    
   2860000   0.99776744     17.028479      52.067956    
   2861000   0.97988205     17.227413      52.024881    
   2862000   0.99811959     16.881851      52.078802    
   2863000   1.0157822      17.94767       51.960163    
   2864000   1.0243733      17.574748      51.872441    
   2865000   1.0281252      17.281362      51.846068    
   2866000   1.0029626      18.259174      51.883464    
   2867000   1.0401942      17.414312      51.821401    
   2868000   1.011382       17.341798      51.612809    
   2869000   0.95774531     17.580213      51.371265    
   2870000   1.0348096      17.886855      51.400972    
   2871000   1.0496383      17.324354      51.380432    
   2872000   0.98080592     17.787646      51.507986    
   2873000   1.0360792      17.584919      51.605633    
   2874000   0.97603843     17.391949      51.648333    
   2875000   1.0135647      17.375078      51.54401     
   2876000   1.0472047      17.606645      51.50901     
   2877000   0.97903565     17.278447      51.39897     
   2878000   0.99774662     17.519216      51.401601    
   2879000   1.030124       17.76337       51.350698    
   2880000   0.98894312     17.570788      51.18115     
   2881000   1.0127671      18.215813      51.093096    
   2882000   1.0452229      17.002475      50.802569    
   2883000   0.9351089      17.433285      50.76931     
   2884000   0.97914646     17.286378      50.702497    
   2885000   1.007397       16.740262      50.75993     
   2886000   0.99358024     17.569317      50.709092    
   2887000   0.98990165     16.917782      50.67737     
   2888000   1.0262712      17.458245      50.701697    
   2889000   0.98826172     17.403509      50.569075    
   2890000   0.95739321     17.063701      50.664634    
   2891000   1.0093689      17.411447      50.636272    
   2892000   1.0416091      17.050779      50.5227      
   2893000   1.0091832      17.426744      50.595222    
   2894000   1.0151607      17.270441      50.538405    
   2895000   1.0307334      17.804946      50.453554    
   2896000   0.99414279     17.965627      50.452351    
   2897000   0.96090851     17.336728      50.182609    
   2898000   0.9799765      17.148931      50.20927     
   2899000   1.0117093      17.059956      50.094648    
   2900000   1.0468965      17.94261       49.88983     
   2901000   0.96681601     17.141832      49.847752    
   2902000   1.0268036      17.730673      49.660939    
   2903000   0.99134537     16.982254      49.686169    
   2904000   0.95428854     17.206405      49.844114    
   2905000   0.9676915      17.249292      49.865994    
   2906000   0.99632884     17.539395      49.885974    
   2907000   1.0226044      17.272453      49.880234    
   2908000   1.0372956      17.562116      49.801081    
   2909000   1.0146758      17.199983      49.781986    
   2910000   0.98382126     16.946132      49.65937     
   2911000   1.01191        17.680233      49.607572    
   2912000   0.99890202     17.01293       49.451319    
   2913000   0.9968975      16.898318      49.522538    
   2914000   1.0186223      17.306241      49.457509    
   2915000   1.0345244      17.664585      49.271652    
   2916000   1.0162297      16.661735      49.169789    
   2917000   1.0143758      17.461367      49.039256    
   2918000   0.98802576     17.74082       49.005503    
   2919000   1.0230364      17.613498      48.819634    
   2920000   1.0358169      17.414793      48.801613    
   2921000   0.95206232     17.658459      48.499877    
   2922000   1.023776       17.441379      48.390452    
   2923000   0.99517143     16.999724      48.236986    
   2924000   0.95451349     17.395665      48.115413    
   2925000   1.0427953      17.394951      48.0836      
   2926000   0.9850548      17.571668      47.966675    
   2927000   0.96651835     17.951298      47.997122    
   2928000   0.96364856     17.183096      47.873991    
   2929000   1.0086056      17.684729      47.883617    
   2930000   1.0003596      17.538665      47.744906    
   2931000   1.0080954      17.237044      47.606487    
   2932000   0.97212512     18.010769      47.629824    
   2933000   1.0004646      17.511959      47.522774    
   2934000   0.96775732     17.037983      47.431709    
   2935000   0.97710775     17.57818       47.187166    
   2936000   0.97897666     17.82028       46.958064    
   2937000   0.98443089     16.720432      46.826586    
   2938000   1.0066931      17.060203      46.796496    
   2939000   1.0307542      16.93922       46.789655    
   2940000   1.0220812      17.280749      46.602097    
   2941000   0.98359066     17.276098      46.689902    
   2942000   1.0141873      17.320469      46.460461    
   2943000   1.0051912      17.897306      46.276254    
   2944000   0.9968942      17.180311      46.27479     
   2945000   1.0048677      17.405649      46.197609    
   2946000   1.0379252      17.274232      46.073389    
   2947000   1.0252891      17.713339      45.859802    
   2948000   0.95438105     16.777192      45.682771    
   2949000   0.99092594     17.448369      45.711703    
   2950000   1.0360005      17.42355       45.507521    
   2951000   0.98609615     17.003325      45.3876      
   2952000   1.0278845      17.363067      45.311405    
   2953000   1.0068818      17.758558      45.478395    
   2954000   0.9461173      17.417724      45.242239    
   2955000   0.99581946     17.45821       45.149624    
   2956000   0.97105269     17.075627      44.93273     
   2957000   1.0201874      17.217492      44.918173    
   2958000   1.0020198      16.995978      44.594211    
   2959000   1.011723       17.594304      44.72709     
   2960000   1.0162016      17.752926      44.648053    
   2961000   1.0272563      16.953464      44.652565    
   2962000   1.0207921      17.620163      44.680896    
   2963000   1.0263105      17.488761      44.77432     
   2964000   0.97254995     17.245668      44.800276    
   2965000   0.94327172     17.097283      44.541041    
   2966000   0.98104978     17.290699      44.451679    
   2967000   1.0007999      17.251027      44.28908     
   2968000   0.99915374     17.576483      44.020961    
   2969000   1.0262796      17.355649      43.840794    
   2970000   0.99338115     17.209226      43.736226    
   2971000   1.0090184      17.569659      43.605293    
   2972000   1.0223268      17.787202      43.52247     
   2973000   1.0289876      17.4259        43.514211    
   2974000   1.0193866      17.394539      43.359745    
   2975000   1.0123828      17.293473      43.637037    
   2976000   0.98617877     17.599932      43.631683    
   2977000   0.99246592     17.543007      43.519954    
   2978000   1.0278528      17.448185      43.261647    
   2979000   1.02095        17.363982      43.155501    
   2980000   1.0003221      16.458855      43.001794    
   2981000   1.04251        17.403788      42.791876    
   2982000   0.96417044     17.505921      42.690197    
   2983000   0.99800258     17.518388      42.5569      
   2984000   1.0037351      17.496627      42.315998    
   2985000   1.0153632      17.213874      42.438891    
   2986000   1.020844       17.411724      42.296355    
   2987000   0.98980793     17.33419       42.241791    
   2988000   1.0213128      17.519676      42.136133    
   2989000   1.0235736      17.493778      42.052617    
   2990000   1.0060575      17.429705      41.854358    
   2991000   0.96634798     17.699822      41.687412    
   2992000   0.984038       16.854738      41.64774     
   2993000   0.98079071     17.138398      41.395329    
   2994000   0.97218402     17.533128      41.36531     
   2995000   0.99836753     17.281772      41.356015    
   2996000   1.0003718      17.134352      41.034932    
   2997000   1.0222064      17.63999       40.979012    
   2998000   0.97072401     17.728737      41.08623     
   2999000   0.99163621     17.396873      41.170428    
   3000000   1.0097449      17.486029      41.120382    
   3001000   1.0109908      17.268113      41.127259    
   3002000   1.0084391      17.470351      41.011737    
   3003000   1.0019937      17.571021      40.997975    
   3004000   1.0210868      17.5556        41.07691     
   3005000   1.0194982      17.199615      41.077377    
   3006000   1.0061454      17.263378      41.147001    
   3007000   1.0246774      17.625156      41.083597    
   3008000   0.99560883     17.391574      41.136684    
   3009000   0.96553271     17.433525      41.115303    
   3010000   1.0049922      17.679903      41.196279    
   3011000   0.98138484     17.364928      41.11339     
   3012000   1.0125806      17.085191      41.102963    
   3013000   1.0281076      17.430587      41.030776    
   3014000   1.0007736      16.893244      41.042391    
   3015000   1.037949       17.207134      41.100862    
   3016000   1.0325338      16.955338      41.066495    
   3017000   1.0410081      17.167228      41.216211    
   3018000   0.9777481      17.237734      41.156028    
   3019000   1.0237456      16.974545      41.154556    
   3020000   1.0055679      16.849797      40.9782      
   3021000   0.99540058     17.228988      41.06311     
   3022000   1.0015714      17.178652      41.079125    
   3023000   0.95033717     17.716323      40.908925    
   3024000   1.0487519      16.585716      40.703159    
   3025000   1.0122487      17.526279      40.696975    
   3026000   1.0249272      17.490795      40.874756    
   3027000   1.0234888      17.446674      40.745039    
   3028000   0.99314971     17.070455      40.665822    
   3029000   1.0287009      17.799035      40.579528    
   3030000   1.0358211      17.655825      40.620174    
   3031000   0.96675518     16.859759      40.490975    
   3032000   0.96175579     17.222233      40.466907    
   3033000   0.96968447     17.81183       40.420924    
   3034000   0.94492528     17.5164        40.592346    
   3035000   1.0328021      16.605187      40.702089    
   3036000   0.96423436     17.540152      40.539436    
   3037000   0.96816617     17.576769      40.282436    
   3038000   1.0073577      17.781209      40.245451    
   3039000   0.98256723     17.046617      40.157993    
   3040000   0.99186063     17.168393      40.075534    
   3041000   0.99308352     17.257876      40.040288    
   3042000   0.99932044     16.996823      40.304505    
   3043000   0.98651229     17.485066      40.291751    
   3044000   0.98335965     17.168525      40.15472     
   3045000   1.0025489      17.617359      40.279102    
   3046000   0.98502833     16.481858      40.257772    
   3047000   0.94040693     18.093537      40.069814    
   3048000   1.0080417      17.174905      39.917824    
   3049000   0.97074958     17.076654      39.947292    
   3050000   1.0304238      17.544941      39.821079    
   3051000   1.0376918      17.341199      39.84156     
   3052000   1.0634471      17.062687      39.613755    
   3053000   1.001312       17.728226      39.561735    
   3054000   1.0080144      17.204469      39.550793    
   3055000   1.0291269      17.436105      39.538089    
   3056000   1.0372094      17.419282      39.386707    
   3057000   1.0093036      17.781523      39.230618    
   3058000   1.00091        17.358198      39.118825    
   3059000   0.9991866      17.83323       39.120104    
   3060000   0.96424036     17.054881      38.942061    
   3061000   1.0006793      17.337306      38.837039    
   3062000   0.96578635     17.419806      38.915877    
   3063000   0.92935108     17.630981      38.794512    
   3064000   0.99213624     17.099437      38.887186    
   3065000   0.97657624     17.055172      39.107156    
   3066000   1.0203136      17.153727      39.228997    
   3067000   0.96024152     17.515567      39.224652    
   3068000   0.95391718     17.056637      39.130873    
   3069000   0.9682184      17.559297      39.112856    
   3070000   0.99557115     17.096534      39.056257    
   3071000   1.0110388      17.248487      38.658789    
   3072000   0.96351921     16.872296      38.54374     
   3073000   1.0021986      17.195555      38.345508    
   3074000   0.99483129     16.797148      38.174798    
   3075000   0.96865205     17.009556      38.206092    
   3076000   1.0353441      17.552589      38.087555    
   3077000   0.99621407     17.097361      38.071806    
   3078000   1.0206851      17.28568       38.092931    
   3079000   1.0401333      17.696411      37.879815    
   3080000   1.0033752      17.446942      37.769866    
   3081000   1.0112538      16.982964      37.784248    
   3082000   1.0230958      16.849137      37.5061      
   3083000   1.0044599      17.339808      37.12167     
   3084000   0.99794661     17.188384      37.00533     
   3085000   0.98984931     17.500449      36.986365    
   3086000   0.98738794     17.799486      37.009209    
   3087000   1.0138804      17.493217      36.879435    
   3088000   0.99366384     17.196471      36.893492    
   3089000   1.0072086      16.865272      36.692198    
   3090000   0.95074628     16.992508      36.570657    
   3091000   0.97971566     16.755133      36.575591    
   3092000   0.98438238     17.164041      36.434278    
   3093000   1.0150122      17.622697      36.631018    
   3094000   1.0198101      17.320604      36.506782    
   3095000   1.0208446      17.196445      36.682295    
   3096000   1.0155431      17.567567      36.732856    
   3097000   0.99381337     17.526868      36.798939    
   3098000   0.99871838     17.262929      36.808592    
   3099000   1.0157849      17.38182       36.796809    
   3100000   1.0178957      17.058985      36.87333     
   3101000   1.0197987      16.93969       36.83995     
   3102000   1.0021767      16.967006      36.818493    
   3103000   0.98596522     17.404226      36.559091    
   3104000   1.0359494      17.242645      36.78587     
   3105000   0.97009554     17.432061      36.719794    
   3106000   1.0055794      17.123514      36.810319    
   3107000   0.99710767     17.758904      36.822541    
   3108000   1.028193       17.292121      36.804728    
   3109000   1.0000096      17.36915       36.620651    
   3110000   1.0046816      17.33807       36.68084     
   3111000   0.96287883     17.057765      36.446592    
   3112000   1.019305       17.112841      36.56037     
   3113000   0.98557097     16.661859      36.529777    
   3114000   0.99732838     17.202696      36.334233    
   3115000   1.0131411      17.049405      36.373385    
   3116000   0.98687582     17.400999      36.225301    
   3117000   1.0126289      17.182201      36.208276    
   3118000   1.0437482      17.27936       36.045607    
   3119000   1.0670227      17.34926       36.061205    
   3120000   1.0308367      17.336051      35.89827     
   3121000   0.99067027     17.42976       35.911794    
   3122000   0.96532077     16.847586      36.070777    
   3123000   1.0052267      17.684999      36.136267    
   3124000   1.0549681      17.632396      36.148031    
   3125000   0.9629595      16.98776       36.220089    
   3126000   0.97091393     16.776975      36.163084    
   3127000   0.97535968     17.367409      35.972845    
   3128000   1.0024928      17.23228       35.905526    
   3129000   1.0565516      17.186446      35.491875    
   3130000   0.97892341     16.915777      35.380134    
   3131000   0.95948256     17.03703       35.158029    
   3132000   0.9863768      17.526904      35.334969    
   3133000   0.95278012     17.850656      35.095603    
   3134000   1.0331754      17.864863      34.993134    
   3135000   0.98726323     16.901632      34.925183    
   3136000   1.0015354      17.093567      34.897096    
   3137000   1.0473226      17.204287      34.782822    
   3138000   1.0084105      16.900851      34.650148    
   3139000   0.98379432     17.066697      34.606353    
   3140000   1.0590038      17.351471      34.496826    
   3141000   1.0135394      17.067708      34.451973    
   3142000   1.0271455      17.755443      34.243947    
   3143000   1.0316663      17.315728      34.292528    
   3144000   1.0021094      17.222589      34.073058    
   3145000   0.99630351     17.046767      34.07728     
   3146000   1.0069531      16.823499      34.026565    
   3147000   1.0117415      17.544575      33.979515    
   3148000   0.97996828     17.222664      33.58363     
   3149000   0.99267107     17.433296      33.480626    
   3150000   1.0096303      16.920797      33.427106    
   3151000   0.97978215     17.42894       33.476894    
   3152000   0.99305322     16.53027       33.418226    
   3153000   0.98494856     17.164109      33.257434    
   3154000   0.97223085     17.367845      33.012185    
   3155000   0.97036149     17.680724      32.979648    
   3156000   0.97544973     16.838464      32.563841    
   3157000   0.9828139      17.061495      32.379349    
   3158000   0.98526437     17.138346      32.361465    
   3159000   1.0041883      17.404513      32.263014    
   3160000   1.0066962      17.513951      32.372994    
   3161000   1.0329921      17.542644      32.438529    
   3162000   0.98490321     17.627081      32.605925    
   3163000   1.002012       17.622767      32.54798     
   3164000   1.0246351      17.453159      32.513472    
   3165000   1.004949       17.551153      32.313192    
   3166000   0.99319354     17.116222      32.267645    
   3167000   1.0012174      17.187984      32.038545    
   3168000   1.0457791      16.952612      31.867387    
   3169000   1.0303268      16.773165      32.088246    
   3170000   0.99175365     17.495359      31.938741    
   3171000   1.0063049      17.026717      31.751032    
   3172000   0.99987268     17.066302      31.609601    
   3173000   1.0301403      17.732218      31.563581    
   3174000   1.031264       17.05219       31.464697    
   3175000   1.0056279      17.230413      31.319657    
   3176000   1.038985       17.469567      31.149012    
   3177000   0.98590023     17.400326      30.84739     
   3178000   0.99690462     17.092235      30.89482     
   3179000   1.0263807      17.966349      30.813891    
   3180000   1.0377792      17.207039      30.726759    
   3181000   1.0578309      17.726385      30.608953    
   3182000   1.0001462      16.963809      30.637456    
   3183000   1.0262577      17.127852      30.587048    
   3184000   1.0250957      17.140257      30.40524     
   3185000   0.99020819     17.557557      30.286388    
   3186000   1.0260165      16.755356      30.117478    
   3187000   0.99691025     16.888455      30.157999    
   3188000   1.0329637      16.824416      30.113169    
   3189000   0.96290265     17.0311        30.083049    
   3190000   0.99306334     17.348688      29.953034    
   3191000   1.0207359      17.528675      29.694598    
   3192000   1.0089807      17.892236      29.53005     
   3193000   1.0171473      16.985503      29.564364    
   3194000   1.0141135      17.499353      29.278104    
   3195000   1.048203       17.329529      29.329621    
   3196000   1.0331285      17.666838      29.333604    
   3197000   1.0130282      17.594273      29.234016    
   3198000   1.003158       16.988341      29.261385    
   3199000   1.0576832      16.846632      29.100461    
   3200000   0.96430093     16.959593      29.110118    
   3201000   1.0482517      16.615787      29.035389    
   3202000   0.99533163     16.791251      29.023079    
   3203000   0.99630501     16.88831       28.86125     
   3204000   0.96791966     17.717935      28.775538    
   3205000   0.99371758     17.231473      28.561517    
   3206000   1.0026186      16.849515      28.505404    
   3207000   0.99334267     17.500447      28.428138    
   3208000   1.0416717      16.743353      28.27191     
   3209000   0.95369599     16.696592      28.334173    
   3210000   0.99397222     16.876892      28.096161    
   3211000   1.0072939      17.523734      28.114067    
   3212000   0.98800284     16.971136      28.099888    
   3213000   1.02067        17.047624      27.934819    
   3214000   1.0284544      17.446413      27.811918    
   3215000   0.98309055     17.190524      27.672523    
   3216000   1.0037157      17.810583      27.530785    
   3217000   0.9998208      18.062278      27.547469    
   3218000   0.99764679     17.663017      27.622054    
   3219000   0.96204184     16.262495      27.835353    
   3220000   1.0350518      17.125117      27.73221     
   3221000   0.98648466     17.413378      27.801311    
   3222000   1.0064592      17.836692      27.760437    
   3223000   1.024406       16.86642       27.739579    
   3224000   0.99787791     16.952723      27.59998     
   3225000   1.0042414      16.726112      27.515702    
   3226000   0.94606696     16.67371       27.535877    
   3227000   1.0084881      16.748931      27.326365    
   3228000   1.008873       16.981425      27.270185    
   3229000   1.0440491      17.420687      26.987974    
   3230000   0.98746927     17.437769      26.869568    
   3231000   1.0362691      17.495077      26.744762    
   3232000   0.99153636     16.926932      26.957947    
   3233000   0.95310156     16.994028      26.920837    
   3234000   0.9964118      16.544143      26.834211    
   3235000   1.0341813      17.105187      26.67303     
   3236000   1.0111291      17.262742      26.582966    
   3237000   1.0090468      16.974315      26.51614     
   3238000   0.98735017     17.539411      26.178993    
   3239000   0.99270709     16.922356      26.217508    
   3240000   1.0321647      16.908454      26.199714    
   3241000   0.97372291     17.443047      26.134872    
   3242000   0.98700147     17.256346      26.11023     
   3243000   1.0102972      17.207603      26.253198    
   3244000   1.0094845      17.351947      26.250227    
   3245000   0.95682785     16.525286      26.216068    
   3246000   0.98433352     16.925573      26.28676     
   3247000   0.98752915     16.778734      26.408671    
   3248000   1.0283811      16.987798      26.123173    
   3249000   1.0034501      17.614781      26.141857    
   3250000   1.0324329      16.997606      26.033887    
   3251000   1.0530271      17.285851      25.918103    
   3252000   1.0274486      16.77239       25.950413    
   3253000   0.99190946     17.457264      25.843995    
   3254000   1.0014313      16.850081      25.815971    
   3255000   0.98334555     16.725708      25.637605    
   3256000   0.98436867     16.649336      25.656009    
   3257000   1.0177575      17.211036      25.736708    
   3258000   0.98272716     17.412602      25.563473    
   3259000   0.97959487     17.19337       25.678172    
   3260000   1.001385       16.803972      25.673856    
   3261000   0.98629296     17.502646      25.481232    
   3262000   0.99358082     17.473814      25.282081    
   3263000   0.99615464     17.276585      25.09797     
   3264000   1.0026646      17.136577      24.947026    
   3265000   1.0401224      16.833375      24.994973    
   3266000   1.0068475      16.500151      25.037695    
   3267000   0.99873202     17.172542      24.875425    
   3268000   1.0103111      17.645009      24.713314    
   3269000   0.99173278     17.393806      24.664223    
   3270000   0.94866331     16.996573      24.492804    
   3271000   1.015008       16.940981      24.501261    
   3272000   0.96450148     17.203536      24.457566    
   3273000   0.93585071     17.297934      24.377887    
   3274000   0.99856405     17.432559      24.478078    
   3275000   0.9478859      17.426723      24.412677    
   3276000   1.021575       17.661276      24.545928    
   3277000   0.99411784     16.756653      24.482448    
   3278000   0.97860698     17.15274       24.311178    
   3279000   1.0402034      17.363971      24.044881    
   3280000   0.98696629     17.068075      23.883046    
   3281000   0.95243792     16.669459      23.834405    
   3282000   1.0658765      17.545104      23.694314    
   3283000   1.0455658      16.756682      23.615014    
   3284000   1.0125481      16.717662      23.545315    
   3285000   0.98543895     17.207959      23.477227    
   3286000   0.99143252     17.447225      23.563128    
   3287000   0.99536325     17.232981      23.541931    
   3288000   0.97768197     17.184524      23.364435    
   3289000   0.96925692     17.122793      23.332547    
   3290000   0.98720107     17.320693      23.420236    
   3291000   1.035808       17.670441      23.425959    
   3292000   1.0079429      17.307815      23.551393    
   3293000   1.0286214      17.325291      23.624106    
   3294000   0.99082202     16.636546      23.308171    
   3295000   0.99604442     17.354124      23.242146    
   3296000   0.99737662     17.380269      23.180166    
   3297000   0.96962525     17.598879      22.999955    
   3298000   0.99945393     17.61179       22.975845    
   3299000   1.0408613      17.407813      22.949174    
   3300000   0.99889092     17.531888      22.790796    
   3301000   1.0014803      17.106637      22.622395    
   3302000   0.98042877     17.404429      22.811974    
   3303000   1.024272       16.785093      22.757255    
   3304000   1.0023912      16.921877      22.924684    
   3305000   0.92470715     17.156153      22.924403    
   3306000   0.95997917     16.511269      22.744798    
   3307000   0.99246885     17.258196      22.708378    
   3308000   1.0267764      17.420837      22.62465     
   3309000   0.9877762      16.843817      22.877051    
   3310000   0.99075348     16.766764      22.844336    
   3311000   0.9855565      17.104494      22.744816    
   3312000   0.97519594     17.23609       22.544543    
   3313000   1.0009904      17.119199      22.492998    
   3314000   0.95828341     17.575046      22.401556    
   3315000   1.007636       17.175931      22.505789    
   3316000   1.0165827      17.54768       22.490968    
   3317000   0.94525303     17.374799      22.123711    
   3318000   1.0091899      16.998662      21.874547    
   3319000   1.025409       17.400124      21.966466    
   3320000   1.0378446      17.505948      21.949667    
   3321000   0.99716669     17.594143      21.894693    
   3322000   0.9657271      17.079542      21.669156    
   3323000   0.99146687     17.526643      21.566506    
   3324000   0.97836828     17.169272      21.574072    
   3325000   1.0087072      17.309332      21.481998    
   3326000   0.96576011     16.769064      21.280204    
   3327000   0.96971282     17.003013      21.048765    
   3328000   0.99932697     16.937015      20.841619    
   3329000   1.0200172      17.614754      20.699368    
   3330000   1.0022782      17.291123      20.539108    
   3331000   1.0187172      17.288979      20.294399    
   3332000   1.0045808      17.016531      20.131573    
   3333000   0.97849516     16.757949      20.314839    
   3334000   1.0202673      17.212675      20.282821    
   3335000   1.0484639      17.286816      20.226758    
   3336000   0.98791295     16.529989      20.284359    
   3337000   0.94696227     17.34417       20.22315     
   3338000   1.0312295      17.517877      20.213415    
   3339000   0.95995432     17.176049      20.031611    
   3340000   0.96755996     17.004217      20.07364     
   3341000   1.0246494      17.414703      20.104403    
   3342000   0.99462538     17.426907      20.148662    
   3343000   1.0362935      17.149867      20.192198    
   3344000   0.99634267     16.651943      20.089263    
   3345000   1.0542476      17.266905      19.918794    
   3346000   0.98788882     17.675774      19.910912    
   3347000   1.029312       17.564452      19.938404    
   3348000   0.98058473     17.293907      20.012242    
   3349000   0.97934138     17.362611      19.984265    
   3350000   0.95585009     17.156683      20.056173    
   3351000   1.018074       16.977016      19.932641    
   3352000   1.0355468      17.140724      19.843198    
   3353000   0.9735252      17.435992      19.631768    
   3354000   0.99197113     17.305553      19.571724    
   3355000   0.98795583     17.229454      19.575727    
   3356000   1.0105779      16.751432      19.718741    
   3357000   1.01323        17.526103      19.699386    
   3358000   0.9368282      17.394224      19.600349    
   3359000   1.0012349      17.255563      19.456806    
   3360000   1.0163832      17.043864      19.538598    
   3361000   0.99627422     17.268048      19.774012    
   3362000   0.98350666     16.528712      19.963711    
   3363000   0.99151856     17.438533      19.568821    
   3364000   1.0048004      16.778064      19.679296    
   3365000   1.0036355      16.977236      19.48109     
   3366000   0.96303977     17.034666      19.545148    
   3367000   0.95855262     17.015039      19.477906    
   3368000   1.0180719      16.918332      19.524307    
   3369000   0.96285295     17.162013      19.270985    
   3370000   1.0034741      16.605692      19.357586    
   3371000   1.0002843      16.984001      19.354561    
   3372000   1.0222981      17.194038      19.172223    
   3373000   1.0014832      17.463731      19.135072    
   3374000   1.025882       17.280553      19.176064    
   3375000   0.99478465     17.811196      19.051349    
   3376000   0.99693728     17.627038      18.785318    
   3377000   1.0285767      17.438409      18.744007    
   3378000   1.0113788      16.956084      18.645347    
   3379000   1.0297458      17.077677      18.628611    
   3380000   0.96136071     17.330047      18.570439    
   3381000   0.94856566     17.064313      18.664206    
   3382000   1.0292403      17.23239       18.58584     
   3383000   1.0071058      16.935276      18.612514    
   3384000   1.0274503      17.279707      18.32295     
   3385000   0.93460397     17.358445      18.308965    
   3386000   1.0067368      17.359532      18.393332    
   3387000   1.02811        17.374175      18.221439    
   3388000   1.0026492      17.441289      18.145329    
   3389000   1.0247267      17.617186      17.989123    
   3390000   0.99581996     16.898379      17.729319    
   3391000   1.0190468      17.197812      17.553286    
   3392000   0.98716707     17.235654      17.374127    
   3393000   0.98819822     17.849594      17.373482    
   3394000   1.0134724      17.405379      17.527315    
   3395000   1.0194549      17.553659      17.528056    
   3396000   0.9900926      17.496509      17.39707     
   3397000   0.99573256     17.473217      17.24061     
   3398000   1.0294768      17.089921      17.255087    
   3399000   1.0134298      17.420657      17.204188    
   3400000   0.99579874     17.407778      16.997818    
   3401000   1.0182955      17.390203      16.808037    
   3402000   0.96863115     16.834883      16.640764    
   3403000   1.0049478      17.034457      16.571909    
   3404000   0.99661546     17.267601      16.506829    
   3405000   0.99903801     17.391036      16.572463    
   3406000   0.99332856     16.742403      16.486761    
   3407000   1.0036214      17.128287      16.686147    
   3408000   0.98359875     17.66164       16.750968    
   3409000   0.98557563     17.066076      16.776116    
   3410000   0.99824738     17.230406      16.783383    
   3411000   1.0121035      17.320633      16.650538    
   3412000   0.96627687     16.631163      16.501328    
   3413000   1.0188025      17.02185       16.4445      
   3414000   1.0121613      16.616035      16.301481    
   3415000   1.0018804      17.056061      16.471492    
   3416000   1.0350473      16.645412      16.390774    
   3417000   0.98122218     17.303973      16.313617    
   3418000   0.96988424     17.197113      16.332587    
   3419000   1.0029786      17.063648      16.420826    
   3420000   1.0212716      17.214387      16.546469    
   3421000   1.0285187      17.13234       16.584304    
   3422000   0.97868241     16.500945      16.481634    
   3423000   0.979653       16.994846      16.713383    
   3424000   1.0515629      17.170528      16.455341    
   3425000   0.97931479     16.595773      16.251084    
   3426000   1.0216277      16.829755      16.198973    
   3427000   1.0291481      17.706084      16.448019    
   3428000   1.0098912      17.200521      16.298299    
   3429000   0.98432801     17.747081      16.182127    
   3430000   0.99047459     17.571089      16.102941    
   3431000   1.0044881      17.844425      16.15004     
   3432000   1.0152556      17.545643      15.99816     
   3433000   0.99317412     16.526107      15.919311    
   3434000   1.0715064      17.277628      15.691933    
   3435000   1.030575       17.311532      15.68578     
   3436000   0.99664218     17.081558      15.557414    
   3437000   0.99989568     17.626681      15.513188    
   3438000   0.98507958     16.914896      15.563542    
   3439000   1.0189914      16.792885      15.643502    
   3440000   1.0450135      17.616635      15.473374    
   3441000   1.0160633      16.995794      15.407643    
   3442000   0.99845632     16.98207       15.199704    
   3443000   0.98429061     17.300622      15.298021    
   3444000   1.0225391      16.930937      15.301546    
   3445000   0.97537517     17.573523      15.175662    
   3446000   1.0400757      17.278948      14.993332    
   3447000   0.97907163     16.505453      14.993008    
   3448000   0.9769839      17.545933      14.857624    
   3449000   0.98033243     16.740381      14.930562    
   3450000   0.9747073      17.071105      14.951969    
   3451000   0.99529301     17.192694      14.855258    
   3452000   0.95617236     17.037592      14.695841    
   3453000   1.0092278      16.962077      14.734559    
   3454000   1.0148662      16.944796      14.493308    
   3455000   1.0154534      17.386992      14.511517    
   3456000   0.972364       16.871952      14.417972    
   3457000   0.97160592     16.438957      14.382284    
   3458000   0.99705646     16.947437      14.424584    
   3459000   1.0077842      16.995588      14.531994    
   3460000   0.98999915     17.675316      14.538495    
   3461000   1.0130693      17.360837      14.547834    
   3462000   1.0240967      17.275103      14.484614    
   3463000   0.97540156     16.703576      14.421272    
   3464000   1.0074657      17.19889       14.523471    
   3465000   0.98372998     17.016713      14.408915    
   3466000   1.0306885      17.296823      14.179822    
   3467000   1.0231192      17.505759      14.172469    
   3468000   1.0012964      17.101414      14.161465    
   3469000   0.98730085     17.133245      14.119586    
   3470000   0.97592349     17.192825      13.906397    
   3471000   1.0301135      17.112024      13.622584    
   3472000   0.95945516     17.282942      13.413052    
   3473000   1.0173543      16.867669      13.3454      
   3474000   0.96347006     17.190377      13.343767    
   3475000   1.0048724      17.131931      13.146447    
   3476000   0.99009803     16.898626      12.96286     
   3477000   1.0019355      17.487196      12.986025    
   3478000   1.0132057      17.682481      12.87559     
   3479000   1.006705       17.185685      12.849128    
   3480000   1.0364605      17.157646      13.003086    
   3481000   0.98197272     17.124848      12.947384    
   3482000   1.0409847      16.890882      12.998887    
   3483000   1.0140857      16.883252      12.863061    
   3484000   1.0147792      17.517396      12.614881    
   3485000   0.97336057     17.427638      12.568613    
   3486000   1.0139033      17.048434      12.213986    
   3487000   1.030104       17.296385      12.071717    
   3488000   0.99986236     17.322749      11.916659    
   3489000   1.0246293      17.308993      11.788874    
   3490000   0.99259142     16.950558      11.754231    
   3491000   0.98631299     16.575611      11.631736    
   3492000   0.99876994     17.028857      11.660867    
   3493000   0.99736631     16.814639      11.761186    
   3494000   0.99452884     17.242244      11.744151    
   3495000   1.0064669      17.406338      11.54212     
   3496000   0.93001158     16.583972      11.424961    
   3497000   0.97329531     16.824559      11.283682    
   3498000   1.0144175      16.996158      11.179756    
   3499000   1.0011255      17.411528      11.07185     
   3500000   1.0042635      17.414517      10.850453    
   3501000   1.0060836      17.95403       10.816709    
   3502000   1.0654048      17.202845      10.819074    
   3503000   0.96830043     17.055245      10.826442    
   3504000   1.0075324      16.86533       11.04864     
   3505000   0.97087907     16.913949      10.882332    
   3506000   1.0103336      16.875229      10.830524    
   3507000   0.97147477     17.287701      10.798289    
   3508000   1.0188002      17.109692      10.760084    
   3509000   0.99318414     17.471021      10.673184    
   3510000   0.99222948     16.61692       10.628872    
   3511000   1.006829       17.094653      10.441616    
   3512000   1.0068968      17.119443      10.325536    
   3513000   1.0108465      17.072675      10.291591    
   3514000   1.0184974      17.408462      10.344471    
   3515000   1.023058       17.012039      10.259713    
   3516000   0.97033312     16.90662       10.294997    
   3517000   1.0312978      17.827677      10.275384    
   3518000   1.0632253      17.126524      10.009378    
   3519000   0.94836821     17.046114      9.8669036    
   3520000   1.0370283      17.496455      9.9697811    
   3521000   1.0251599      16.827054      9.9235604    
   3522000   0.98761064     16.798645      10.08501     
   3523000   0.97796885     17.121856      10.155403    
   3524000   0.98481953     17.476032      10.109114    
   3525000   1.0100593      16.846772      10.043955    
   3526000   0.94947733     17.26444       9.9533674    
   3527000   1.0116133      17.246287      9.8416325    
   3528000   1.0261057      17.469161      9.9788642    
   3529000   1.0149249      17.391347      9.8347169    
   3530000   1.0241189      16.84159       9.6337052    
   3531000   0.96816381     16.71851       9.6085308    
   3532000   0.98923089     17.164242      9.6940095    
   3533000   1.0322613      17.488979      9.5475448    
   3534000   0.96550208     16.942941      9.4821535    
   3535000   0.99955761     16.840991      9.3284877    
   3536000   0.99022821     16.57989       9.2042145    
   3537000   1.0329413      17.246841      9.1735936    
   3538000   0.98217148     17.002397      8.8936951    
   3539000   1.0326199      17.494893      8.6831957    
   3540000   1.0322652      16.559162      8.4494465    
   3541000   1.0348079      16.85953       8.3697544    
   3542000   1.047217       17.511173      8.4239733    
   3543000   1.0190657      17.226757      8.2260709    
   3544000   1.0080232      17.067915      8.216105     
   3545000   1.0405453      17.176773      8.0709878    
   3546000   0.97632726     17.270941      8.0109499    
   3547000   1.0228155      16.957987      8.0845569    
   3548000   1.0207137      16.770319      7.8423063    
   3549000   0.98984513     17.312653      7.5731602    
   3550000   0.984021       16.834943      7.4103214    
   3551000   0.984007       17.141351      7.1554835    
Fix halt condition for fix-id 3 met on step 3552000 with value 6.867411899125744 (src/fix_halt.cpp:237)
   3552000   1.0447459      17.454255      6.8674119    
Loop time of 5499.15 on 2 procs for 3452000 steps with 1100 atoms

Performance: 542361.912 tau/day, 627.734 timesteps/s
124.1% CPU use with 1 MPI tasks x 2 OpenMP threads

MPI task timing breakdown:
Section |  min time  |  avg time  |  max time  |%varavg| %total
---------------------------------------------------------------
Pair    | 1001.9     | 1001.9     | 1001.9     |   0.0 | 18.22
Bond    | 80.165     | 80.165     | 80.165     |   0.0 |  1.46
Neigh   | 4222.7     | 4222.7     | 4222.7     |   0.0 | 76.79
Comm    | 1.3468     | 1.3468     | 1.3468     |   0.0 |  0.02
Output  | 8.0568     | 8.0568     | 8.0568     |   0.0 |  0.15
Modify  | 171.43     | 171.43     | 171.43     |   0.0 |  3.12
Other   |            | 13.55      |            |       |  0.25

Nlocal:           1100 ave        1100 max        1100 min
Histogram: 1 0 0 0 0 0 0 0 0 0
Nghost:              0 ave           0 max           0 min
Histogram: 1 0 0 0 0 0 0 0 0 0
Neighs:         248761 ave      248761 max      248761 min
Histogram: 1 0 0 0 0 0 0 0 0 0

Total # of neighbors = 248761
Ave neighs/atom = 226.14636
Ave special neighs/atom = 1.9981818
Neighbor list builds = 33864
Dangerous builds = 0

# This simulation is done
# Move onto the next one
clear
  using 2 OpenMP thread(s) per MPI task
package omp 0
using multi-threaded neighbor list subroutines
next f
jump SELF

###
# Reference paper:
# K. Kremer and G. S. Grest
# Dynamics of entangled linear polymer melts: A molecular-dynamics simulation
# J Chem Phys 92, 5057 (1990)

##################################
# MIHIR: for branched polymers
# LJ minimum first to expand and explore, then collapse
###

###
# Looping through the various linear polymers to simulate,
# define variables to switch through
# variable f index bb100nuc0bl0bn0d30tot100 bb200nuc0bl0bn0d30tot200 bb300nuc0bl0bn0d30tot300 bb400nuc0bl0bn0d30tot400 bb500nuc0bl0bn0d30tot500 bb600nuc0bl0bn0d30tot600 bb700nuc0bl0bn0d30tot700 bb800nuc0bl0bn0d30tot800 bb900nuc0bl0bn0d30tot900 bb1000nuc0bl0bn0d30tot1000 bb1100nuc0bl0bn0d30tot1100 bb1200nuc0bl0bn0d30tot1200
variable f index bb800nuc0bl0bn0d30tot800 bb900nuc0bl0bn0d30tot900 bb1000nuc0bl0bn0d30tot1000 bb1100nuc0bl0bn0d30tot1100 bb1200nuc0bl0bn0d30tot1200
###


###
# Box and units  (use LJ units and periodic boundaries)
###

units lj
log linear/logs3/$f.log
log linear/logs3/bb1200nuc0bl0bn0d30tot1200.log
