#atom_style bond #no stiffness
atom_style angle #with stiffness

boundary        p p p
###
# Pair interactions require lists of neighbours to be calculated
###

#neighbor 0.3 bin
neighbor 4 bin

neigh_modify every 1 delay 1 check yes
atom_modify sort 0 0
### Generate RESTART file, SPECIAL format, not a .txt file ###
### Useful if simulation crashes ###

restart 1000000 linear/restarts3/$f.restart
restart 1000000 linear/restarts3/bb1200nuc0bl0bn0d30tot1200.restart
#############################



### READ "start" data file ###

read_data linear/$f.dat
read_data linear/bb1200nuc0bl0bn0d30tot1200.dat
Reading data file ...
  orthogonal box = (-1000 -1000 -1000) to (1000 1000 1000)
  1 by 1 by 1 MPI processor grid
  reading atoms ...
  1200 atoms
  scanning bonds ...
  1 = max bonds/atom
  scanning angles ...
  1 = max angles/atom
  reading bonds ...
  1199 bonds
  reading angles ...
  1198 angles
Finding 1-2 1-3 1-4 neighbors ...
  special bond factors lj:    0        0        0       
  special bond factors coul:  0        0        0       
     2 = max # of 1-2 neighbors
     2 = max # of 1-3 neighbors
     4 = max # of 1-4 neighbors
     6 = max # of special neighbors
  special bonds CPU = 0.002 seconds
  read_data CPU = 0.071 seconds

######################

### READ "REstart" data file ###

######################



###
# Define groups (atom type 1 is group 'all')
###
group all type 1
1200 atoms in group all


###
# Dump configs - "simple dumpings"
###

###
# Dump configs + box coords
###

dump   1   all   custom   1000  linear/trjs3/$f.lammpstrj  id  x y z  ix iy iz
dump   1   all   custom   1000  linear/trjs3/bb1200nuc0bl0bn0d30tot1200.lammpstrj  id  x y z  ix iy iz
dump_modify   1   format line "%d %.5f %.5f %.5f %d %d %d"

########################################################################


###################################################################
# Stiffness term
#
# E = K * (1+cos(theta)), K>0
#
angle_style   cosine
#change this coefficient to change stiffness (e.g. 1,5,10)
angle_coeff   1 1.0
###################################################################

###################################################################
# Pair interaction between non-bonded atoms
#
#  Lennard-Jones 12-6 potential with cutoff:
#  potential E=4epsilon[ (sigma/r)^12 - (sigma/r)^6]  for r<r_cut
#
#  1.12246 = 2^(1/6) is the minimum of the potential


pair_style      lj/cut 1.12246152962189
#pair_style      lj/cut 3

#
#  pair_modify shift yes adds a constant to the potential such

#  that E(r_cut)=0. Forces remains unchanged.
#

pair_modify     shift yes

#
#  pair_coeff for lj/cut, specify 4:
#    * atom type interacting with
#    * atom type
#    * epsilon (energy units)
#    * sigma (distance units)
#

pair_coeff      1 1 1.0 1.0
###################################################################

###################################################################
# Pair interaction between non-bonded atoms
#
#  soft potential, for PUSHING apart overlapping atoms
#  potential E=A*(1 + cos(pi*r/r_c))
#
#  1.12246 = 2^(1/6) is the cut-off r_c

#pair_style     soft 1.12246152962189

#
#  pair_coeff for soft, specify 3:
#    * atom type interacting with
#    * atom type
#    * A
#
#

#pair_coeff      1 1 100.0
###################################################################

###################################################################
# Pair interaction between bonded atoms
#
# Fene potential + Lennard Jones 12-6:

#
#  E= - 0.5 K R0^2 ln[ 1- (r/R0)^2]
#     + 4epsilon[ (sigma/r)^12 - (sigma/r)^6] + epsilon
#

bond_style   fene


#
# For style fene, specify:
#   * bond type
#   * K (energy/distance^2)
#   * R0 (distance)
#   * epsilon (energy)  (LJ component)
#   * sigma (distance)  (LJ component)
#


special_bonds fene #<=== I M P O R T A N T (new command)
Finding 1-2 1-3 1-4 neighbors ...
  special bond factors lj:    0        1        1       
  special bond factors coul:  0        1        1       
     2 = max # of 1-2 neighbors
     6 = max # of special neighbors
  special bonds CPU = 0.000 seconds

bond_coeff   1   30   2   1.0   1.0


###################################################

###################################################################
# Pair interaction between bonded atoms
#
# Harmonic potential:
#
#  E= K * (R-R0)^2
#

#bond_style   harmonic

#
# For style harmonic, specify:
#   * bond type
#   * K (energy/distance^2)
#   * R0 (distance)
#

#bond_coeff   1   60.0   1.0
#bond_coeff   2   harmonic 0.1   1.0

###################################################
compute 1 all gyration
variable rog equal c_1
#compute 2 all coord/atom cutoff 1.1

#dump 2 all custom 10000 contact_number.dump id c_2


###
# Set up fixes
###
thermo_style   custom   step  temp enthalpy c_1
fix 1 all nve   ###NVE ensemble

fix 2 all   langevin   1.0 1.0 1.0  158102   ###Langevin integrator Tstart Tstop 1/friction rndseed


##### Sample thermodynamic info  (temperature, energy, pressure, etc.) #####
thermo 1000









############################################################################

###
# set timestep of integrator

timestep 0.01

###
# run integration for a number of steps
###
#run 0
#variable r equal c_1
#if "$r < 63.1" then "quit 1"

# lj potential minimum, cause molecule to explore
run 100000
Generated 0 of 0 mixed pair_coeff terms from geometric mixing rule
Last active /omp style is angle_style cosine/omp
Neighbor list info ...
  update: every = 1 steps, delay = 1 steps, check = yes
  max neighbors/atom: 2000, page size: 100000
  master list distance cutoff = 5.1224615
  ghost atom cutoff = 5.1224615
  binsize = 2.5612308, bins = 781 781 781
  1 neighbor lists, perpetual/occasional/extra = 1 0 0
  (1) pair lj/cut/omp, perpetual
      attributes: half, newton on, omp
      pair build: half/bin/newton/omp
      stencil: half/bin/3d
      bin: standard
WARNING: Communication cutoff 5.12246152962189 is shorter than a bond length based estimate of 5.455. This may lead to errors. (src/comm.cpp:723)
Per MPI rank memory allocation (min/avg/max) = 1860 | 1860 | 1860 Mbytes
   Step          Temp         Enthalpy         c_1      
         0   0              13.41568       300.00019    
      1000   0.98290378     18.649844      299.90104    
      2000   0.97638858     18.809177      299.86817    
      3000   1.0183097      18.961455      299.70601    
      4000   0.99152789     19.2652        299.47714    
      5000   1.0142961      19.05951       299.13731    
      6000   0.97783309     18.989553      298.9807     
      7000   1.0159231      18.870079      299.03832    
      8000   1.0254236      18.813191      298.97829    
      9000   1.0246361      18.847901      298.84457    
     10000   1.0172579      19.072909      298.79054    
     11000   1.003558       18.97694       298.65237    
     12000   0.99331139     18.927992      298.28195    
     13000   1.0187908      19.3951        298.02987    
     14000   1.0340876      18.464559      297.86019    
     15000   1.001377       18.674854      297.56474    
     16000   0.99149996     18.994239      297.28052    
     17000   0.95330452     19.082111      297.105      
     18000   1.0075392      19.080172      296.89884    
     19000   1.0500744      19.033985      296.80577    
     20000   0.97297758     18.96513       296.51655    
     21000   1.0170471      18.941779      296.45392    
     22000   1.0003643      18.75238       296.28322    
     23000   0.99296898     19.257634      296.20954    
     24000   1.0537682      18.979525      295.84519    
     25000   1.0064458      19.026092      295.61966    
     26000   1.0661485      19.157478      295.57403    
     27000   1.0317766      19.389245      295.48439    
     28000   1.0075614      19.265842      295.4405     
     29000   0.97059573     18.615387      295.1727     
     30000   1.0319549      19.159479      294.95686    
     31000   1.0261592      19.038353      294.79043    
     32000   1.0279622      19.275502      294.75046    
     33000   0.97509093     18.770906      294.90746    
     34000   0.98880213     18.67583       294.92182    
     35000   0.96510125     18.921537      294.86295    
     36000   1.0221756      19.068008      294.83144    
     37000   0.93869399     18.696505      294.69812    
     38000   0.96546537     18.859322      294.7771     
     39000   1.00442        18.836339      294.6393     
     40000   1.0094289      19.278325      294.38017    
     41000   0.99413485     18.794084      294.04215    
     42000   1.0252858      19.104977      294.21602    
     43000   1.0075795      19.287764      294.13736    
     44000   1.0005272      19.071742      293.83304    
     45000   0.95188734     18.820355      293.48783    
     46000   1.0034498      18.893154      293.36763    
     47000   0.97212554     19.028071      293.04039    
     48000   0.98679698     18.814146      292.84147    
     49000   1.0167589      19.175093      292.64453    
     50000   1.0263736      19.056042      292.70186    
     51000   0.99439885     18.966261      292.63958    
     52000   0.95249109     18.637171      292.37811    
     53000   0.99725252     19.201305      292.13368    
     54000   0.97702066     18.681433      292.21573    
     55000   1.0131691      19.593891      291.93987    
     56000   0.99095278     19.587829      291.90655    
     57000   0.98816535     19.302707      291.74966    
     58000   0.97063261     19.285206      291.64233    
     59000   1.0163796      19.218761      291.49429    
     60000   0.99552995     19.21891       291.30129    
     61000   1.0119291      19.309183      291.39234    
     62000   0.97338187     19.01831       291.40096    
     63000   1.0188309      19.684251      291.10582    
     64000   0.9941236      19.59831       291.08851    
     65000   0.99592031     18.953081      291.1275     
     66000   1.0541678      19.473551      290.94754    
     67000   1.0035706      18.78685       290.72768    
     68000   1.00382        19.369695      290.61934    
     69000   0.99106407     19.161051      290.64114    
     70000   0.99828723     19.232074      290.47402    
     71000   0.94369417     19.287151      290.40031    
     72000   1.0290194      19.110496      290.40746    
     73000   0.98612254     18.702576      290.30025    
     74000   1.0253038      19.4732        290.17486    
     75000   1.0075933      19.571588      289.96122    
     76000   0.97213915     19.077839      289.82446    
     77000   0.97431884     19.159337      289.65528    
     78000   0.98505134     19.616086      289.53938    
     79000   0.9632511      19.475996      289.40344    
     80000   1.0517482      19.441404      289.32168    
     81000   1.0011026      19.163422      289.0611     
     82000   0.97782653     18.753465      288.98686    
     83000   0.99371281     19.123698      289.12146    
     84000   0.9750727      18.986014      289.09801    
     85000   1.0099972      19.445076      288.95931    
     86000   0.97301308     19.462157      288.68739    
     87000   0.9954826      19.126303      288.45871    
     88000   1.0081788      19.050745      288.23249    
     89000   0.95390128     19.107929      288.03369    
     90000   0.95239834     19.214711      287.9606     
     91000   0.99823684     18.900545      287.85211    
     92000   1.0434188      19.402007      287.85398    
     93000   1.0064747      19.40791       287.81374    
     94000   0.99031833     19.215734      287.74921    
     95000   0.98602065     19.725012      287.93339    
     96000   0.97363392     19.124248      287.65477    
     97000   0.97961678     19.173498      287.43841    
     98000   0.98663681     19.495473      287.20027    
     99000   0.99702864     19.14815       286.81054    
    100000   0.97553236     19.270068      286.80176    
Loop time of 350.662 on 2 procs for 100000 steps with 1200 atoms

Performance: 246390.895 tau/day, 285.175 timesteps/s
102.9% CPU use with 1 MPI tasks x 2 OpenMP threads

MPI task timing breakdown:
Section |  min time  |  avg time  |  max time  |%varavg| %total
---------------------------------------------------------------
Pair    | 0.97067    | 0.97067    | 0.97067    |   0.0 |  0.28
Bond    | 2.2691     | 2.2691     | 2.2691     |   0.0 |  0.65
Neigh   | 341.88     | 341.88     | 341.88     |   0.0 | 97.50
Comm    | 0.050283   | 0.050283   | 0.050283   |   0.0 |  0.01
Output  | 0.22536    | 0.22536    | 0.22536    |   0.0 |  0.06
Modify  | 4.9182     | 4.9182     | 4.9182     |   0.0 |  1.40
Other   |            | 0.3497     |            |       |  0.10

Nlocal:           1200 ave        1200 max        1200 min
Histogram: 1 0 0 0 0 0 0 0 0 0
Nghost:              0 ave           0 max           0 min
Histogram: 1 0 0 0 0 0 0 0 0 0
Neighs:           5668 ave        5668 max        5668 min
Histogram: 1 0 0 0 0 0 0 0 0 0

Total # of neighbors = 5668
Ave neighs/atom = 4.7233333
Ave special neighs/atom = 1.9983333
Neighbor list builds = 1073
Dangerous builds = 0

# Replace lj potential, now collapse
pair_style      lj/cut 3

# Cutoff simul when gyration under 5
# Variable created with equal requires v_ + 'name'
fix 3 all halt 1000 v_rog < 7

run 5000000
Generated 0 of 0 mixed pair_coeff terms from geometric mixing rule
Last active /omp style is angle_style cosine/omp
Per MPI rank memory allocation (min/avg/max) = 1860 | 1860 | 1860 Mbytes
   Step          Temp         Enthalpy         c_1      
    100000   0.97553236     18.850864      286.80176    
    101000   0.99729428     18.905291      286.76136    
    102000   0.99977188     18.7462        286.67067    
    103000   0.97793043     18.661942      286.48339    
    104000   1.0134358      18.971817      286.44567    
    105000   1.0000644      18.885211      286.32693    
    106000   0.99359353     19.55931       285.92932    
    107000   1.039494       18.963317      285.83816    
    108000   1.0026829      18.824074      285.84782    
    109000   0.98472473     19.125201      285.62802    
    110000   1.0084984      19.147052      285.36277    
    111000   0.96703242     18.724216      285.34386    
    112000   1.0340068      18.704752      285.28746    
    113000   1.0014209      19.009104      285.23653    
    114000   0.99972438     18.891411      285.07922    
    115000   1.0028898      18.900898      284.7652     
    116000   1.0137326      19.107553      284.72745    
    117000   0.98442385     18.627371      284.73065    
    118000   0.98158334     19.173357      284.48886    
    119000   0.98189419     19.105075      284.33207    
    120000   1.0178152      19.117875      284.25986    
    121000   1.0151577      18.813802      284.13299    
    122000   1.0093128      18.593905      283.91575    
    123000   0.9800558      18.677642      283.73287    
    124000   1.028269       19.18713       283.55338    
    125000   0.99964946     18.858428      283.49255    
    126000   0.97339439     18.92978       283.34502    
    127000   1.0397562      18.899971      283.25339    
    128000   0.97026581     18.985295      283.07989    
    129000   0.99523858     19.290378      282.844      
    130000   1.0040507      18.951881      282.70736    
    131000   0.96435788     19.004324      282.63004    
    132000   0.99681619     18.809596      282.39436    
    133000   1.00019        19.015509      282.35222    
    134000   1.0370032      19.261768      282.24211    
    135000   0.99456784     18.973909      281.83553    
    136000   0.9871298      19.082874      281.69982    
    137000   0.98821509     18.712954      281.58994    
    138000   0.93788201     18.564589      281.29428    
    139000   1.0092209      19.133245      281.14285    
    140000   1.0280947      19.261794      280.90169    
    141000   0.98850059     19.011026      280.62384    
    142000   1.0079509      18.870985      280.40731    
    143000   1.0048452      19.262511      280.38654    
    144000   0.99031959     19.086481      280.07735    
    145000   0.98094627     19.178773      279.96618    
    146000   0.97496865     18.453579      279.99964    
    147000   0.95834054     18.860771      279.93344    
    148000   0.97536105     18.881374      279.85711    
    149000   0.99999807     18.723104      279.59508    
    150000   1.0134426      19.113234      279.45207    
    151000   0.96733781     18.969479      279.43358    
    152000   1.0051535      18.547446      279.19868    
    153000   1.0075745      19.0801        279.27782    
    154000   1.0029193      19.069652      279.19764    
    155000   0.9963554      18.977227      279.13075    
    156000   1.0079267      19.123645      279.06024    
    157000   0.98525574     19.109275      278.9314     
    158000   0.97866528     18.620568      278.88228    
    159000   1.0255608      18.927363      278.79099    
    160000   1.0109062      19.233922      278.76486    
    161000   0.99938044     19.261447      278.64385    
    162000   1.030818       18.955536      278.68792    
    163000   0.99814752     18.882325      278.43609    
    164000   1.0131705      18.982838      278.28904    
    165000   1.0097453      19.171948      278.20933    
    166000   0.9920337      18.876722      277.87036    
    167000   1.0092026      19.160734      277.82802    
    168000   0.99195266     19.164911      277.75012    
    169000   1.0217932      19.025116      277.39163    
    170000   0.95190844     18.571932      277.37781    
    171000   1.0350932      19.150263      277.58716    
    172000   1.0356302      18.736699      277.41998    
    173000   1.0075946      19.041167      277.60172    
    174000   0.99484409     18.729505      277.53924    
    175000   1.018807       19.122247      277.24264    
    176000   0.97037267     18.422822      277.04101    
    177000   1.0209004      19.290928      276.91311    
    178000   1.0121328      18.892873      276.76737    
    179000   1.0087078      18.752943      276.81274    
    180000   0.9852814      18.50504       276.58221    
    181000   0.96725294     18.783923      276.4833     
    182000   0.97993061     18.716465      276.27806    
    183000   0.97762373     18.883645      276.06741    
    184000   1.0063531      19.205435      275.8906     
    185000   0.9898645      18.93219       275.77997    
    186000   0.9930154      19.430045      275.7841     
    187000   1.0194906      18.732844      275.52893    
    188000   0.98096745     19.07475       275.43034    
    189000   0.99971817     19.099229      275.29195    
    190000   0.97593584     18.687815      275.25851    
    191000   0.98965814     18.849144      274.91069    
    192000   0.99939955     18.921199      274.69649    
    193000   1.0296598      18.582228      274.80497    
    194000   0.99873119     18.90489       274.84067    
    195000   1.0135674      18.909727      274.75273    
    196000   0.99632851     19.101846      274.59443    
    197000   0.98383099     19.072931      274.52578    
    198000   0.99680139     18.863054      274.45209    
    199000   0.98406619     19.110783      274.26783    
    200000   0.99416134     18.747646      274.1738     
    201000   0.96949995     18.878117      274.18831    
    202000   1.0459016      18.96174       274.14357    
    203000   1.0101366      18.740728      274.01706    
    204000   1.0057174      18.763403      273.90087    
    205000   1.0542759      19.415753      273.76861    
    206000   1.0012252      19.109855      273.80922    
    207000   0.993768       19.103181      273.66144    
    208000   0.98909282     19.251157      273.40204    
    209000   1.0113436      18.980766      273.17955    
    210000   0.99240674     19.215582      272.85605    
    211000   0.94924273     18.293987      272.87859    
    212000   1.0153631      19.140877      272.6608     
    213000   1.0039202      18.530293      272.27423    
    214000   1.0409729      19.280256      272.28415    
    215000   0.9887479      18.802991      272.20703    
    216000   0.9902371      19.021025      272.13909    
    217000   1.0052006      19.043493      271.96697    
    218000   1.0088615      18.782463      271.90632    
    219000   1.0218484      18.90954       271.84283    
    220000   1.0138412      19.600734      271.68141    
    221000   0.99350462     18.667814      271.48877    
    222000   1.0173717      18.692096      271.51075    
    223000   1.001381       18.973442      271.59642    
    224000   0.98575074     18.704795      271.46154    
    225000   0.96869877     19.089664      271.46818    
    226000   1.0513516      18.853118      271.41996    
    227000   1.0074513      18.655575      271.3786     
    228000   0.98386533     18.892926      271.36514    
    229000   0.99534338     19.061533      271.30043    
    230000   0.97021704     18.811482      271.31461    
    231000   0.97888881     19.165094      271.17078    
    232000   1.0143793      19.29441       271.06553    
    233000   0.95351541     19.027044      270.9929     
    234000   1.016999       18.673114      270.77029    
    235000   0.9929738      19.112263      270.47638    
    236000   0.99631096     19.102621      270.22273    
    237000   1.0539934      18.969266      270.28128    
    238000   1.0267609      18.724032      270.12095    
    239000   1.0149569      18.867719      270.08498    
    240000   1.026051       19.181236      270.01368    
    241000   1.0122872      19.237844      269.83266    
    242000   1.0420272      19.372537      269.77245    
    243000   1.0102752      18.31454       269.75608    
    244000   1.003266       18.638146      269.55403    
    245000   0.99599828     19.126332      269.26679    
    246000   0.95592971     18.728153      269.26381    
    247000   0.97444754     18.639008      269.17614    
    248000   0.9837176      19.037977      269.05442    
    249000   1.0049586      19.160621      268.95703    
    250000   1.0190386      18.560013      268.88316    
    251000   0.97749387     18.899711      268.87972    
    252000   1.0049941      18.892575      268.7313     
    253000   0.97261246     18.371777      268.69654    
    254000   0.99955066     18.971904      268.78688    
    255000   0.99724687     18.904939      268.57063    
    256000   1.0053607      19.128835      268.30008    
    257000   0.99752825     18.599263      268.3112     
    258000   1.003299       18.983644      268.20949    
    259000   1.0243444      18.897565      268.21962    
    260000   1.014437       18.60441       268.22607    
    261000   1.0046263      18.542423      268.29942    
    262000   1.0054328      19.04962       268.10211    
    263000   0.9526651      18.837635      268.07271    
    264000   0.96696923     18.615246      267.94901    
    265000   1.025314       18.68692       267.76181    
    266000   0.98410782     19.176095      267.71513    
    267000   1.0113404      19.001876      267.79235    
    268000   0.95982857     18.96144       267.717      
    269000   0.99732347     18.785329      267.64367    
    270000   1.010394       19.38679       267.5202     
    271000   0.99806777     18.961807      267.36402    
    272000   0.98800639     19.382056      267.24236    
    273000   1.0504527      19.145129      267.2085     
    274000   0.97699867     19.030461      267.21387    
    275000   1.0139522      18.893238      267.17205    
    276000   0.95606964     18.842177      266.90068    
    277000   0.99920991     18.915959      266.76972    
    278000   1.0388087      18.878396      266.58011    
    279000   1.0257961      18.827242      266.41973    
    280000   1.0059117      19.042695      266.36143    
    281000   1.0043607      19.05716       266.27105    
    282000   0.98025726     19.070714      266.37351    
    283000   0.98752308     18.94708       266.34221    
    284000   0.98756046     18.546658      266.30601    
    285000   0.96951632     19.265457      266.10865    
    286000   1.0178639      19.160678      265.79959    
    287000   1.0288023      19.19083       265.74655    
    288000   1.0173032      18.42865       265.54368    
    289000   0.96282752     19.173168      265.58217    
    290000   1.0072169      18.846272      265.49244    
    291000   1.0108846      19.147597      265.20689    
    292000   1.0249205      19.204706      264.95805    
    293000   1.0000986      18.873009      264.8375     
    294000   0.98812804     18.786068      264.61993    
    295000   0.95894743     18.957699      264.42164    
    296000   1.0069074      18.71322       264.38857    
    297000   0.97837316     18.519379      264.23583    
    298000   0.98579344     18.730396      264.12527    
    299000   1.0045786      19.56977       263.92549    
    300000   0.95184199     18.920637      263.86642    
    301000   0.98217777     19.152119      263.5343     
    302000   0.97776605     19.265453      263.35598    
    303000   0.98239652     18.689125      263.32165    
    304000   1.0405806      19.19837       263.23317    
    305000   1.0402019      18.995653      263.13125    
    306000   0.9507052      18.759217      262.72807    
    307000   1.0068126      18.709438      262.51588    
    308000   1.0127047      19.04946       262.48857    
    309000   1.0225014      18.626293      262.29502    
    310000   0.95977765     19.214118      262.26328    
    311000   1.0094234      18.530291      262.15997    
    312000   0.99827064     18.655076      262.12048    
    313000   1.0183979      18.94303       261.98376    
    314000   0.96841832     18.73249       262.05627    
    315000   1.0077686      18.901495      261.88596    
    316000   1.0046024      19.096891      261.74305    
    317000   0.99008407     18.752395      261.51153    
    318000   1.0134387      18.997313      261.47075    
    319000   1.0145278      18.963946      261.47143    
    320000   1.0214504      19.081414      261.27478    
    321000   0.98500952     18.882567      261.17724    
    322000   1.0088209      18.881693      261.01968    
    323000   0.98371449     18.826841      261.05321    
    324000   1.0043072      18.405282      261.05529    
    325000   1.0276463      18.913876      260.98931    
    326000   0.99554431     19.247729      260.97822    
    327000   0.98363187     18.829372      260.96473    
    328000   0.97526991     19.194247      261.01463    
    329000   0.96351874     19.336885      261.03423    
    330000   1.0203909      19.116246      261.01682    
    331000   1.015272       19.18083       260.81535    
    332000   1.0122352      18.674946      260.70065    
    333000   1.0547443      19.369884      260.39486    
    334000   0.98984314     18.988262      260.53168    
    335000   1.016044       18.771086      260.61136    
    336000   1.0222948      18.913155      260.40653    
    337000   1.0379355      19.181757      260.35774    
    338000   1.0054178      18.744491      260.32679    
    339000   1.0237426      19.19184       260.32808    
    340000   1.026296       18.552842      260.38659    
    341000   0.9839799      18.641074      260.31537    
    342000   1.0007933      18.400956      260.26134    
    343000   0.98972069     18.971123      260.36352    
    344000   1.0019419      18.75357       260.29621    
    345000   0.98618306     18.553571      259.94791    
    346000   1.0039834      18.621192      259.86354    
    347000   0.99137241     18.625908      259.75543    
    348000   1.0306419      18.764213      259.69244    
    349000   1.0378882      18.774758      259.73379    
    350000   1.0201405      18.556156      259.73618    
    351000   1.016299       19.37202       259.452      
    352000   1.0213031      18.820474      259.35667    
    353000   1.0507752      19.074377      259.21994    
    354000   0.9811849      18.76968       258.97903    
    355000   0.94802621     18.731222      258.6669     
    356000   0.97235577     18.788353      258.46472    
    357000   0.98322908     18.516007      258.35768    
    358000   0.99202413     19.132088      258.20531    
    359000   1.0021512      19.073399      258.23341    
    360000   0.9576136      18.857161      258.0447     
    361000   0.97354406     18.757794      257.99558    
    362000   0.97908311     18.830503      258.00616    
    363000   1.0070811      19.42576       257.76926    
    364000   1.0021958      19.065192      257.63824    
    365000   1.0043951      19.129949      257.35888    
    366000   0.99662207     19.105146      257.09662    
    367000   0.99522066     18.869717      257.08805    
    368000   0.97703991     18.40408       256.95612    
    369000   1.0451113      19.293303      256.9529     
    370000   0.94785856     19.208783      256.81474    
    371000   1.0164748      18.373493      256.91631    
    372000   1.0132638      18.867149      256.88122    
    373000   1.009826       18.812957      256.74634    
    374000   1.0286244      18.989991      256.39749    
    375000   1.0343388      18.894894      256.15876    
    376000   1.0033693      19.022741      255.90483    
    377000   1.0078516      19.208201      255.59556    
    378000   0.9907149      19.097796      255.49585    
    379000   0.99491195     18.762863      255.38663    
    380000   0.99697803     18.826743      255.46711    
    381000   1.0020718      18.989799      255.50857    
    382000   1.0276561      18.932494      255.57793    
    383000   1.006087       18.834633      255.52392    
    384000   0.9831016      18.967727      255.4827     
    385000   0.97422415     18.849876      255.1559     
    386000   1.0392675      18.741145      255.22891    
    387000   1.0051254      18.929513      255.09315    
    388000   0.9857715      19.393598      254.90278    
    389000   1.0061231      18.510503      254.88565    
    390000   1.0125751      18.738065      254.87626    
    391000   0.99311025     18.726102      254.82853    
    392000   1.0444196      18.592964      254.72544    
    393000   1.052737       18.840355      254.51227    
    394000   1.0540317      18.44811       254.39133    
    395000   0.99055268     18.481093      254.40332    
    396000   0.98732431     18.569432      254.53674    
    397000   0.99921494     18.766758      254.45686    
    398000   1.0242148      18.880014      254.4834     
    399000   0.98754098     18.938225      254.33403    
    400000   0.97366718     18.464409      254.26227    
    401000   0.99749259     18.693488      254.20248    
    402000   1.0229867      19.252006      254.10244    
    403000   0.99689007     18.677858      253.99758    
    404000   1.0024778      19.238931      253.84261    
    405000   0.99114138     18.793199      253.8456     
    406000   1.0283847      18.883141      253.7035     
    407000   0.97439731     18.83328       253.72208    
    408000   0.9756617      18.533591      253.74492    
    409000   0.9899296      18.502431      253.67573    
    410000   1.0177053      18.918011      253.64444    
    411000   0.99289224     18.840831      253.58343    
    412000   0.97888244     19.163387      253.35916    
    413000   0.98833991     18.52882       253.23937    
    414000   1.0555337      18.895266      252.96084    
    415000   1.062578       19.101036      252.83765    
    416000   0.97486508     18.838014      252.82509    
    417000   0.96440177     18.807788      252.63242    
    418000   1.0030918      19.010075      252.37425    
    419000   0.97682469     18.412153      252.18103    
    420000   0.95288081     18.548959      251.99418    
    421000   0.99307791     18.891969      251.77212    
    422000   0.99270613     18.92766       251.67444    
    423000   0.97337357     19.10156       251.58151    
    424000   0.98621949     18.753274      251.56618    
    425000   0.9941088      18.790481      251.44928    
    426000   1.0276259      19.219959      251.23658    
    427000   1.0570995      18.916987      251.37143    
    428000   0.99795952     18.414699      251.45001    
    429000   1.0545245      19.227114      251.35694    
    430000   1.0303894      18.883665      251.13172    
    431000   0.96048437     18.965824      251.08589    
    432000   0.97413313     19.081679      251.11993    
    433000   0.97618941     18.99187       251.31386    
    434000   0.9823554      19.073619      251.08343    
    435000   1.0010704      18.586835      250.79719    
    436000   0.99800604     18.931261      250.69847    
    437000   0.97603972     18.839468      250.4254     
    438000   1.0124012      18.726088      250.25344    
    439000   1.0179781      18.473092      250.10307    
    440000   0.9802968      18.441002      250.0329     
    441000   0.98150666     18.829809      249.93546    
    442000   1.0711239      19.165739      249.65726    
    443000   0.99357528     19.167515      249.58966    
    444000   1.0200024      19.201565      249.5224     
    445000   0.98052811     18.746482      249.42527    
    446000   1.0111594      19.13222       249.28178    
    447000   0.9742952      18.484171      249.22883    
    448000   0.98440919     18.812159      249.06906    
    449000   1.0314241      19.407692      248.95126    
    450000   1.0182652      18.876925      248.95125    
    451000   0.98912066     19.003481      248.90683    
    452000   0.96656651     18.668582      248.9015     
    453000   0.98183294     18.976249      248.90576    
    454000   1.0044855      19.123652      248.66681    
    455000   1.0029202      18.834043      248.5621     
    456000   1.0300858      19.009866      248.41466    
    457000   1.0165766      18.859141      248.32775    
    458000   1.0150018      18.721105      247.98755    
    459000   1.0006927      19.108509      248.01476    
    460000   0.99520885     18.465555      248.07618    
    461000   0.99467493     19.277478      247.84137    
    462000   1.0049351      18.614536      247.83054    
    463000   1.0105652      18.803542      247.52538    
    464000   1.0140946      18.619722      247.42462    
    465000   1.0323065      18.917781      247.44857    
    466000   0.98339644     18.461438      247.27042    
    467000   0.98469383     18.892837      247.17913    
    468000   0.98471741     18.51556       246.97866    
    469000   1.0071353      18.675471      246.85565    
    470000   0.9892725      19.028693      246.56998    
    471000   0.96544306     18.543054      246.33731    
    472000   1.0076633      18.641731      246.2563     
    473000   1.0128164      18.700987      245.88155    
    474000   1.0045827      18.615292      245.87808    
    475000   1.0176929      19.033023      245.76305    
    476000   1.0222135      18.854228      245.81558    
    477000   1.0310901      19.112591      245.77912    
    478000   1.0038844      18.857954      245.6295     
    479000   1.0032002      19.202483      245.43748    
    480000   0.98176526     18.739713      245.11466    
    481000   0.9806209      18.948715      245.08389    
    482000   1.0337185      18.838086      244.93764    
    483000   0.95580181     18.983357      244.90581    
    484000   0.98824431     18.743579      245.02411    
    485000   1.0086586      18.775986      244.87931    
    486000   0.97427968     19.10872       244.79685    
    487000   0.97214194     18.817904      244.78955    
    488000   0.99695433     18.498693      244.85707    
    489000   0.9801951      19.085987      244.6122     
    490000   1.0429839      18.974553      244.52964    
    491000   1.0147467      18.8464        244.26396    
    492000   1.0143313      18.678223      244.26172    
    493000   1.0100798      18.882818      244.34473    
    494000   1.0096008      19.168932      244.06906    
    495000   1.0160945      18.875945      243.95047    
    496000   1.0321783      19.157683      243.82888    
    497000   0.98881315     19.027025      243.84113    
    498000   1.0034459      18.739477      243.80808    
    499000   1.0261014      19.124277      243.51623    
    500000   0.9902971      18.611559      243.50525    
    501000   0.99316181     18.345735      243.40579    
    502000   0.98258569     18.263002      243.46526    
    503000   1.0158011      19.009693      243.10855    
    504000   0.99985968     19.099072      243.04924    
    505000   0.97643582     18.876465      242.88561    
    506000   1.050893       19.586591      242.59148    
    507000   1.0018012      19.024492      242.34086    
    508000   1.0063038      18.957524      242.15097    
    509000   0.99682305     19.154154      241.92166    
    510000   1.0091469      18.991008      241.80604    
    511000   0.99231173     18.857628      241.89436    
    512000   0.97518627     18.616463      241.8975     
    513000   0.97464858     18.936958      241.99115    
    514000   1.0075026      18.67519       241.91309    
    515000   1.0136409      19.123598      242.04922    
    516000   0.99129656     18.97529       241.96684    
    517000   0.96193139     19.203401      242.07125    
    518000   1.0150441      19.584146      241.97097    
    519000   1.0454565      18.844072      241.89085    
    520000   1.020562       18.690657      241.75567    
    521000   0.98915482     18.595956      241.80999    
    522000   1.0352296      18.98599       241.89633    
    523000   1.0192997      19.290633      241.83868    
    524000   1.0029604      18.632532      241.76261    
    525000   1.0025653      18.787386      241.55217    
    526000   1.0062919      19.004977      241.53371    
    527000   0.99545995     18.690918      241.57671    
    528000   0.99740859     19.015593      241.3177     
    529000   1.0230699      19.028122      241.30157    
    530000   1.0168842      19.092638      241.36917    
    531000   0.9958282      18.6979        241.05202    
    532000   0.98628568     18.292466      240.95299    
    533000   0.98093876     19.310891      240.96031    
    534000   1.0354439      19.158443      240.7608     
    535000   1.0345813      19.272204      240.74314    
    536000   0.96634398     19.304194      240.83895    
    537000   0.98597024     18.677998      240.85759    
    538000   0.98459384     18.743757      240.59458    
    539000   0.97152238     18.512304      240.51561    
    540000   0.99914522     19.052961      240.39203    
    541000   1.0149427      19.297436      240.45213    
    542000   1.0150478      19.18115       240.59284    
    543000   0.9576301      18.752527      240.50656    
    544000   1.0004555      19.051501      240.33105    
    545000   1.0391628      18.955478      240.22292    
    546000   0.99639311     18.784664      240.18859    
    547000   1.0077197      19.09429       240.11255    
    548000   0.9740484      18.734181      240.11308    
    549000   0.99290713     18.527208      240.21187    
    550000   0.99772492     18.886347      240.31205    
    551000   0.96872624     19.016162      240.20767    
    552000   0.94581184     18.380444      240.04734    
    553000   1.0027869      18.808014      239.87938    
    554000   0.96463555     18.600965      239.90777    
    555000   1.0000643      18.632228      239.80281    
    556000   1.009002       19.152401      239.77609    
    557000   0.999502       18.961007      239.75367    
    558000   0.98986584     18.23274       239.6119     
    559000   0.98453259     19.267623      239.75268    
    560000   1.0147969      18.540889      239.59199    
    561000   0.99409987     18.883011      239.28786    
    562000   1.0306552      18.816229      239.35773    
    563000   1.0247406      19.124021      239.15303    
    564000   0.95285356     18.853778      239.10264    
    565000   1.0255186      19.200659      238.8748     
    566000   1.0119747      18.160797      238.76446    
    567000   1.0222597      18.97088       238.79127    
    568000   1.0039236      18.765257      238.69036    
    569000   1.0153594      19.160063      238.82374    
    570000   1.0200789      18.662004      238.78964    
    571000   0.99336483     18.945194      238.83282    
    572000   0.96175794     18.537212      238.96884    
    573000   1.0121056      18.871595      239.05925    
    574000   1.0039683      18.754996      239.09229    
    575000   0.98486849     19.399234      239.18388    
    576000   1.0160334      18.952071      239.2643     
    577000   1.0210645      18.672296      239.26024    
    578000   1.043323       18.843538      239.13021    
    579000   1.0233837      18.717624      239.31549    
    580000   1.0379213      18.564611      239.37587    
    581000   0.98839829     18.69929       239.35171    
    582000   0.99289476     18.82355       239.4981     
    583000   1.0059317      18.935946      239.52387    
    584000   0.98944196     18.366076      239.44444    
    585000   1.0224666      18.727414      239.26573    
    586000   1.0469509      18.911236      239.27114    
    587000   0.99871248     18.737376      239.07846    
    588000   0.97208729     18.656656      238.96503    
    589000   0.97036492     18.895014      239.0852     
    590000   1.0078405      19.001915      239.03041    
    591000   1.0024391      18.702542      238.94817    
    592000   0.99751146     18.601169      238.9215     
    593000   1.0274296      18.704436      239.10338    
    594000   1.0013085      18.777352      239.01962    
    595000   1.0070425      18.768425      238.87368    
    596000   1.0114034      18.624063      238.7787     
    597000   0.97132077     18.833683      238.80268    
    598000   1.0155613      18.300178      238.81884    
    599000   1.0308239      19.257783      238.76801    
    600000   1.0130317      18.506245      238.57297    
    601000   0.98089928     18.732158      238.47516    
    602000   0.97145749     18.462139      238.58281    
    603000   1.0052091      18.56818       238.47445    
    604000   0.97613104     18.634561      238.27525    
    605000   0.99575498     19.109631      238.16986    
    606000   1.0238704      18.9015        238.12079    
    607000   0.96482835     18.935931      238.09173    
    608000   1.0103399      18.877405      237.96263    
    609000   1.0125194      19.0631        237.95192    
    610000   1.017847       18.58533       237.84203    
    611000   0.99958347     18.540337      237.78592    
    612000   1.0034151      19.006496      237.7087     
    613000   0.99951624     18.559906      237.65168    
    614000   0.97105287     18.633434      237.49686    
    615000   1.0344024      19.070111      237.39312    
    616000   0.9596058      18.867304      237.5327     
    617000   1.0066626      18.984159      237.38713    
    618000   1.0378325      18.45067       237.18141    
    619000   0.97812032     18.763562      237.04596    
    620000   1.0781327      18.835697      236.88661    
    621000   0.99242541     18.513364      236.78186    
    622000   0.96172163     18.543736      236.90468    
    623000   0.99766278     18.47556       236.8136     
    624000   1.0185477      18.378509      236.664      
    625000   0.98592574     18.740339      236.54497    
    626000   1.0063803      18.515446      236.40313    
    627000   0.99857863     19.130422      236.25506    
    628000   1.0014636      18.718824      236.3132     
    629000   1.0236303      18.679232      236.35024    
    630000   1.0225533      18.909121      236.4935     
    631000   1.052155       18.686977      236.4502     
    632000   1.0398653      18.43843       236.4509     
    633000   0.98462332     18.443286      236.1995     
    634000   0.97827768     19.044909      236.07008    
    635000   1.0156026      19.067889      235.82168    
    636000   1.0367337      19.094093      235.88828    
    637000   1.0228605      19.341946      235.85696    
    638000   1.0204077      19.168697      235.93884    
    639000   1.0008601      19.014014      235.8531     
    640000   1.0134911      19.098575      235.9065     
    641000   0.99827964     18.861838      236.00456    
    642000   1.0358638      18.819344      235.95524    
    643000   0.99910068     18.51184       236.04031    
    644000   1.0207035      18.203746      235.80603    
    645000   0.99772025     18.182906      235.5333     
    646000   0.97639938     18.489395      235.5605     
    647000   0.97998712     18.679915      235.29147    
    648000   1.0012685      18.713115      235.3927     
    649000   1.0146324      19.611522      235.23289    
    650000   1.0169529      18.95657       235.11013    
    651000   1.0465895      18.69151       235.2105     
    652000   0.99933972     18.833079      235.10404    
    653000   0.98278842     18.51872       234.85912    
    654000   1.0154779      18.951386      234.67129    
    655000   0.99774052     18.36686       234.50237    
    656000   0.96268778     18.780759      234.3029     
    657000   1.0164912      18.588577      234.09038    
    658000   1.030412       18.402423      234.03435    
    659000   1.0168117      18.293274      233.74734    
    660000   0.99470789     18.313805      233.59057    
    661000   1.0178966      19.352376      233.38584    
    662000   0.9853698      19.184526      233.11344    
    663000   1.0007375      18.7194        233.05112    
    664000   1.0237361      18.816966      232.835      
    665000   1.0456137      18.85412       232.57545    
    666000   0.98922748     18.955098      232.30419    
    667000   1.0121393      18.783657      232.36766    
    668000   1.0048398      18.997726      232.33863    
    669000   0.98861203     18.679626      232.36912    
    670000   0.9876373      18.335218      232.15595    
    671000   0.95232264     18.572738      232.13744    
    672000   0.94402062     18.859108      232.12505    
    673000   0.9895721      18.465763      232.05907    
    674000   0.97676665     18.567468      231.99632    
    675000   0.97698867     18.793307      231.9057     
    676000   0.96961537     19.083977      231.78112    
    677000   1.0038842      18.713464      231.63141    
    678000   0.95187235     18.872706      231.53773    
    679000   0.96924355     18.815515      231.50472    
    680000   0.99826321     18.298659      231.43274    
    681000   0.96792318     18.612423      231.40974    
    682000   1.0169546      18.876455      231.54454    
    683000   0.99225231     18.33579       231.48232    
    684000   1.0144497      19.014963      231.22946    
    685000   0.98650087     18.746076      231.27349    
    686000   1.0047574      18.903996      231.25704    
    687000   0.99658807     18.618334      231.25642    
    688000   1.0274258      18.89909       231.36956    
    689000   0.98638602     18.654662      231.42266    
    690000   1.0068524      18.733962      231.36443    
    691000   1.0308845      18.249248      231.19171    
    692000   1.005108       18.953995      231.02685    
    693000   1.0048992      18.359444      230.94686    
    694000   0.98468097     18.850733      230.95876    
    695000   0.95092944     18.515995      230.93506    
    696000   1.0170567      18.213419      230.90184    
    697000   1.0314401      18.67467       230.7699     
    698000   0.98486823     19.048253      230.81991    
    699000   1.0113265      18.989679      230.80004    
    700000   1.0474021      18.707723      230.99032    
    701000   0.98846079     18.910303      230.85367    
    702000   0.98777656     18.699373      230.76998    
    703000   0.99864418     18.667198      230.77893    
    704000   1.0290637      18.87147       230.65344    
    705000   0.97299697     18.279175      230.45321    
    706000   0.97398959     18.763287      230.4096     
    707000   0.98824494     19.091874      230.40162    
    708000   0.97323239     19.073453      230.42274    
    709000   0.96773449     19.140194      230.43241    
    710000   0.98511037     18.591007      230.28131    
    711000   1.0275577      19.254834      230.32858    
    712000   0.9768647      18.61784       230.10192    
    713000   1.0023752      18.751347      230.15396    
    714000   0.99271216     18.247182      230.28017    
    715000   0.98635198     18.83786       230.25915    
    716000   0.99126404     18.89233       230.03667    
    717000   1.0015698      18.628307      230.04464    
    718000   0.94846058     18.790526      229.78357    
    719000   1.0072204      18.264295      229.70591    
    720000   1.0059819      18.980851      229.6951     
    721000   1.0255969      19.138269      229.65275    
    722000   0.99506821     18.29352       229.53855    
    723000   0.96969738     19.101428      229.19896    
    724000   1.0163821      18.408164      229.30781    
    725000   1.0631625      18.740695      229.15041    
    726000   0.98681611     18.81132       228.89037    
    727000   1.0203901      18.4327        228.76427    
    728000   1.0143463      18.617693      228.67583    
    729000   0.99397731     18.577712      228.69864    
    730000   1.0210471      18.798344      228.77469    
    731000   1.0283025      19.00259       228.84591    
    732000   1.0239883      19.168079      228.79799    
    733000   0.99423609     18.7956        228.52709    
    734000   1.0033495      18.64081       228.27011    
    735000   1.0011585      18.704512      228.28808    
    736000   0.9891803      18.874806      228.31962    
    737000   1.0421229      18.87793       228.38712    
    738000   1.066926       18.875127      228.33316    
    739000   0.95514076     18.527682      228.17116    
    740000   1.0397024      18.703657      227.93499    
    741000   1.0146413      18.794719      227.88473    
    742000   0.97878075     18.735805      227.69824    
    743000   1.0566325      19.195035      227.68986    
    744000   0.9902057      18.932306      227.70379    
    745000   0.98383009     18.910795      227.65837    
    746000   1.0039756      18.63256       227.53842    
    747000   0.99218477     19.028241      227.64476    
    748000   1.0080317      18.486303      227.6389     
    749000   1.0457102      18.972788      227.55748    
    750000   1.0086968      18.374686      227.32244    
    751000   1.0073338      18.768033      227.16883    
    752000   1.0117144      19.088004      227.06305    
    753000   0.98682715     18.794743      227.16265    
    754000   1.0272003      18.713122      227.27528    
    755000   1.0265047      18.192674      227.26939    
    756000   0.97266823     18.53614       227.11184    
    757000   0.99830193     19.127859      227.13492    
    758000   1.0085174      18.727012      226.95814    
    759000   0.967473       18.547537      226.87127    
    760000   0.97807337     18.675033      226.52393    
    761000   1.0643835      18.850033      226.45327    
    762000   0.98268272     18.867583      226.3939     
    763000   1.0527895      19.268022      226.24922    
    764000   1.0117737      18.760094      226.15216    
    765000   0.96805114     18.523973      226.34314    
    766000   1.0542431      18.706828      226.34296    
    767000   0.97668555     18.298169      226.28491    
    768000   0.97777841     18.635889      226.16123    
    769000   1.0053938      18.767033      226.13331    
    770000   1.0271885      18.809344      226.21569    
    771000   0.99998066     18.413461      226.12262    
    772000   1.0523277      19.321278      226.09217    
    773000   0.97208497     18.484971      225.89607    
    774000   1.0041231      18.753701      225.93932    
    775000   1.009317       18.825149      225.85518    
    776000   0.97774296     19.021357      225.71225    
    777000   1.0044187      19.01668       225.57198    
    778000   1.0078974      18.858655      225.46285    
    779000   1.04001        18.945937      225.16431    
    780000   0.98825175     18.731172      225.03583    
    781000   0.96691571     18.930953      224.79617    
    782000   1.0189368      18.602305      224.66873    
    783000   1.0163542      18.908651      224.5374     
    784000   0.97207111     18.525819      224.44985    
    785000   0.99172102     18.990285      224.4506     
    786000   1.0195345      18.800222      224.12875    
    787000   1.0318984      19.055446      223.86922    
    788000   1.0052647      18.611133      223.77794    
    789000   1.0439381      18.494925      223.93905    
    790000   1.0105036      18.53382       223.91037    
    791000   0.98336931     18.534931      223.79123    
    792000   0.99315441     18.477706      224.00787    
    793000   1.0414715      18.808061      223.88485    
    794000   1.0151213      18.935078      223.86761    
    795000   1.022934       18.794781      223.99315    
    796000   0.96290874     18.29851       224.01044    
    797000   1.0203195      18.712723      223.97484    
    798000   1.0002126      18.585223      223.98816    
    799000   0.98372844     18.256621      223.86533    
    800000   0.99532753     18.287137      223.70578    
    801000   1.0123416      18.51607       223.52431    
    802000   1.0090985      18.525457      223.56176    
    803000   0.96321933     18.83471       223.51181    
    804000   0.97679531     18.804391      223.36335    
    805000   1.0159722      18.786189      223.46409    
    806000   0.96439613     18.549253      223.29055    
    807000   0.98582228     19.311739      223.15812    
    808000   1.0158021      19.02697       223.08816    
    809000   1.0099242      19.244263      222.89052    
    810000   0.96026677     17.937552      222.597      
    811000   1.0227526      18.561729      222.59395    
    812000   0.97165494     18.857491      222.69407    
    813000   1.0070884      18.826253      222.75427    
    814000   1.0467284      19.022659      222.59902    
    815000   1.0285499      18.789073      222.63162    
    816000   0.98584427     18.396573      222.38353    
    817000   1.0000992      18.855047      222.29541    
    818000   1.0317117      18.17131       222.42426    
    819000   1.0304175      19.002566      222.35452    
    820000   1.0055871      18.626973      222.35369    
    821000   0.97166239     18.46854       222.18275    
    822000   1.0091675      18.335919      222.00833    
    823000   0.97037004     18.965368      221.98628    
    824000   1.0130009      18.66369       222.15722    
    825000   1.0023402      19.141898      222.06787    
    826000   1.013858       18.676706      221.93078    
    827000   1.0389175      18.38754       221.97671    
    828000   1.004818       18.832338      222.05683    
    829000   1.0496892      18.810079      221.95136    
    830000   1.0155194      18.646264      221.98501    
    831000   1.0363774      18.828475      221.83089    
    832000   0.99910521     18.75478       221.87145    
    833000   0.99273895     18.494921      221.46901    
    834000   0.97288542     18.806321      221.42023    
    835000   1.0089325      18.863891      221.17058    
    836000   0.9899293      18.701494      221.06504    
    837000   0.98321326     18.757289      221.08568    
    838000   0.97601688     18.348811      221.1263     
    839000   0.99686044     18.694239      221.04751    
    840000   1.0284461      18.210851      220.8857     
    841000   0.96671251     18.666712      220.5478     
    842000   0.98395978     18.879025      220.53791    
    843000   1.0124823      18.881159      220.48159    
    844000   1.0392835      18.738942      220.46156    
    845000   0.99338288     18.350046      220.62561    
    846000   0.97997333     18.81765       220.55131    
    847000   1.0157207      18.798422      220.4381     
    848000   0.97373393     18.349977      220.18549    
    849000   0.98299387     18.599741      220.19972    
    850000   0.99360418     18.63279       219.98812    
    851000   0.99050388     18.673616      219.78451    
    852000   0.99498284     18.500344      219.75434    
    853000   0.98245202     18.427869      219.61141    
    854000   1.0325668      18.476059      219.58687    
    855000   1.0173074      18.321678      219.42396    
    856000   1.014077       18.25662       219.5226     
    857000   1.0166137      18.630785      219.16285    
    858000   0.99703679     18.820785      218.95537    
    859000   0.99352607     17.82972       218.86381    
    860000   1.0421691      18.505085      218.7657     
    861000   0.99965266     18.250719      218.74052    
    862000   1.0060324      18.698457      218.77842    
    863000   1.0074274      18.595694      218.71043    
    864000   0.99112799     19.074905      218.60212    
    865000   0.96793378     18.664528      218.61793    
    866000   1.0010807      18.206602      218.70538    
    867000   1.0169312      18.35972       218.53409    
    868000   0.95641254     18.501636      218.29304    
    869000   1.0294767      18.955647      218.19496    
    870000   0.98867553     18.735022      218.43007    
    871000   0.99558375     18.903732      218.54347    
    872000   1.0168108      19.252232      218.40378    
    873000   1.0060441      18.504688      218.1036     
    874000   1.0349714      18.265848      217.94685    
    875000   0.99079583     19.070776      218.10845    
    876000   0.98369217     18.621683      217.91093    
    877000   1.007594       18.701454      217.72957    
    878000   0.98566665     18.937889      217.57031    
    879000   0.97547987     18.591691      217.53826    
    880000   0.99495554     18.805975      217.37984    
    881000   1.0212473      18.325879      217.38133    
    882000   0.99625309     18.331732      217.25022    
    883000   1.0707388      18.692335      216.9373     
    884000   1.000236       18.65563       217.00082    
    885000   0.99590439     18.198917      216.95357    
    886000   1.0145433      18.687717      217.00063    
    887000   1.0085569      18.460851      217.05578    
    888000   1.0523686      19.156109      216.89339    
    889000   0.98304744     18.434322      216.72076    
    890000   1.0078199      19.011909      216.61693    
    891000   0.97529567     18.719034      216.51894    
    892000   1.0189617      18.533548      216.32815    
    893000   0.99644097     18.849431      216.26664    
    894000   1.0736227      18.856898      216.2034     
    895000   1.0072663      18.871675      215.90476    
    896000   0.98289897     19.055015      215.86787    
    897000   0.99066424     18.855724      215.76757    
    898000   0.9950394      18.64353       215.49893    
    899000   0.94479457     18.478872      215.46177    
    900000   1.0354175      18.597317      215.34442    
    901000   1.0234442      18.587225      215.29058    
    902000   1.0166938      18.531122      215.0142     
    903000   0.95589978     18.361471      214.85854    
    904000   1.0488105      18.76272       214.7037     
    905000   0.98778432     18.781266      214.50145    
    906000   1.022249       18.79858       214.62862    
    907000   1.0269617      18.525384      214.68256    
    908000   0.99449989     18.417356      214.60405    
    909000   1.0109825      18.735321      214.35873    
    910000   0.96103691     18.324077      214.34034    
    911000   1.0013113      18.833218      214.45687    
    912000   1.0447704      18.849777      214.21178    
    913000   1.0495438      19.123966      213.93768    
    914000   1.0289755      18.733089      213.90196    
    915000   0.98028072     18.438055      213.7946     
    916000   1.0204667      18.453993      213.52364    
    917000   1.0167739      17.96998       213.67877    
    918000   0.95686107     18.433429      213.581      
    919000   1.0014885      18.660773      213.18778    
    920000   0.99402423     18.514704      213.03797    
    921000   0.99892132     18.529564      213.00644    
    922000   0.99323881     18.622523      213.09281    
    923000   0.98986382     18.687417      213.09097    
    924000   0.9968452      18.983154      212.77344    
    925000   1.0070865      18.493777      212.77987    
    926000   0.98372258     18.68408       212.76123    
    927000   1.0269157      18.790342      212.8711     
    928000   0.99598026     18.350224      212.80774    
    929000   0.97366337     18.720786      212.62019    
    930000   1.0283669      18.447358      212.53725    
    931000   0.97753809     18.775941      212.59374    
    932000   1.0025063      18.549535      212.54812    
    933000   0.97363374     18.117865      212.71088    
    934000   1.0049568      18.427643      212.81719    
    935000   0.99860614     18.460406      212.91578    
    936000   0.98768456     18.752364      212.72292    
    937000   1.0099         18.655749      212.65002    
    938000   0.98443933     18.386598      212.62687    
    939000   1.0267665      18.595817      212.41859    
    940000   1.0133738      18.98145       212.19983    
    941000   0.98868744     18.504314      212.32429    
    942000   1.0283348      19.250902      212.16494    
    943000   1.0141723      18.667626      211.99839    
    944000   1.003025       18.674852      211.67516    
    945000   1.0049037      18.992397      211.49653    
    946000   0.99374712     19.159916      211.3161     
    947000   0.99843793     18.634453      210.98599    
    948000   1.0052429      18.366476      211.25869    
    949000   1.0114121      18.614557      211.04626    
    950000   1.0241989      19.122738      210.84724    
    951000   0.99106447     18.999256      210.75184    
    952000   1.0142065      18.445215      210.48088    
    953000   1.0385477      19.117931      210.55103    
    954000   1.0041723      18.42941       210.53852    
    955000   1.004024       18.679998      210.42356    
    956000   1.0099525      18.613488      210.27687    
    957000   0.98573957     18.686151      210.04307    
    958000   0.96050483     18.362681      209.95294    
    959000   0.99017422     18.735021      209.82774    
    960000   1.0456739      18.663677      209.61317    
    961000   0.9524436      18.274177      209.45602    
    962000   0.96875075     18.413686      209.42972    
    963000   0.98270814     19.228399      209.16537    
    964000   1.0195918      19.036396      209.03729    
    965000   0.98242832     18.439622      208.87288    
    966000   0.95568582     18.390616      209.00297    
    967000   1.0077636      19.469613      209.01434    
    968000   0.98159061     18.778151      208.96431    
    969000   1.0351882      18.75738       208.69846    
    970000   1.0005551      18.336064      208.60206    
    971000   0.97715139     18.703907      208.45515    
    972000   0.99786771     18.711943      208.31952    
    973000   1.0085975      18.247013      208.35033    
    974000   1.0164324      18.823532      208.37571    
    975000   0.99742169     18.361666      208.43768    
    976000   1.0139871      18.417333      208.20696    
    977000   1.016732       18.611644      208.36538    
    978000   1.0138166      18.534655      208.24404    
    979000   0.96245882     18.126657      208.27907    
    980000   1.0187792      18.681327      207.89482    
    981000   0.96743203     18.204147      207.79134    
    982000   1.038115       18.391098      207.7174     
    983000   0.981071       18.421667      207.65526    
    984000   1.0110095      18.554492      207.59152    
    985000   0.99977801     18.369517      207.57733    
    986000   1.0553618      19.05958       207.57437    
    987000   1.0012196      18.789554      207.4843     
    988000   1.0304794      19.360819      207.3324     
    989000   0.99097685     18.576161      207.26449    
    990000   1.0190113      18.589536      207.13443    
    991000   1.0119693      18.598748      206.85751    
    992000   0.97755991     18.521539      206.62232    
    993000   0.94731781     18.522268      206.60099    
    994000   0.9687401      18.263739      206.55894    
    995000   1.0161119      18.556548      206.48686    
    996000   0.99920962     18.497372      206.37934    
    997000   1.0245125      18.676612      206.26068    
    998000   0.99172078     18.445354      206.09595    
    999000   0.94771495     18.467127      206.1209     
   1000000   0.98117797     18.452491      206.09454    
   1001000   0.98839283     18.316641      206.01518    
   1002000   1.0176886      18.595527      205.9845     
   1003000   1.0039178      18.342263      206.20098    
   1004000   1.0088178      18.68304       206.18044    
   1005000   1.0062536      18.727367      206.23592    
   1006000   1.0132877      18.955172      206.05707    
   1007000   0.99652153     18.60683       205.99989    
   1008000   0.9590047      18.408621      205.94733    
   1009000   0.95723703     18.321041      206.00066    
   1010000   0.97416424     18.661912      206.02608    
   1011000   0.97727056     18.232264      206.10018    
   1012000   1.0282791      18.729871      205.9001     
   1013000   1.0084824      18.824047      205.795      
   1014000   1.0113139      18.185037      205.66134    
   1015000   1.0161917      18.686258      205.63047    
   1016000   1.0537654      18.829128      205.60298    
   1017000   0.98882246     18.670338      205.59696    
   1018000   1.0006269      17.997251      205.34817    
   1019000   1.0344852      18.319892      205.05824    
   1020000   1.00027        18.448659      204.971      
   1021000   1.0139177      18.735699      204.95544    
   1022000   1.0152905      18.296405      204.90258    
   1023000   1.0210093      18.604825      204.68597    
   1024000   0.97330403     18.700393      204.53984    
   1025000   1.025453       18.312835      204.46887    
   1026000   1.0138079      18.401361      204.34085    
   1027000   1.029335       18.757098      204.26516    
   1028000   0.95252009     18.853303      204.27645    
   1029000   1.0091544      18.876061      204.081      
   1030000   1.0425252      18.685482      204.35695    
   1031000   0.99025932     18.566122      204.36526    
   1032000   0.95360915     18.581286      204.43392    
   1033000   0.99076548     18.667193      204.40956    
   1034000   0.99885274     18.45567       204.17485    
   1035000   0.96327502     18.850851      203.9831     
   1036000   0.99329795     18.362349      203.94544    
   1037000   0.98532615     18.439504      204.16       
   1038000   1.0174239      19.009155      204.03688    
   1039000   0.9738135      18.66396       203.87834    
   1040000   1.0181546      18.531875      204.06425    
   1041000   1.0339463      19.078762      204.12338    
   1042000   0.97832006     18.589212      204.31057    
   1043000   1.0312704      18.471376      204.11273    
   1044000   0.98749724     18.710684      204.02553    
   1045000   0.99496204     18.84692       204.13617    
   1046000   1.0198599      18.456138      204.0989     
   1047000   1.0011639      18.426504      204.14545    
   1048000   1.0022142      18.232385      204.30774    
   1049000   0.96924383     18.486161      204.15291    
   1050000   0.94595102     19.421103      203.98688    
   1051000   1.006105       18.134169      203.84507    
   1052000   1.0219235      19.033512      203.63885    
   1053000   1.0209192      18.797765      203.48557    
   1054000   1.0022315      18.70023       203.4367     
   1055000   1.0074702      18.537306      203.51392    
   1056000   1.0301472      18.906027      203.36421    
   1057000   0.99438115     18.593182      203.3041     
   1058000   1.0450081      18.940718      203.27852    
   1059000   1.0081799      19.42821       203.18179    
   1060000   0.96966331     18.238045      203.04692    
   1061000   1.0332188      19.272464      203.06645    
   1062000   1.0357121      18.964996      202.84229    
   1063000   1.0269186      18.767497      202.88895    
   1064000   1.0038278      18.624415      202.77311    
   1065000   1.0133679      19.163398      202.70412    
   1066000   0.99977509     19.251855      202.70596    
   1067000   0.96024926     19.01683       202.57185    
   1068000   0.98031114     19.050545      202.45827    
   1069000   0.95778264     18.357141      202.47486    
   1070000   0.99589524     18.927866      202.32193    
   1071000   1.0104933      18.625405      202.09822    
   1072000   1.0032457      18.621169      202.25342    
   1073000   0.9997557      19.23376       201.92443    
   1074000   0.97653933     18.822078      201.75188    
   1075000   1.0217025      18.409684      201.61897    
   1076000   1.0320369      18.281871      201.38667    
   1077000   0.97241261     18.78922       201.16811    
   1078000   0.99790983     18.791771      201.28141    
   1079000   1.0070747      18.972893      201.04028    
   1080000   0.96471462     18.550627      200.85424    
   1081000   1.0136453      18.354338      200.79177    
   1082000   0.98458927     18.86695       200.69848    
   1083000   1.0368962      18.527193      200.6464     
   1084000   0.98164101     18.606089      200.82348    
   1085000   0.97613851     18.336431      200.66194    
   1086000   1.005972       18.294621      200.72324    
   1087000   1.0216         19.157394      200.47481    
   1088000   0.97613021     18.367412      200.57976    
   1089000   0.99927109     18.473431      200.57372    
   1090000   0.9650911      18.712731      200.65969    
   1091000   1.0125262      18.370887      200.46872    
   1092000   1.0400045      18.621033      200.28544    
   1093000   0.99794649     18.601344      200.29357    
   1094000   1.0146747      18.209343      200.2479     
   1095000   0.98831872     18.95212       200.27184    
   1096000   0.95928786     18.413834      200.22768    
   1097000   1.0050225      18.856495      200.00787    
   1098000   1.0030034      18.75742       199.8995     
   1099000   1.0105943      19.091831      199.80438    
   1100000   1.0169798      18.374185      199.76068    
   1101000   0.94867047     18.450073      199.71575    
   1102000   0.97733009     18.997527      199.73426    
   1103000   1.0413472      18.720786      199.77711    
   1104000   0.99064616     18.618624      199.42081    
   1105000   0.97901768     18.696006      199.37654    
   1106000   0.97913648     18.405217      199.46836    
   1107000   0.9483592      18.694589      199.29823    
   1108000   1.0257458      18.44267       199.12597    
   1109000   1.0048814      18.348752      199.16794    
   1110000   0.99447928     18.340056      199.22707    
   1111000   1.0141989      18.634258      199.126      
   1112000   0.99383205     18.377531      198.74884    
   1113000   0.99344782     18.316428      198.43537    
   1114000   1.0106763      18.208075      198.43516    
   1115000   0.98681733     18.373609      198.26858    
   1116000   0.99264944     18.643086      198.26686    
   1117000   0.97754002     18.358478      198.2151     
   1118000   1.0080814      18.418735      198.07713    
   1119000   1.0068573      18.462793      197.80579    
   1120000   1.0122172      18.830134      197.90669    
   1121000   1.0197727      18.473105      197.74743    
   1122000   1.0245852      19.107898      197.80966    
   1123000   0.99072278     18.536796      197.6312     
   1124000   0.97080133     18.397547      197.78538    
   1125000   0.98450502     18.366723      197.67813    
   1126000   1.0098157      18.746547      197.60412    
   1127000   0.99741918     18.856067      197.53049    
   1128000   0.99652142     18.545465      197.63556    
   1129000   0.98836556     18.672333      197.49787    
   1130000   0.99127308     18.62185       197.2863     
   1131000   1.0304269      18.80147       196.99572    
   1132000   1.0454087      19.233635      196.9774     
   1133000   1.0542201      18.70271       196.85347    
   1134000   0.99315412     18.101924      196.85604    
   1135000   0.99138342     18.368855      196.81816    
   1136000   1.0099805      18.537953      196.85022    
   1137000   1.0125716      18.258313      197.05555    
   1138000   0.99000966     18.320558      196.91583    
   1139000   0.9936949      18.69283       196.74694    
   1140000   1.0486785      18.96408       196.83012    
   1141000   1.0225403      18.549268      196.84824    
   1142000   1.0082518      18.249552      196.86656    
   1143000   0.9975229      18.701054      196.82883    
   1144000   1.0147822      18.838151      196.53785    
   1145000   1.0042495      18.976064      196.47528    
   1146000   0.95686245     18.69519       196.46474    
   1147000   1.0312887      18.754264      196.46542    
   1148000   1.0230721      19.105121      196.48645    
   1149000   1.0066574      18.176893      196.45331    
   1150000   0.9959916      18.449892      196.42482    
   1151000   1.0043179      18.561747      196.42593    
   1152000   0.99359528     18.508699      196.45321    
   1153000   0.9633626      18.3732        196.35204    
   1154000   1.039858       18.46612       196.17247    
   1155000   0.97731617     18.624735      195.94631    
   1156000   1.0110504      18.448706      195.73362    
   1157000   1.0462614      18.327348      195.73196    
   1158000   0.98498925     18.486863      195.68489    
   1159000   1.008339       19.232043      195.54288    
   1160000   0.97535214     18.37001       195.27741    
   1161000   1.0306313      18.789524      195.23781    
   1162000   1.0427986      18.606907      194.98512    
   1163000   1.0268538      18.414312      194.90362    
   1164000   0.99825396     18.918197      194.72427    
   1165000   1.0290519      18.570767      194.7259     
   1166000   1.0228488      18.171758      194.65616    
   1167000   1.0365624      18.193556      194.69706    
   1168000   1.0041858      18.664472      194.75643    
   1169000   1.0281515      18.944172      194.77219    
   1170000   0.98743576     18.836487      194.71484    
   1171000   0.97429446     18.705524      194.65533    
   1172000   0.97011724     18.757212      194.57881    
   1173000   1.0074351      18.12779       194.50019    
   1174000   1.0244271      18.444489      194.51068    
   1175000   1.0033425      18.691077      194.34816    
   1176000   1.0189538      18.397314      194.23551    
   1177000   1.0024112      18.861078      194.03519    
   1178000   0.99882391     19.073155      193.90517    
   1179000   0.99807602     18.631705      193.88294    
   1180000   0.99944182     18.870094      193.82439    
   1181000   1.0175142      18.463971      193.73242    
   1182000   1.0050355      18.436048      193.45942    
   1183000   1.0351813      18.403591      193.53362    
   1184000   1.023883       18.640608      193.38229    
   1185000   0.98226631     18.06708       193.27588    
   1186000   0.95560942     18.383754      193.23401    
   1187000   1.0407381      18.871255      193.10677    
   1188000   0.98333878     18.422987      193.00606    
   1189000   0.99141733     18.568784      193.07053    
   1190000   1.0175003      18.15578       192.97604    
   1191000   1.0281305      19.004701      193.06854    
   1192000   0.99268197     18.14709       192.83539    
   1193000   1.0344294      18.866966      192.71225    
   1194000   1.0313884      18.510964      192.84151    
   1195000   1.0177532      18.472648      192.9128     
   1196000   0.9960228      18.416221      192.61255    
   1197000   1.0097306      18.625882      192.62309    
   1198000   1.0100721      18.935683      192.61975    
   1199000   1.0172163      18.981865      192.5571     
   1200000   1.0230255      18.385315      192.28999    
   1201000   1.0033609      18.914614      192.18694    
   1202000   0.99968062     18.332691      192.13047    
   1203000   1.0253799      18.65083       191.99665    
   1204000   1.0222617      18.456982      191.80224    
   1205000   1.028772       18.019054      191.89073    
   1206000   0.98388789     18.041625      191.94488    
   1207000   1.0092774      18.497456      192.03146    
   1208000   0.96635426     18.319007      191.90022    
   1209000   0.99748676     18.256772      191.80405    
   1210000   1.0203001      18.885565      191.68893    
   1211000   1.0273274      18.713486      191.48752    
   1212000   0.99841422     18.953081      191.0902     
   1213000   1.0104234      18.133189      190.89338    
   1214000   0.97637455     18.600125      190.69483    
   1215000   1.0082609      18.52237       190.59664    
   1216000   1.0036408      18.741156      190.39822    
   1217000   0.98160763     18.538108      190.20606    
   1218000   1.0427523      18.939011      190.1878     
   1219000   0.96399073     18.066877      190.07421    
   1220000   1.0466934      18.375384      190.14694    
   1221000   1.0174903      18.229149      190.16925    
   1222000   1.0284113      18.18265       190.13297    
   1223000   0.99130165     18.293656      190.07376    
   1224000   1.025573       18.659088      190.02041    
   1225000   1.0269561      18.453433      189.86935    
   1226000   0.96684826     18.597121      189.86955    
   1227000   0.97360203     18.370539      189.75782    
   1228000   1.0025008      18.756377      189.55681    
   1229000   1.0130358      18.481497      189.34998    
   1230000   0.98901979     17.786984      189.44821    
   1231000   1.004962       18.788739      189.35437    
   1232000   0.97092764     18.585344      189.25369    
   1233000   1.0179434      18.577796      189.11076    
   1234000   0.96753886     18.084952      189.13759    
   1235000   0.96987758     17.993348      189.10742    
   1236000   1.006813       18.32879       189.272      
   1237000   0.99525539     18.6611        189.06537    
   1238000   0.98281759     18.268046      189.00991    
   1239000   0.99855398     18.413883      189.07713    
   1240000   0.96880065     18.913395      188.95979    
   1241000   1.0062204      17.994951      188.64002    
   1242000   1.0218852      18.424045      188.56175    
   1243000   0.98842786     18.928485      188.63718    
   1244000   1.0171         18.511409      188.65438    
   1245000   0.9839023      18.184038      188.61786    
   1246000   1.0066743      18.43241       188.54135    
   1247000   1.0374035      18.695851      188.3828     
   1248000   0.99445793     18.513592      188.20769    
   1249000   0.98215623     18.591675      188.28775    
   1250000   1.0071895      18.150194      188.47147    
   1251000   1.0348492      18.853793      188.5085     
   1252000   1.0120876      18.790711      188.41122    
   1253000   0.98300524     18.472155      188.42339    
   1254000   0.99736506     18.400379      188.34421    
   1255000   1.0065282      18.397165      188.29114    
   1256000   1.019872       18.485539      188.36451    
   1257000   0.98082426     17.877707      188.22513    
   1258000   1.0400468      18.503948      188.11359    
   1259000   0.98342047     18.260873      188.22741    
   1260000   1.0101109      18.826083      188.17245    
   1261000   0.9853264      18.707975      188.04887    
   1262000   1.0018426      18.120867      188.02235    
   1263000   0.9821375      18.183921      187.74727    
   1264000   1.0005814      18.508981      187.56686    
   1265000   1.0063183      18.711369      187.43972    
   1266000   1.0154785      18.534516      187.38976    
   1267000   0.9777251      18.315585      187.42073    
   1268000   1.007374       18.371493      187.26867    
   1269000   1.0060748      18.552336      187.32733    
   1270000   0.95955603     18.218049      187.33837    
   1271000   1.0185702      18.468324      187.18989    
   1272000   1.0084645      18.616954      187.30531    
   1273000   1.0094638      18.654891      187.27062    
   1274000   0.98674147     18.504235      187.07878    
   1275000   1.0108336      18.609675      187.03524    
   1276000   0.98871096     18.458389      187.058      
   1277000   0.96512755     18.65518       186.96602    
   1278000   1.0212722      18.744557      186.88137    
   1279000   0.98683417     18.476148      186.67372    
   1280000   0.99641656     18.473041      186.4672     
   1281000   0.99377897     17.878613      186.49972    
   1282000   1.0268406      18.294568      186.52962    
   1283000   1.0154037      18.164347      186.30716    
   1284000   0.98601767     18.326841      186.27567    
   1285000   0.98344378     18.059215      186.10598    
   1286000   1.0425918      18.474486      186.18067    
   1287000   0.98027387     18.000855      186.04467    
   1288000   0.97328049     18.453251      186.04962    
   1289000   1.020968       18.628208      185.97602    
   1290000   1.00712        18.935554      185.86664    
   1291000   0.99342959     18.223891      185.81558    
   1292000   0.98653071     18.33289       185.94325    
   1293000   0.96610986     18.725324      185.95275    
   1294000   0.97219273     18.343636      185.99549    
   1295000   1.0110322      18.266817      185.85113    
   1296000   1.0148829      18.419576      185.75182    
   1297000   1.0365926      18.6757        185.80187    
   1298000   1.0024822      18.516876      185.90871    
   1299000   1.0148062      18.888857      186.08835    
   1300000   0.98563435     18.533163      185.73946    
   1301000   0.9870335      18.419545      185.65854    
   1302000   0.99908497     18.474475      185.57717    
   1303000   1.0224308      18.475459      185.58761    
   1304000   0.95445554     18.653265      185.45881    
   1305000   1.0251041      18.69664       185.49656    
   1306000   0.96441855     18.808916      185.40764    
   1307000   0.98988431     18.341815      185.26462    
   1308000   1.0037758      17.946837      185.14824    
   1309000   1.0393648      18.270639      185.02601    
   1310000   0.98270508     18.171685      184.83955    
   1311000   1.0460318      18.564277      184.48835    
   1312000   1.0240419      18.462419      184.28476    
   1313000   1.0069325      18.261343      184.13993    
   1314000   1.0329122      18.281536      184.18879    
   1315000   1.0195703      17.941132      184.07115    
   1316000   1.0039596      18.925423      183.93633    
   1317000   1.0184316      18.494948      183.75231    
   1318000   1.0008454      18.282648      183.56562    
   1319000   1.0023373      18.644429      183.40006    
   1320000   1.0079342      18.247983      183.32498    
   1321000   1.0113965      18.616878      183.37558    
   1322000   0.98733873     18.296827      183.20167    
   1323000   1.0056964      17.744973      183.11338    
   1324000   0.98808653     18.061023      183.15175    
   1325000   1.023419       18.439411      182.88201    
   1326000   0.98673418     18.2841        182.72463    
   1327000   1.0330097      18.667495      182.75718    
   1328000   0.98377673     18.445008      182.78304    
   1329000   1.0134792      18.408673      182.7501     
   1330000   0.99953249     18.114864      182.73618    
   1331000   1.0108961      18.373081      182.63683    
   1332000   0.99333132     18.420381      182.68295    
   1333000   0.98040762     18.534493      182.61485    
   1334000   1.0040579      18.468954      182.90608    
   1335000   1.0176129      18.721401      182.93585    
   1336000   1.0071875      18.571043      182.85423    
   1337000   0.98833754     18.586515      182.53986    
   1338000   0.96280528     17.996241      182.30925    
   1339000   1.0106102      18.026633      182.37367    
   1340000   1.0207527      18.206323      182.40611    
   1341000   1.002932       18.20436       182.35667    
   1342000   1.0217848      18.459336      182.44444    
   1343000   1.0134891      18.398556      182.43585    
   1344000   1.007006       18.054092      182.3474     
   1345000   0.96902808     18.398347      182.17687    
   1346000   1.0272138      18.291762      182.27841    
   1347000   1.0028955      18.324271      182.25231    
   1348000   1.0065949      18.346954      182.28989    
   1349000   1.0199987      18.491722      181.98866    
   1350000   0.98832824     18.5731        181.90926    
   1351000   0.98192439     17.820577      181.78845    
   1352000   0.98813172     18.256245      181.74084    
   1353000   0.9964939      18.350405      181.83387    
   1354000   1.0214327      18.583404      181.65634    
   1355000   0.98831426     18.012788      181.18727    
   1356000   1.0089558      18.056987      181.08892    
   1357000   0.94495497     18.334883      181.42861    
   1358000   0.99098785     18.093115      181.52865    
   1359000   0.92953362     18.134433      181.54372    
   1360000   0.99449562     18.680708      181.45584    
   1361000   1.0134062      18.254633      181.32777    
   1362000   1.0082577      18.871139      181.3753     
   1363000   0.95250904     17.88888       181.2585     
   1364000   1.0404476      18.316545      181.30876    
   1365000   0.96042819     18.262148      181.32109    
   1366000   0.99889183     17.902803      181.12481    
   1367000   1.0203294      18.267562      180.93898    
   1368000   0.99949016     17.955896      180.92709    
   1369000   1.0121549      18.146047      180.73687    
   1370000   1.0078368      18.432294      180.64695    
   1371000   1.0153568      18.008823      180.73893    
   1372000   1.0165808      18.231979      180.82988    
   1373000   0.99248265     18.291986      180.57032    
   1374000   1.0317078      18.72049       180.4577     
   1375000   1.0081415      18.469099      180.48309    
   1376000   1.0006427      18.118109      180.26532    
   1377000   0.99742445     17.693459      180.22385    
   1378000   1.0144862      18.037383      180.13625    
   1379000   1.0158691      18.02889       180.0296     
   1380000   0.98307759     18.108754      179.82757    
   1381000   1.010674       18.443004      179.69091    
   1382000   0.99411613     18.174223      179.73002    
   1383000   1.0037716      18.306885      179.38488    
   1384000   1.0355081      17.904336      179.42862    
   1385000   0.99647339     17.923092      179.37092    
   1386000   1.0401482      18.644959      179.40959    
   1387000   0.98395981     17.916241      179.27195    
   1388000   1.001895       18.613928      179.169      
   1389000   0.96779496     18.421311      179.33512    
   1390000   1.0066502      18.711446      179.28642    
   1391000   1.0538091      18.379296      179.21733    
   1392000   1.0055065      18.035361      179.32322    
   1393000   1.014489       18.614122      179.37776    
   1394000   1.0056077      18.123335      179.34864    
   1395000   0.99107861     18.281229      179.39009    
   1396000   0.97332774     18.206192      179.56667    
   1397000   0.99140514     18.092875      179.39258    
   1398000   1.0314312      17.988562      179.20241    
   1399000   1.0236376      18.594359      179.22796    
   1400000   0.99945585     18.207779      179.10496    
   1401000   0.99245154     18.094805      178.98836    
   1402000   0.97035269     18.131591      178.8975     
   1403000   1.0162877      17.782633      178.63822    
   1404000   1.0225891      18.420233      178.58792    
   1405000   1.0129728      18.31859       178.51419    
   1406000   1.0207128      18.60722       178.36202    
   1407000   0.9703989      17.842629      178.25567    
   1408000   0.96148514     17.875431      178.28782    
   1409000   1.0164754      18.583919      178.28953    
   1410000   0.9849974      18.4561        178.14396    
   1411000   0.9952485      18.498323      178.05701    
   1412000   1.0003307      18.493443      178.05446    
   1413000   0.99677861     18.038196      178.05351    
   1414000   0.96004384     17.945646      178.05624    
   1415000   1.0292726      17.946393      178.00188    
   1416000   0.97090885     18.275678      177.88324    
   1417000   1.0080339      18.160434      178.05888    
   1418000   0.9806102      18.459233      178.17432    
   1419000   1.0020373      18.575828      177.82916    
   1420000   0.99301776     18.399379      177.69355    
   1421000   0.99813851     18.251317      177.54429    
   1422000   0.9629139      18.241612      177.47763    
   1423000   1.0104547      18.445062      177.17668    
   1424000   0.9599099      18.54234       177.15462    
   1425000   1.0620843      19.109961      177.13728    
   1426000   1.0361254      18.193988      176.93321    
   1427000   0.98446442     18.198079      176.88219    
   1428000   1.0272308      18.356614      176.92631    
   1429000   1.0129399      18.334294      176.89267    
   1430000   1.0117172      18.31649       176.79736    
   1431000   0.96955498     18.284053      176.70768    
   1432000   0.97773381     18.541338      176.76247    
   1433000   0.96843317     17.880907      176.60684    
   1434000   0.97978806     17.80562       176.6528     
   1435000   1.0240536      18.335206      176.56399    
   1436000   0.93305568     18.239857      176.59892    
   1437000   1.0301276      18.189806      176.69611    
   1438000   1.012999       18.500914      176.75599    
   1439000   1.0039728      18.012054      176.68239    
   1440000   0.98996333     17.777866      176.51486    
   1441000   0.99728257     18.166187      176.2855     
   1442000   1.0120961      18.289404      176.01031    
   1443000   0.98128523     17.729141      175.88604    
   1444000   0.99990454     18.373809      175.92159    
   1445000   1.0124212      18.406422      175.77368    
   1446000   1.038682       18.526114      175.53277    
   1447000   0.98696624     18.068427      175.56422    
   1448000   0.97856738     18.447987      175.61414    
   1449000   1.0125909      18.612471      175.50552    
   1450000   1.0068958      18.494578      175.30529    
   1451000   0.99402768     18.265125      175.23011    
   1452000   1.0157269      18.448392      175.23811    
   1453000   0.99832274     18.363891      175.11611    
   1454000   0.95105278     17.936941      175.23544    
   1455000   0.9646201      18.084641      175.18825    
   1456000   1.0079668      18.926389      175.22398    
   1457000   0.97782533     18.519758      174.95013    
   1458000   0.99612531     18.311332      174.82978    
   1459000   0.98706505     18.448124      174.84459    
   1460000   1.0300237      18.282401      174.68537    
   1461000   1.0002497      18.554923      174.61104    
   1462000   0.9886393      18.541199      174.36122    
   1463000   1.0058768      18.166493      174.37154    
   1464000   1.0321481      17.689898      174.21022    
   1465000   1.0814504      18.283759      174.11554    
   1466000   1.0472688      18.571352      174.00302    
   1467000   1.0050737      18.151289      174.04921    
   1468000   0.98640614     18.13032       173.89272    
   1469000   1.0215869      18.580755      173.92698    
   1470000   0.97979266     18.28935       173.99559    
   1471000   1.0244133      18.002207      173.82613    
   1472000   0.99373761     18.095615      173.79826    
   1473000   0.99778476     18.98117       173.69823    
   1474000   0.99984198     18.468182      173.76692    
   1475000   1.0343532      18.16408       173.60268    
   1476000   1.0117547      18.78786       173.3743     
   1477000   0.97728739     17.910389      173.14239    
   1478000   1.0422853      18.682504      173.10933    
   1479000   1.0015609      18.345954      173.08598    
   1480000   0.97846253     17.678116      173.22416    
   1481000   0.99150746     18.769865      173.09305    
   1482000   0.98086395     18.534063      173.11901    
   1483000   1.0098058      17.851377      173.07408    
   1484000   1.0290488      18.243973      173.01652    
   1485000   0.98634383     18.341607      172.93586    
   1486000   1.0071676      18.223407      172.97415    
   1487000   0.97091529     18.221234      172.87055    
   1488000   0.97247437     18.197789      172.86645    
   1489000   1.0488765      18.076207      172.83524    
   1490000   0.99448784     18.866673      172.91404    
   1491000   0.9921213      18.332357      172.76686    
   1492000   1.0424555      18.743939      172.73099    
   1493000   0.97077496     18.24341       172.81733    
   1494000   0.97998434     18.500749      172.75257    
   1495000   1.0017401      18.558391      172.96027    
   1496000   0.98766987     18.283372      172.762      
   1497000   0.96995337     18.366738      172.58636    
   1498000   0.98068822     18.478178      172.47376    
   1499000   0.99462154     17.927027      172.27952    
   1500000   0.97378192     18.426978      172.22632    
   1501000   0.97709561     18.407263      172.02641    
   1502000   0.98368955     18.42143       172.12188    
   1503000   1.002521       18.398582      172.10418    
   1504000   1.0231043      18.592944      171.98479    
   1505000   1.000108       18.513396      171.87957    
   1506000   0.99993618     18.737805      171.80101    
   1507000   1.0154968      17.983414      171.66514    
   1508000   1.0514424      18.331475      171.38166    
   1509000   1.0156777      18.671923      171.17951    
   1510000   0.99107855     18.161913      170.94965    
   1511000   0.96435896     18.159849      170.7234     
   1512000   0.98108565     18.145612      170.69542    
   1513000   1.0055936      18.267948      170.5538     
   1514000   0.98572892     17.764984      170.3663     
   1515000   1.0057048      18.77947       170.47874    
   1516000   0.97486128     17.955757      170.33243    
   1517000   0.97425278     18.104292      170.2876     
   1518000   1.0293876      18.581934      170.05749    
   1519000   0.9785069      18.515705      170.21014    
   1520000   1.0126885      18.403351      170.33634    
   1521000   1.0275549      18.315374      170.18711    
   1522000   0.99970668     18.284851      170.04344    
   1523000   1.0195305      18.57261       169.74745    
   1524000   1.0040497      18.599776      169.67794    
   1525000   0.96812114     18.290557      169.61       
   1526000   0.98904105     18.195958      169.36071    
   1527000   1.0067379      17.999636      169.43021    
   1528000   0.95759555     17.863133      169.31367    
   1529000   0.95556371     18.068972      169.31424    
   1530000   1.0000364      18.108238      169.08502    
   1531000   1.007855       18.331974      168.88076    
   1532000   0.99813358     17.854779      168.63162    
   1533000   0.9679167      18.051869      168.46263    
   1534000   1.0010926      18.302023      168.40355    
   1535000   1.0099222      18.234562      168.493      
   1536000   0.99318887     17.926159      168.4099     
   1537000   1.0617762      18.48163       168.43872    
   1538000   0.97757519     17.821667      168.3052     
   1539000   1.045683       18.394747      168.2732     
   1540000   1.0054071      17.935217      168.26139    
   1541000   1.0564642      18.616673      168.51235    
   1542000   0.98188627     17.519075      168.43005    
   1543000   1.0179507      18.445862      168.33701    
   1544000   0.99359877     17.914437      168.27397    
   1545000   1.0299901      17.920541      168.14817    
   1546000   1.0126045      18.470005      168.11143    
   1547000   1.0041142      18.528309      168.16571    
   1548000   1.000995       18.424199      168.20113    
   1549000   1.0470402      18.164027      168.0671     
   1550000   1.0071257      17.864965      167.89995    
   1551000   1.0132292      18.577223      167.66331    
   1552000   1.0104425      18.453117      167.62345    
   1553000   0.99539604     18.114707      167.61074    
   1554000   1.0057656      18.849987      167.46815    
   1555000   1.0411959      17.739482      167.58441    
   1556000   0.99008472     18.664229      167.42102    
   1557000   0.99229961     18.234318      167.19795    
   1558000   1.0078699      18.262079      167.152      
   1559000   0.97594967     17.438228      167.06842    
   1560000   1.0247089      18.429701      166.94224    
   1561000   0.97831149     18.14563       166.78699    
   1562000   0.98924921     18.628881      166.68792    
   1563000   0.98205181     18.326491      166.59653    
   1564000   0.98011689     17.873124      166.29902    
   1565000   1.0002942      17.870046      166.00093    
   1566000   0.99324374     17.833806      165.75754    
   1567000   0.99543221     18.202719      165.46381    
   1568000   0.98682424     17.869912      165.57159    
   1569000   0.99893506     18.431095      165.53364    
   1570000   0.96341078     18.281446      165.4875     
   1571000   1.0189361      18.385537      165.52332    
   1572000   0.98377048     17.926353      165.28526    
   1573000   1.0321886      18.063119      165.24454    
   1574000   0.98702285     18.046677      165.00849    
   1575000   1.002157       18.099942      164.82337    
   1576000   1.0257015      18.561385      164.67297    
   1577000   0.9523154      18.406516      164.66382    
   1578000   1.018596       18.203407      164.60788    
   1579000   1.0069824      17.832642      164.47263    
   1580000   0.97619739     18.184594      164.29402    
   1581000   0.99913843     18.12282       164.22411    
   1582000   1.02746        18.084219      164.38449    
   1583000   0.98499195     18.092983      164.45318    
   1584000   0.97778015     17.963579      164.25968    
   1585000   1.0139806      18.078916      164.01233    
   1586000   1.0043679      18.19195       163.90455    
   1587000   1.0203961      18.112131      163.53486    
   1588000   1.0345054      18.410183      163.36616    
   1589000   1.0143622      18.16084       163.37163    
   1590000   0.97109802     18.106263      163.40459    
   1591000   0.98067018     18.072286      163.43978    
   1592000   1.0424847      18.661725      163.44322    
   1593000   0.97520614     18.306429      163.49749    
   1594000   1.007807       18.7199        163.60483    
   1595000   0.96032643     18.437403      163.43858    
   1596000   1.024573       18.293548      163.30881    
   1597000   0.96823059     18.023451      163.13773    
   1598000   1.027834       17.713228      163.15887    
   1599000   0.9525579      18.042005      162.85157    
   1600000   0.97779913     18.102207      162.92588    
   1601000   1.0195348      17.907921      162.92027    
   1602000   1.0068566      17.724054      162.79488    
   1603000   0.98504501     18.502491      162.5557     
   1604000   0.9616097      18.11624       162.24668    
   1605000   1.0276249      18.32989       161.99415    
   1606000   1.0127904      18.617062      162.0156     
   1607000   0.97767332     18.285004      161.8609     
   1608000   0.96322291     17.867641      162.01583    
   1609000   0.98276514     18.222958      161.98992    
   1610000   0.98097547     18.462319      161.90702    
   1611000   0.98778455     18.411123      162.05549    
   1612000   1.0095816      18.330951      162.02419    
   1613000   0.99122943     17.837322      161.92177    
   1614000   1.0193051      18.202963      161.78745    
   1615000   0.96658362     18.223267      161.68392    
   1616000   1.0077079      17.957811      161.41734    
   1617000   1.0038992      18.166948      161.37322    
   1618000   1.0180862      17.980733      161.32728    
   1619000   1.0038812      18.184081      161.11874    
   1620000   0.98000428     18.715668      161.06879    
   1621000   0.9828096      18.160104      161.01316    
   1622000   0.98681356     18.465661      160.99434    
   1623000   1.0016825      17.902454      160.99507    
   1624000   0.99512295     17.68805       160.8885     
   1625000   1.0125956      17.743671      160.7038     
   1626000   1.0113977      18.33224       160.52942    
   1627000   1.0295852      17.581286      160.49309    
   1628000   0.98018965     18.001482      160.45021    
   1629000   0.97442177     17.948967      160.18691    
   1630000   0.98758736     17.79249       159.98553    
   1631000   0.99178167     18.447405      159.96441    
   1632000   0.99267209     18.078079      159.94609    
   1633000   1.0005434      17.868546      159.93885    
   1634000   1.0213886      18.412652      159.96584    
   1635000   1.0112357      18.123538      159.75966    
   1636000   1.0095352      18.272399      159.84651    
   1637000   1.038948       18.134882      160.15008    
   1638000   0.9955829      18.293591      160.23153    
   1639000   0.95833611     18.315909      160.32222    
   1640000   1.0202768      18.488259      160.19377    
   1641000   1.0012689      18.509225      160.12194    
   1642000   1.0073662      18.390068      159.85577    
   1643000   1.0397491      18.835943      159.80554    
   1644000   0.99487917     18.153038      159.79749    
   1645000   1.0091097      18.061241      159.62144    
   1646000   0.98327139     18.35169       159.60485    
   1647000   1.0243958      18.618287      159.70595    
   1648000   0.98824262     18.699361      159.66776    
   1649000   0.99251678     18.060822      159.76788    
   1650000   1.0167125      18.815905      159.75744    
   1651000   0.96958061     18.519032      159.47836    
   1652000   1.0350059      18.270609      159.46101    
   1653000   1.0150861      18.236324      159.30985    
   1654000   1.0179485      18.427777      159.13689    
   1655000   1.0204553      18.049803      159.00084    
   1656000   1.0343843      18.290191      158.80585    
   1657000   1.014025       18.660171      158.74503    
   1658000   0.99890948     18.342952      158.75043    
   1659000   1.0285839      18.460345      158.55454    
   1660000   1.0169135      18.341998      158.64674    
   1661000   0.98446481     18.062092      158.62302    
   1662000   0.97976918     18.251024      158.45812    
   1663000   1.0142047      18.310416      158.29814    
   1664000   0.98387313     18.172426      158.3845     
   1665000   1.0294738      18.304783      158.29649    
   1666000   1.0030661      18.392894      158.43229    
   1667000   0.99050919     18.064348      158.39838    
   1668000   0.95715699     18.057705      158.45522    
   1669000   1.0200658      18.318161      158.16259    
   1670000   1.0163729      18.390284      158.11143    
   1671000   1.0185778      18.417209      158.04437    
   1672000   1.0005932      17.990395      157.81751    
   1673000   0.99445245     17.970747      157.85326    
   1674000   0.99619614     18.518345      157.80367    
   1675000   0.9763231      18.2452        157.85036    
   1676000   0.97997911     18.164382      157.98943    
   1677000   1.0199214      18.540612      158.03303    
   1678000   0.99946963     18.273315      158.0538     
   1679000   0.98871498     18.321118      157.94287    
   1680000   0.98565554     18.03428       157.78374    
   1681000   1.0353332      18.273405      157.94429    
   1682000   1.0235714      18.184349      157.91634    
   1683000   1.0723851      18.267214      157.84266    
   1684000   1.0103884      18.114584      157.85549    
   1685000   1.0268716      18.002895      157.73003    
   1686000   1.0385751      18.219966      157.73031    
   1687000   0.99293132     18.331788      157.67765    
   1688000   0.97652008     18.254885      157.49533    
   1689000   1.0451151      18.258345      157.44581    
   1690000   1.0380014      18.035563      157.39678    
   1691000   1.0503859      18.385817      157.40158    
   1692000   1.0196758      17.923198      157.55056    
   1693000   1.0030577      18.001452      157.4557     
   1694000   0.96435344     17.679946      157.5968     
   1695000   1.003312       18.433513      157.60053    
   1696000   0.99708516     18.425102      157.62703    
   1697000   0.98672671     18.161555      157.64452    
   1698000   1.0376516      18.582087      157.57122    
   1699000   0.98880168     18.563572      157.55787    
   1700000   1.0034897      17.898165      157.32318    
   1701000   0.98860476     18.524986      157.34287    
   1702000   1.0123253      18.367814      157.35239    
   1703000   0.98407166     17.95108       157.49806    
   1704000   0.97902643     17.35073       157.51022    
   1705000   1.0052264      18.408072      157.40053    
   1706000   1.0138174      18.631632      157.39518    
   1707000   1.0362345      18.590571      157.43537    
   1708000   1.0030184      17.942942      157.43491    
   1709000   1.0020613      18.197486      157.20718    
   1710000   0.97055064     18.273779      157.11954    
   1711000   1.0388681      17.61264       157.07747    
   1712000   1.0375151      18.274438      157.11502    
   1713000   1.0106857      18.118437      157.17007    
   1714000   1.0455075      17.476398      156.99087    
   1715000   0.97497966     18.248454      156.95328    
   1716000   1.0319041      18.36205       156.80149    
   1717000   1.0341384      18.242265      156.8628     
   1718000   1.0011526      17.785523      156.73887    
   1719000   1.0451118      18.643122      156.93367    
   1720000   0.99996963     18.382984      156.83896    
   1721000   1.0070613      17.9069        156.80834    
   1722000   0.97948238     17.89087       156.93773    
   1723000   1.026628       17.493235      156.62768    
   1724000   0.98513088     18.372416      156.48651    
   1725000   0.94720967     17.942569      156.25529    
   1726000   0.98798364     18.065832      156.14806    
   1727000   0.99279372     17.924106      156.1492     
   1728000   1.0203378      17.821616      155.93539    
   1729000   1.0117458      18.249853      155.74276    
   1730000   0.97481573     18.914102      155.86992    
   1731000   1.0673473      18.743701      155.84327    
   1732000   0.97314837     18.0039        155.69685    
   1733000   0.98783519     17.623384      155.57599    
   1734000   0.96301206     18.444102      155.4795     
   1735000   1.0185241      18.174449      155.32365    
   1736000   1.0249619      18.158783      155.41157    
   1737000   1.0462845      18.580934      155.42149    
   1738000   1.0455339      18.345324      155.271      
   1739000   0.97664717     17.929965      155.35964    
   1740000   0.980529       18.313035      155.25792    
   1741000   1.0090543      18.638828      155.37325    
   1742000   0.99858021     18.25709       155.3409     
   1743000   0.98576622     18.015002      155.14075    
   1744000   1.0305948      18.268173      154.98011    
   1745000   0.95844143     17.891475      154.87474    
   1746000   1.0008572      17.981412      154.86012    
   1747000   1.0023157      18.095218      154.86361    
   1748000   1.0141889      18.465266      154.91298    
   1749000   1.0249223      18.097706      154.95671    
   1750000   1.0102727      18.530969      154.77567    
   1751000   1.0173727      17.84814       154.68098    
   1752000   0.99095913     18.555232      154.78545    
   1753000   0.98977133     18.398558      154.5702     
   1754000   1.0210078      17.72641       154.58127    
   1755000   1.013941       17.398326      154.49308    
   1756000   1.0012995      17.870995      154.59688    
   1757000   0.98841794     18.019768      154.824      
   1758000   1.0096798      18.125661      154.83286    
   1759000   1.0189568      17.973297      154.81972    
   1760000   1.0073877      17.798787      154.65204    
   1761000   1.0586281      18.190235      154.79947    
   1762000   1.0027451      17.80643       154.76177    
   1763000   0.99898394     18.138685      154.52045    
   1764000   0.98529407     17.827374      154.68073    
   1765000   0.95845445     18.101797      154.4149     
   1766000   1.0033867      17.883123      154.35222    
   1767000   1.0139051      18.615487      154.12049    
   1768000   0.96426194     18.234072      154.09304    
   1769000   0.99141895     18.190446      154.17226    
   1770000   0.99010659     17.995662      154.16832    
   1771000   1.0003311      18.032159      154.07077    
   1772000   1.005318       18.288225      153.98061    
   1773000   0.96764775     18.031402      153.94095    
   1774000   1.0560367      18.718303      153.84808    
   1775000   0.98214387     17.991055      153.67103    
   1776000   0.96034256     17.97184       153.51337    
   1777000   0.98965826     18.180125      153.34739    
   1778000   0.98086546     17.632078      153.17647    
   1779000   0.99830423     17.986259      153.02732    
   1780000   1.0045549      18.433072      152.91807    
   1781000   1.0307112      18.542286      152.8859     
   1782000   0.99140688     17.990631      153.05174    
   1783000   1.0066442      18.840878      152.83315    
   1784000   1.0286469      18.025368      152.57898    
   1785000   1.0241379      18.231083      152.56386    
   1786000   1.0007683      17.943168      152.45914    
   1787000   0.99830755     18.092145      152.4061     
   1788000   1.0076665      18.410187      152.31861    
   1789000   0.99359605     18.453209      152.21409    
   1790000   1.0138864      18.592769      152.11084    
   1791000   0.97556754     18.110878      152.05014    
   1792000   1.001469       18.267087      152.22475    
   1793000   0.96429674     17.45712       152.362      
   1794000   0.93244616     18.006118      152.29568    
   1795000   0.99071599     17.991459      152.02151    
   1796000   1.0024715      17.93744       152.04971    
   1797000   1.0345622      18.497909      152.21576    
   1798000   0.98910034     17.969923      152.3883     
   1799000   1.0116495      18.252835      152.50165    
   1800000   0.98040602     18.312109      152.47906    
   1801000   1.009804       18.182973      152.63252    
   1802000   1.0067336      18.113893      152.85424    
   1803000   1.0188911      17.815001      152.73738    
   1804000   0.99674593     18.408354      152.87034    
   1805000   0.99963853     17.674999      152.72204    
   1806000   1.0226558      18.196317      152.67197    
   1807000   0.98346682     17.633533      152.74283    
   1808000   0.98934219     18.72608       152.61649    
   1809000   1.0094953      17.967248      152.74464    
   1810000   0.99260046     18.184744      152.70134    
   1811000   0.98053024     18.136377      152.74962    
   1812000   1.0145448      18.283385      152.47279    
   1813000   0.99842679     17.806907      152.45937    
   1814000   1.0013383      18.174187      152.34022    
   1815000   0.99258292     18.158486      152.36287    
   1816000   0.99656007     17.908983      152.34319    
   1817000   1.0213575      18.065518      152.30813    
   1818000   1.0131699      18.395509      152.28718    
   1819000   1.0211569      18.300724      152.17408    
   1820000   1.0051057      18.094348      152.1608     
   1821000   0.9699016      17.794702      152.06362    
   1822000   0.98948055     17.965809      152.15011    
   1823000   0.99983143     17.773888      151.95852    
   1824000   0.99732304     18.001151      151.83562    
   1825000   1.0167634      18.458264      151.81427    
   1826000   0.95446617     18.280625      151.83422    
   1827000   0.96359345     17.951301      151.75473    
   1828000   1.0260919      18.55507       151.75069    
   1829000   0.97403938     17.637865      151.72401    
   1830000   0.9919322      17.711507      151.83618    
   1831000   0.9865034      18.036535      151.74293    
   1832000   1.0014106      18.690477      151.67353    
   1833000   0.98105629     18.294169      151.59819    
   1834000   1.0034928      17.879193      151.78647    
   1835000   1.0166588      18.297773      151.54675    
   1836000   1.0409165      18.32202       151.7336     
   1837000   0.99409062     17.949474      151.66899    
   1838000   0.98558466     17.910841      151.51132    
   1839000   0.95107878     18.43431       151.37279    
   1840000   0.98259002     17.842404      151.16442    
   1841000   0.97449138     18.138788      150.94638    
   1842000   1.0009552      17.96697       150.95964    
   1843000   0.98213873     18.290558      150.85323    
   1844000   0.97691957     18.018498      150.93452    
   1845000   1.0478057      17.88892       150.88182    
   1846000   0.97757464     17.687146      150.66459    
   1847000   1.0140308      18.0654        150.33449    
   1848000   0.98647077     18.071951      150.35006    
   1849000   1.0088995      17.895335      150.25079    
   1850000   1.0189714      17.885144      150.065      
   1851000   0.99714629     18.045895      150.03502    
   1852000   1.00056        18.323576      150.129      
   1853000   0.96216765     17.841795      150.29984    
   1854000   0.97226966     17.638309      150.24264    
   1855000   1.0239886      18.21828       150.22756    
   1856000   1.0320696      18.033384      150.14201    
   1857000   0.99543313     17.820176      150.05157    
   1858000   1.0034411      18.180027      150.01502    
   1859000   0.98887246     17.706806      149.90865    
   1860000   1.0148471      18.176222      150.12342    
   1861000   1.0526486      18.297353      149.9843     
   1862000   1.0188307      18.143928      149.76149    
   1863000   0.9941979      18.375491      149.67453    
   1864000   0.96455953     17.783959      149.55475    
   1865000   1.0037531      18.568694      149.40804    
   1866000   1.0107871      18.225659      149.20973    
   1867000   0.98544109     18.060169      149.15427    
   1868000   1.0035839      18.02481       149.13027    
   1869000   1.0090482      18.213675      149.15793    
   1870000   1.0442381      17.768951      149.35632    
   1871000   1.013374       17.957935      149.45318    
   1872000   1.0005538      18.239289      149.30598    
   1873000   0.98442614     18.199745      149.39513    
   1874000   0.95653507     17.694757      149.1727     
   1875000   0.98685411     18.160942      149.0808     
   1876000   0.99819583     17.559317      148.98534    
   1877000   0.99729649     18.381514      149.16127    
   1878000   1.0097112      18.048373      148.94709    
   1879000   0.9637489      17.802031      148.89203    
   1880000   0.99440461     18.085715      148.75117    
   1881000   1.0084009      18.573097      148.61473    
   1882000   0.99722705     18.040732      148.54325    
   1883000   1.0297936      18.305713      148.53889    
   1884000   0.98989323     18.432904      148.39231    
   1885000   1.0188248      18.04344       148.17667    
   1886000   1.0353452      18.005644      148.0352     
   1887000   0.99101766     18.453828      147.77413    
   1888000   1.0453718      17.682704      147.75812    
   1889000   1.0116983      18.733124      147.82467    
   1890000   0.94073896     18.093635      147.60888    
   1891000   0.98646828     17.980912      147.40504    
   1892000   0.99517362     18.27943       147.06583    
   1893000   0.99228938     18.277974      146.92412    
   1894000   1.0157359      18.170921      146.74778    
   1895000   1.0073932      18.499247      146.72683    
   1896000   1.0195357      18.004233      146.87815    
   1897000   1.029579       17.430407      147.08587    
   1898000   1.0510685      18.247824      147.02996    
   1899000   1.0012562      18.016111      146.92369    
   1900000   1.0086512      17.808869      146.75634    
   1901000   1.0118281      17.806014      146.57509    
   1902000   0.97453708     18.010464      146.51484    
   1903000   0.95390178     17.988877      146.40014    
   1904000   1.0174034      18.097715      146.48962    
   1905000   1.0326073      18.436661      146.38178    
   1906000   0.98009395     17.904629      146.41828    
   1907000   0.99583322     17.409952      146.53226    
   1908000   0.97889945     18.006986      146.31133    
   1909000   1.0013296      18.012199      146.32417    
   1910000   1.027924       18.158601      146.25396    
   1911000   1.0377291      18.135778      146.26179    
   1912000   0.97809473     17.920735      146.45964    
   1913000   0.99110058     18.011557      146.22435    
   1914000   1.0059521      18.316297      146.19036    
   1915000   0.98139729     18.309927      146.20914    
   1916000   1.0032987      18.375174      146.17551    
   1917000   1.0289052      18.480385      146.2865     
   1918000   1.0304541      18.335476      146.41477    
   1919000   0.99530033     18.532006      146.4138     
   1920000   1.03349        18.191467      146.49663    
   1921000   1.0386297      18.340341      146.38097    
   1922000   1.0042232      18.280455      146.30618    
   1923000   1.0059023      18.220309      146.44613    
   1924000   1.0447691      17.990604      146.06195    
   1925000   1.0304211      17.760713      145.79007    
   1926000   1.0246964      17.725241      145.71141    
   1927000   1.0229412      17.537272      145.73482    
   1928000   1.0107766      17.931068      145.48297    
   1929000   1.0232074      18.196138      145.44369    
   1930000   0.99953007     18.150991      145.62099    
   1931000   1.01765        17.558546      145.5825     
   1932000   1.0441067      18.53655       145.48967    
   1933000   0.96752929     17.885711      145.43226    
   1934000   0.99336855     18.220543      145.30875    
   1935000   0.9636151      17.502583      145.14289    
   1936000   0.99894008     18.009827      145.10399    
   1937000   0.98841678     18.303593      145.11269    
   1938000   0.99744829     18.01666       144.91487    
   1939000   0.98418334     17.839886      144.84587    
   1940000   0.98263828     17.839814      144.67862    
   1941000   0.99995115     18.158173      144.60363    
   1942000   1.021527       18.256711      144.52203    
   1943000   1.0121552      18.301003      144.38996    
   1944000   1.0339385      18.484459      144.23364    
   1945000   0.98110294     17.999467      144.30315    
   1946000   0.99744523     18.374219      144.19687    
   1947000   0.99676519     17.92474       144.39052    
   1948000   0.99112669     18.229785      144.32703    
   1949000   0.98594591     18.074062      144.32447    
   1950000   1.0133057      18.168625      144.25931    
   1951000   0.98803948     17.869579      144.32877    
   1952000   1.0082         18.077253      144.20844    
   1953000   0.99316109     18.34189       144.02405    
   1954000   0.97190697     18.294954      143.92327    
   1955000   0.9922633      17.721115      143.90029    
   1956000   1.0133318      18.586731      143.89062    
   1957000   0.97997313     18.041217      143.60516    
   1958000   1.0050964      18.326463      143.54046    
   1959000   1.023292       18.278432      143.58719    
   1960000   1.0339483      17.857719      143.76895    
   1961000   1.000961       17.956613      143.6363     
   1962000   1.0167926      17.884288      143.80563    
   1963000   0.98380607     17.710405      143.55689    
   1964000   1.0284349      18.219179      143.21462    
   1965000   1.0112218      18.440988      143.18955    
   1966000   0.96586934     17.954711      143.11309    
   1967000   0.98065758     18.28476       142.91878    
   1968000   0.99116028     17.626221      143.0827     
   1969000   0.99565334     17.82865       142.97226    
   1970000   1.0149283      17.852259      142.7348     
   1971000   1.0470144      17.91411       142.59127    
   1972000   0.97713197     18.202525      142.54408    
   1973000   0.99095502     17.683944      142.77853    
   1974000   1.0094325      18.307243      142.82545    
   1975000   1.0061233      18.313414      142.76158    
   1976000   0.99766219     18.153635      142.50689    
   1977000   1.0019203      18.095642      142.829      
   1978000   0.98936185     18.096392      142.95527    
   1979000   0.97939102     17.690228      143.19654    
   1980000   1.0139052      18.429424      143.26926    
   1981000   1.0170006      17.988312      143.14891    
   1982000   1.0236162      17.995437      143.20821    
   1983000   0.98253496     18.268407      143.2383     
   1984000   1.0258431      18.176812      143.19426    
   1985000   0.98848145     18.124283      143.04847    
   1986000   1.0366958      18.23902       142.95489    
   1987000   1.003047       17.547046      142.77375    
   1988000   1.0065199      18.114835      142.88086    
   1989000   0.9844554      17.93777       142.74948    
   1990000   1.0010902      18.176087      142.69725    
   1991000   0.97452793     17.682535      142.53641    
   1992000   1.0126797      17.951966      142.43358    
   1993000   0.98732341     18.180642      142.49533    
   1994000   1.0274737      18.530104      142.63821    
   1995000   1.0086897      18.636292      142.49547    
   1996000   0.98313441     18.246073      142.41309    
   1997000   1.0331581      18.148274      142.24474    
   1998000   0.96601893     18.157085      142.10355    
   1999000   0.96504708     17.792943      141.99762    
   2000000   1.0101559      18.242157      141.87916    
   2001000   0.96342498     18.436449      141.77575    
   2002000   1.0019442      18.274494      141.73632    
   2003000   0.97929514     18.263461      141.5677     
   2004000   0.99252847     17.970836      141.51108    
   2005000   1.0150447      18.03858       141.31523    
   2006000   0.95977877     17.812624      141.30726    
   2007000   0.95617912     18.134075      141.32046    
   2008000   0.99935988     17.803662      141.09294    
   2009000   1.0007792      18.421438      140.95711    
   2010000   1.0232451      18.123168      140.98682    
   2011000   0.99340807     18.071999      141.00282    
   2012000   0.99145634     17.851402      140.91413    
   2013000   0.98586739     18.066842      140.88041    
   2014000   1.0108968      18.264396      140.80864    
   2015000   1.0005184      17.922152      140.70934    
   2016000   0.9986946      18.597996      140.55907    
   2017000   1.0048549      17.992727      140.52849    
   2018000   0.98049697     18.081321      140.35194    
   2019000   0.97708724     18.154666      140.3037     
   2020000   0.96949324     17.824508      140.40352    
   2021000   1.0251997      17.997691      140.12582    
   2022000   0.98044818     18.114026      140.12915    
   2023000   1.0086095      18.09273       140.02534    
   2024000   0.98609705     18.268959      140.0667     
   2025000   1.0058297      18.291072      139.98191    
   2026000   1.0026533      18.009736      139.61165    
   2027000   0.99914525     18.616314      139.54903    
   2028000   0.97877        17.687333      139.36276    
   2029000   0.97752161     17.891216      139.35899    
   2030000   1.0185363      18.156718      139.41226    
   2031000   1.0315041      17.97957       139.53435    
   2032000   0.98447881     18.693519      139.59216    
   2033000   1.0508473      18.181835      139.4803     
   2034000   0.99523472     17.680971      139.46824    
   2035000   1.0506732      17.891678      139.45877    
   2036000   0.9862022      17.690958      139.53792    
   2037000   0.99673332     17.733363      139.36644    
   2038000   1.0185752      18.253085      139.31307    
   2039000   0.96983405     17.763004      139.08395    
   2040000   1.0011314      18.602243      138.80986    
   2041000   1.0016361      17.786513      138.87004    
   2042000   1.0304218      18.459599      138.69362    
   2043000   1.0247614      18.281648      138.56911    
   2044000   1.0244436      18.06675       138.61076    
   2045000   1.0004779      17.849438      138.42654    
   2046000   0.97869174     17.823449      138.4152     
   2047000   0.99598745     18.041994      138.60401    
   2048000   0.97104917     18.187376      138.65579    
   2049000   1.0372821      18.533573      138.47044    
   2050000   1.0232211      18.136042      138.46129    
   2051000   1.0127446      18.262565      138.48085    
   2052000   1.0123945      17.7543        138.2899     
   2053000   0.9756153      17.77377       138.30189    
   2054000   1.044118       18.056478      138.17073    
   2055000   0.99500195     18.198393      138.0591     
   2056000   0.95556978     17.808414      138.20687    
   2057000   0.99266937     17.845786      138.1097     
   2058000   1.0238191      18.586945      138.00399    
   2059000   1.026531       17.886126      137.80402    
   2060000   0.99604289     17.85444       137.71453    
   2061000   1.0124186      17.985088      137.80596    
   2062000   0.99721383     18.030709      137.78306    
   2063000   0.98632434     18.220628      137.75272    
   2064000   0.99769554     18.261185      137.87845    
   2065000   1.0131723      18.306861      137.99432    
   2066000   1.0162255      17.913602      137.80945    
   2067000   0.995571       18.135268      137.74158    
   2068000   1.0091357      18.29896       137.53092    
   2069000   0.99160439     18.221769      137.36301    
   2070000   1.0202492      18.119543      137.41007    
   2071000   1.016612       18.092247      137.3438     
   2072000   1.0094614      18.146521      137.10952    
   2073000   1.0054841      18.204885      136.97915    
   2074000   0.99036022     17.904926      136.93874    
   2075000   0.9858343      18.07314       136.85936    
   2076000   0.9652879      17.667344      136.82778    
   2077000   0.96853042     17.804644      136.65832    
   2078000   1.0233657      17.739458      136.62808    
   2079000   0.99033464     18.147859      136.51426    
   2080000   0.96230407     17.706209      136.49086    
   2081000   1.0219933      18.428712      136.53297    
   2082000   1.0036836      17.900935      136.57116    
   2083000   0.98927012     18.434852      136.32273    
   2084000   0.98844726     17.808382      136.32108    
   2085000   0.99065473     17.973167      136.2932     
   2086000   0.96891807     17.966509      136.29927    
   2087000   0.96120714     17.716071      136.26168    
   2088000   1.0016571      17.964655      136.20755    
   2089000   1.0024396      18.544186      135.83073    
   2090000   0.98331832     17.691642      135.89544    
   2091000   0.97264372     18.392428      136.06595    
   2092000   1.0208076      17.941271      135.90345    
   2093000   1.0100423      18.025217      135.73316    
   2094000   1.0222         18.662979      135.59683    
   2095000   0.96841308     18.160528      135.51511    
   2096000   0.97289555     18.346361      135.34501    
   2097000   1.016894       18.623384      135.37927    
   2098000   0.96911086     17.739818      135.49501    
   2099000   0.99513256     17.880208      135.61154    
   2100000   0.98633152     17.760564      135.65371    
   2101000   1.0095523      18.549785      135.65421    
   2102000   0.9926814      18.647515      135.58127    
   2103000   1.0037999      17.830881      135.61627    
   2104000   1.0151705      17.993437      135.66004    
   2105000   0.98282327     17.871272      135.61428    
   2106000   1.0179307      18.203455      135.48637    
   2107000   0.9896186      17.85284       135.35408    
   2108000   1.024909       18.348152      135.2046     
   2109000   0.97113964     17.774152      135.05534    
   2110000   0.9448219      18.48696       134.90176    
   2111000   1.0050493      17.962343      134.76954    
   2112000   1.0159263      18.140063      134.61766    
   2113000   0.98978453     17.904326      134.75267    
   2114000   0.99141447     17.982691      135.01225    
   2115000   1.0192561      17.632645      135.19605    
   2116000   1.0175974      17.773446      135.05934    
   2117000   1.0298934      17.93018       135.14252    
   2118000   1.0158858      17.996856      135.22068    
   2119000   1.006785       18.018579      135.14476    
   2120000   0.97754464     18.27555       134.94912    
   2121000   0.98357274     17.667755      134.9037     
   2122000   0.98545161     17.575398      134.92722    
   2123000   0.98515029     18.2453        135.11737    
   2124000   1.008363       18.257654      135.12371    
   2125000   1.0044231      17.559713      135.05509    
   2126000   0.97708853     18.215344      134.95109    
   2127000   0.99265502     18.141956      134.87417    
   2128000   1.0028681      18.547269      134.97657    
   2129000   1.017091       17.940263      134.82314    
   2130000   1.0230926      17.952684      134.68098    
   2131000   1.016961       17.611782      134.70437    
   2132000   0.93984444     17.824175      134.69221    
   2133000   1.0066486      18.475035      134.35758    
   2134000   1.0156234      17.86562       134.37034    
   2135000   0.99855241     17.801312      134.34219    
   2136000   0.984484       17.979576      134.22531    
   2137000   0.98935187     17.955852      133.92585    
   2138000   1.0662194      18.442463      133.96554    
   2139000   1.0004324      18.121842      133.90988    
   2140000   1.0403774      18.096903      133.7016     
   2141000   0.97838805     18.088249      133.32428    
   2142000   1.0007468      18.198332      132.95282    
   2143000   1.0263564      18.117574      132.81184    
   2144000   1.0031251      18.600007      132.63935    
   2145000   1.0344498      17.687902      132.56493    
   2146000   1.0076752      18.669333      132.70307    
   2147000   1.0080387      18.510931      132.69424    
   2148000   1.0104356      17.768876      132.33526    
   2149000   0.97621742     17.903717      132.04359    
   2150000   1.0163621      17.962965      131.99009    
   2151000   0.96932776     18.438802      131.90808    
   2152000   1.0071305      18.154342      131.89327    
   2153000   1.0139741      18.22745       131.77931    
   2154000   1.0191078      18.323581      131.86844    
   2155000   1.0339289      18.460281      131.64281    
   2156000   1.0066756      18.797594      131.56466    
   2157000   1.0055391      17.998538      131.52624    
   2158000   0.97982378     18.597335      131.51988    
   2159000   0.97286435     17.975593      131.33306    
   2160000   1.0113794      18.128603      131.14581    
   2161000   1.0232584      17.971961      130.81085    
   2162000   1.0062192      17.807085      130.69074    
   2163000   0.96811984     17.76077       130.72135    
   2164000   1.0077967      18.207878      130.77106    
   2165000   1.0466892      18.02186       130.69001    
   2166000   0.97457809     18.18407       130.64858    
   2167000   0.97783673     18.239175      130.55739    
   2168000   0.96524103     17.659492      130.34289    
   2169000   1.0193607      18.139286      130.20821    
   2170000   0.99139648     18.01117       130.01661    
   2171000   0.99459578     17.90189       129.89659    
   2172000   1.0062763      18.228926      129.83487    
   2173000   0.9997456      18.177461      129.74546    
   2174000   1.0094858      17.951998      129.81927    
   2175000   0.96391526     17.768999      129.76125    
   2176000   1.0056597      18.113571      129.97562    
   2177000   1.0035864      18.128652      129.73987    
   2178000   1.0272817      17.866142      129.72623    
   2179000   0.9813624      17.899881      129.84561    
   2180000   1.0056587      17.857212      129.78132    
   2181000   1.0069813      17.966208      129.93132    
   2182000   1.0300966      17.801547      129.85929    
   2183000   0.98542447     17.868504      129.83394    
   2184000   0.97319178     17.92645       129.72549    
   2185000   0.98471898     17.666143      129.57827    
   2186000   0.99801544     17.614582      129.48677    
   2187000   1.0007476      17.47865       129.48621    
   2188000   1.0082911      18.59623       129.48215    
   2189000   0.98359084     17.706532      129.16496    
   2190000   0.99994406     17.97578       129.07886    
   2191000   1.0451404      18.288053      129.08801    
   2192000   0.98800095     17.29384       129.06007    
   2193000   1.0048627      18.055671      129.03576    
   2194000   0.99744677     17.832436      129.23325    
   2195000   0.98575728     17.942572      129.04245    
   2196000   1.0205711      18.470155      128.83556    
   2197000   1.0417583      17.521382      128.69684    
   2198000   1.0036996      18.199785      128.64105    
   2199000   0.98899589     18.282916      128.52449    
   2200000   0.98990236     17.933672      128.32763    
   2201000   1.0105689      17.683645      128.25135    
   2202000   1.0047474      18.339197      128.27538    
   2203000   1.0003617      17.447623      128.08211    
   2204000   1.0184914      17.729486      128.29804    
   2205000   0.98484737     17.929757      128.2639     
   2206000   0.96983015     17.790952      128.30782    
   2207000   1.0033082      17.735956      128.17948    
   2208000   1.0100165      17.892753      128.15111    
   2209000   0.94855779     18.04121       128.1096     
   2210000   0.99434991     17.302386      127.95185    
   2211000   0.99531629     17.71548       128.03201    
   2212000   1.0095038      18.058165      127.94678    
   2213000   0.98390031     17.909484      127.79388    
   2214000   0.99449976     18.193015      127.86607    
   2215000   1.0476228      17.792637      127.95854    
   2216000   0.98427446     18.188229      127.93483    
   2217000   0.99648747     17.78347       127.99111    
   2218000   0.99226451     18.093734      127.96883    
   2219000   1.0122753      18.128739      128.15595    
   2220000   0.98814727     17.884608      128.20671    
   2221000   1.0323903      17.574657      128.05993    
   2222000   0.98221218     17.6544        128.15482    
   2223000   1.0181051      18.024796      127.96136    
   2224000   0.97989199     17.911732      127.74594    
   2225000   0.9886501      18.041142      127.73265    
   2226000   0.99250533     18.827945      127.64736    
   2227000   1.0236715      17.750408      127.56563    
   2228000   1.0148622      17.987989      127.51065    
   2229000   0.98058427     18.200342      127.52719    
   2230000   1.0121898      17.869335      127.41485    
   2231000   0.99840435     17.886928      127.50684    
   2232000   1.0442553      17.671029      127.54811    
   2233000   1.0204832      17.938434      127.68679    
   2234000   0.99102851     17.60222       127.6924     
   2235000   1.0146335      18.021069      127.65892    
   2236000   0.96232977     17.440306      127.73044    
   2237000   1.001588       17.432896      127.61425    
   2238000   1.0417835      18.284573      127.57085    
   2239000   1.0140925      17.507099      127.58547    
   2240000   0.97550904     17.340024      127.58988    
   2241000   0.97485793     17.640472      127.51513    
   2242000   1.0396628      17.807359      127.68313    
   2243000   0.98511392     18.042796      127.53396    
   2244000   0.95843825     17.912352      127.48166    
   2245000   0.98875457     17.798565      127.60891    
   2246000   1.0036084      18.165452      127.69653    
   2247000   0.97667369     17.400617      127.77971    
   2248000   0.98342551     18.076209      127.8847     
   2249000   1.0261514      17.862852      127.70915    
   2250000   0.99088803     18.222789      127.58605    
   2251000   0.98795901     18.036448      127.55431    
   2252000   1.0364011      17.542691      127.40322    
   2253000   0.97419347     17.992073      127.38572    
   2254000   0.98374406     18.192282      127.21583    
   2255000   1.0148721      18.530731      127.34185    
   2256000   0.98959186     18.699553      127.40361    
   2257000   0.96690156     17.3712        127.32102    
   2258000   1.020105       18.213233      127.26513    
   2259000   1.0195385      17.906639      127.33548    
   2260000   0.98942628     18.013318      127.25007    
   2261000   1.0377193      18.345549      127.22623    
   2262000   0.98892794     17.79859       126.97205    
   2263000   1.0253753      18.180777      126.94567    
   2264000   1.0038801      17.904682      126.70563    
   2265000   1.0236065      17.924834      126.70047    
   2266000   1.0143385      17.785099      126.55984    
   2267000   1.0138651      17.873952      126.61663    
   2268000   1.0107972      18.101084      126.60542    
   2269000   0.99297036     18.022694      126.57361    
   2270000   1.0050742      17.389164      126.75519    
   2271000   0.99366187     18.551174      126.81618    
   2272000   1.0028046      18.234358      126.72638    
   2273000   0.9856753      18.026431      126.75263    
   2274000   1.0119788      18.312848      126.63104    
   2275000   0.98881844     18.040728      126.51557    
   2276000   1.0097888      18.175316      126.35522    
   2277000   0.96889591     17.506231      126.26262    
   2278000   1.0266042      18.297962      126.17365    
   2279000   1.0053408      17.676925      126.23558    
   2280000   0.99484187     17.737262      126.2972     
   2281000   1.0355343      18.527892      126.14819    
   2282000   1.0174776      17.884158      126.14956    
   2283000   1.0131703      18.120144      126.12352    
   2284000   1.0051215      17.555489      126.11559    
   2285000   0.95508732     18.182479      126.05835    
   2286000   1.0324255      17.685678      126.30408    
   2287000   0.98616699     17.892848      126.25691    
   2288000   0.97321038     17.717595      126.01083    
   2289000   1.0084978      18.502443      126.03151    
   2290000   0.99914154     17.681577      126.12055    
   2291000   0.9862766      17.949461      125.92658    
   2292000   0.97731951     18.39875       125.77566    
   2293000   1.0093229      17.891487      125.6799     
   2294000   0.97871951     18.282592      125.69112    
   2295000   0.99138742     18.091127      125.82861    
   2296000   1.0230925      17.791101      125.83076    
   2297000   0.99132811     18.091897      125.50363    
   2298000   1.036438       18.149478      125.25532    
   2299000   1.0081909      17.635552      125.19643    
   2300000   1.0416967      17.941949      124.90919    
   2301000   0.99671856     17.936383      124.93819    
   2302000   1.0313445      18.263531      124.8477     
   2303000   0.98327432     17.962721      124.67196    
   2304000   1.0125593      17.797985      124.57142    
   2305000   1.0443899      17.964365      124.39942    
   2306000   1.0088828      17.50449       124.32706    
   2307000   1.0294789      18.144654      123.96207    
   2308000   0.99215569     17.935493      123.87117    
   2309000   1.0118583      18.221552      123.84189    
   2310000   0.97650457     18.011056      123.89319    
   2311000   1.0210244      18.112906      123.90693    
   2312000   0.98328811     18.193455      123.87434    
   2313000   0.97085977     18.182874      123.8933     
   2314000   0.96038402     17.81548       123.86106    
   2315000   1.0013483      18.153292      123.6663     
   2316000   1.0145778      17.700651      123.54587    
   2317000   1.0348459      17.633146      123.68868    
   2318000   0.98115239     17.914484      123.62417    
   2319000   1.0091245      17.405128      123.5998     
   2320000   1.0359358      18.032507      123.50792    
   2321000   0.97714434     17.762875      123.59184    
   2322000   1.0256966      17.731583      123.43632    
   2323000   0.97809155     18.258412      123.40811    
   2324000   1.0182965      18.278531      123.35988    
   2325000   0.97509436     17.796374      123.23995    
   2326000   1.020538       17.981438      123.27843    
   2327000   0.99555824     17.876082      123.01991    
   2328000   1.0028764      17.660582      122.87957    
   2329000   1.0265883      18.086296      123.02242    
   2330000   1.0272012      17.836584      123.0538     
   2331000   0.99771416     17.997706      123.15138    
   2332000   1.0037047      17.837337      122.9447     
   2333000   0.96678698     18.247885      123.13496    
   2334000   0.99944253     17.917697      123.20863    
   2335000   0.99920328     17.788668      123.25598    
   2336000   0.98640697     18.268185      123.21132    
   2337000   0.99115585     17.939346      123.23049    
   2338000   0.96364168     17.443085      122.9715     
   2339000   0.995466       18.077754      122.97579    
   2340000   0.99398217     17.798954      122.87311    
   2341000   1.0845711      17.573183      122.97402    
   2342000   1.0177348      18.010522      122.81667    
   2343000   1.022144       17.846309      122.5092     
   2344000   1.010298       18.265881      122.52751    
   2345000   0.99623292     17.802533      122.38642    
   2346000   1.0005304      18.686351      122.20477    
   2347000   1.0406862      18.111848      122.1695     
   2348000   1.0002473      17.726611      122.09372    
   2349000   0.9667137      18.060483      122.04745    
   2350000   1.0052344      18.525273      122.07635    
   2351000   0.97912956     17.819262      121.85674    
   2352000   1.0219606      18.231547      121.79286    
   2353000   0.98218915     17.682499      121.82887    
   2354000   0.98267679     17.726348      121.92789    
   2355000   0.98121121     18.394273      121.84441    
   2356000   1.026449       18.235511      121.68009    
   2357000   1.0380626      18.189544      121.75268    
   2358000   1.0087953      17.967637      121.88624    
   2359000   1.0049485      18.155489      122.03676    
   2360000   0.95846496     17.624071      122.03471    
   2361000   0.9778361      17.667342      121.84944    
   2362000   0.97107186     17.93546       121.73426    
   2363000   1.0357139      17.772713      121.64392    
   2364000   1.0056801      17.715828      121.48216    
   2365000   1.0231495      17.700108      121.38121    
   2366000   1.045116       18.062353      121.53884    
   2367000   1.0381762      18.134191      121.39522    
   2368000   1.039951       18.073628      121.25161    
   2369000   1.0366251      17.950181      121.04891    
   2370000   1.0170935      18.163575      120.98233    
   2371000   1.008226       18.318043      121.08791    
   2372000   1.0202164      18.41608       121.07417    
   2373000   1.0233621      17.812035      120.84334    
   2374000   1.0127747      17.57335       120.74689    
   2375000   0.98995774     18.462425      120.76335    
   2376000   1.0323946      17.932047      120.66158    
   2377000   0.97994451     17.494261      120.56044    
   2378000   1.0211234      17.674111      120.51204    
   2379000   0.95172444     17.783495      120.6185     
   2380000   0.96667846     17.058979      120.49193    
   2381000   0.98337791     17.718854      120.39697    
   2382000   0.94727687     17.785561      120.38637    
   2383000   0.98375551     17.499899      120.32078    
   2384000   1.0048561      17.504099      120.31667    
   2385000   1.0042551      17.908648      120.19444    
   2386000   1.0314243      18.130197      119.88549    
   2387000   1.0188134      18.146778      119.70563    
   2388000   0.99116251     17.947688      119.61611    
   2389000   1.0093076      18.065104      119.45263    
   2390000   1.0008479      18.178203      119.39576    
   2391000   0.99678536     17.820622      119.20149    
   2392000   1.0401056      17.56553       119.28867    
   2393000   0.97610604     17.592925      119.30055    
   2394000   0.98600945     17.765018      119.22401    
   2395000   1.016137       18.180271      119.13375    
   2396000   1.0085822      17.543341      118.95402    
   2397000   0.96054918     17.951088      118.78887    
   2398000   0.99435763     18.030532      118.95922    
   2399000   1.0127009      17.863861      118.89897    
   2400000   1.0123796      17.928688      118.5134     
   2401000   0.99251911     18.267786      118.46854    
   2402000   1.0209559      18.261351      118.51159    
   2403000   0.97798229     17.597407      118.37076    
   2404000   0.95697622     17.788435      118.35423    
   2405000   0.99979219     18.127845      118.26908    
   2406000   0.93929421     17.760769      118.28214    
   2407000   0.99927204     17.482828      118.04502    
   2408000   0.96074969     17.599385      118.01468    
   2409000   0.98922301     18.211327      117.81469    
   2410000   0.98012038     17.837228      117.55207    
   2411000   1.0043476      17.902803      117.63127    
   2412000   1.0287336      17.908081      117.51601    
   2413000   0.95841243     18.029385      117.47378    
   2414000   1.0302849      18.010168      117.40977    
   2415000   1.0389403      18.076748      117.3292     
   2416000   1.0014015      17.658813      117.32502    
   2417000   1.0522318      17.9062        117.19097    
   2418000   0.96242505     17.715053      117.3576     
   2419000   1.0361917      17.722858      117.48348    
   2420000   0.98242716     18.043265      117.27319    
   2421000   1.0269909      17.89558       116.96456    
   2422000   0.99313412     17.634781      116.74594    
   2423000   1.0038558      18.471317      116.73418    
   2424000   0.9987876      18.151874      116.6769     
   2425000   1.0226571      17.897633      116.64439    
   2426000   1.0154048      17.792127      116.75862    
   2427000   1.0048868      17.861966      116.71767    
   2428000   1.0117919      17.982245      116.6921     
   2429000   0.9946223      17.88922       116.63639    
   2430000   0.95334091     17.225607      116.68907    
   2431000   0.99365542     17.529048      116.59943    
   2432000   0.99840539     18.211006      116.43066    
   2433000   1.0126456      18.106393      116.3077     
   2434000   0.99037382     18.008598      116.31979    
   2435000   0.99201962     17.923662      116.12642    
   2436000   1.0570509      18.313683      116.03391    
   2437000   1.0132951      17.612212      115.75688    
   2438000   0.98565331     17.660507      115.60504    
   2439000   0.96231461     17.565745      115.6093     
   2440000   1.0215353      17.608435      115.64795    
   2441000   1.0044884      18.071416      115.68474    
   2442000   0.99621783     17.491757      115.66386    
   2443000   1.0009301      17.644451      115.68294    
   2444000   1.0022125      18.220757      115.54576    
   2445000   1.0112312      18.066839      115.50415    
   2446000   1.0006398      17.618347      115.38647    
   2447000   1.0317973      17.809606      115.28715    
   2448000   0.99129908     17.832454      115.23397    
   2449000   0.98397139     17.851723      114.91726    
   2450000   0.98012913     17.265977      114.89046    
   2451000   1.0396083      17.593385      114.75041    
   2452000   0.9747071      17.837153      114.56225    
   2453000   0.96948757     17.977167      114.37687    
   2454000   0.98955944     17.210158      114.21436    
   2455000   1.0165185      17.963791      113.94829    
   2456000   0.98568944     17.94636       113.84943    
   2457000   0.98444274     17.705774      113.79409    
   2458000   0.99367541     17.792898      113.70147    
   2459000   0.99385486     17.987225      113.49087    
   2460000   0.97883063     17.780476      113.52708    
   2461000   0.9897796      17.977128      113.47124    
   2462000   1.0058406      17.805627      113.33197    
   2463000   0.99797035     18.012591      113.30926    
   2464000   0.99887758     17.600428      113.16814    
   2465000   0.97909522     17.830389      113.06557    
   2466000   1.0204197      17.608781      113.1329     
   2467000   1.0426728      18.069762      113.07029    
   2468000   0.97699143     17.85369       113.04488    
   2469000   0.97346288     18.188679      113.11323    
   2470000   1.0216912      17.818896      113.0412     
   2471000   1.0541919      17.926579      112.98468    
   2472000   1.0049722      17.810722      112.75628    
   2473000   0.98113051     17.538134      112.83435    
   2474000   0.96430411     17.455269      112.60925    
   2475000   0.98515893     17.267971      112.56908    
   2476000   1.0127571      17.596761      112.3794     
   2477000   1.0162216      17.723055      112.12335    
   2478000   0.98405683     17.374235      111.95073    
   2479000   0.96237231     18.054079      111.94301    
   2480000   1.0007285      17.907928      111.843      
   2481000   1.0366957      17.759126      111.61759    
   2482000   0.96077725     17.355868      111.45125    
   2483000   0.99632095     17.821793      111.48746    
   2484000   0.99571325     17.964827      111.40341    
   2485000   0.99228459     17.740988      111.27275    
   2486000   0.97133266     17.308807      111.18759    
   2487000   1.014902       18.385817      111.18922    
   2488000   1.0044939      17.887693      111.11263    
   2489000   1.0093483      17.422917      111.15804    
   2490000   0.98941537     18.182502      111.07542    
   2491000   1.0073142      17.806126      111.28689    
   2492000   1.0156164      17.955245      111.20963    
   2493000   0.96700746     18.033385      111.2525     
   2494000   1.0044651      17.896464      111.34047    
   2495000   0.96690953     17.618851      111.32715    
   2496000   0.99147788     17.821645      111.30296    
   2497000   0.98526085     17.478352      111.03095    
   2498000   0.98703731     17.126724      110.87216    
   2499000   0.98398239     17.884004      110.94823    
   2500000   0.97942109     17.837461      110.89468    
   2501000   0.98442864     17.467062      110.96401    
   2502000   0.99841168     18.109706      110.88249    
   2503000   0.9969322      17.681538      110.93333    
   2504000   0.97562191     17.534684      110.73543    
   2505000   1.0157048      17.753528      110.70616    
   2506000   0.97456215     18.096555      110.67615    
   2507000   0.9727876      17.850972      110.47715    
   2508000   1.0070488      17.805449      110.57957    
   2509000   0.96751084     17.535853      110.17859    
   2510000   0.93841452     17.084782      110.02594    
   2511000   0.95051512     17.299146      109.9672     
   2512000   0.96289508     17.145131      109.88087    
   2513000   0.99986815     17.936501      109.90629    
   2514000   1.0128464      17.850149      109.90613    
   2515000   1.0027454      18.211158      109.80586    
   2516000   0.98107658     17.845281      109.58676    
   2517000   0.99756542     17.244759      109.45337    
   2518000   1.032208       17.668527      109.68975    
   2519000   0.95320181     17.41405       109.69501    
   2520000   0.96515969     17.624551      109.55618    
   2521000   1.0119498      17.853061      109.63459    
   2522000   0.98302426     17.608776      109.88905    
   2523000   0.99486396     17.89784       109.75343    
   2524000   0.9977194      17.998511      109.6685     
   2525000   1.0141755      17.777113      109.56571    
   2526000   0.97224106     17.524969      109.4339     
   2527000   1.0134021      17.399521      109.35232    
   2528000   0.98166082     17.851037      109.07202    
   2529000   0.98884151     18.440081      109.12347    
   2530000   1.0162168      18.037169      109.11604    
   2531000   0.99719238     17.446118      109.19514    
   2532000   1.0099288      17.199962      109.01921    
   2533000   1.0105325      18.142929      108.98469    
   2534000   1.0165541      17.534961      108.99892    
   2535000   0.98738542     17.899354      108.89479    
   2536000   0.98025879     17.649213      108.71281    
   2537000   1.0108709      17.992568      108.51854    
   2538000   1.0093812      17.425142      108.62745    
   2539000   0.98524459     17.836654      108.60067    
   2540000   1.0389688      17.675701      108.49639    
   2541000   1.0269172      17.778431      108.33557    
   2542000   1.0117141      17.769768      108.27365    
   2543000   0.99578829     17.905497      108.26282    
   2544000   0.98050143     18.464358      108.37772    
   2545000   1.0039631      17.748158      108.40177    
   2546000   0.98471049     17.740731      108.34361    
   2547000   0.99556263     17.821714      108.3104     
   2548000   1.0122761      18.302261      108.45505    
   2549000   1.009637       17.77466       108.28454    
   2550000   0.99260599     17.638482      108.02139    
   2551000   1.0139062      17.958842      107.97092    
   2552000   1.0210182      17.947946      107.92391    
   2553000   1.0083401      17.621756      107.83151    
   2554000   1.0220562      18.046611      107.72133    
   2555000   1.012738       17.870675      107.43656    
   2556000   1.0261007      17.988379      107.42659    
   2557000   0.97554523     17.944592      107.38952    
   2558000   1.058311       17.610344      107.43258    
   2559000   1.057309       17.955513      107.29432    
   2560000   0.97884292     17.922549      107.36917    
   2561000   1.0098592      17.642016      107.20678    
   2562000   0.9719882      17.900815      107.15909    
   2563000   1.0064621      17.747889      107.24831    
   2564000   0.97245862     17.749314      107.29041    
   2565000   1.0250465      17.955594      107.317      
   2566000   0.98609575     17.341368      107.42311    
   2567000   1.0209977      17.9322        107.42277    
   2568000   0.98177205     17.539292      107.29092    
   2569000   1.0443103      17.496219      107.35686    
   2570000   1.0219944      18.185278      107.464      
   2571000   1.0266421      17.43626       107.34746    
   2572000   0.9931153      17.416235      107.34098    
   2573000   1.0201472      18.076304      107.22773    
   2574000   0.94451278     17.467242      107.14469    
   2575000   1.0105305      17.849085      107.33876    
   2576000   0.99309679     17.576712      107.33926    
   2577000   1.0126739      17.321044      107.30504    
   2578000   1.023092       17.970148      107.26372    
   2579000   1.0108004      17.471468      107.13927    
   2580000   1.0054898      18.100406      107.07183    
   2581000   1.0220622      17.777755      107.16187    
   2582000   0.9895155      18.015232      106.84258    
   2583000   0.9960178      17.571454      106.73398    
   2584000   0.9949274      17.508154      106.41377    
   2585000   0.98601831     17.752189      106.44414    
   2586000   0.99799844     17.440075      106.40084    
   2587000   0.99112106     18.217387      106.43759    
   2588000   1.030354       17.878698      106.41642    
   2589000   0.97549472     17.573661      106.52405    
   2590000   0.98553648     18.197967      106.61323    
   2591000   0.94647595     17.139362      106.45529    
   2592000   1.0175493      17.665967      106.20636    
   2593000   1.0259103      18.265114      105.97153    
   2594000   1.0279693      17.650131      105.78888    
   2595000   0.99412274     17.569418      105.64504    
   2596000   1.0365304      17.488523      105.88678    
   2597000   1.0338706      17.092276      105.81581    
   2598000   0.98085899     17.962474      105.56662    
   2599000   0.99431278     18.310491      105.68057    
   2600000   0.98142848     17.875598      105.74891    
   2601000   0.98617637     17.598886      105.62782    
   2602000   0.99991121     17.285833      105.7928     
   2603000   1.0210132      17.362591      105.9025     
   2604000   1.0120029      17.753376      105.80837    
   2605000   1.0338119      17.976692      105.82512    
   2606000   0.97975641     18.051485      105.75995    
   2607000   1.020122       17.540653      105.72811    
   2608000   0.99423512     17.41676       105.38869    
   2609000   1.0556697      17.574182      105.18332    
   2610000   1.0334021      17.982891      104.98779    
   2611000   0.93094938     17.699431      105.15508    
   2612000   0.95910375     17.527636      104.96337    
   2613000   1.0066865      17.80729       104.97516    
   2614000   1.064419       17.347996      105.08184    
   2615000   1.0086837      17.491956      104.93572    
   2616000   1.0093822      17.183899      104.84793    
   2617000   1.014578       17.408376      104.72726    
   2618000   1.0005119      17.684553      104.82816    
   2619000   1.088337       17.58928       104.55784    
   2620000   0.98969873     17.491103      104.5597     
   2621000   0.99353046     17.651967      104.52676    
   2622000   0.98552434     17.756589      104.5129     
   2623000   0.96375965     17.73667       104.55978    
   2624000   0.97804973     17.628366      104.19715    
   2625000   0.99864455     17.600233      104.05011    
   2626000   0.99150715     17.592871      103.92304    
   2627000   1.0074338      17.468861      103.84458    
   2628000   0.9771496      18.100211      103.71793    
   2629000   1.0131167      17.482092      103.62093    
   2630000   0.99000028     18.027506      103.58539    
   2631000   1.0072507      17.690195      103.88349    
   2632000   1.0281345      17.863262      104.11529    
   2633000   0.97669406     17.73138       103.98573    
   2634000   0.95879467     17.407224      103.84123    
   2635000   0.96954781     17.738461      103.80978    
   2636000   0.97354565     17.917766      103.65072    
   2637000   1.0059664      17.928272      103.47814    
   2638000   0.9873196      17.496548      103.29201    
   2639000   0.97977683     17.23351       102.94632    
   2640000   0.99719594     17.256311      102.66894    
   2641000   0.99385719     18.149647      102.71455    
   2642000   0.99561055     17.294258      102.67335    
   2643000   1.0012513      18.161438      102.65257    
   2644000   1.0054105      17.384537      102.62831    
   2645000   0.99383744     17.29614       102.72213    
   2646000   1.0163031      17.739127      102.47928    
   2647000   1.03537        18.186371      102.53872    
   2648000   1.0336643      18.013688      102.4166     
   2649000   1.026207       17.748002      102.33616    
   2650000   1.0044018      17.846504      102.20337    
   2651000   1.0171832      17.850058      102.02826    
   2652000   1.018975       17.604832      101.78392    
   2653000   0.99044735     17.16171       101.56249    
   2654000   0.96125785     17.599896      101.74321    
   2655000   0.99992916     17.825625      101.85535    
   2656000   1.011149       17.479902      101.77436    
   2657000   0.99391127     17.857102      101.58541    
   2658000   0.98846668     17.786703      101.58778    
   2659000   1.0267514      17.307609      101.40785    
   2660000   1.0175762      17.734723      101.48855    
   2661000   0.97243558     17.693954      101.41654    
   2662000   0.95148126     17.228886      101.3886     
   2663000   1.0229678      18.116867      101.33759    
   2664000   1.0236676      18.257695      101.06164    
   2665000   0.9785648      18.377653      100.94674    
   2666000   1.0055521      18.039431      100.8462     
   2667000   1.0457201      17.298813      100.52225    
   2668000   0.98090861     17.929358      100.42873    
   2669000   0.99982212     17.329092      100.34804    
   2670000   1.0176033      17.835448      100.42188    
   2671000   1.0143743      17.2207        100.41601    
   2672000   0.98717318     17.606993      100.34967    
   2673000   0.97836837     17.831151      100.39663    
   2674000   0.99063214     18.206977      100.35877    
   2675000   1.0003204      17.154667      100.51372    
   2676000   1.009702       18.135031      100.47522    
   2677000   1.026402       17.967734      100.66524    
   2678000   1.0012582      18.067281      100.56881    
   2679000   1.0019954      17.769759      100.58955    
   2680000   1.0199223      17.620757      100.65954    
   2681000   0.99355992     17.234687      100.61012    
   2682000   1.0410186      17.914315      100.65986    
   2683000   1.0162397      17.641512      100.75503    
   2684000   0.96110946     17.543457      100.61049    
   2685000   0.9737811      17.338365      100.58409    
   2686000   1.0066255      17.709303      100.62253    
   2687000   0.99564467     17.530394      100.70994    
   2688000   0.98472952     17.470612      100.7698     
   2689000   1.0075661      17.974466      100.71456    
   2690000   1.0461136      17.766631      100.51925    
   2691000   0.98499962     17.786632      100.40712    
   2692000   1.0186405      18.031807      100.26467    
   2693000   1.0218766      17.667201      100.08619    
   2694000   1.0288551      17.577244      99.998346    
   2695000   1.0145522      18.333626      99.89551     
   2696000   1.0256518      17.440681      99.764149    
   2697000   0.98739545     17.592555      99.779543    
   2698000   0.99854614     18.089591      99.757304    
   2699000   0.98899118     17.782091      99.970233    
   2700000   1.0247264      17.594103      99.610783    
   2701000   0.98283375     18.08904       99.508807    
   2702000   0.99625539     18.06617       99.600257    
   2703000   0.97096729     17.188574      99.623398    
   2704000   0.99080359     17.606681      99.300969    
   2705000   0.96954221     17.408817      99.248025    
   2706000   1.0008143      17.429052      99.206099    
   2707000   0.98465607     17.890609      99.442314    
   2708000   1.0466222      17.334394      99.343028    
   2709000   1.0058185      17.651648      99.263871    
   2710000   1.0100451      17.558538      99.385145    
   2711000   0.96737842     17.589917      99.5279      
   2712000   1.0017409      17.620176      99.528495    
   2713000   1.0142475      17.515662      99.45403     
   2714000   0.9962476      17.99265       99.432625    
   2715000   1.0299878      17.195196      99.266722    
   2716000   0.98961611     17.074862      99.244028    
   2717000   1.0106098      17.699362      99.212114    
   2718000   1.014004       17.506065      99.228875    
   2719000   1.0165905      17.783713      99.168011    
   2720000   1.0046097      17.91636       98.838695    
   2721000   1.042102       18.106832      98.665806    
   2722000   1.0446319      18.397708      98.603696    
   2723000   0.96487155     17.777444      98.609511    
   2724000   0.96904627     17.108827      98.44736     
   2725000   0.95886433     17.375492      98.182535    
   2726000   1.0036574      17.870433      98.192548    
   2727000   1.0206895      17.761894      98.1356      
   2728000   1.0071714      17.995216      98.231817    
   2729000   0.94334219     17.95186       98.040253    
   2730000   1.0655662      18.062749      97.999045    
   2731000   0.99429974     17.876606      98.036342    
   2732000   1.0012208      17.506796      97.890824    
   2733000   0.98738772     17.337952      97.838394    
   2734000   1.0124165      18.086288      98.085085    
   2735000   0.94336973     17.639361      97.885722    
   2736000   1.0224094      17.615815      97.605226    
   2737000   0.98183136     17.677113      97.605757    
   2738000   1.0100856      17.312566      97.49019     
   2739000   0.98987035     17.785432      97.272289    
   2740000   1.0229654      17.662036      97.186424    
   2741000   0.99222836     17.610379      97.153868    
   2742000   0.93273981     17.727541      97.08607     
   2743000   1.0635079      17.885613      96.830579    
   2744000   1.0104832      17.499659      96.857197    
   2745000   0.9785057      17.735701      96.77166     
   2746000   0.99913744     18.521841      96.835945    
   2747000   0.98620947     17.545566      96.992017    
   2748000   1.0269549      17.81498       96.841301    
   2749000   0.99374829     18.449036      96.738937    
   2750000   1.028208       17.912772      96.671101    
   2751000   1.0347389      18.102272      96.631201    
   2752000   0.98300127     17.860791      96.463483    
   2753000   1.0131946      17.962646      96.386743    
   2754000   1.0467294      18.186009      96.306254    
   2755000   0.99802382     17.670517      96.441167    
   2756000   1.0107692      17.749205      96.423089    
   2757000   1.0295039      17.67472       96.489872    
   2758000   1.0280814      17.807779      96.449882    
   2759000   0.98038303     17.922061      96.348474    
   2760000   1.0228652      17.343574      96.478106    
   2761000   0.9761834      17.536324      96.417786    
   2762000   0.98121888     17.861411      96.422275    
   2763000   1.0334748      17.499667      96.333806    
   2764000   0.99832227     17.598566      96.286255    
   2765000   0.99019487     17.320916      96.347986    
   2766000   0.97355036     17.602678      96.55874     
   2767000   1.0518141      17.613474      96.579011    
   2768000   0.98853858     17.374193      96.626505    
   2769000   1.0206238      17.241659      96.813012    
   2770000   1.0230244      17.828405      96.741493    
   2771000   1.0324962      17.227532      96.670849    
   2772000   1.0110865      17.615388      96.766247    
   2773000   0.99041607     18.069095      96.694554    
   2774000   0.99248061     17.366815      96.805567    
   2775000   1.0096136      17.139498      96.807902    
   2776000   1.0244568      17.831193      96.839021    
   2777000   1.0346199      17.43288       96.919237    
   2778000   0.98876326     17.965643      96.807637    
   2779000   0.97421        18.001031      96.530748    
   2780000   1.0065925      17.40179       96.408408    
   2781000   0.99612363     17.304157      96.549231    
   2782000   1.0163066      17.714018      96.337551    
   2783000   0.98421155     17.628867      96.271313    
   2784000   1.0147183      17.688137      96.100115    
   2785000   0.96272622     17.291946      95.997812    
   2786000   1.0139819      17.703784      95.85856     
   2787000   0.94647555     17.409584      95.956333    
   2788000   1.0407929      18.172918      95.984374    
   2789000   0.99403538     18.122062      95.932617    
   2790000   1.0245791      17.90381       95.876971    
   2791000   0.97525334     17.821261      96.009126    
   2792000   1.035126       17.921552      95.9684      
   2793000   0.99671358     17.489718      96.023137    
   2794000   0.99665384     17.308409      95.907741    
   2795000   1.0229888      17.644533      96.157473    
   2796000   1.0050755      17.649192      96.360272    
   2797000   1.0109274      17.454555      96.40857     
   2798000   1.0067688      18.334424      96.274248    
   2799000   1.0077195      17.867194      96.163264    
   2800000   0.93855386     17.301864      96.262207    
   2801000   0.9951003      17.501645      96.195265    
   2802000   0.9764178      17.561859      96.053389    
   2803000   1.0269476      17.211216      96.326995    
   2804000   1.0318267      17.855188      96.157342    
   2805000   1.0273186      17.075606      96.392411    
   2806000   1.0127658      17.555623      96.149895    
   2807000   0.99952061     17.618536      96.069789    
   2808000   0.98008997     18.064558      95.844796    
   2809000   0.97848668     17.519296      95.582931    
   2810000   0.94428969     17.416291      95.470189    
   2811000   0.97906085     17.73416       95.428041    
   2812000   0.99994426     17.277379      95.331289    
   2813000   0.97501498     17.639914      95.406766    
   2814000   1.040904       17.102432      95.424473    
   2815000   0.97814812     17.709519      95.192078    
   2816000   1.031814       17.711562      95.086435    
   2817000   1.0097836      17.788844      95.11282     
   2818000   0.97964029     17.474282      95.080166    
   2819000   0.96427558     17.38198       95.107752    
   2820000   1.0034085      17.615503      94.944908    
   2821000   0.96780782     17.836323      94.965683    
   2822000   0.99330235     17.700167      94.827671    
   2823000   1.0124609      17.961449      94.616488    
   2824000   1.0157411      17.706503      94.480998    
   2825000   0.95778738     17.366736      94.342706    
   2826000   1.0381966      17.179335      94.535361    
   2827000   1.0087722      17.440227      94.735415    
   2828000   1.0137724      17.618113      94.782427    
   2829000   1.0280931      18.048816      94.783097    
   2830000   1.0310249      17.473248      94.747752    
   2831000   1.0427198      17.435643      94.406589    
   2832000   1.030176       17.845913      94.49022     
   2833000   1.0131781      17.704042      94.4869      
   2834000   1.0168732      17.688428      94.251227    
   2835000   1.0359173      17.657137      94.27105     
   2836000   1.0110267      17.7236        94.21381     
   2837000   1.0255955      17.042922      94.138662    
   2838000   0.94958589     17.294874      94.041336    
   2839000   1.0109183      17.674246      93.837784    
   2840000   1.018872       17.284614      93.730946    
   2841000   0.98618934     17.657356      93.803665    
   2842000   1.0140042      17.934557      93.7561      
   2843000   0.9918997      17.859312      93.633204    
   2844000   1.0095538      17.313622      93.709228    
   2845000   1.025943       17.86433       93.679556    
   2846000   1.008295       17.860494      93.50373     
   2847000   0.97964401     17.440604      93.302329    
   2848000   0.99820542     17.944685      93.326449    
   2849000   1.0614717      17.692088      93.162445    
   2850000   0.98968782     17.664495      93.134577    
   2851000   0.97531818     17.401569      93.007666    
   2852000   1.0185565      17.334058      93.119136    
   2853000   1.0507662      17.566613      93.255018    
   2854000   0.98873868     17.73889       93.25546     
   2855000   0.98252151     17.712148      93.305662    
   2856000   1.0344439      17.77656       93.201711    
   2857000   0.96857382     17.372751      93.124416    
   2858000   1.0227167      17.442073      92.828548    
   2859000   0.98854769     17.610267      92.719007    
   2860000   1.047407       17.500465      92.503633    
   2861000   1.0374638      16.987626      92.389834    
   2862000   0.99667313     17.097432      92.273716    
   2863000   1.0027431      17.709217      91.990795    
   2864000   1.0075892      17.276198      91.965997    
   2865000   1.0017839      17.657871      91.950954    
   2866000   0.94506822     17.754972      92.021482    
   2867000   0.98857073     17.479621      92.24212     
   2868000   1.0342228      17.99957       92.318242    
   2869000   1.031704       17.866397      92.26991     
   2870000   0.9818507      17.693687      92.359206    
   2871000   1.0336546      18.197698      92.230184    
   2872000   0.97945192     17.793098      92.267731    
   2873000   1.005631       17.604201      92.306222    
   2874000   0.99045049     17.619019      92.415436    
   2875000   1.0304185      17.57935       92.154768    
   2876000   1.0138351      17.526402      92.346099    
   2877000   0.95990128     17.607559      92.452696    
   2878000   1.0044085      17.3509        92.311542    
   2879000   1.0099959      17.626501      92.327758    
   2880000   1.0016836      17.360866      91.948909    
   2881000   1.0195649      17.775618      91.663424    
   2882000   1.0119222      17.55065       91.367138    
   2883000   0.95921511     17.45531       91.374426    
   2884000   1.0033408      17.514058      91.1189      
   2885000   0.96352463     17.237108      91.015289    
   2886000   1.0107945      17.054607      90.909285    
   2887000   1.0381557      17.360196      90.966335    
   2888000   0.99611513     17.476403      90.86451     
   2889000   1.0021662      17.672055      90.700891    
   2890000   0.98808804     18.037867      90.569387    
   2891000   1.0435375      17.87569       90.474912    
   2892000   1.0021976      17.565715      90.480648    
   2893000   1.0097998      17.128791      90.536529    
   2894000   1.0281143      17.50401       90.303729    
   2895000   1.0284055      18.182725      90.339127    
   2896000   0.95296522     17.335146      90.474145    
   2897000   0.97616314     17.352917      90.561969    
   2898000   0.99339909     17.602217      90.404381    
   2899000   1.0008974      17.964443      90.280574    
   2900000   1.0102382      17.28365       90.012064    
   2901000   1.0355378      17.667449      89.964488    
   2902000   1.0268433      17.615515      89.968959    
   2903000   0.97577401     17.686519      89.901822    
   2904000   1.034858       17.416006      89.828537    
   2905000   0.99048828     17.65146       89.835575    
   2906000   1.0025771      17.624549      89.90708     
   2907000   0.99455466     17.89255       89.847807    
   2908000   1.0133778      18.273743      89.599266    
   2909000   0.99055896     17.626462      89.53155     
   2910000   1.0194142      17.517999      89.739557    
   2911000   1.0311529      17.775115      89.687241    
   2912000   0.9835682      17.545346      89.6111      
   2913000   0.99882204     17.952629      89.230829    
   2914000   0.94783953     17.138253      89.259029    
   2915000   1.0088637      17.672227      89.289057    
   2916000   1.0150705      17.807265      89.35478     
   2917000   0.98722189     17.812311      89.449581    
   2918000   1.0308534      17.630762      89.406395    
   2919000   0.99967742     17.522233      89.416914    
   2920000   1.0108949      17.479022      89.415953    
   2921000   0.98709669     17.575675      89.373762    
   2922000   1.0306615      17.319272      89.382036    
   2923000   1.0336746      17.635674      89.419535    
   2924000   0.97074092     18.106599      89.224703    
   2925000   0.97726582     17.506123      89.176928    
   2926000   1.0381289      17.718298      88.928602    
   2927000   0.99630617     17.691117      88.966497    
   2928000   0.98433124     17.942919      88.699908    
   2929000   0.99013771     17.383039      88.622417    
   2930000   0.97560576     16.773999      88.660986    
   2931000   1.0060578      17.896225      88.574336    
   2932000   1.0337371      17.132176      88.354889    
   2933000   1.0118409      17.494137      88.249439    
   2934000   0.97275055     17.613575      88.184856    
   2935000   0.99461446     17.72447       88.049233    
   2936000   1.016167       17.841102      88.172571    
   2937000   0.98286298     17.404466      88.145158    
   2938000   0.99055285     17.25828       88.139871    
   2939000   1.0413632      17.881413      88.108016    
   2940000   1.003231       18.049393      88.175925    
   2941000   1.0065276      17.611722      88.244081    
   2942000   1.0105589      17.740986      88.209011    
   2943000   0.97963441     17.533699      88.226763    
   2944000   0.97241801     17.832636      88.21831     
   2945000   1.0063515      17.752075      87.934094    
   2946000   0.99016364     16.962065      87.998318    
   2947000   0.99254147     17.979415      88.057852    
   2948000   1.0468611      17.705255      87.951992    
   2949000   0.97366225     17.424009      87.947451    
   2950000   1.0332476      17.615819      87.866112    
   2951000   0.98209974     16.825295      87.7125      
   2952000   1.0543836      17.815776      87.476256    
   2953000   1.0193691      17.791435      87.510088    
   2954000   1.0141596      17.485377      87.390907    
   2955000   0.98392825     17.815219      87.221199    
   2956000   1.0672767      18.159252      86.987087    
   2957000   0.98521057     17.659496      87.068079    
   2958000   0.98179087     17.681964      86.906917    
   2959000   1.0324335      17.687178      86.89153     
   2960000   1.0070507      17.481903      86.92265     
   2961000   0.9962908      18.009377      87.036943    
   2962000   0.98668421     17.637032      87.211672    
   2963000   0.98479486     17.351578      87.112871    
   2964000   0.95028444     17.304468      87.083644    
   2965000   1.0196168      17.780762      86.647977    
   2966000   1.0183906      17.366397      86.688889    
   2967000   0.97591104     17.542355      86.655011    
   2968000   1.0212991      17.425822      86.586777    
   2969000   0.98249236     17.380501      86.672598    
   2970000   0.9888324      17.378728      86.648135    
   2971000   1.0072625      17.526428      86.803962    
   2972000   1.026125       18.290572      86.744396    
   2973000   1.0190047      17.474577      86.663817    
   2974000   1.0234998      17.87884       86.441951    
   2975000   0.97163678     17.72218       86.402899    
   2976000   1.0011555      17.688458      86.36416     
   2977000   0.97865717     17.381681      86.144868    
   2978000   1.0489325      17.52815       86.021753    
   2979000   0.99802251     17.392882      85.949773    
   2980000   1.029354       17.702677      85.991643    
   2981000   1.0131142      17.032375      85.908593    
   2982000   1.0014224      17.353492      85.863769    
   2983000   0.98505303     16.973791      85.665458    
   2984000   0.94465442     17.091018      85.595863    
   2985000   1.0190314      16.982716      85.419929    
   2986000   1.0241115      17.096192      85.467844    
   2987000   1.0092088      17.076765      85.252459    
   2988000   1.0303953      17.671591      85.152426    
   2989000   0.97357195     17.494927      85.066245    
   2990000   0.99334093     17.008502      84.952987    
   2991000   1.0248769      17.325953      84.901788    
   2992000   1.0122443      17.746753      85.055988    
   2993000   0.98403804     17.38794       85.247516    
   2994000   0.9885326      17.342835      85.175586    
   2995000   0.95948858     17.134107      85.052558    
   2996000   1.0028363      17.498836      85.012909    
   2997000   1.0042257      17.526096      85.18217     
   2998000   0.99568723     17.574417      84.958327    
   2999000   1.0214672      17.998389      84.850696    
   3000000   1.0051873      17.054595      84.794545    
   3001000   0.97981618     17.477099      84.798924    
   3002000   1.0206576      17.753672      84.720646    
   3003000   1.050397       17.685981      84.419985    
   3004000   0.98835769     17.574489      84.307389    
   3005000   0.98859853     17.219312      84.066647    
   3006000   0.99369152     17.143835      83.949878    
   3007000   1.0215255      17.681259      83.730009    
   3008000   1.034059       17.974342      83.518039    
   3009000   0.99270175     17.616229      83.506759    
   3010000   1.0111362      17.736333      83.508767    
   3011000   1.0124246      17.544563      83.403801    
   3012000   0.97121432     17.291578      83.449272    
   3013000   0.9749377      17.778493      83.367178    
   3014000   0.9848214      17.277465      83.22342     
   3015000   1.0030391      17.815183      83.385517    
   3016000   0.99067345     17.933114      83.194855    
   3017000   0.9939293      17.791716      83.255747    
   3018000   1.0276193      17.354606      83.038233    
   3019000   0.95607225     17.640804      83.06374     
   3020000   1.0137319      17.397098      83.000903    
   3021000   0.9830067      17.27347       82.954269    
   3022000   1.0222915      17.410609      82.919829    
   3023000   1.036779       17.989324      82.58733     
   3024000   0.97123686     17.179661      82.555345    
   3025000   1.0163376      17.111293      82.371447    
   3026000   0.97018266     17.894616      82.551216    
   3027000   1.009685       17.241539      82.588406    
   3028000   0.95352685     17.75714       82.547877    
   3029000   0.97389352     17.417283      82.408216    
   3030000   1.008523       18.097602      82.264604    
   3031000   1.033618       17.937606      82.261786    
   3032000   0.99410452     17.661225      82.326561    
   3033000   0.95582448     17.517758      82.348332    
   3034000   1.0174621      17.685901      82.441209    
   3035000   0.97065846     17.643936      82.593629    
   3036000   1.0174581      17.607439      82.480162    
   3037000   0.99970195     17.496682      82.312735    
   3038000   1.0060276      17.920724      82.212517    
   3039000   0.97785103     17.597817      82.079042    
   3040000   1.0130569      17.395612      82.122714    
   3041000   0.98327073     17.115906      82.018756    
   3042000   0.97542158     17.466459      81.906881    
   3043000   0.97691663     16.940761      81.90732     
   3044000   1.0087299      17.433312      81.930481    
   3045000   1.0003252      17.920941      81.820808    
   3046000   1.0245681      17.894558      81.636083    
   3047000   0.99630173     17.309566      81.655146    
   3048000   1.011903       17.86993       81.603778    
   3049000   1.0274183      17.387909      81.535717    
   3050000   1.0322399      17.926096      81.48826     
   3051000   1.026821       17.751429      81.613918    
   3052000   1.0043254      17.567607      81.527251    
   3053000   1.0122445      17.829409      81.592178    
   3054000   0.97026505     17.178359      81.422874    
   3055000   1.008524       17.77157       81.389811    
   3056000   1.006048       17.344864      81.168855    
   3057000   0.97614603     17.799827      81.225925    
   3058000   1.0030431      17.587456      81.040597    
   3059000   1.0154965      17.48443       80.662793    
   3060000   1.0195739      17.767368      80.578195    
   3061000   0.98749147     16.917185      80.645452    
   3062000   0.99145913     17.588718      80.703121    
   3063000   1.0003031      17.56196       80.477941    
   3064000   1.0243218      17.582416      80.604456    
   3065000   0.99015098     17.388796      80.559512    
   3066000   1.0008166      17.788313      80.65888     
   3067000   1.0028144      17.802561      80.691027    
   3068000   0.9861303      17.372281      80.739445    
   3069000   0.99568694     16.955399      80.792011    
   3070000   0.96196803     17.789076      80.637119    
   3071000   1.0074155      17.501996      80.457263    
   3072000   1.0071399      17.278662      80.290259    
   3073000   0.99670237     17.299594      79.988484    
   3074000   0.99062326     17.914653      79.871675    
   3075000   0.99538327     17.070128      79.759568    
   3076000   1.0124669      17.687927      79.70482     
   3077000   1.0219257      17.566662      79.638724    
   3078000   0.975724       17.22683       79.319775    
   3079000   1.0538121      17.700068      79.35952     
   3080000   1.017745       17.470034      79.342172    
   3081000   1.0239437      17.949261      79.308171    
   3082000   1.0040022      16.900502      79.240388    
   3083000   0.95873172     17.337825      79.190079    
   3084000   1.0166003      17.302144      79.295247    
   3085000   1.0123196      17.428212      79.399651    
   3086000   1.0115292      17.827987      79.435148    
   3087000   1.0509477      17.662157      79.099606    
   3088000   1.0430847      17.853071      78.894467    
   3089000   0.99770653     17.455515      79.060142    
   3090000   0.98609998     17.642218      79.045175    
   3091000   1.0275345      17.233496      78.917898    
   3092000   0.9955059      17.363391      78.949091    
   3093000   1.0187215      17.592649      78.986199    
   3094000   0.99416913     17.452911      79.007517    
   3095000   1.0464039      18.388584      79.147544    
   3096000   1.0052984      17.478133      79.038874    
   3097000   0.98880732     18.101538      79.035506    
   3098000   0.98075349     17.301128      79.238225    
   3099000   0.9754957      17.284203      79.314076    
   3100000   0.96666405     18.223086      79.275521    
   3101000   1.0043558      17.889452      78.997236    
   3102000   0.98398799     17.3696        78.795198    
   3103000   1.0182706      17.46889       78.696848    
   3104000   1.0218079      17.923451      78.53999     
   3105000   1.0336985      18.200572      78.454578    
   3106000   1.0078402      17.471102      78.411407    
   3107000   1.0343894      17.897473      78.345684    
   3108000   0.98353724     17.367263      78.065458    
   3109000   1.0114282      17.139533      77.589759    
   3110000   0.98114276     17.119787      77.458607    
   3111000   0.96942747     17.68854       77.40073     
   3112000   1.0308477      17.591396      77.482808    
   3113000   0.96210564     17.824583      77.369526    
   3114000   1.0224018      17.793773      77.371355    
   3115000   0.98997057     17.238257      77.173409    
   3116000   0.9946691      17.323239      77.331139    
   3117000   0.98403786     18.138684      77.227229    
   3118000   1.0076928      17.878995      77.116747    
   3119000   1.0104993      17.836701      77.016816    
   3120000   0.99794458     17.453405      77.113051    
   3121000   1.0217723      17.312916      76.910846    
   3122000   0.99479405     17.272044      76.656894    
   3123000   1.0072626      17.811249      76.462266    
   3124000   0.978659       18.167735      76.22848     
   3125000   1.0280988      17.398073      76.123059    
   3126000   1.0327175      17.464164      76.090166    
   3127000   1.0231055      17.584788      76.183014    
   3128000   1.0072047      17.360286      76.055463    
   3129000   1.016054       17.852784      76.012221    
   3130000   1.030589       17.62873       75.803872    
   3131000   0.99922435     17.4025        75.816587    
   3132000   1.0327983      17.304407      75.850669    
   3133000   1.0148298      17.486174      75.834662    
   3134000   0.98015418     17.380557      75.756888    
   3135000   0.99473228     17.557191      75.842079    
   3136000   1.0178438      17.816674      75.676184    
   3137000   1.0163437      17.528465      75.494634    
   3138000   0.99456219     17.560845      75.288283    
   3139000   1.0446394      17.440789      75.206321    
   3140000   1.0412841      17.350305      75.205838    
   3141000   1.0285029      17.389067      75.120775    
   3142000   1.0126593      17.600141      75.116274    
   3143000   0.99461088     17.63932       74.949317    
   3144000   1.0136699      17.557303      74.761969    
   3145000   1.0165131      17.332933      74.585286    
   3146000   0.95636041     17.015344      74.35784     
   3147000   0.99610465     17.798734      74.225654    
   3148000   0.98989594     17.048674      74.1536      
   3149000   1.0151422      17.05353       74.119223    
   3150000   0.98387079     17.552783      74.093627    
   3151000   1.0192293      17.525903      73.993352    
   3152000   1.0239475      17.596784      73.93427     
   3153000   1.0111751      17.384079      73.871072    
   3154000   1.0068928      17.222054      74.068885    
   3155000   0.98654391     17.293948      74.136933    
   3156000   0.99106573     18.019385      74.138548    
   3157000   1.0243633      17.448813      74.290401    
   3158000   0.9685425      17.519347      74.438632    
   3159000   0.99507911     17.681973      74.315535    
   3160000   1.031766       17.690631      74.175258    
   3161000   0.97138942     17.182005      74.284307    
   3162000   1.0197786      17.750038      74.172545    
   3163000   0.99123006     17.472765      74.105157    
   3164000   0.97889745     17.027485      74.060466    
   3165000   1.0153789      17.044333      74.13437     
   3166000   0.97679323     17.15699       74.127221    
   3167000   0.97658844     17.530997      74.184466    
   3168000   1.0459021      17.436907      74.003996    
   3169000   0.9858392      17.412787      73.842809    
   3170000   0.98353075     17.259219      73.857728    
   3171000   0.97387162     17.343599      73.910053    
   3172000   1.0024468      17.643833      73.99743     
   3173000   0.97421216     17.370832      74.007189    
   3174000   1.0731507      17.829466      73.827738    
   3175000   0.98830811     17.900156      73.731859    
   3176000   1.022724       17.487944      73.792588    
   3177000   1.0607536      17.432148      73.81103     
   3178000   0.98008851     16.683794      73.778822    
   3179000   0.98728116     17.841826      73.821734    
   3180000   1.0066181      18.03851       73.748495    
   3181000   0.98192271     17.186689      73.830968    
   3182000   1.0319657      17.582965      73.619261    
   3183000   0.99101944     18.055383      73.505746    
   3184000   0.99474056     17.477293      73.656154    
   3185000   1.0098641      17.581195      73.932843    
   3186000   0.98792065     17.525058      73.854144    
   3187000   1.0386027      17.836988      73.637013    
   3188000   0.95681314     17.900852      73.786762    
   3189000   1.0028642      17.354141      73.862856    
   3190000   1.0219207      17.753816      73.931075    
   3191000   0.99979633     17.645545      73.957162    
   3192000   0.99148911     17.210699      73.924427    
   3193000   1.005811       17.434677      73.96041     
   3194000   0.98530679     17.561394      73.752306    
   3195000   1.0077033      17.406665      73.748903    
   3196000   1.0256828      17.837134      73.84402     
   3197000   1.040492       18.0036        73.61435     
   3198000   0.97385355     17.712052      73.689795    
   3199000   1.0089854      17.720729      73.691109    
   3200000   1.0047885      17.868374      73.740561    
   3201000   1.0493119      17.820499      73.969993    
   3202000   0.99732926     17.546027      73.860521    
   3203000   1.0253271      17.63562       73.911384    
   3204000   1.0054421      17.668989      73.715613    
   3205000   1.0604497      17.691646      73.662355    
   3206000   0.99483434     16.958691      73.415404    
   3207000   0.98326274     17.879879      73.492181    
   3208000   0.99543796     17.527717      73.418632    
   3209000   0.96665309     17.534016      73.238586    
   3210000   1.0210899      17.599897      73.24161     
   3211000   1.0416113      17.852358      73.312709    
   3212000   0.96892355     17.373367      73.351881    
   3213000   0.98622477     17.503131      73.254095    
   3214000   0.96513692     17.238614      73.239271    
   3215000   1.0076517      17.489247      73.133121    
   3216000   0.99382367     17.83668       73.0261      
   3217000   0.9864352      17.732145      72.990709    
   3218000   0.99814458     17.292229      72.978999    
   3219000   1.0045409      17.218733      72.90135     
   3220000   0.99760096     17.47081       72.917974    
   3221000   1.0046191      17.664597      72.935751    
   3222000   0.9263721      17.859575      72.904826    
   3223000   1.001259       17.482697      72.945203    
   3224000   0.99775611     17.491074      72.825393    
   3225000   1.0235653      17.658161      72.559543    
   3226000   1.0453409      17.231505      72.396627    
   3227000   0.99597189     17.930275      72.258324    
   3228000   0.9874801      17.663701      72.345157    
   3229000   1.0075804      17.632458      72.170315    
   3230000   1.0001078      16.967143      72.155113    
   3231000   1.0221093      17.100278      72.229179    
   3232000   1.000667       17.644476      72.235979    
   3233000   1.0057144      17.481056      72.357807    
   3234000   1.0124021      17.848876      72.052299    
   3235000   1.0274993      17.437797      71.897421    
   3236000   0.96483157     17.19685       71.754596    
   3237000   1.0181249      17.503887      71.802022    
   3238000   1.0039135      17.492137      71.695835    
   3239000   1.0764394      17.833463      71.720701    
   3240000   0.99973987     17.3437        71.561775    
   3241000   1.0487423      17.295309      71.59559     
   3242000   0.98588176     17.723254      71.521433    
   3243000   1.0064617      17.990805      71.427521    
   3244000   0.96760388     17.042443      71.226872    
   3245000   1.0131662      17.228428      71.394758    
   3246000   0.99418895     17.310463      71.574668    
   3247000   1.0141436      17.260748      71.497972    
   3248000   1.0295838      17.548743      71.642302    
   3249000   1.0066034      17.612837      71.637057    
   3250000   1.0091469      17.227685      71.587688    
   3251000   1.0333453      17.945226      71.480856    
   3252000   0.98378295     17.238865      71.348297    
   3253000   1.0111227      17.735757      71.350377    
   3254000   0.97960277     17.080006      71.336246    
   3255000   1.0502856      16.832422      71.132282    
   3256000   0.97568391     17.455003      71.027158    
   3257000   0.97878261     17.59017       70.844583    
   3258000   1.0062397      17.427633      70.791834    
   3259000   1.0156921      17.4904        70.721808    
   3260000   1.0051808      16.747408      70.602474    
   3261000   0.96943719     17.121414      70.62012     
   3262000   0.9911987      17.780493      70.67621     
   3263000   0.95825409     17.460507      70.448062    
   3264000   0.95846861     17.823374      70.497695    
   3265000   0.98213144     17.386673      70.696862    
   3266000   1.012649       17.257141      70.756228    
   3267000   1.0059914      17.600438      70.731557    
   3268000   1.0325463      17.63736       70.707981    
   3269000   0.99871633     17.086186      70.76415     
   3270000   0.97812827     17.270525      70.685546    
   3271000   1.0080816      17.46364       70.534886    
   3272000   1.0487566      17.676738      70.421079    
   3273000   1.0418052      17.535817      70.229965    
   3274000   0.98452625     17.457024      70.175353    
   3275000   0.99066531     17.429125      70.209795    
   3276000   0.97358679     16.882467      70.140122    
   3277000   1.0177824      17.398748      69.981874    
   3278000   1.0235268      17.408406      70.031523    
   3279000   1.0426179      17.461864      70.067555    
   3280000   0.99576374     17.309571      70.054248    
   3281000   0.95879884     17.597315      69.982154    
   3282000   0.99487708     17.250584      69.977651    
   3283000   1.020499       16.874162      69.752124    
   3284000   1.0059763      17.494886      69.82064     
   3285000   0.99383131     17.44503       69.845348    
   3286000   0.98691208     17.885443      69.740942    
   3287000   1.0240897      18.241892      69.502346    
   3288000   1.0343387      17.187457      69.370777    
   3289000   0.99613158     17.623397      69.191808    
   3290000   0.97295004     17.334049      69.127871    
   3291000   1.0294872      17.570189      69.169332    
   3292000   1.0221027      17.9881        69.25219     
   3293000   0.92176535     16.741724      69.119871    
   3294000   1.0051314      17.146817      69.10033     
   3295000   0.98068693     17.173332      68.975423    
   3296000   0.99916332     18.055135      68.863411    
   3297000   1.0064879      17.782956      68.764043    
   3298000   0.95350746     17.035109      68.855115    
   3299000   0.99499582     17.390957      68.711415    
   3300000   0.96536168     17.321994      68.815201    
   3301000   1.0180895      17.67142       68.720129    
   3302000   1.0028393      17.318998      68.500215    
   3303000   1.0059336      17.418513      68.443761    
   3304000   1.0099204      17.812649      68.353304    
   3305000   0.98135444     17.318554      68.240215    
   3306000   0.97742174     17.750916      68.280091    
   3307000   0.98301963     17.540625      68.075359    
   3308000   0.9988589      17.721509      67.815422    
   3309000   1.0027545      17.357867      67.610471    
   3310000   1.0020666      17.523588      67.349576    
   3311000   1.0135613      17.705907      67.208636    
   3312000   1.0354916      17.025358      67.243644    
   3313000   1.0228542      17.334668      67.227956    
   3314000   1.0204585      17.523074      67.178169    
   3315000   1.009871       17.798207      67.227737    
   3316000   1.0224065      17.58078       67.387428    
   3317000   1.0256606      17.888756      67.233643    
   3318000   0.9924005      17.752932      67.337484    
   3319000   0.99551865     16.953147      67.299092    
   3320000   0.96996215     17.632815      67.262468    
   3321000   1.0075912      17.46574       66.990804    
   3322000   0.9652712      17.549231      66.853489    
   3323000   0.99962496     17.574216      66.713797    
   3324000   0.97039611     17.724524      66.76744     
   3325000   0.98914173     17.539398      66.668025    
   3326000   0.9879901      17.666012      66.650353    
   3327000   0.97315657     17.958601      66.592531    
   3328000   0.98421091     18.079297      66.683496    
   3329000   0.99090258     17.497789      66.580969    
   3330000   0.97975215     17.375383      66.495115    
   3331000   1.0506996      17.669033      66.400344    
   3332000   1.0014126      17.208634      66.367841    
   3333000   0.99516346     17.799035      66.443392    
   3334000   0.97388211     17.252049      66.407961    
   3335000   1.0218089      17.458911      66.445529    
   3336000   1.0228386      17.439175      66.47351     
   3337000   0.97076296     17.145043      66.314054    
   3338000   0.98761364     17.705681      66.159031    
   3339000   0.95882531     17.685725      65.991853    
   3340000   1.0099885      17.980635      66.069223    
   3341000   1.0046252      17.473167      66.059264    
   3342000   0.99264075     17.401482      66.034234    
   3343000   0.97660641     17.326961      65.922429    
   3344000   1.0064483      17.893775      65.882711    
   3345000   0.98115887     17.98884       65.783161    
   3346000   0.96935713     17.534202      65.61838     
   3347000   1.0237513      17.34443       65.645793    
   3348000   0.98793002     17.825924      65.724441    
   3349000   0.97420526     17.335875      65.653937    
   3350000   1.0144358      17.479172      65.659709    
   3351000   1.0146524      17.342631      65.435506    
   3352000   1.0110309      17.062883      65.405948    
   3353000   1.051692       17.513954      65.349379    
   3354000   1.0085692      17.207601      65.609076    
   3355000   1.013417       16.93024       65.562576    
   3356000   0.99768396     17.543062      65.611206    
   3357000   1.000026       18.007565      65.711181    
   3358000   1.0063484      17.380987      65.913829    
   3359000   1.0064093      17.083485      65.852318    
   3360000   1.016368       17.167631      65.532355    
   3361000   1.0084715      17.315183      65.247452    
   3362000   1.0020297      17.394053      65.14198     
   3363000   0.97658897     17.718104      65.106628    
   3364000   1.006746       17.668268      64.990878    
   3365000   0.99255825     17.261599      64.939502    
   3366000   1.0205119      17.729812      65.163719    
   3367000   0.97215183     17.21059       65.129258    
   3368000   1.0111101      17.492817      64.947633    
   3369000   0.99826423     17.446716      64.762233    
   3370000   0.99103871     17.726968      64.514645    
   3371000   1.0089004      17.628065      64.522846    
   3372000   1.017363       17.575987      64.538251    
   3373000   1.0044876      17.800374      64.442158    
   3374000   0.95698346     17.236439      64.312088    
   3375000   1.007484       17.466398      64.289789    
   3376000   1.0050125      17.749276      64.044451    
   3377000   0.9864175      17.694051      63.909345    
   3378000   1.0071883      17.827851      63.894245    
   3379000   0.99608724     17.938329      63.653587    
   3380000   1.0120214      17.784801      63.524027    
   3381000   0.99314857     17.122265      63.660184    
   3382000   0.99227213     17.07972       63.689419    
   3383000   1.0455448      17.408037      63.573491    
   3384000   0.97571902     17.163659      63.604829    
   3385000   1.0158483      17.214998      63.509752    
   3386000   0.96928776     17.25058       63.077478    
   3387000   0.98804016     17.701932      62.906165    
   3388000   0.99404507     17.442177      62.817712    
   3389000   0.96745132     17.3999        62.723939    
   3390000   0.97662346     17.317069      62.715322    
   3391000   0.98195199     17.306651      62.775456    
   3392000   0.98640025     17.469855      62.714375    
   3393000   1.0274685      17.559438      62.785645    
   3394000   0.98600426     17.368001      62.883952    
   3395000   0.96040944     17.058091      62.676533    
   3396000   0.99254514     17.643954      62.765153    
   3397000   0.98958879     16.675133      62.846481    
   3398000   1.0187575      17.565477      62.859251    
   3399000   0.94644313     17.236379      62.67357     
   3400000   0.99942747     17.588319      62.729536    
   3401000   1.0003143      17.333395      62.750948    
   3402000   0.99042243     17.609488      62.452754    
   3403000   1.0296574      17.717239      62.400834    
   3404000   0.9915132      16.975312      62.434504    
   3405000   0.98149442     17.536856      62.38016     
   3406000   1.0171346      17.610079      62.309819    
   3407000   1.0467684      16.868004      62.096769    
   3408000   0.99498981     17.801594      62.165295    
   3409000   0.99068674     17.406111      62.019692    
   3410000   0.98197631     17.437747      61.884959    
   3411000   0.97778717     17.493597      61.954839    
   3412000   1.0169889      17.547902      61.757681    
   3413000   1.0158864      17.419934      61.786132    
   3414000   1.0252748      17.426312      61.723418    
   3415000   1.0418808      17.979333      61.741037    
   3416000   0.9817524      16.698297      61.658052    
   3417000   1.0163169      17.623437      61.666984    
   3418000   0.99553434     17.695046      61.849218    
   3419000   0.98073601     16.832005      61.818193    
   3420000   1.0074579      17.425845      61.762905    
   3421000   0.99046212     17.538763      61.62879     
   3422000   1.0202759      17.58619       61.523149    
   3423000   1.0283119      17.281044      61.376458    
   3424000   0.99344312     17.230383      61.41438     
   3425000   0.99986883     17.658514      61.416781    
   3426000   0.94798599     17.094987      61.140282    
   3427000   1.042536       18.016039      60.893304    
   3428000   1.0255556      18.036943      60.947024    
   3429000   0.98599532     17.187148      60.956809    
   3430000   0.98972612     17.356569      60.967552    
   3431000   1.0381051      17.776657      60.788253    
   3432000   0.99320709     17.224139      60.505767    
   3433000   0.98874992     17.390775      60.420118    
   3434000   0.99397268     17.587507      60.334532    
   3435000   1.0406446      17.030262      60.428454    
   3436000   0.98133561     17.065416      60.275187    
   3437000   0.97380195     17.350197      60.238201    
   3438000   0.97804877     17.47073       60.317912    
   3439000   1.0018809      17.178571      60.469569    
   3440000   0.99199257     17.760847      60.494438    
   3441000   0.9760276      17.451948      60.454493    
   3442000   1.0191539      17.89565       60.568194    
   3443000   0.99896286     17.480885      60.542876    
   3444000   1.0692127      18.058164      60.448657    
   3445000   1.010303       17.73684       60.181327    
   3446000   0.96842836     17.430723      60.164134    
   3447000   1.0233326      17.028064      59.920436    
   3448000   0.95622605     17.335527      59.836252    
   3449000   0.99356805     17.895477      59.763101    
   3450000   0.99286231     17.198802      59.654305    
   3451000   1.0149445      17.198484      59.618441    
   3452000   0.96765678     17.730715      59.547336    
   3453000   1.0307539      18.056554      59.563112    
   3454000   0.95775523     17.42116       59.509837    
   3455000   0.99512728     17.353816      59.461017    
   3456000   1.003527       17.182465      59.489169    
   3457000   1.0166806      16.544615      59.430762    
   3458000   0.98686668     17.632367      59.265547    
   3459000   0.97102236     16.920445      59.190231    
   3460000   1.0271848      17.461754      59.050395    
   3461000   0.98665636     17.578432      58.953505    
   3462000   0.97893217     17.613698      58.913343    
   3463000   0.9900321      17.128611      58.585469    
   3464000   1.0145587      18.222209      58.558289    
   3465000   1.029489       17.027356      58.377285    
   3466000   0.99808686     17.578195      58.392195    
   3467000   1.0066005      17.304555      58.372467    
   3468000   0.99258216     17.149717      58.310744    
   3469000   1.0098813      17.431206      58.106554    
   3470000   1.0454898      17.96003       58.087912    
   3471000   1.0390678      16.422389      58.091031    
   3472000   1.0022509      17.681235      58.075252    
   3473000   1.0094117      17.493699      58.078672    
   3474000   1.012391       17.496967      58.021134    
   3475000   0.97128246     17.138823      57.780375    
   3476000   1.0238747      17.536824      57.666338    
   3477000   1.0378367      17.230495      57.944953    
   3478000   1.0424124      17.445586      57.944421    
   3479000   0.99344178     17.789991      58.048145    
   3480000   1.0004157      17.348762      57.884125    
   3481000   0.9849108      17.396076      57.802147    
   3482000   0.99866392     17.548316      57.94743     
   3483000   1.0032922      17.659794      57.909811    
   3484000   1.0504772      17.31396       57.791117    
   3485000   1.0225455      17.096788      57.683213    
   3486000   1.0171228      17.303957      57.726237    
   3487000   1.0162258      17.67718       57.795964    
   3488000   1.0152208      17.642725      57.737652    
   3489000   0.97422253     17.546226      57.663432    
   3490000   1.0060787      17.545078      57.459627    
   3491000   1.0046422      17.410311      57.296068    
   3492000   0.99572479     17.338387      57.310958    
   3493000   1.0022026      17.367969      57.271935    
   3494000   1.0103426      17.338013      57.072894    
   3495000   0.99694262     17.087396      56.922601    
   3496000   1.0042184      17.184683      56.677004    
   3497000   1.0267685      17.29025       56.446897    
   3498000   0.98332776     17.435911      56.45412     
   3499000   1.003641       17.714981      56.330089    
   3500000   1.0176704      17.333829      56.258039    
   3501000   0.98149338     17.455257      55.953056    
   3502000   0.94139495     17.059041      56.163511    
   3503000   0.9970862      17.196368      56.284902    
   3504000   0.96505396     17.643697      56.255306    
   3505000   1.0222491      17.575596      56.114476    
   3506000   0.98102791     17.773978      55.989332    
   3507000   1.0602854      17.726718      56.125024    
   3508000   0.96603819     17.518266      56.047602    
   3509000   0.98283106     17.478106      56.013734    
   3510000   0.96388174     17.015208      55.862074    
   3511000   0.9854591      17.308458      55.935816    
   3512000   0.99110082     17.161048      56.014181    
   3513000   1.0106145      17.234488      55.978342    
   3514000   0.99892611     17.382029      55.897254    
   3515000   0.9648168      17.071506      55.936087    
   3516000   0.99769665     17.837543      55.938303    
   3517000   1.0140907      17.077092      55.940976    
   3518000   0.97566909     17.263406      55.710865    
   3519000   0.97512964     16.80562       55.667815    
   3520000   1.0260415      17.483756      55.619083    
   3521000   1.0338315      17.499594      55.498682    
   3522000   1.0132514      16.660616      55.559943    
   3523000   0.99625704     17.121581      55.6684      
   3524000   0.98180936     17.254412      55.741712    
   3525000   1.0166432      17.510478      55.597431    
   3526000   0.97820671     17.049978      55.361414    
   3527000   1.0117194      17.554219      55.496179    
   3528000   1.0206284      17.525565      55.601276    
   3529000   0.98202407     17.40011       55.421871    
   3530000   0.964081       17.427164      55.129403    
   3531000   0.98468877     17.927922      55.070585    
   3532000   0.94967367     17.209205      54.994056    
   3533000   1.0291919      17.596972      54.658416    
   3534000   1.0139288      16.978993      54.493199    
   3535000   1.0130993      17.618071      54.422749    
   3536000   0.9970099      17.425614      54.453397    
   3537000   0.94239616     17.508133      54.430866    
   3538000   1.0731471      17.100933      54.404437    
   3539000   0.99598099     17.614529      54.222472    
   3540000   1.0070935      16.797451      54.037492    
   3541000   1.0109618      17.579381      54.031625    
   3542000   1.0050755      17.515034      53.974902    
   3543000   0.97978663     17.676859      53.676499    
   3544000   1.0138431      17.337224      53.798439    
   3545000   1.0139908      17.35853       53.726166    
   3546000   1.0060458      17.282322      53.507669    
   3547000   1.0214386      17.486649      53.393071    
   3548000   1.0017403      17.262116      53.210928    
   3549000   1.0436234      16.984789      53.061622    
   3550000   1.0288365      17.586258      53.06082     
   3551000   0.9920942      17.55597       52.967569    
   3552000   0.99721559     16.938553      52.928935    
   3553000   1.0154728      17.310013      52.761304    
   3554000   0.98212322     17.509072      52.796106    
   3555000   0.97030136     17.58738       52.760538    
   3556000   1.023787       16.896271      52.556721    
   3557000   1.013038       17.473372      52.62971     
   3558000   1.0085652      17.555276      52.41218     
   3559000   1.0058226      16.954616      52.268556    
   3560000   1.0273965      17.017109      52.390135    
   3561000   1.0097618      17.324172      52.153162    
   3562000   1.0171084      17.458824      52.273826    
   3563000   0.9848755      17.002853      52.365191    
   3564000   1.0224759      17.22277       52.101311    
   3565000   0.99542335     17.198528      51.884425    
   3566000   0.98406371     17.528904      51.791543    
   3567000   1.0147194      17.440656      51.786455    
   3568000   0.95259209     16.901225      51.495885    
   3569000   1.0129468      17.459837      51.394661    
   3570000   1.0162951      17.270562      51.507871    
   3571000   0.99451151     17.303715      51.514299    
   3572000   0.95803747     17.612767      51.41031     
   3573000   1.0481142      16.773275      51.384139    
   3574000   0.98129741     17.425071      51.309886    
   3575000   1.0378206      16.950424      51.198706    
   3576000   1.0381074      17.24386       51.089431    
   3577000   0.96884856     16.738435      50.913692    
   3578000   1.0178699      17.392136      51.125164    
   3579000   0.97178026     17.084345      51.104801    
   3580000   0.96579269     17.026067      51.339258    
   3581000   0.97863191     17.350804      51.179248    
   3582000   0.99972805     17.026071      51.195382    
   3583000   1.0329301      17.563619      51.186034    
   3584000   0.96893637     17.429482      51.140176    
   3585000   1.0035535      17.503935      51.317111    
   3586000   1.0376996      16.552574      51.281085    
   3587000   1.0245712      17.600135      51.078088    
   3588000   0.99604154     17.670449      51.123897    
   3589000   1.010543       17.292567      51.20631     
   3590000   1.0026924      17.084399      51.155694    
   3591000   1.0451422      17.734002      51.183702    
   3592000   1.0167492      17.766702      51.145465    
   3593000   0.97392304     17.435486      51.271935    
   3594000   0.98545592     17.560896      51.348528    
   3595000   1.0344453      17.782858      51.190804    
   3596000   1.0006965      17.164176      50.982671    
   3597000   1.0129959      17.796114      50.944793    
   3598000   1.0393026      17.471227      50.717153    
   3599000   1.0480492      17.467045      50.684731    
   3600000   1.0074873      17.426578      50.702438    
   3601000   1.0235219      17.341938      50.596091    
   3602000   1.0151174      17.031007      50.529549    
   3603000   1.0257418      17.591233      50.507187    
   3604000   1.0303238      17.632356      50.507776    
   3605000   1.0211113      17.8302        50.535876    
   3606000   1.0055889      16.949279      50.527941    
   3607000   1.0082372      16.73114       50.493086    
   3608000   0.98634899     17.275827      50.642791    
   3609000   1.0025922      17.412977      50.706419    
   3610000   1.0322576      17.013903      50.594617    
   3611000   1.0053476      17.207316      50.338836    
   3612000   0.92881705     17.267259      50.223492    
   3613000   1.0157589      17.077269      50.356251    
   3614000   1.0316946      17.388675      50.294952    
   3615000   0.97912102     17.236723      50.246626    
   3616000   0.99274525     17.159831      50.186611    
   3617000   0.960648       17.25103       50.035556    
   3618000   0.97288151     16.978414      49.965356    
   3619000   1.0049865      17.191315      49.979085    
   3620000   0.99134408     17.026305      49.852072    
   3621000   0.97169742     17.555701      49.91005     
   3622000   1.0150329      17.403802      49.771044    
   3623000   0.99479549     17.605984      49.564906    
   3624000   1.0175379      17.62091       49.565225    
   3625000   1.0242137      17.60745       49.32985     
   3626000   0.97912243     17.23952       49.300212    
   3627000   1.0175192      17.215626      49.316965    
   3628000   1.0061589      16.85213       49.160443    
   3629000   1.0016396      17.621028      49.293193    
   3630000   1.0257909      17.103824      49.241425    
   3631000   0.96689677     17.373454      49.330195    
   3632000   0.97363024     17.059541      49.192704    
   3633000   0.9411491      17.402337      49.086603    
   3634000   0.98901527     17.157113      49.068646    
   3635000   0.99178756     17.320842      48.896778    
   3636000   1.0045636      17.496806      48.852308    
   3637000   1.0177711      16.987068      48.604646    
   3638000   1.0287461      18.444304      48.392224    
   3639000   1.0045613      17.032198      48.328238    
   3640000   1.0186451      17.67965       48.626014    
   3641000   1.0261897      17.281281      48.734905    
   3642000   0.99344936     17.486157      48.600335    
   3643000   1.0350854      17.431988      48.389924    
   3644000   1.0087602      17.285328      48.141983    
   3645000   0.99381457     17.453047      48.145845    
   3646000   1.0073593      17.338446      48.00544     
   3647000   0.97479938     16.90962       47.803681    
   3648000   1.0412851      17.523351      47.685992    
   3649000   0.95008821     16.691653      47.706043    
   3650000   1.026996       17.853976      47.590432    
   3651000   0.99951426     17.180731      47.666078    
   3652000   1.0066803      17.492039      47.445011    
   3653000   0.98310712     17.077685      47.503462    
   3654000   0.96813158     17.40545       47.564237    
   3655000   0.97854924     17.142121      47.53659     
   3656000   1.0262706      17.931475      47.491431    
   3657000   1.0063109      17.740581      47.406401    
   3658000   1.017646       17.921308      47.584232    
   3659000   1.0199865      17.421393      47.57502     
   3660000   1.0062741      17.057246      47.735421    
   3661000   0.97981108     16.917277      47.699552    
   3662000   1.0325829      17.093586      47.831872    
   3663000   1.0174724      17.268027      47.66036     
   3664000   0.99656585     17.326359      47.523343    
   3665000   1.0271459      17.514767      47.506263    
   3666000   1.0002502      17.62317       47.285195    
   3667000   1.011706       17.827481      47.255782    
   3668000   1.0121152      17.142661      47.274333    
   3669000   1.0321419      17.3228        47.102177    
   3670000   1.0427159      17.434547      47.015069    
   3671000   0.99159137     17.427162      46.882348    
   3672000   1.0046977      17.272667      47.003307    
   3673000   0.99643783     17.389546      47.062876    
   3674000   1.0334603      17.735663      47.108152    
   3675000   1.0169115      17.332853      47.020465    
   3676000   0.99543695     16.873536      46.721138    
   3677000   0.98881945     16.824911      46.70602     
   3678000   0.98596777     17.223014      46.709831    
   3679000   0.98930691     17.50025       46.657694    
   3680000   1.0220713      16.567646      46.582416    
   3681000   1.0469138      17.199583      46.66233     
   3682000   1.0340358      17.232852      46.805198    
   3683000   1.0016746      17.51753       46.583499    
   3684000   0.9792385      16.998963      46.591702    
   3685000   0.97781737     17.18          46.473801    
   3686000   0.98018843     17.048655      46.424347    
   3687000   1.0141952      17.811028      46.333639    
   3688000   1.0039763      17.371404      46.303426    
   3689000   0.97429673     16.969317      46.183942    
   3690000   0.99587389     17.194136      46.282737    
   3691000   0.97768478     17.522294      46.361291    
   3692000   1.0353223      17.10186       46.434364    
   3693000   0.95526521     17.146754      46.426067    
   3694000   0.9719522      17.486627      46.218238    
   3695000   0.97697901     17.208506      46.290604    
   3696000   0.99361203     17.405179      46.269685    
   3697000   1.0010884      16.940385      46.195654    
   3698000   1.0189108      17.550136      46.287161    
   3699000   0.98175707     16.97537       46.360816    
   3700000   0.9928166      17.594598      46.342657    
   3701000   1.0178268      17.634027      46.33199     
   3702000   0.98507223     17.494409      46.316302    
   3703000   1.0091927      17.411676      46.004564    
   3704000   0.9354284      17.244275      46.095924    
   3705000   1.0041394      16.739469      45.849215    
   3706000   0.9663593      17.548387      45.77427     
   3707000   1.003538       17.067822      45.768952    
   3708000   1.0046725      17.589969      45.651722    
   3709000   1.0031285      17.575475      45.598931    
   3710000   1.0226713      17.188974      45.720638    
   3711000   0.99628161     17.17353       45.874735    
   3712000   1.0212635      17.332564      45.857425    
   3713000   0.98695466     17.347372      45.903006    
   3714000   1.0063894      17.181576      45.925285    
   3715000   1.0103449      17.422798      45.84857     
   3716000   0.99089421     16.79745       45.647422    
   3717000   0.98992175     17.097347      45.72346     
   3718000   1.0247925      17.316993      45.729813    
   3719000   1.0015986      16.833885      45.803459    
   3720000   0.99634783     17.607175      45.86644     
   3721000   1.003095       17.056519      45.97694     
   3722000   1.0003752      17.543641      46.197712    
   3723000   0.97504793     17.037326      46.106833    
   3724000   0.97775141     17.251534      45.833751    
   3725000   1.0042809      17.414749      45.679595    
   3726000   1.0105744      17.135768      45.622174    
   3727000   1.004998       17.172394      45.57483     
   3728000   1.029135       17.464555      45.438038    
   3729000   0.98935534     16.970762      45.424992    
   3730000   0.99910989     17.07085       45.296894    
   3731000   0.98399839     17.131194      45.257651    
   3732000   1.0372632      17.630544      45.116158    
   3733000   1.0021317      17.139821      44.944434    
   3734000   1.0491686      17.059522      44.809514    
   3735000   1.0035287      17.10971       44.936232    
   3736000   1.0247284      17.492473      44.973126    
   3737000   0.99234807     17.363731      44.874614    
   3738000   1.0031096      17.721906      44.732667    
   3739000   0.99193054     16.742109      44.509783    
   3740000   0.98985251     17.500737      44.520898    
   3741000   0.99446709     17.01469       44.436018    
   3742000   1.0111544      17.281361      44.453493    
   3743000   1.0528891      17.777052      44.462857    
   3744000   1.028041       16.863684      44.543942    
   3745000   1.008623       17.618344      44.539342    
   3746000   0.96853454     17.26716       44.328929    
   3747000   1.0281829      17.295993      44.029237    
   3748000   0.99606567     17.097946      44.088771    
   3749000   1.0055705      17.40426       44.130168    
   3750000   1.0258833      17.232919      44.059969    
   3751000   0.96758119     17.476354      43.933596    
   3752000   1.0149415      17.277814      43.800083    
   3753000   0.96881478     16.823473      43.669325    
   3754000   1.0112336      17.134303      43.6103      
   3755000   1.0391416      16.81371       43.472481    
   3756000   0.98203341     16.963854      43.403732    
   3757000   0.98513273     17.45876       43.315671    
   3758000   0.98197406     16.604257      43.016397    
   3759000   0.9833886      16.851304      42.985364    
   3760000   0.99658884     17.133615      42.747982    
   3761000   0.98644449     17.654244      42.753431    
   3762000   1.0229714      17.226744      42.699226    
   3763000   1.0076494      17.400214      42.657798    
   3764000   1.0237284      18.058233      42.608428    
   3765000   1.0019586      17.644713      42.520565    
   3766000   1.0025982      17.240353      42.608412    
   3767000   0.99870386     17.190694      42.638952    
   3768000   0.99561704     17.639914      42.723336    
   3769000   1.0392643      17.268398      42.734533    
   3770000   0.97700016     17.082166      42.815447    
   3771000   1.0245921      17.509837      42.70786     
   3772000   1.0532197      17.171821      42.750415    
   3773000   0.96786111     17.861553      42.42565     
   3774000   1.0100458      17.644953      42.402114    
   3775000   1.0406072      17.421886      42.35553     
   3776000   0.97447397     17.432295      42.377599    
   3777000   1.0238035      17.39281       42.140607    
   3778000   0.99516397     17.130018      41.947448    
   3779000   0.99793505     17.818541      41.803559    
   3780000   1.0046981      17.369974      41.75658     
   3781000   0.99545489     17.244249      41.657956    
   3782000   0.98527264     17.576095      41.578579    
   3783000   0.98929158     17.090029      41.438174    
   3784000   0.97671392     17.317686      41.243725    
   3785000   0.96764729     17.169727      41.200799    
   3786000   1.0276051      17.629128      41.116203    
   3787000   1.000441       17.264401      41.241978    
   3788000   1.05128        16.787064      41.10104     
   3789000   1.0279423      17.291491      41.106424    
   3790000   0.99801201     17.119224      41.001317    
   3791000   0.97418159     16.977786      41.102154    
   3792000   1.0042043      17.753604      41.082062    
   3793000   0.99661164     17.768745      40.94112     
   3794000   0.96416509     17.560312      40.988199    
   3795000   0.98069179     17.136798      40.989594    
   3796000   0.98093867     17.333729      40.912828    
   3797000   1.0162136      17.638462      40.770015    
   3798000   1.005207       17.142891      40.805742    
   3799000   0.99319933     17.116887      40.582384    
   3800000   1.0010644      17.551775      40.233811    
   3801000   0.98449765     16.80711       40.148464    
   3802000   1.0141175      17.159168      40.054516    
   3803000   1.0076947      17.243254      40.237012    
   3804000   1.0094696      17.059947      40.481948    
   3805000   1.0307843      17.093395      40.317667    
   3806000   0.98353532     17.205659      40.187198    
   3807000   0.99764938     17.442805      40.198569    
   3808000   1.058271       17.587402      40.345458    
   3809000   0.9752015      17.050222      40.539456    
   3810000   0.9818542      16.698191      40.343036    
   3811000   0.99289491     17.916658      40.475173    
   3812000   0.99710303     17.001182      40.449724    
   3813000   0.97208764     17.549084      40.352966    
   3814000   1.0223633      17.191118      40.15758     
   3815000   0.99859808     16.889593      40.07817     
   3816000   1.0303528      17.703816      40.026202    
   3817000   1.0090081      17.19927       39.993962    
   3818000   1.0213105      17.321078      39.807956    
   3819000   0.97593585     17.623328      39.56597     
   3820000   0.98187104     17.651427      39.858721    
   3821000   1.016227       17.170067      39.93167     
   3822000   0.97839151     17.27308       39.732464    
   3823000   1.0532574      17.788532      39.708881    
   3824000   1.0114954      16.840243      39.840873    
   3825000   1.0150743      17.20797       39.748287    
   3826000   0.99220533     16.899571      39.73582     
   3827000   1.0169032      18.05696       39.720903    
   3828000   1.0050365      17.394843      39.480072    
   3829000   0.96527974     17.026119      39.534088    
   3830000   0.97074778     17.248498      39.37244     
   3831000   1.0233859      16.820029      39.41883     
   3832000   1.0121427      16.859658      39.569518    
   3833000   1.035063       17.428318      39.460722    
   3834000   0.99987207     17.612431      39.43874     
   3835000   0.99741225     16.792956      39.213849    
   3836000   1.0090719      18.097023      39.146385    
   3837000   1.003544       17.308346      38.944501    
   3838000   0.97097212     16.924557      38.91132     
   3839000   1.0228608      17.155875      38.855738    
   3840000   0.98418896     17.215975      38.815448    
   3841000   0.98881334     17.370212      38.795398    
   3842000   0.96995506     16.837274      38.576417    
   3843000   0.97175226     17.744198      38.538517    
   3844000   0.97708888     16.993609      38.178242    
   3845000   0.97440816     17.255187      38.190219    
   3846000   0.99723972     17.054995      38.139145    
   3847000   0.98730916     17.32966       38.232343    
   3848000   1.0310606      17.567215      38.206602    
   3849000   1.0149676      17.950192      38.152917    
   3850000   1.000604       17.277936      37.929119    
   3851000   0.96022221     16.74966       37.906394    
   3852000   0.9631908      17.467779      37.929494    
   3853000   0.99389849     17.197399      37.878468    
   3854000   1.0099798      17.67768       37.776494    
   3855000   0.97105499     17.164593      37.706169    
   3856000   1.0358133      17.411014      37.892644    
   3857000   1.0315277      17.481867      37.907387    
   3858000   0.9903781      17.062075      37.82699     
   3859000   1.0094978      17.058118      37.651581    
   3860000   1.0308141      17.009202      37.727894    
   3861000   0.98788741     17.301276      37.4882      
   3862000   1.0367969      16.717264      37.215252    
   3863000   1.013388       17.711923      37.172691    
   3864000   0.95686492     17.262495      37.042976    
   3865000   1.0143858      17.489858      37.007028    
   3866000   1.003249       16.718101      36.953716    
   3867000   0.97121156     17.519527      37.023695    
   3868000   0.99837572     17.458108      36.85801     
   3869000   0.97848382     17.018257      36.809669    
   3870000   0.99835225     16.86868       36.592509    
   3871000   1.0012517      17.475736      36.48817     
   3872000   0.978481       17.531029      36.486875    
   3873000   0.96779935     17.03796       36.599069    
   3874000   0.97792569     16.830811      36.403439    
   3875000   0.97619334     17.457023      36.275112    
   3876000   1.0074754      17.213055      36.246242    
   3877000   0.9738322      17.074071      36.052042    
   3878000   0.99315628     17.19365       35.91225     
   3879000   1.0349275      17.363401      35.882568    
   3880000   0.93866014     17.264371      35.640709    
   3881000   1.0444139      17.442177      35.420997    
   3882000   0.93070647     16.897146      35.45119     
   3883000   1.0514752      17.012298      35.266987    
   3884000   0.99400618     17.076136      35.323265    
   3885000   1.0052089      16.884461      35.497263    
   3886000   0.99495577     16.935493      35.418901    
   3887000   0.99464366     17.281379      35.445703    
   3888000   0.9435254      17.486208      35.35616     
   3889000   0.97983209     17.132966      35.341708    
   3890000   1.0100218      17.461091      35.330269    
   3891000   1.0177502      17.009139      35.223187    
   3892000   1.0177223      17.191268      35.16311     
   3893000   1.012406       16.645136      35.047581    
   3894000   1.0210733      18.047709      34.936747    
   3895000   1.0123223      17.492279      34.928806    
   3896000   1.0124732      17.13313       34.806036    
   3897000   0.95916505     17.018013      34.638111    
   3898000   0.99565427     17.235386      34.670099    
   3899000   1.0049168      17.221686      34.700848    
   3900000   0.99866797     17.461846      34.681113    
   3901000   1.0059012      17.17629       34.768887    
   3902000   1.0057574      17.237378      34.712217    
   3903000   0.97901486     16.995779      34.650105    
   3904000   0.9785157      17.00398       34.540609    
   3905000   0.96709113     17.133156      34.368989    
   3906000   1.0123788      17.69495       34.128827    
   3907000   1.0060175      17.540076      33.955705    
   3908000   0.97340125     17.594822      33.711865    
   3909000   0.97285939     16.900146      33.682038    
   3910000   1.0234017      17.346561      33.818057    
   3911000   1.0229312      17.856216      33.687225    
   3912000   0.97006159     16.894892      33.518147    
   3913000   0.98907989     17.209141      33.643595    
   3914000   0.98576057     17.174769      33.401952    
   3915000   0.9950744      17.042827      33.182474    
   3916000   1.0077955      17.332152      33.25983     
   3917000   0.99250387     17.251478      33.327195    
   3918000   0.98177275     17.43129       33.118417    
   3919000   0.98916379     17.505977      33.350128    
   3920000   0.99579049     17.280488      33.230577    
   3921000   0.98691208     17.283972      33.299402    
   3922000   0.99367591     17.344035      33.431679    
   3923000   1.0139776      17.252082      32.972891    
   3924000   1.0366598      17.395029      32.961444    
   3925000   1.0173671      16.288942      32.865429    
   3926000   1.0368683      17.866559      33.013842    
   3927000   1.0543066      16.936744      32.929742    
   3928000   1.0072482      17.463183      32.829449    
   3929000   1.0411961      17.414538      33.094458    
   3930000   0.98561084     16.941318      33.169757    
   3931000   1.0082152      17.433356      33.10029     
   3932000   0.99012298     17.706078      32.992992    
   3933000   1.0115473      17.111727      32.862046    
   3934000   1.0202761      17.440954      33.041815    
   3935000   1.0008321      17.298879      33.144725    
   3936000   0.97416958     16.920376      33.272444    
   3937000   1.0303439      17.065165      33.267022    
   3938000   0.98647918     16.934712      33.107748    
   3939000   1.0229015      17.717095      32.952249    
   3940000   1.0638501      17.255834      32.865325    
   3941000   1.0136227      17.615575      32.748585    
   3942000   1.0190965      17.190442      32.966488    
   3943000   0.99157527     16.96553       33.050963    
   3944000   1.0020676      17.226399      33.076371    
   3945000   1.0148391      17.039865      33.030451    
   3946000   0.97597126     16.474161      32.961953    
   3947000   0.98203294     17.181705      32.856027    
   3948000   1.0204455      17.200759      32.738604    
   3949000   1.0449875      17.380358      32.729858    
   3950000   0.97541658     16.984613      32.662035    
   3951000   1.0053011      16.969767      32.440365    
   3952000   1.0028174      17.315873      32.40805     
   3953000   1.0007924      17.526024      32.34466     
   3954000   1.0132941      17.286172      32.258926    
   3955000   1.0071482      17.120014      32.406816    
   3956000   1.0161228      17.11715       32.390731    
   3957000   0.98377325     17.461771      32.293578    
   3958000   0.96541663     17.045824      32.217414    
   3959000   1.0557177      16.934689      32.160086    
   3960000   1.0019437      16.808676      32.12792     
   3961000   1.016429       17.512867      32.135269    
   3962000   1.0152236      17.124779      32.178514    
   3963000   1.0070064      17.093758      31.79165     
   3964000   1.0039703      17.028488      31.683       
   3965000   1.0139339      17.268223      31.668249    
   3966000   0.98852529     16.594409      31.590763    
   3967000   1.0092926      17.246202      31.593287    
   3968000   1.0491042      16.783986      31.553325    
   3969000   1.0014154      17.142468      31.52544     
   3970000   0.9865098      17.082946      31.344124    
   3971000   1.02844        17.337329      31.261616    
   3972000   1.0276664      17.770581      31.167072    
   3973000   1.0308399      17.530135      30.93745     
   3974000   0.97419084     17.425686      30.877785    
   3975000   0.97217652     17.458703      30.975125    
   3976000   1.0055328      17.322862      30.79177     
   3977000   1.0381955      17.848764      30.71523     
   3978000   1.0193366      17.271651      30.945193    
   3979000   0.97764133     16.66461       30.8309      
   3980000   1.0269147      17.017423      30.712947    
   3981000   0.96285985     16.572047      30.62751     
   3982000   1.0339394      17.457168      30.573541    
   3983000   1.0477311      17.495877      30.486867    
   3984000   0.96928865     16.880179      30.341295    
   3985000   1.0133365      17.691702      30.506018    
   3986000   0.99565472     17.333685      30.539674    
   3987000   0.98119778     17.948142      30.479787    
   3988000   1.0236547      17.265008      30.439917    
   3989000   1.0604847      17.09867       30.202818    
   3990000   0.99802251     16.997604      30.078403    
   3991000   1.0552746      16.540371      30.046615    
   3992000   0.96081544     17.125775      30.124532    
   3993000   1.0240471      17.399309      30.155641    
   3994000   1.0203476      17.25333       29.832401    
   3995000   1.0198536      17.06935       29.546065    
   3996000   1.0279049      17.448881      29.294084    
   3997000   0.97357777     17.714729      28.960351    
   3998000   0.9735256      16.995946      28.77866     
   3999000   1.0089212      16.962153      28.699993    
   4000000   0.98819613     17.624123      28.740678    
   4001000   0.98415812     17.483361      28.552995    
   4002000   1.0177957      17.550132      28.437419    
   4003000   0.98167478     17.043141      28.308484    
   4004000   1.0440768      17.489554      28.207692    
   4005000   0.99901134     17.232847      28.233415    
   4006000   1.0220352      17.693048      28.181972    
   4007000   1.024065       16.870168      28.20978     
   4008000   0.96408346     17.008721      28.034612    
   4009000   0.99100541     16.924279      27.907746    
   4010000   0.96841173     16.886929      28.024681    
   4011000   1.0057782      17.708876      27.933532    
   4012000   1.0055814      17.350662      27.894897    
   4013000   0.99829216     17.139032      27.913744    
   4014000   1.0030089      17.402156      28.09224     
   4015000   1.0028582      17.094754      28.21107     
   4016000   0.98107655     16.341722      28.337499    
   4017000   1.0154822      17.267307      28.317647    
   4018000   0.98504367     17.058899      28.342125    
   4019000   0.94696055     16.864813      28.250023    
   4020000   1.0339171      17.013209      28.398992    
   4021000   0.99881743     17.432007      28.399843    
   4022000   0.98811845     17.64512       28.544657    
   4023000   1.0041495      17.289286      28.463239    
   4024000   0.95552427     16.992936      28.505325    
   4025000   1.0259647      17.261472      28.526286    
   4026000   1.0010637      17.68475       28.506067    
   4027000   1.0018409      17.192303      28.635061    
   4028000   1.0157478      17.105426      28.372813    
   4029000   1.0032391      16.743537      28.396908    
   4030000   1.0130283      17.574275      28.205064    
   4031000   1.0031869      16.889505      28.03694     
   4032000   0.99070715     17.010817      27.980243    
   4033000   0.99803008     17.553266      27.944431    
   4034000   1.0134386      17.281343      27.752858    
   4035000   0.97541442     17.379974      27.709859    
   4036000   1.0771362      17.403787      27.756657    
   4037000   0.98771276     17.359546      27.679411    
   4038000   0.99654675     17.513074      27.446973    
   4039000   1.0094075      17.029481      27.515279    
   4040000   1.0168185      17.356462      27.366423    
   4041000   1.0068834      17.14027       27.265394    
   4042000   1.0002802      17.303978      27.174537    
   4043000   0.98609148     16.856719      27.167133    
   4044000   1.0025401      16.48252       26.977704    
   4045000   0.98280314     16.479927      26.960801    
   4046000   0.96806203     17.041262      27.045335    
   4047000   1.031092       16.965449      27.093568    
   4048000   1.0104706      17.083622      27.017549    
   4049000   0.97620805     17.208419      27.068902    
   4050000   0.97917904     16.638387      26.96296     
   4051000   1.0039078      17.088604      26.800786    
   4052000   0.97459512     17.163261      26.817994    
   4053000   0.98479255     17.809362      26.640414    
   4054000   1.0433846      17.179101      26.738135    
   4055000   1.0171626      16.981904      26.583066    
   4056000   0.97408303     16.91589       26.574275    
   4057000   0.98867222     17.345364      26.640185    
   4058000   1.0421964      17.579672      26.541369    
   4059000   1.0565197      17.897066      26.204539    
   4060000   0.99473596     16.811855      25.997011    
   4061000   1.0083885      17.057551      25.83093     
   4062000   1.046648       17.285196      25.79475     
   4063000   0.99909137     17.845716      25.735865    
   4064000   0.95110163     17.208768      25.692933    
   4065000   1.0334241      17.158672      25.814303    
   4066000   0.9811957      17.472435      25.586869    
   4067000   0.98483129     17.237519      25.306598    
   4068000   1.0071681      17.419373      25.338511    
   4069000   1.0030762      16.906198      25.390755    
   4070000   0.99226776     16.756034      25.375503    
   4071000   0.99472561     16.642808      25.322539    
   4072000   1.010634       17.347927      25.044048    
   4073000   1.0016144      17.666613      25.01963     
   4074000   0.98501836     16.856296      25.403657    
   4075000   0.99910838     17.035261      25.380058    
   4076000   0.95008161     16.787044      25.586644    
   4077000   1.0058396      17.403951      25.337423    
   4078000   0.96961697     16.847067      25.248123    
   4079000   1.0720597      17.170259      25.406099    
   4080000   0.96905489     17.498271      25.307675    
   4081000   0.99253047     17.658159      25.280646    
   4082000   0.991174       17.015349      25.08829     
   4083000   0.99431907     16.882566      25.05389     
   4084000   0.98250209     17.466442      24.906651    
   4085000   1.0143617      17.020364      24.64686     
   4086000   1.0243037      17.523181      24.615763    
   4087000   0.98743495     16.851635      24.689608    
   4088000   0.98373143     17.064091      24.725153    
   4089000   1.0249805      17.302969      24.597983    
   4090000   0.99087068     17.171944      24.398314    
   4091000   0.98495122     16.817783      24.52632     
   4092000   0.98019008     17.130721      24.528472    
   4093000   0.99083473     17.012825      24.435047    
   4094000   0.96042281     16.78876       24.446557    
   4095000   1.008535       17.260392      24.416353    
   4096000   0.96049576     17.293191      24.436381    
   4097000   1.0040684      17.138639      24.199436    
   4098000   1.0271089      17.278046      24.096576    
   4099000   0.96219489     17.140825      24.078484    
   4100000   0.98762748     17.45026       24.052393    
   4101000   0.9776887      16.8122        23.901633    
   4102000   1.0083399      17.375728      23.80613     
   4103000   1.0376429      17.261543      23.81699     
   4104000   0.98112199     16.882245      23.767992    
   4105000   0.98304013     17.337517      23.643496    
   4106000   0.98366415     17.037007      23.475532    
   4107000   0.98873463     17.156853      23.152235    
   4108000   1.0386192      16.981217      22.860559    
   4109000   1.0054213      16.832643      22.86659     
   4110000   0.98688092     16.86033       22.67967     
   4111000   1.0216717      16.897114      22.507737    
   4112000   1.0030849      17.159436      22.38748     
   4113000   1.0021778      17.113537      22.347619    
   4114000   1.0234166      17.123636      22.364711    
   4115000   1.0094002      17.524229      22.36681     
   4116000   0.97731444     17.47219       22.280912    
   4117000   1.0173595      17.020732      22.264206    
   4118000   1.0122664      17.288628      22.04344     
   4119000   1.0191868      16.9093        21.707075    
   4120000   1.014304       17.132361      21.903049    
   4121000   1.0146041      17.556234      21.701409    
   4122000   0.98461455     17.018543      21.546705    
   4123000   0.97451648     16.910254      21.599506    
   4124000   0.99295745     16.973595      21.622823    
   4125000   1.0079287      17.341184      21.638977    
   4126000   1.0248612      16.680539      21.465035    
   4127000   1.0745949      17.395587      21.290901    
   4128000   0.99557787     16.857396      21.144123    
   4129000   0.98354794     17.394448      20.903618    
   4130000   1.0074331      17.793129      20.942744    
   4131000   0.95434698     16.91686       21.069142    
   4132000   1.0247047      17.16908       20.842242    
   4133000   0.96684067     16.946232      20.819767    
   4134000   1.0361809      17.056913      20.584227    
   4135000   0.99097823     16.912715      20.451967    
   4136000   0.96539522     16.61094       20.406896    
   4137000   0.98511557     16.894791      20.577242    
   4138000   1.00445        17.217996      20.662858    
   4139000   0.99546323     17.14783       20.58392     
   4140000   0.96951256     17.175832      20.54712     
   4141000   0.99300908     16.706729      20.478542    
   4142000   0.96886625     16.516209      20.578067    
   4143000   0.97235346     17.062668      20.556562    
   4144000   1.0017517      17.390922      20.219525    
   4145000   0.98444651     16.735133      20.069977    
   4146000   1.0310971      17.43566       20.070587    
   4147000   0.97473959     16.963292      19.916718    
   4148000   1.0288185      17.401134      19.819666    
   4149000   1.0035587      17.022336      19.657409    
   4150000   1.0029437      17.434874      19.455031    
   4151000   1.01609        16.998832      19.338631    
   4152000   0.98477126     17.25311       19.072572    
   4153000   1.023197       17.382421      18.946224    
   4154000   1.0132175      16.978078      18.974401    
   4155000   1.0410953      16.91385       18.921123    
   4156000   1.0260851      17.41941       18.70737     
   4157000   1.0102623      17.323457      18.534695    
   4158000   1.0237464      17.081998      18.494718    
   4159000   0.98993678     16.928223      18.442957    
   4160000   0.99526674     17.716371      18.637385    
   4161000   0.99468008     17.192905      18.546598    
   4162000   1.0295988      16.562079      18.486417    
   4163000   0.98776271     16.80954       18.458458    
   4164000   0.99993834     16.732992      18.618389    
   4165000   0.98756843     17.41885       18.824665    
   4166000   1.0307851      17.618501      18.563175    
   4167000   0.97835217     16.999353      18.533026    
   4168000   1.0128129      17.149347      18.580709    
   4169000   1.0004352      16.823935      18.54813     
   4170000   1.0067635      17.067988      18.587702    
   4171000   1.0276707      16.999658      18.69214     
   4172000   0.96903645     17.329129      18.556319    
   4173000   1.0104757      17.038382      18.675966    
   4174000   0.98166249     17.247248      18.648952    
   4175000   1.0362009      17.24561       18.724693    
   4176000   1.0111655      17.085113      18.555674    
   4177000   0.9728307      17.082836      18.387168    
   4178000   0.94837037     16.890239      18.223941    
   4179000   1.0286754      17.299532      18.258236    
   4180000   0.99307477     17.025875      18.210046    
   4181000   0.97548012     17.034696      18.080309    
   4182000   0.93763346     16.840157      18.143194    
   4183000   1.0100114      17.086623      17.974023    
   4184000   0.99923442     17.000425      17.756631    
   4185000   1.0010169      17.259116      17.60274     
   4186000   1.0366658      16.971831      17.557512    
   4187000   1.0110659      17.20371       17.301334    
   4188000   1.0606358      17.43272       17.262703    
   4189000   0.97000896     16.905968      16.983658    
   4190000   1.0239042      17.408101      17.006687    
   4191000   1.0125526      17.201128      17.048271    
   4192000   0.97535279     17.359096      16.964502    
   4193000   0.96079258     17.104688      16.944659    
   4194000   0.97399497     17.278896      16.866056    
   4195000   0.98799479     16.941005      16.76911     
   4196000   1.0439947      17.318504      16.72201     
   4197000   0.99891209     17.012706      16.631805    
   4198000   1.0168767      17.154094      16.474415    
   4199000   0.94503655     17.260891      16.442137    
   4200000   0.95183929     16.816659      16.420359    
   4201000   1.0232493      16.955619      16.064455    
   4202000   1.0550892      16.946614      15.839113    
   4203000   0.96590714     17.068132      15.781258    
   4204000   0.99020618     17.448645      15.702944    
   4205000   0.97034819     16.435541      15.747271    
   4206000   1.0305675      17.227403      15.78383     
   4207000   0.97896329     16.560122      15.555062    
   4208000   0.98931718     16.876554      15.472465    
   4209000   1.0158471      16.550242      15.203623    
   4210000   1.0116411      17.134394      15.098539    
   4211000   0.99258473     17.062037      15.076582    
   4212000   1.0103169      17.011797      14.800337    
   4213000   1.0350037      17.048321      14.578403    
   4214000   0.97055223     17.423784      14.313469    
   4215000   0.97459019     17.031354      14.301754    
   4216000   0.99762478     16.594395      14.310213    
   4217000   1.0066628      17.060102      14.302714    
   4218000   0.98809343     16.533056      14.262114    
   4219000   1.0160095      17.691189      14.195468    
   4220000   1.0039041      16.965497      14.19929     
   4221000   0.98648914     16.879841      14.007485    
   4222000   1.0026752      17.134856      13.962693    
   4223000   1.0105066      16.934116      14.099078    
   4224000   1.011373       17.046419      14.11327     
   4225000   1.0332027      16.649169      14.093178    
   4226000   0.98648643     16.835619      13.947063    
   4227000   0.98230336     17.140161      14.038242    
   4228000   1.0213023      16.902884      14.167769    
   4229000   1.0164754      16.998102      14.082518    
   4230000   1.0127371      16.968701      13.904096    
   4231000   1.0271585      17.463793      13.992438    
   4232000   1.0242414      17.287471      13.890431    
   4233000   1.0220724      16.683116      13.848934    
   4234000   1.0275507      16.964115      13.802271    
   4235000   1.0098139      16.957705      13.581536    
   4236000   1.0152523      17.258681      13.362901    
   4237000   0.98952257     16.967674      13.14643     
   4238000   1.0526052      16.960862      13.110267    
   4239000   1.0082377      17.412322      12.812076    
   4240000   1.0270697      16.470815      12.816369    
   4241000   0.97215853     16.914536      12.662208    
   4242000   0.94881839     16.345341      12.556023    
   4243000   1.0358731      17.255324      12.379778    
   4244000   0.9685971      17.57477       12.161879    
   4245000   1.0236189      17.37239       12.152583    
   4246000   0.9820435      17.340427      12.151812    
   4247000   1.0094973      16.452478      12.250897    
   4248000   0.96649795     17.003849      12.160091    
   4249000   0.99713919     17.362731      12.095203    
   4250000   1.0388742      16.688181      12.31115     
   4251000   1.0081871      16.672022      12.199487    
   4252000   1.0077643      17.279858      12.077632    
   4253000   0.97002152     17.049242      12.00249     
   4254000   1.0105982      16.978835      12.166134    
   4255000   0.98809288     17.244633      12.117504    
   4256000   0.99376844     16.640925      12.096698    
   4257000   0.96910434     16.823532      12.158456    
   4258000   0.99490065     17.356606      12.201586    
   4259000   1.0315773      16.9299        12.14577     
   4260000   1.0065228      17.098861      11.992026    
   4261000   1.0166399      17.524704      11.93071     
   4262000   1.0110283      16.720571      11.913577    
   4263000   1.0284829      17.451275      11.79118     
   4264000   1.0380618      17.409023      11.766146    
   4265000   1.0001725      17.037947      11.640644    
   4266000   1.004814       16.949135      11.563144    
   4267000   0.98992462     16.738637      11.57286     
   4268000   1.0283672      16.688308      11.353833    
   4269000   0.99262146     17.017579      11.278559    
   4270000   1.0167521      16.845709      11.24858     
   4271000   0.9983301      17.324498      11.140928    
   4272000   1.0273128      16.883439      10.988152    
   4273000   0.96564028     16.977182      10.927803    
   4274000   0.99118295     16.454474      10.761719    
   4275000   1.032772       16.752897      10.633041    
   4276000   0.98519276     17.41402       10.694293    
   4277000   1.025397       17.416238      10.441559    
   4278000   1.0017621      16.879189      10.264752    
   4279000   1.008863       17.123137      10.090407    
   4280000   0.97433361     17.407695      9.9506465    
   4281000   1.0103137      17.403565      9.9465416    
   4282000   1.0036275      16.908279      9.9508768    
   4283000   0.95291932     17.407084      9.7719809    
   4284000   1.0012536      16.933723      9.8283355    
   4285000   0.99801245     17.311666      9.8815072    
   4286000   0.99047424     16.877248      9.7260337    
   4287000   1.0139662      16.868404      9.7449134    
   4288000   0.94154719     16.165917      9.5736159    
   4289000   1.0020249      17.317305      9.3389058    
   4290000   1.0248752      17.02105       9.3697017    
   4291000   0.96932798     16.356081      9.5186429    
   4292000   0.94650389     17.248241      9.4829908    
   4293000   1.0236942      16.910889      9.6471264    
   4294000   1.0007989      17.221881      9.4763995    
   4295000   1.0103562      16.966194      9.3849501    
   4296000   1.0199136      17.019536      9.437424     
   4297000   1.0255737      16.874028      9.4817953    
   4298000   0.98199686     16.732047      9.448411     
   4299000   0.95214844     16.63907       9.4769012    
   4300000   1.0000017      17.215377      9.4633255    
   4301000   1.0353863      17.483513      9.3998328    
   4302000   1.0137468      17.324998      9.293048     
   4303000   1.0016247      17.020172      9.3920641    
   4304000   1.071242       17.698584      9.5061515    
   4305000   1.0070301      18.030945      9.4443884    
   4306000   0.98266171     16.767685      9.4164669    
   4307000   0.99399706     17.198909      9.4220469    
   4308000   1.0165038      17.368496      9.3962103    
   4309000   1.0061992      16.79491       9.3161028    
   4310000   1.0225034      17.279493      9.1181074    
   4311000   1.0007156      16.59911       9.0273662    
   4312000   1.0147819      17.026423      8.8727755    
   4313000   0.97837952     16.839681      8.8697004    
   4314000   1.0015995      17.181946      8.9373424    
   4315000   1.0247813      16.897685      8.9887758    
   4316000   0.97808282     17.000265      8.9286671    
   4317000   0.98520499     16.826379      8.9705697    
   4318000   1.0167093      16.889468      9.0277681    
   4319000   1.0087381      16.630756      9.0461127    
   4320000   1.0270239      17.137959      8.9188079    
   4321000   1.0423352      16.837189      8.9597041    
   4322000   1.0111591      16.914483      8.9216066    
   4323000   0.95700902     16.651399      8.8885287    
   4324000   0.97364192     16.755052      8.655548     
   4325000   0.99502698     17.040017      8.6705254    
   4326000   0.97517405     16.890405      8.6623234    
   4327000   0.99971302     16.595726      8.5612523    
   4328000   1.0027999      17.058995      8.5196654    
   4329000   1.0152887      16.91742       8.3530872    
   4330000   1.0164371      17.195406      8.1841857    
   4331000   0.97787118     16.881574      8.0567987    
   4332000   1.0044828      16.950956      8.0013777    
   4333000   1.0245075      17.641136      7.9301997    
   4334000   1.0000307      17.171333      7.7484402    
   4335000   1.0343837      16.505739      7.6328727    
   4336000   0.95175158     16.937388      7.561767     
   4337000   0.99328908     17.450307      7.4446267    
   4338000   1.0253323      16.865241      7.1358249    
Fix halt condition for fix-id 3 met on step 4339000 with value 6.85254332583461 (src/fix_halt.cpp:237)
   4339000   0.98386151     16.875605      6.8525433    
Loop time of 8042.71 on 2 procs for 4239000 steps with 1200 atoms

Performance: 455380.837 tau/day, 527.061 timesteps/s
125.0% CPU use with 1 MPI tasks x 2 OpenMP threads

MPI task timing breakdown:
Section |  min time  |  avg time  |  max time  |%varavg| %total
---------------------------------------------------------------
Pair    | 1528.8     | 1528.8     | 1528.8     |   0.0 | 19.01
Bond    | 122.89     | 122.89     | 122.89     |   0.0 |  1.53
Neigh   | 6101.4     | 6101.4     | 6101.4     |   0.0 | 75.86
Comm    | 2.0138     | 2.0138     | 2.0138     |   0.0 |  0.03
Output  | 11.944     | 11.944     | 11.944     |   0.0 |  0.15
Modify  | 254.29     | 254.29     | 254.29     |   0.0 |  3.16
Other   |            | 21.45      |            |       |  0.27

Nlocal:           1200 ave        1200 max        1200 min
Histogram: 1 0 0 0 0 0 0 0 0 0
Nghost:              0 ave           0 max           0 min
Histogram: 1 0 0 0 0 0 0 0 0 0
Neighs:         289156 ave      289156 max      289156 min
Histogram: 1 0 0 0 0 0 0 0 0 0

Total # of neighbors = 289156
Ave neighs/atom = 240.96333
Ave special neighs/atom = 1.9983333
Neighbor list builds = 41691
Dangerous builds = 0

# This simulation is done
# Move onto the next one
clear
  using 2 OpenMP thread(s) per MPI task
package omp 0
using multi-threaded neighbor list subroutines
next f
jump SELF

Total wall time: 6:54:10
