#atom_style bond #no stiffness
atom_style angle #with stiffness

boundary        p p p
###
# Pair interactions require lists of neighbours to be calculated
###

#neighbor 0.3 bin
neighbor 4 bin

neigh_modify every 1 delay 1 check yes
atom_modify sort 0 0
### Generate RESTART file, SPECIAL format, not a .txt file ###
### Useful if simulation crashes ###

restart 1000000 linear/restarts3/$f.restart
restart 1000000 linear/restarts3/bb700nuc0bl0bn0d30tot700.restart
#############################



### READ "start" data file ###

read_data linear/$f.dat
read_data linear/bb700nuc0bl0bn0d30tot700.dat
Reading data file ...
  orthogonal box = (-1000 -1000 -1000) to (1000 1000 1000)
  1 by 1 by 1 MPI processor grid
  reading atoms ...
  700 atoms
  scanning bonds ...
  1 = max bonds/atom
  scanning angles ...
  1 = max angles/atom
  reading bonds ...
  699 bonds
  reading angles ...
  698 angles
Finding 1-2 1-3 1-4 neighbors ...
  special bond factors lj:    0        0        0       
  special bond factors coul:  0        0        0       
     2 = max # of 1-2 neighbors
     2 = max # of 1-3 neighbors
     4 = max # of 1-4 neighbors
     6 = max # of special neighbors
  special bonds CPU = 0.001 seconds
  read_data CPU = 0.088 seconds

######################

### READ "REstart" data file ###

######################



###
# Define groups (atom type 1 is group 'all')
###
group all type 1
700 atoms in group all


###
# Dump configs - "simple dumpings"
###

###
# Dump configs + box coords
###

dump   1   all   custom   1000  linear/trjs3/$f.lammpstrj  id  x y z  ix iy iz
dump   1   all   custom   1000  linear/trjs3/bb700nuc0bl0bn0d30tot700.lammpstrj  id  x y z  ix iy iz
dump_modify   1   format line "%d %.5f %.5f %.5f %d %d %d"

########################################################################


###################################################################
# Stiffness term
#
# E = K * (1+cos(theta)), K>0
#
angle_style   cosine
#change this coefficient to change stiffness (e.g. 1,5,10)
angle_coeff   1 1.0
###################################################################

###################################################################
# Pair interaction between non-bonded atoms
#
#  Lennard-Jones 12-6 potential with cutoff:
#  potential E=4epsilon[ (sigma/r)^12 - (sigma/r)^6]  for r<r_cut
#
#  1.12246 = 2^(1/6) is the minimum of the potential


pair_style      lj/cut 1.12246152962189
#pair_style      lj/cut 3

#
#  pair_modify shift yes adds a constant to the potential such

#  that E(r_cut)=0. Forces remains unchanged.
#

pair_modify     shift yes

#
#  pair_coeff for lj/cut, specify 4:
#    * atom type interacting with
#    * atom type
#    * epsilon (energy units)
#    * sigma (distance units)
#

pair_coeff      1 1 1.0 1.0
###################################################################

###################################################################
# Pair interaction between non-bonded atoms
#
#  soft potential, for PUSHING apart overlapping atoms
#  potential E=A*(1 + cos(pi*r/r_c))
#
#  1.12246 = 2^(1/6) is the cut-off r_c

#pair_style     soft 1.12246152962189

#
#  pair_coeff for soft, specify 3:
#    * atom type interacting with
#    * atom type
#    * A
#
#

#pair_coeff      1 1 100.0
###################################################################

###################################################################
# Pair interaction between bonded atoms
#
# Fene potential + Lennard Jones 12-6:

#
#  E= - 0.5 K R0^2 ln[ 1- (r/R0)^2]
#     + 4epsilon[ (sigma/r)^12 - (sigma/r)^6] + epsilon
#

bond_style   fene


#
# For style fene, specify:
#   * bond type
#   * K (energy/distance^2)
#   * R0 (distance)
#   * epsilon (energy)  (LJ component)
#   * sigma (distance)  (LJ component)
#


special_bonds fene #<=== I M P O R T A N T (new command)
Finding 1-2 1-3 1-4 neighbors ...
  special bond factors lj:    0        1        1       
  special bond factors coul:  0        1        1       
     2 = max # of 1-2 neighbors
     6 = max # of special neighbors
  special bonds CPU = 0.000 seconds

bond_coeff   1   30   2   1.0   1.0


###################################################

###################################################################
# Pair interaction between bonded atoms
#
# Harmonic potential:
#
#  E= K * (R-R0)^2
#

#bond_style   harmonic

#
# For style harmonic, specify:
#   * bond type
#   * K (energy/distance^2)
#   * R0 (distance)
#

#bond_coeff   1   60.0   1.0
#bond_coeff   2   harmonic 0.1   1.0

###################################################
compute 1 all gyration
variable rog equal c_1
#compute 2 all coord/atom cutoff 1.1

#dump 2 all custom 10000 contact_number.dump id c_2


###
# Set up fixes
###
thermo_style   custom   step  temp enthalpy c_1
fix 1 all nve   ###NVE ensemble

fix 2 all   langevin   1.0 1.0 1.0  158102   ###Langevin integrator Tstart Tstop 1/friction rndseed


##### Sample thermodynamic info  (temperature, energy, pressure, etc.) #####
thermo 1000









############################################################################

###
# set timestep of integrator

timestep 0.01

###
# run integration for a number of steps
###
#run 0
#variable r equal c_1
#if "$r < 63.1" then "quit 1"

# lj potential minimum, cause molecule to explore
run 100000
Generated 0 of 0 mixed pair_coeff terms from geometric mixing rule
Last active /omp style is angle_style cosine/omp
Neighbor list info ...
  update: every = 1 steps, delay = 1 steps, check = yes
  max neighbors/atom: 2000, page size: 100000
  master list distance cutoff = 5.1224615
  ghost atom cutoff = 5.1224615
  binsize = 2.5612308, bins = 781 781 781
  1 neighbor lists, perpetual/occasional/extra = 1 0 0
  (1) pair lj/cut/omp, perpetual
      attributes: half, newton on, omp
      pair build: half/bin/newton/omp
      stencil: half/bin/3d
      bin: standard
WARNING: Communication cutoff 5.12246152962189 is shorter than a bond length based estimate of 5.455. This may lead to errors. (src/comm.cpp:723)
Per MPI rank memory allocation (min/avg/max) = 1860 | 1860 | 1860 Mbytes
   Step          Temp         Enthalpy         c_1      
         0   0              13.407172      175.00033    
      1000   0.96557089     18.814456      174.97135    
      2000   0.92369904     18.526595      174.80611    
      3000   1.0211058      18.786785      174.6247     
      4000   0.98777029     19.052588      174.32226    
      5000   0.9951254      18.985796      173.79087    
      6000   1.0394685      19.076613      173.70411    
      7000   1.0172117      20.012759      173.49208    
      8000   0.99521401     18.79401       173.174      
      9000   0.93368        18.377781      172.98341    
     10000   1.0284438      19.016929      172.71303    
     11000   1.0468104      18.800398      172.63142    
     12000   1.0091606      18.909947      172.54625    
     13000   1.0167093      18.824271      172.65802    
     14000   1.0144038      19.10115       172.29626    
     15000   0.98081018     19.042517      171.95246    
     16000   0.99935725     18.534796      171.82771    
     17000   1.0201939      19.531023      171.46587    
     18000   0.99817056     19.412932      171.26945    
     19000   1.0234717      19.386378      170.93605    
     20000   0.99405996     19.095134      170.66556    
     21000   1.1161522      19.358951      170.62768    
     22000   0.97325938     18.881765      170.44418    
     23000   0.97294876     19.378716      170.45769    
     24000   0.93854619     18.874259      170.23682    
     25000   1.016235       19.119223      169.97659    
     26000   0.96697145     19.00931       169.7439     
     27000   1.0109472      19.233916      169.76984    
     28000   0.95817321     19.383626      169.31283    
     29000   1.0036173      18.926566      169.08396    
     30000   0.96993668     18.968285      168.89579    
     31000   1.0050099      19.123676      168.74934    
     32000   1.0240989      19.615986      168.17718    
     33000   1.013864       19.715219      167.8906     
     34000   1.0182497      18.975305      167.63426    
     35000   0.99907594     18.833652      167.62233    
     36000   1.0677375      19.310293      167.61064    
     37000   0.97965181     18.952941      167.43048    
     38000   1.0296139      18.788375      167.32946    
     39000   1.0015827      18.985344      167.1934     
     40000   0.95137396     18.99714       166.71869    
     41000   0.97556669     19.090247      166.72222    
     42000   0.96668489     19.325782      166.73109    
     43000   0.98158865     18.89454       166.51863    
     44000   0.97968273     19.106709      166.27305    
     45000   0.99790401     19.768543      165.81619    
     46000   0.97032829     19.094648      165.62037    
     47000   1.0191418      19.479243      165.35303    
     48000   1.0045529      18.883416      165.2374     
     49000   1.0281686      19.832672      164.95184    
     50000   0.99433514     19.937585      164.44098    
     51000   0.93290738     19.650445      164.45052    
     52000   1.0130439      19.466462      164.42873    
     53000   0.97515156     19.239748      164.1793     
     54000   0.99487853     19.442124      163.97526    
     55000   1.0133741      19.657905      163.92714    
     56000   1.0043541      19.851327      163.81127    
     57000   0.95804081     18.973584      163.74297    
     58000   1.0185007      19.577544      163.47029    
     59000   1.02292        19.446116      163.15399    
     60000   0.98525591     19.603433      162.80186    
     61000   1.0691902      19.752832      162.45108    
     62000   1.0331894      19.44459       162.16281    
     63000   0.98762687     19.47733       161.99012    
     64000   1.0087987      19.141129      161.79293    
     65000   1.0037613      19.959157      161.57058    
     66000   1.0099345      19.886646      161.30492    
     67000   0.97471162     19.353601      161.0689     
     68000   1.0644028      19.605132      161.12931    
     69000   1.0273143      19.59833       161.02781    
     70000   1.0149805      19.721259      160.70958    
     71000   0.96595503     19.594947      160.8002     
     72000   0.97335422     19.220275      160.66081    
     73000   1.0419184      19.895855      160.61013    
     74000   1.0230317      19.462445      160.24266    
     75000   1.0275417      19.925561      159.96371    
     76000   0.98207688     19.649054      159.65946    
     77000   1.0385539      20.266491      159.54525    
     78000   1.0114292      20.473368      159.57603    
     79000   0.95034102     19.502567      159.55889    
     80000   1.0148968      19.687474      159.39584    
     81000   0.97914468     20.28875       158.95685    
     82000   0.97961999     20.079904      158.80998    
     83000   1.0149447      19.724084      158.63947    
     84000   0.93376967     19.386334      158.45212    
     85000   0.99616415     18.848173      158.15993    
     86000   1.0273222      19.573774      157.84289    
     87000   0.99814458     19.623323      157.64013    
     88000   1.0070788      19.357819      157.68249    
     89000   0.9771053      19.449441      157.57776    
     90000   0.99650293     19.650461      157.05316    
     91000   1.01472        19.610738      156.84272    
     92000   0.98840359     19.59452       156.72967    
     93000   0.93664092     19.570313      156.52843    
     94000   1.0151365      19.659713      156.4779     
     95000   1.0777248      20.562069      156.57142    
     96000   0.98670693     19.374929      156.49334    
     97000   1.0074599      20.294434      156.36561    
     98000   1.0060391      19.6866        156.16674    
     99000   1.0165244      19.548007      155.83833    
    100000   1.0244047      19.722586      155.86276    
Loop time of 529.574 on 2 procs for 100000 steps with 700 atoms

Performance: 163150.062 tau/day, 188.831 timesteps/s
101.5% CPU use with 1 MPI tasks x 2 OpenMP threads

MPI task timing breakdown:
Section |  min time  |  avg time  |  max time  |%varavg| %total
---------------------------------------------------------------
Pair    | 0.8257     | 0.8257     | 0.8257     |   0.0 |  0.16
Bond    | 1.7935     | 1.7935     | 1.7935     |   0.0 |  0.34
Neigh   | 522.82     | 522.82     | 522.82     |   0.0 | 98.72
Comm    | 0.03591    | 0.03591    | 0.03591    |   0.0 |  0.01
Output  | 0.23453    | 0.23453    | 0.23453    |   0.0 |  0.04
Modify  | 3.5507     | 3.5507     | 3.5507     |   0.0 |  0.67
Other   |            | 0.3177     |            |       |  0.06

Nlocal:            700 ave         700 max         700 min
Histogram: 1 0 0 0 0 0 0 0 0 0
Nghost:              0 ave           0 max           0 min
Histogram: 1 0 0 0 0 0 0 0 0 0
Neighs:           3589 ave        3589 max        3589 min
Histogram: 1 0 0 0 0 0 0 0 0 0

Total # of neighbors = 3589
Ave neighs/atom = 5.1271429
Ave special neighs/atom = 1.9971429
Neighbor list builds = 1038
Dangerous builds = 0

# Replace lj potential, now collapse
pair_style      lj/cut 3

# Cutoff simul when gyration under 5
# Variable created with equal requires v_ + 'name'
fix 3 all halt 1000 v_rog < 7

run 5000000
Generated 0 of 0 mixed pair_coeff terms from geometric mixing rule
Last active /omp style is angle_style cosine/omp
Per MPI rank memory allocation (min/avg/max) = 1860 | 1860 | 1860 Mbytes
   Step          Temp         Enthalpy         c_1      
    100000   1.0244047      19.239082      155.86276    
    101000   1.0041077      19.322147      155.45458    
    102000   1.0037543      19.300775      154.85704    
    103000   0.95200074     19.47762       154.51826    
    104000   0.98576369     19.848844      154.36995    
    105000   0.96596566     19.627281      153.82221    
    106000   1.0040451      19.54529       153.67283    
    107000   1.0069261      19.414139      153.47984    
    108000   0.96863953     19.242673      153.17135    
    109000   0.99248567     19.936263      152.99153    
    110000   1.0228028      19.547935      152.87791    
    111000   1.0282475      19.076015      152.60334    
    112000   1.0405245      19.862541      152.20157    
    113000   0.95660377     18.867796      152.11709    
    114000   0.97380146     19.064131      151.98705    
    115000   1.0398404      19.58187       151.59214    
    116000   0.98149327     18.742206      151.37803    
    117000   1.0261226      19.609651      151.1851     
    118000   0.97679912     18.72359       151.0897     
    119000   1.0097509      19.577443      150.97233    
    120000   0.98183774     18.996538      150.57772    
    121000   0.99659521     19.442421      150.11611    
    122000   0.99620779     19.11243       150.34977    
    123000   0.98513559     19.764484      150.1542     
    124000   0.99521115     19.240234      150.06633    
    125000   1.0365399      19.605083      149.9908     
    126000   1.0168012      19.32349       149.89704    
    127000   1.0336799      19.164859      149.70195    
    128000   1.1027947      19.923275      149.48264    
    129000   1.0317165      19.094624      149.55635    
    130000   1.0341594      19.597721      149.57102    
    131000   0.9915399      19.447489      149.33505    
    132000   0.97726285     19.362752      149.2508     
    133000   1.0697931      20.131429      148.97502    
    134000   0.98256756     18.953945      149.00318    
    135000   0.98333592     19.779008      149.06582    
    136000   1.0449039      19.072959      148.68966    
    137000   0.97971793     19.071792      148.72077    
    138000   1.0372384      19.592302      148.53451    
    139000   1.0244175      19.535741      148.25265    
    140000   0.97054351     19.808658      148.22931    
    141000   0.9636062      18.610316      148.31051    
    142000   1.0099031      19.085064      148.2189     
    143000   1.0064394      19.214877      147.85287    
    144000   0.99607015     19.083166      147.80006    
    145000   0.99862507     19.394169      147.90336    
    146000   1.0166984      19.506143      147.59227    
    147000   0.9801323      18.976191      147.70106    
    148000   0.97801462     18.833152      147.44739    
    149000   1.0057466      18.894107      147.58672    
    150000   0.99066902     19.429448      147.36774    
    151000   0.99140343     18.842312      147.13359    
    152000   0.93469204     19.29922       146.93575    
    153000   1.0034434      18.938348      146.58305    
    154000   1.0271193      19.169823      146.39121    
    155000   0.99685727     19.130021      146.14444    
    156000   1.0161166      19.395156      145.62048    
    157000   1.0336208      19.709203      145.66207    
    158000   0.97912995     19.016703      145.68089    
    159000   0.96963251     18.657713      145.63233    
    160000   1.0066328      19.301857      145.5705     
    161000   0.97271174     18.855699      145.5769     
    162000   1.0118002      18.530745      145.57348    
    163000   1.0254696      19.544581      145.56505    
    164000   0.99677416     19.376942      145.606      
    165000   0.97076054     18.991537      145.97145    
    166000   0.99852582     19.71447       145.8405     
    167000   0.98527487     19.061549      145.42782    
    168000   0.96983915     19.239025      145.38939    
    169000   1.0060031      18.731807      145.17458    
    170000   0.99997779     18.63384       145.02664    
    171000   1.0234888      19.447605      145.09427    
    172000   0.99476656     19.755085      144.89331    
    173000   1.0385431      19.111517      144.8183     
    174000   0.99924754     19.538746      144.62477    
    175000   0.98315016     19.149228      144.57608    
    176000   0.95694143     19.353081      144.40636    
    177000   0.96975778     18.930055      144.3158     
    178000   0.98393763     19.663733      144.21056    
    179000   0.93354788     18.905399      143.99193    
    180000   1.0376157      19.140066      143.73551    
    181000   0.98903932     19.121697      143.47308    
    182000   0.99983867     19.391829      143.28903    
    183000   1.0191173      19.112629      143.20628    
    184000   0.93880173     18.956158      143.07957    
    185000   0.99329235     19.206334      142.92536    
    186000   0.98236346     18.944491      142.78878    
    187000   1.022073       18.904746      142.65151    
    188000   1.0018533      19.294363      142.42365    
    189000   1.0231187      19.335281      142.28419    
    190000   1.0073324      19.268743      141.95696    
    191000   0.96351471     19.522711      142.08285    
    192000   0.97295585     18.889645      142.02405    
    193000   0.99702311     19.104218      141.95676    
    194000   0.96836182     19.675528      141.62284    
    195000   0.98021891     18.957294      141.54308    
    196000   0.96037954     19.197937      141.57877    
    197000   0.95942182     19.238788      141.4532     
    198000   0.96064182     19.114319      141.32586    
    199000   1.0411541      19.241856      141.25919    
    200000   1.0204519      18.323141      140.99831    
    201000   1.013677       19.328401      140.8569     
    202000   1.0091621      19.179905      140.71004    
    203000   0.99660586     18.940581      140.61899    
    204000   0.97484041     18.929755      140.38716    
    205000   1.0173851      19.428286      140.20833    
    206000   1.0295656      19.072704      140.01164    
    207000   1.0579532      19.264365      140.17486    
    208000   1.0059287      18.787088      140.22987    
    209000   1.0136873      18.963436      140.18242    
    210000   0.9938688      19.218644      140.11619    
    211000   0.99488252     18.790127      139.86019    
    212000   1.0006987      18.958217      139.76431    
    213000   0.97266078     18.995858      139.69363    
    214000   0.96986579     19.346273      139.45683    
    215000   0.99336022     18.651886      139.04314    
    216000   1.019596       19.205058      138.81256    
    217000   1.0771327      18.939698      138.54996    
    218000   0.96030282     18.544317      138.52084    
    219000   0.99883599     19.268865      138.57993    
    220000   1.0086175      19.437835      138.50624    
    221000   1.0179033      19.170159      138.29187    
    222000   0.98925743     18.437673      137.99693    
    223000   0.98611267     18.787813      137.73335    
    224000   1.0286203      19.058851      137.54887    
    225000   0.97082848     18.947418      137.31006    
    226000   1.01471        18.394159      137.27588    
    227000   1.0084304      18.393763      137.17658    
    228000   1.002229       19.200735      136.85454    
    229000   1.0314994      19.585651      136.72492    
    230000   0.98732807     18.897454      136.45457    
    231000   1.0005253      18.557889      136.43642    
    232000   0.99572901     18.911699      136.51907    
    233000   1.026586       18.633624      136.5678     
    234000   0.97247771     19.26588       136.74468    
    235000   1.0080699      19.298326      136.67187    
    236000   0.98422005     18.971095      136.39085    
    237000   0.99201807     19.182385      136.34612    
    238000   1.066246       19.250859      136.14221    
    239000   1.0056293      19.126347      135.89401    
    240000   0.94725655     18.931581      135.76076    
    241000   0.98943387     19.190033      135.68623    
    242000   1.0432296      18.60345       135.50403    
    243000   0.93467897     18.921827      135.32791    
    244000   0.93272873     18.365529      135.07709    
    245000   0.981516       18.859328      134.83875    
    246000   0.95667724     19.474425      134.63041    
    247000   1.0485472      19.349182      134.54575    
    248000   1.0182414      19.236817      134.66806    
    249000   0.98048917     19.335843      134.35241    
    250000   1.0269313      19.578127      133.99959    
    251000   0.99310219     18.663056      133.959      
    252000   1.0223057      19.112481      133.83133    
    253000   0.96874973     19.453194      133.82343    
    254000   1.0102203      18.837426      133.4663     
    255000   0.95377266     19.196889      133.27853    
    256000   1.0053671      18.711114      133.07053    
    257000   1.002438       18.701631      132.85507    
    258000   0.9984912      18.57184       132.57495    
    259000   0.9830084      19.183375      132.25537    
    260000   0.97531421     18.799833      132.40483    
    261000   1.0010892      19.638845      132.29226    
    262000   1.0279464      18.694789      132.06571    
    263000   0.97658044     19.203534      131.90372    
    264000   1.0967579      18.387661      132.05037    
    265000   0.97286954     18.983407      132.09768    
    266000   1.0184519      19.058756      131.82694    
    267000   0.9569837      18.192112      131.5386     
    268000   0.99931116     18.471603      131.07155    
    269000   0.97140281     19.358166      131.05111    
    270000   0.99795003     18.723388      130.90121    
    271000   0.92569018     18.372322      130.7226     
    272000   0.99253318     18.255638      130.83018    
    273000   0.97641926     18.729166      130.80698    
    274000   0.98215203     18.941371      130.46341    
    275000   0.94630798     18.737414      130.42585    
    276000   1.0157369      19.004134      130.44975    
    277000   1.0148969      19.55331       130.32725    
    278000   1.0617769      19.48339       130.0285     
    279000   0.99403254     19.684207      129.92525    
    280000   1.0081814      19.104848      130.06311    
    281000   0.98875236     18.642303      129.99339    
    282000   0.98962285     18.685865      129.82458    
    283000   0.95975988     18.854552      129.66049    
    284000   1.003493       18.92412       129.458      
    285000   1.0057519      19.138114      129.20792    
    286000   1.0275381      18.953089      129.31072    
    287000   1.0232168      19.197166      129.15569    
    288000   0.99118966     19.066542      129.02927    
    289000   1.0016589      18.680527      128.67894    
    290000   0.96220547     19.067698      128.24679    
    291000   1.0517517      19.454226      128.18998    
    292000   1.0124781      19.023748      128.20616    
    293000   1.0613115      19.742611      128.31926    
    294000   0.9586764      18.921571      128.07051    
    295000   0.99998978     18.936975      127.90878    
    296000   1.0173322      18.997891      127.94771    
    297000   1.0372335      19.518151      127.78462    
    298000   1.0232076      19.211427      127.52308    
    299000   0.98724897     19.131634      127.31587    
    300000   0.9500793      18.813224      127.05695    
    301000   0.98475879     18.808385      126.62946    
    302000   0.96176743     18.52491       126.56597    
    303000   1.0172263      19.087518      126.36517    
    304000   0.9103631      17.828569      125.97808    
    305000   1.0560979      18.690471      125.66635    
    306000   0.9949374      18.198834      125.84274    
    307000   1.0555571      18.993747      125.6371     
    308000   1.0077457      19.152642      124.99086    
    309000   0.97038379     19.085565      124.93356    
    310000   1.0124894      19.197004      124.63924    
    311000   1.0176153      18.888553      124.57288    
    312000   1.0060472      19.227082      124.31018    
    313000   1.0361739      19.13401       124.22275    
    314000   1.0071893      19.473194      124.51344    
    315000   1.0273447      18.763343      124.45209    
    316000   1.0029658      19.132511      124.36774    
    317000   1.0172451      19.292826      124.07639    
    318000   1.0154234      19.260948      123.72665    
    319000   1.0219037      18.949146      123.59503    
    320000   0.94861617     18.221578      123.68739    
    321000   0.98064045     19.193543      123.40284    
    322000   0.98646902     18.993783      123.2305     
    323000   0.98608016     19.122161      123.13344    
    324000   0.96246153     19.076077      122.94756    
    325000   1.0494287      18.868866      122.8374     
    326000   1.0155604      19.47376       122.67223    
    327000   0.9805399      19.482836      122.27355    
    328000   1.0335834      18.970042      122.35204    
    329000   1.0157206      18.805302      122.00482    
    330000   1.0015544      19.099924      122.04312    
    331000   1.0266707      18.533377      122.16849    
    332000   0.98690563     18.944604      122.24234    
    333000   0.97034493     18.678038      122.00338    
    334000   0.99268034     19.188331      121.56749    
    335000   0.99699121     18.511207      121.26804    
    336000   0.97307624     18.416536      121.03239    
    337000   0.99983729     18.727994      120.82935    
    338000   1.0233275      18.681391      120.88307    
    339000   0.95718797     18.62061       120.60052    
    340000   0.99331981     19.031726      120.18913    
    341000   1.0019244      18.402484      119.87129    
    342000   1.0099748      18.141643      119.9931     
    343000   1.0324571      18.385355      120.00009    
    344000   0.97815306     18.358515      120.03633    
    345000   1.0122046      18.96781       119.91989    
    346000   1.0051931      19.022405      119.69831    
    347000   1.0097898      18.491497      119.38019    
    348000   1.0347871      18.841578      119.45433    
    349000   0.98666086     18.857972      119.50057    
    350000   0.95627122     19.144511      119.08669    
    351000   1.0974126      18.911392      118.69917    
    352000   0.99576367     18.655117      118.6372     
    353000   1.0094541      18.881364      118.6021     
    354000   0.95961567     18.556783      118.56063    
    355000   0.98271809     19.139139      118.72522    
    356000   1.033288       19.085061      118.36861    
    357000   1.0345873      18.667084      117.98533    
    358000   1.0446187      18.09478       117.90934    
    359000   1.0893084      19.135167      117.56558    
    360000   0.97759919     18.325035      117.3725     
    361000   1.0501066      18.981865      117.11413    
    362000   0.97914273     18.838049      117.07358    
    363000   1.0089308      18.961431      117.02402    
    364000   1.0162399      19.408809      116.9155     
    365000   0.97560177     19.115921      116.84888    
    366000   1.0181111      19.460707      116.60146    
    367000   1.0605937      19.262893      116.24817    
    368000   0.96078248     18.418361      116.24724    
    369000   1.0266952      18.833459      116.20667    
    370000   1.0060318      18.844065      116.0286     
    371000   0.9858515      18.601177      116.07065    
    372000   1.0215681      19.151942      115.69748    
    373000   0.99751447     19.217344      115.1533     
    374000   1.0555395      19.048319      115.2236     
    375000   0.97256816     17.826204      115.1753     
    376000   0.98217633     18.990765      115.09971    
    377000   1.0232148      19.611755      114.84293    
    378000   1.0361464      18.806208      114.59051    
    379000   0.98523326     19.207893      114.27487    
    380000   1.0356945      18.909233      114.22967    
    381000   0.99362164     18.835423      114.02351    
    382000   0.97169869     19.204614      113.62597    
    383000   0.99800013     18.837294      113.47302    
    384000   1.0154677      19.192067      113.45175    
    385000   1.028672       19.38085       113.6454     
    386000   0.98054902     18.895796      113.5624     
    387000   1.0424216      18.503545      113.61267    
    388000   1.0105413      20.245266      113.59628    
    389000   0.99871824     18.700708      113.49595    
    390000   0.99164027     19.48075       113.50738    
    391000   1.0309087      18.936038      113.33072    
    392000   0.98763079     18.628817      113.13827    
    393000   1.0085692      19.056934      113.03669    
    394000   1.0435387      18.561951      112.63664    
    395000   0.97285919     18.759914      112.76544    
    396000   0.97678474     18.709277      112.82865    
    397000   0.97823939     19.149797      112.89285    
    398000   1.0069154      18.094         113.11955    
    399000   1.0223552      18.609703      113.12679    
    400000   1.0188708      18.964197      112.9304     
    401000   1.0288852      19.422814      113.14411    
    402000   0.96181149     18.687517      113.01417    
    403000   1.0365781      18.578861      112.61976    
    404000   0.98282114     18.657966      112.27242    
    405000   0.93580676     18.801538      112.28715    
    406000   0.98946697     19.140455      111.81132    
    407000   0.99321924     18.594521      111.46238    
    408000   1.0022131      18.739129      111.45087    
    409000   1.0111021      19.03473       111.27681    
    410000   0.98640717     18.482981      111.06523    
    411000   0.96490988     18.40718       110.89353    
    412000   0.99117876     19.48992       110.66384    
    413000   1.0419397      18.918844      110.38981    
    414000   1.0098598      19.680581      110.16358    
    415000   1.0079908      18.488461      110.20678    
    416000   0.97628167     18.524483      109.81829    
    417000   0.99306153     18.661726      109.51142    
    418000   0.95079892     19.006587      109.35855    
    419000   0.98074895     19.212477      109.19569    
    420000   0.98441545     19.15415       109.26706    
    421000   0.98546244     18.677968      109.39173    
    422000   1.0036632      19.087307      109.40696    
    423000   0.96379204     18.218983      109.42914    
    424000   1.0140555      18.539247      108.98497    
    425000   1.0499196      18.974844      109.20057    
    426000   0.96755207     18.525199      108.83992    
    427000   1.0161608      18.369281      108.66268    
    428000   0.94315854     18.680837      108.5661     
    429000   0.95784649     19.027615      108.68986    
    430000   1.0021846      18.551573      108.28943    
    431000   1.00945        19.225173      108.04422    
    432000   1.0308026      19.122844      107.87072    
    433000   1.0020344      18.503163      107.49306    
    434000   0.97235784     18.594726      107.26132    
    435000   1.043382       18.637846      107.31807    
    436000   1.0022242      18.75504       107.23757    
    437000   0.99019667     18.53899       107.29394    
    438000   1.0496233      18.450634      107.40891    
    439000   0.98836888     19.284         107.33771    
    440000   0.9933239      18.955467      107.51073    
    441000   0.99537519     18.487211      107.61055    
    442000   0.98846727     18.533689      107.42476    
    443000   0.94072732     18.994853      107.14382    
    444000   1.0254713      18.761636      107.01018    
    445000   0.96724951     18.160373      106.80458    
    446000   0.99091801     18.573103      106.90924    
    447000   0.96510274     18.306376      106.65184    
    448000   0.97389157     18.243259      106.65382    
    449000   1.0166704      18.573497      106.56622    
    450000   1.0147273      19.622212      106.70442    
    451000   0.99204583     18.981712      106.89958    
    452000   1.0095729      19.103675      106.84375    
    453000   0.97697503     18.436167      107.00919    
    454000   1.0109451      18.929672      106.85186    
    455000   0.94279163     18.216978      106.85814    
    456000   1.0719861      18.75714       106.76724    
    457000   0.98734624     18.712408      106.73102    
    458000   0.99288755     18.950939      106.61579    
    459000   0.98115542     18.263278      106.46052    
    460000   0.97757351     18.738989      106.52402    
    461000   1.0520359      18.879351      106.54519    
    462000   0.93271342     18.602411      106.56415    
    463000   0.99810369     19.079462      106.10846    
    464000   0.97157988     19.008936      105.96164    
    465000   1.0006803      18.152147      106.33093    
    466000   1.0072709      18.968747      106.09321    
    467000   0.95998523     18.452087      105.76172    
    468000   0.99010377     18.754215      105.51681    
    469000   1.0116575      18.548299      105.54178    
    470000   0.97599831     18.236063      105.66853    
    471000   0.99184909     19.139587      105.65731    
    472000   1.0081053      18.250584      105.61785    
    473000   1.0475981      18.627346      105.29968    
    474000   0.98129022     18.831293      105.23118    
    475000   1.0176292      18.629178      105.2572     
    476000   1.0065348      19.368216      105.32384    
    477000   1.0549019      18.541816      105.20656    
    478000   1.0206401      18.561179      105.21467    
    479000   0.99128395     18.26659       105.33069    
    480000   1.0096094      18.779971      105.23477    
    481000   0.96817116     18.953136      105.0091     
    482000   0.98252507     18.538444      104.96738    
    483000   0.9781611      18.530585      104.8671     
    484000   0.97465188     18.477097      104.74957    
    485000   0.98932738     18.943629      104.93935    
    486000   0.93052959     18.267576      104.82293    
    487000   0.95516699     18.432572      104.72207    
    488000   1.0166398      19.039611      104.58979    
    489000   0.95097434     18.318155      104.63819    
    490000   1.0218845      18.685792      104.37056    
    491000   1.0192518      18.00178       104.05666    
    492000   1.0101593      18.641354      103.68497    
    493000   1.0163925      18.674274      103.5245     
    494000   0.99513592     18.284604      103.47898    
    495000   0.96824432     19.297981      103.59882    
    496000   1.0615663      19.424339      103.68375    
    497000   1.0194905      18.353586      103.50653    
    498000   1.0170917      19.005235      103.50654    
    499000   0.97852718     18.601037      103.27124    
    500000   0.98424311     18.36947       103.3008     
    501000   1.0324645      18.569877      102.99965    
    502000   0.97358925     19.068535      103.11678    
    503000   0.99149405     18.762722      103.00604    
    504000   0.99532482     18.810857      102.86019    
    505000   1.0028364      18.662089      102.544      
    506000   1.0160461      18.419765      102.75595    
    507000   1.0006756      18.039254      102.70554    
    508000   0.99099575     18.432416      102.40994    
    509000   0.99376964     18.417002      102.37202    
    510000   0.96162059     18.547619      102.24656    
    511000   1.0198897      19.305884      101.93092    
    512000   0.99002701     18.107958      101.86368    
    513000   0.96952232     19.032802      101.48803    
    514000   1.0680509      18.482429      101.47694    
    515000   1.0328444      19.185255      101.63081    
    516000   1.0298851      18.691193      101.33016    
    517000   0.99562676     18.719521      101.08372    
    518000   0.96018609     18.236692      101.16441    
    519000   0.99384715     18.827539      101.06176    
    520000   1.0274774      18.727615      100.90346    
    521000   0.98191327     17.991544      100.73476    
    522000   0.99003721     17.964593      100.79165    
    523000   0.95953612     18.238786      101.02655    
    524000   1.0140901      18.307211      101.00192    
    525000   0.93796856     18.752299      100.82149    
    526000   0.97978452     17.862603      100.51365    
    527000   1.0134818      18.739512      100.54627    
    528000   0.98494318     18.537115      100.46963    
    529000   1.0026126      18.263681      100.55019    
    530000   1.0023315      18.604986      100.40154    
    531000   0.97415657     18.482561      100.45359    
    532000   0.98370514     18.97954       100.16976    
    533000   0.95217318     18.056847      100.14135    
    534000   0.94685477     18.244021      100.0503     
    535000   1.0164323      18.807689      99.757       
    536000   0.97526658     18.937419      99.554239    
    537000   0.99968159     18.800086      99.610875    
    538000   1.0363307      18.386247      99.823783    
    539000   1.0469895      18.224944      99.91678     
    540000   1.0027764      18.486421      99.483164    
    541000   0.96414416     18.283807      99.56166     
    542000   0.98050157     18.193508      99.498233    
    543000   0.91590494     18.432275      99.448956    
    544000   1.0632997      18.450606      99.357796    
    545000   1.0301102      18.432783      99.039882    
    546000   0.9913282      18.331679      98.734689    
    547000   1.038189       18.375394      98.555719    
    548000   1.0059709      18.203464      98.367408    
    549000   1.0364958      18.341342      98.057531    
    550000   1.0120404      18.300111      98.197341    
    551000   0.98428514     18.408384      98.10077     
    552000   1.0363338      18.924313      98.188457    
    553000   1.0566929      18.511747      98.160451    
    554000   0.95863052     18.511002      98.262129    
    555000   1.0627136      18.704066      98.267037    
    556000   1.0157707      18.288778      98.23408     
    557000   1.0060725      19.19844       97.956301    
    558000   1.0423864      18.482327      98.015373    
    559000   0.99968737     19.140702      97.902619    
    560000   1.0266678      18.512537      97.918232    
    561000   1.0387277      17.940599      97.932675    
    562000   1.0176586      18.421068      98.031314    
    563000   1.0000839      18.137332      97.916442    
    564000   1.0544847      18.774885      97.791559    
    565000   0.95336682     18.151178      97.650931    
    566000   0.93878226     18.225771      97.405956    
    567000   0.97905719     18.587454      97.210705    
    568000   1.0289141      18.183961      97.283065    
    569000   1.0227732      18.703114      97.394465    
    570000   1.0487208      18.5428        97.192969    
    571000   1.0308146      18.890189      97.245638    
    572000   0.99539755     18.705134      96.872089    
    573000   1.0473737      18.918968      96.587096    
    574000   0.9936707      18.599827      96.688174    
    575000   1.008888       18.639789      96.620235    
    576000   1.0053333      18.135308      96.640852    
    577000   0.97607068     18.015834      96.339937    
    578000   1.0212172      19.039482      96.200364    
    579000   1.0112849      18.355967      95.94798     
    580000   1.0391578      18.530505      95.794884    
    581000   1.0161504      18.030626      95.906523    
    582000   1.0635733      18.427185      95.752564    
    583000   1.007949       17.831413      95.52302     
    584000   0.94504329     18.738364      95.475954    
    585000   0.97696532     18.726895      95.314859    
    586000   0.95957305     18.662251      95.02301     
    587000   1.0021677      18.266665      94.874955    
    588000   1.0251389      18.624441      94.659345    
    589000   0.97753047     18.359511      94.571045    
    590000   0.95960564     18.200437      94.337831    
    591000   1.0207003      18.266382      94.411694    
    592000   1.0563836      18.455         94.209855    
    593000   0.99945184     18.608306      93.915487    
    594000   0.95296501     17.98685       93.745819    
    595000   0.95147707     18.323363      93.772321    
    596000   1.0095193      18.123975      93.828926    
    597000   0.96409158     18.116704      93.699779    
    598000   1.0289729      19.040667      93.438615    
    599000   1.0082212      18.390885      93.342125    
    600000   0.94505481     18.276985      93.152719    
    601000   0.99250178     18.406176      92.702627    
    602000   1.0007238      18.626475      92.605336    
    603000   0.99169146     18.674477      92.566279    
    604000   0.94579595     18.147024      92.6319      
    605000   1.0078984      18.264376      92.489038    
    606000   1.022473       18.814833      92.760037    
    607000   0.97272093     18.481235      92.692209    
    608000   1.0155294      19.011534      92.497898    
    609000   0.97022863     18.425932      92.313137    
    610000   0.99595774     18.064285      92.204101    
    611000   0.97645913     18.6293        92.02417     
    612000   1.0008923      18.548589      92.027933    
    613000   1.0231952      19.160152      91.988316    
    614000   1.0274614      17.956987      91.934718    
    615000   0.99456863     18.162922      91.598747    
    616000   1.0006732      18.44719       91.650027    
    617000   1.0058295      18.354424      91.460158    
    618000   0.98209799     17.848668      91.298082    
    619000   1.0234855      18.113476      91.101237    
    620000   1.0110246      17.845266      90.97201     
    621000   1.0248368      18.401142      91.277921    
    622000   0.99660647     18.273406      91.578523    
    623000   1.0360039      18.619674      91.666999    
    624000   1.0450262      18.551106      91.456631    
    625000   0.97923553     18.860309      91.515944    
    626000   0.99908091     18.163373      91.169214    
    627000   1.0531866      19.467635      90.966449    
    628000   1.0238517      18.618448      90.842249    
    629000   0.94315816     18.520886      90.798723    
    630000   0.9769277      18.777118      90.799044    
    631000   1.010518       19.477382      90.393897    
    632000   0.97166855     18.195524      90.162776    
    633000   1.0350017      18.258969      90.197008    
    634000   1.0333276      18.992766      89.995877    
    635000   1.0393257      19.146536      89.730238    
    636000   0.99991217     18.349362      89.512794    
    637000   1.0227617      18.543726      89.696387    
    638000   0.97162034     19.007931      89.511696    
    639000   1.0208734      18.737118      89.4206      
    640000   0.98278179     19.263885      89.437398    
    641000   0.99841573     18.329684      89.396502    
    642000   0.98505613     17.598751      89.56752     
    643000   0.98568315     18.44766       89.501512    
    644000   0.97955133     18.755998      89.666349    
    645000   1.0349712      18.136104      89.458543    
    646000   1.0181644      18.433299      89.456389    
    647000   1.0594976      18.506394      89.317325    
    648000   0.9792531      18.158078      89.184093    
    649000   1.0283719      18.700053      89.334589    
    650000   0.95957991     18.249851      89.157618    
    651000   1.0179955      17.897457      88.667419    
    652000   1.0530729      18.463583      88.39456     
    653000   1.0030145      18.624509      88.147152    
    654000   1.097653       18.261444      87.838227    
    655000   0.98041571     18.147188      87.74724     
    656000   0.94451749     18.063588      87.368063    
    657000   1.0150285      19.118964      86.98761     
    658000   0.93976404     18.59262       86.476394    
    659000   0.96286831     18.542121      86.4565      
    660000   1.0092274      18.426822      86.246877    
    661000   1.0063517      17.494608      86.472537    
    662000   0.99009585     19.052067      86.689025    
    663000   0.93440086     17.745495      86.685869    
    664000   1.0400177      18.354485      86.556966    
    665000   0.96847597     18.222663      86.442216    
    666000   0.98911623     17.739787      86.25956     
    667000   1.0145097      18.127936      86.287684    
    668000   1.016076       18.679805      86.38021     
    669000   1.0869409      18.655736      85.920438    
    670000   0.99576665     17.788214      85.584299    
    671000   1.0221094      18.022928      85.453899    
    672000   1.0163998      17.997868      85.531881    
    673000   1.0826527      18.443214      85.303918    
    674000   0.96552774     18.43427       85.088382    
    675000   0.95062335     18.312332      84.989656    
    676000   0.97340675     17.880101      84.627247    
    677000   0.98571404     18.066818      84.50879     
    678000   0.98780736     18.439305      84.532738    
    679000   0.97668917     18.949613      84.545863    
    680000   1.0743104      18.899304      84.814903    
    681000   0.99245407     17.940623      84.70531     
    682000   1.0202447      18.635741      84.443027    
    683000   1.0369261      18.384965      84.50608     
    684000   1.0403234      17.6822        84.117657    
    685000   0.98148024     18.238932      84.027473    
    686000   0.94859945     18.062916      83.822513    
    687000   0.97677595     18.564382      83.857613    
    688000   1.0131501      18.284134      83.827994    
    689000   0.99252772     17.92263       83.690332    
    690000   0.968514       18.000746      83.839653    
    691000   1.0203092      18.818756      83.834072    
    692000   0.97892391     18.495353      83.41106     
    693000   0.97620314     17.743923      83.205444    
    694000   1.0304327      18.444834      82.948963    
    695000   1.004475       18.660287      82.77226     
    696000   1.0293638      17.877439      82.877135    
    697000   0.98877161     18.639709      82.614994    
    698000   0.98545646     17.427285      82.472972    
    699000   1.01958        18.222996      82.338767    
    700000   1.0110146      18.436756      82.125484    
    701000   0.96908055     18.159667      82.01177     
    702000   0.96441898     18.534929      81.675894    
    703000   1.0474552      18.436262      81.501971    
    704000   0.98285077     18.235619      81.313147    
    705000   1.0155558      18.110784      81.129319    
    706000   1.0022449      18.36166       80.803423    
    707000   1.0073196      17.388764      80.613701    
    708000   1.0318012      18.291948      80.356134    
    709000   1.0077275      18.841579      80.221924    
    710000   1.0120002      18.449784      80.006216    
    711000   1.0448012      18.290291      80.190015    
    712000   0.99121453     18.126541      79.907122    
    713000   0.99428232     18.131126      79.903595    
    714000   1.0694518      18.180027      79.773825    
    715000   1.0112628      18.319399      79.866019    
    716000   1.0295539      19.024487      79.897597    
    717000   0.986428       18.247892      79.715585    
    718000   1.0223845      18.189125      79.518236    
    719000   0.94509417     17.630362      79.302465    
    720000   0.98981866     18.386031      79.307528    
    721000   1.0337704      17.580651      79.144026    
    722000   0.99876972     18.495057      79.089832    
    723000   0.96865363     17.9795        78.802006    
    724000   1.0152968      17.638245      78.836698    
    725000   1.0118962      17.42063       78.763893    
    726000   1.04196        17.966522      78.726724    
    727000   0.97169556     18.417589      78.7726      
    728000   0.97660662     18.175764      78.923062    
    729000   1.0048743      18.629434      78.819727    
    730000   1.0011215      18.322657      78.689335    
    731000   0.98367106     18.64029       78.65884     
    732000   1.0225052      18.40842       78.612806    
    733000   1.0661908      19.306549      78.473094    
    734000   1.0401412      17.661864      78.374957    
    735000   0.99843662     18.291384      78.397422    
    736000   1.02252        18.110274      78.298659    
    737000   1.0073136      17.68836       78.581095    
    738000   1.0485046      18.581206      78.364553    
    739000   0.98758034     17.960362      78.362441    
    740000   1.0147063      18.085037      78.051273    
    741000   0.97833404     17.826926      77.838389    
    742000   1.0433113      17.593367      77.55761     
    743000   0.97326872     17.989924      77.29027     
    744000   1.0293575      17.591779      76.928188    
    745000   0.99863912     18.875321      76.860141    
    746000   0.99983735     17.952071      76.90262     
    747000   1.0349064      18.365392      76.85039     
    748000   1.0268555      18.411822      76.726424    
    749000   0.96829195     18.04179       76.696472    
    750000   0.96767441     17.646416      76.637769    
    751000   0.98572822     17.795667      76.195676    
    752000   1.0174158      18.127498      76.131081    
    753000   0.99206094     18.897898      76.319336    
    754000   0.98544081     18.181674      76.206972    
    755000   1.0015168      17.971668      75.80068     
    756000   0.97664831     18.277707      75.829491    
    757000   1.0250363      18.350896      75.604865    
    758000   0.97476168     17.400817      75.578024    
    759000   0.94660581     18.416058      75.937195    
    760000   0.96507053     18.321594      75.783289    
    761000   0.97342818     18.039375      75.623256    
    762000   1.0264691      18.399035      75.62739     
    763000   0.98747604     17.895267      75.715862    
    764000   0.98783114     18.264268      75.580365    
    765000   1.0242142      17.555281      75.523651    
    766000   0.97949733     18.337054      75.381119    
    767000   0.99742549     18.352966      75.112755    
    768000   0.96482824     17.28865       75.333147    
    769000   1.034493       18.058354      75.235517    
    770000   1.0495844      18.47884       75.245954    
    771000   0.97540234     17.965436      75.212333    
    772000   1.0059802      19.160602      75.13832     
    773000   0.96581387     18.224757      75.232447    
    774000   0.98659746     19.18782       75.227623    
    775000   0.97983743     18.468064      74.902645    
    776000   1.0005985      17.866215      74.747127    
    777000   0.95750235     18.07531       74.562033    
    778000   1.0001909      17.781955      74.491927    
    779000   1.0695652      18.592646      74.331498    
    780000   0.99528865     18.463549      74.150556    
    781000   1.0052471      18.519191      74.027899    
    782000   0.99823379     17.996477      73.894092    
    783000   1.0487411      18.230765      73.640574    
    784000   1.0221796      17.787942      73.91255     
    785000   0.99798843     17.917904      73.603028    
    786000   1.0712179      18.579711      73.50342     
    787000   1.0211393      18.414227      73.24911     
    788000   0.98680484     18.734962      73.128258    
    789000   1.0608505      17.905033      72.984507    
    790000   0.94506347     17.906955      73.034387    
    791000   0.99525869     18.400398      72.807486    
    792000   1.0118033      17.867862      72.831371    
    793000   0.98210856     17.392467      72.677237    
    794000   0.97148362     18.738564      72.695356    
    795000   0.9946007      18.333704      72.650495    
    796000   0.9362181      18.236015      72.703593    
    797000   0.98474103     18.434056      72.676152    
    798000   0.94743623     18.230291      72.620099    
    799000   1.0158886      18.153766      72.464897    
    800000   0.97143237     18.046564      72.389385    
    801000   1.0309572      18.944886      72.173565    
    802000   1.0239853      18.139846      72.181694    
    803000   1.0063048      18.804         72.126302    
    804000   1.0439738      18.640462      71.944065    
    805000   0.98342716     17.714187      71.758458    
    806000   0.9554142      17.72717       71.558039    
    807000   0.98874863     18.153748      71.744134    
    808000   1.0001704      17.448253      71.560269    
    809000   0.95422088     18.66328       71.368651    
    810000   0.9963623      17.740336      71.045453    
    811000   1.0260257      18.115517      71.157822    
    812000   1.0619266      18.556294      70.770332    
    813000   1.0186356      18.120224      70.270173    
    814000   0.98620954     17.916313      70.105491    
    815000   1.027108       17.898662      69.790549    
    816000   1.0378077      18.208967      69.859727    
    817000   1.0093743      17.939391      69.378159    
    818000   1.04588        18.532376      69.13665     
    819000   1.0300711      18.015997      69.033747    
    820000   1.0135333      18.128057      69.282739    
    821000   1.0000251      18.400995      69.023007    
    822000   0.97758392     17.450834      68.812221    
    823000   1.0297757      17.822578      68.75829     
    824000   1.0007008      17.977447      68.470721    
    825000   0.98580278     18.052111      68.472861    
    826000   1.0248044      17.58018       68.586125    
    827000   0.9634887      18.397803      68.510984    
    828000   0.98822094     17.300949      68.531043    
    829000   1.0520832      18.018803      68.331755    
    830000   1.0111417      18.230806      68.022838    
    831000   0.89347799     17.934517      67.828228    
    832000   0.98479955     17.84404       67.779519    
    833000   0.96010449     18.282168      67.638627    
    834000   1.0198071      17.900502      67.510336    
    835000   0.98923536     18.030442      67.45965     
    836000   0.98553379     17.299147      67.349067    
    837000   0.99228686     17.730251      67.16954     
    838000   1.0958736      17.861158      67.088493    
    839000   0.97291766     17.66289       66.993479    
    840000   0.97877681     17.492477      67.005128    
    841000   1.0117993      18.539047      66.824728    
    842000   0.93384489     18.404882      66.789451    
    843000   1.0252874      18.425815      66.947329    
    844000   1.0076978      17.347142      67.110162    
    845000   0.93928009     17.933413      66.900623    
    846000   1.0081025      17.691554      66.774655    
    847000   0.99676254     17.47757       66.521142    
    848000   0.98745026     17.702427      66.333677    
    849000   1.059903       18.55492       66.026161    
    850000   1.0397858      18.548502      66.03114     
    851000   0.95119467     17.761916      65.755209    
    852000   0.97977034     18.157254      65.727002    
    853000   0.98289008     17.741899      65.477115    
    854000   0.97747942     18.115577      65.388302    
    855000   0.94747906     17.627454      65.04692     
    856000   1.0268278      17.991535      64.698503    
    857000   0.99263306     17.685658      64.892264    
    858000   0.99734061     17.99132       64.764539    
    859000   0.99938313     17.905377      64.652333    
    860000   0.96506407     17.861593      64.448963    
    861000   1.0073984      18.001078      64.316715    
    862000   0.94896376     17.609295      64.274749    
    863000   0.93509217     18.147483      64.063605    
    864000   0.94229799     17.405361      64.182213    
    865000   0.99886089     18.153329      64.278139    
    866000   0.96696181     18.229874      64.484537    
    867000   0.99810716     18.037911      64.294258    
    868000   0.99362769     18.145831      63.998718    
    869000   1.0553762      17.681483      63.851165    
    870000   1.0231396      18.291677      63.788237    
    871000   1.0212137      17.941759      63.516784    
    872000   0.95589714     17.71058       63.479641    
    873000   1.0038322      17.976303      63.48692     
    874000   1.0568278      18.230108      63.443251    
    875000   0.93909039     17.859598      63.538153    
    876000   1.0411331      18.489129      63.594839    
    877000   0.99967308     17.97806       63.5046      
    878000   0.98339893     17.955488      63.48942     
    879000   0.97609175     18.112542      63.13756     
    880000   0.9632752      17.891703      62.97751     
    881000   1.0052413      18.314386      63.070207    
    882000   0.99154879     17.357394      63.108186    
    883000   1.000296       17.81294       63.217321    
    884000   1.0275584      17.625488      63.059687    
    885000   1.0122833      18.18792       62.887762    
    886000   1.1108162      18.325261      62.469128    
    887000   1.0504135      18.649545      62.395426    
    888000   1.0806049      17.79624       62.390018    
    889000   1.0027607      18.354871      62.361599    
    890000   1.017566       17.558576      62.097475    
    891000   0.96879979     17.905987      61.778792    
    892000   1.0123325      17.757317      61.585313    
    893000   1.0459555      17.771674      61.397695    
    894000   0.9898593      17.67615       61.415092    
    895000   1.0540924      18.380331      61.604108    
    896000   1.0481008      18.188739      61.581777    
    897000   0.99050428     18.347796      61.408669    
    898000   1.0776983      18.560885      61.470501    
    899000   0.96662611     17.598193      61.714402    
    900000   0.99779454     18.159801      61.73932     
    901000   1.0058536      17.441832      61.638997    
    902000   0.98023732     17.839553      61.60112     
    903000   0.9611988      17.821777      61.424607    
    904000   1.00791        18.207805      61.187041    
    905000   0.96019126     17.839497      60.991203    
    906000   1.0245242      17.237138      61.020419    
    907000   1.032751       17.912937      61.023904    
    908000   0.96574638     17.38354       61.07252     
    909000   1.0545082      17.614359      61.07532     
    910000   1.0331946      18.359713      61.037967    
    911000   1.0194884      18.00535       60.87051     
    912000   1.0099389      17.368094      60.763271    
    913000   0.96210478     18.142562      60.513671    
    914000   1.0612789      18.105897      60.202186    
    915000   0.98628013     17.842152      60.083932    
    916000   0.93240207     16.791341      59.809391    
    917000   1.0001894      17.993354      59.722857    
    918000   0.99035511     17.810646      59.624916    
    919000   1.0191653      17.833384      59.570781    
    920000   1.027084       17.545964      59.437855    
    921000   0.98077571     18.117513      59.516999    
    922000   0.98638937     17.995347      59.522369    
    923000   1.0665749      17.71714       59.404293    
    924000   0.99129135     18.165593      59.389971    
    925000   1.0236747      17.546288      59.441715    
    926000   1.0212168      18.06417       59.41368     
    927000   1.0172923      18.060392      59.158045    
    928000   0.96102937     17.414868      58.878418    
    929000   1.0043283      17.891872      58.556267    
    930000   1.0624932      17.593876      58.511065    
    931000   0.96831956     18.123621      58.146695    
    932000   1.0294829      17.762323      58.260593    
    933000   0.98309327     18.304421      58.413851    
    934000   0.97500036     17.598598      58.426348    
    935000   1.0003273      17.682716      58.451809    
    936000   1.0251322      17.584613      58.333604    
    937000   0.99813523     18.190282      58.375439    
    938000   1.0058567      18.148595      58.423692    
    939000   1.0100315      18.293597      58.416594    
    940000   0.97346142     18.061778      58.303974    
    941000   1.0062868      17.85974       58.28309     
    942000   0.97379478     18.171363      58.230049    
    943000   0.99731725     17.342036      58.087458    
    944000   0.96981533     17.754489      57.749601    
    945000   1.002616       18.802438      57.471053    
    946000   1.0373506      18.121343      57.120259    
    947000   1.0179391      18.170932      56.981337    
    948000   1.0168223      17.500384      56.774002    
    949000   0.99929284     17.520221      56.67108     
    950000   1.0024287      17.564721      56.453803    
    951000   1.0079527      17.897792      56.233406    
    952000   1.0137449      18.292056      56.010316    
    953000   0.99769891     17.609267      55.954434    
    954000   0.95791636     17.583656      55.680939    
    955000   1.0341463      17.414577      55.677027    
    956000   0.95036455     17.342463      55.523382    
    957000   1.0472421      18.770617      55.711195    
    958000   1.0403858      17.838874      55.670442    
    959000   0.993034       17.820897      55.487823    
    960000   0.98609804     18.376292      55.457694    
    961000   0.95953999     17.271825      55.533682    
    962000   0.99854498     17.086026      55.500974    
    963000   0.98261343     17.753458      55.707846    
    964000   1.0157222      17.47734       55.469727    
    965000   1.0560726      17.80151       55.243804    
    966000   1.0278955      17.919269      55.065208    
    967000   0.93474788     17.726069      55.03333     
    968000   1.0145008      17.492839      55.165339    
    969000   0.98440632     17.963566      54.849664    
    970000   0.98123484     17.749777      54.818845    
    971000   1.0171521      17.392868      54.445388    
    972000   1.0339476      17.761416      54.458596    
    973000   1.0747729      18.471463      54.402021    
    974000   0.95731321     18.506032      54.390322    
    975000   1.019848       17.445538      54.105933    
    976000   1.0195793      17.584475      53.808261    
    977000   1.0443309      18.063744      53.573496    
    978000   1.0420667      18.391458      53.410107    
    979000   0.96866618     18.040028      53.355122    
    980000   1.0114251      17.834558      53.345706    
    981000   1.0890207      18.017762      53.414657    
    982000   0.99295333     17.850952      53.564756    
    983000   1.0136892      17.65806       53.406447    
    984000   0.98100804     17.952847      53.523945    
    985000   0.98862455     17.726118      53.217842    
    986000   0.96073223     18.150675      53.072077    
    987000   1.0076352      18.092983      52.869572    
    988000   0.99487251     17.896792      52.820547    
    989000   1.0196655      17.931176      52.836431    
    990000   1.0005599      17.63228       52.974159    
    991000   0.9509619      16.939321      52.835889    
    992000   1.0279966      17.821754      52.741983    
    993000   0.95584836     17.767716      52.572835    
    994000   0.93024528     17.454374      52.656339    
    995000   1.0493019      18.718385      52.388818    
    996000   0.97485847     17.302208      52.000257    
    997000   1.0241064      17.580843      51.733483    
    998000   1.0310384      18.175801      51.579773    
    999000   1.0030588      17.561321      51.688157    
   1000000   0.95466419     17.477963      51.44967     
   1001000   0.93083017     17.819945      51.613808    
   1002000   0.90257191     17.703061      51.457812    
   1003000   0.9946183      17.776437      51.249875    
   1004000   1.0062158      17.459098      51.223502    
   1005000   1.0538193      17.525827      51.095219    
   1006000   0.94240351     17.680107      51.110178    
   1007000   1.0426821      17.650389      51.05        
   1008000   1.0332077      17.696964      51.005423    
   1009000   0.95814841     17.541592      50.888628    
   1010000   0.96236966     17.610348      50.749446    
   1011000   1.0455366      17.682764      50.402325    
   1012000   0.9424939      16.956834      50.313481    
   1013000   1.0464447      17.779757      50.048214    
   1014000   0.95563623     17.185576      49.803834    
   1015000   0.97012776     17.88464       49.923177    
   1016000   1.0456609      18.851712      49.690027    
   1017000   0.9743655      17.435944      49.457011    
   1018000   0.98835798     17.492695      49.295025    
   1019000   1.0257807      18.132049      49.224004    
   1020000   0.9787897      18.35437       48.974049    
   1021000   0.96700235     16.902257      48.893235    
   1022000   0.96190386     17.405566      48.790111    
   1023000   1.0129195      17.47568       48.883959    
   1024000   0.98678531     17.588478      48.636351    
   1025000   0.99742433     17.265294      48.25399     
   1026000   0.96270774     17.947217      47.866609    
   1027000   0.97993258     18.303179      47.411833    
   1028000   0.99522227     17.943986      47.297046    
   1029000   1.0270739      18.115543      47.079271    
   1030000   1.0104865      17.50787       46.855975    
   1031000   1.0093561      17.387937      46.623227    
   1032000   1.0229266      17.787138      46.367201    
   1033000   1.020005       17.986893      46.336125    
   1034000   0.97104122     17.222955      46.445102    
   1035000   0.98607104     17.61093       46.555221    
   1036000   0.95797574     16.883089      46.527773    
   1037000   1.0684162      18.114355      46.547122    
   1038000   1.0113639      17.440423      46.514561    
   1039000   1.0255387      18.168831      46.284084    
   1040000   1.0446353      18.473985      46.234933    
   1041000   0.97136783     18.361828      45.903316    
   1042000   0.99637971     18.313354      45.51662     
   1043000   1.0295295      17.489013      45.562624    
   1044000   0.98230707     18.640526      45.484135    
   1045000   1.0237721      18.468136      45.417035    
   1046000   1.0324475      17.855228      45.113136    
   1047000   0.99042832     17.928864      45.035238    
   1048000   1.0038427      17.016596      44.921332    
   1049000   1.004744       17.395894      44.893852    
   1050000   0.9870718      17.159548      44.971592    
   1051000   1.0050605      18.248628      44.984239    
   1052000   0.99850282     17.363364      44.708376    
   1053000   0.94751014     17.38047       44.544901    
   1054000   1.0186305      17.871041      44.154963    
   1055000   1.0458759      17.433206      44.171755    
   1056000   0.97215266     17.413204      43.928904    
   1057000   0.9881465      17.698701      43.55447     
   1058000   1.0802712      18.010326      43.555756    
   1059000   0.96286878     17.837946      43.530306    
   1060000   0.98225894     17.81954       43.49787     
   1061000   1.0547884      17.260209      43.643735    
   1062000   1.0356158      18.158602      43.727398    
   1063000   0.98490398     17.804641      43.827326    
   1064000   1.0178802      18.269772      43.769756    
   1065000   0.96257479     17.248798      43.392917    
   1066000   1.0096117      17.735703      43.158089    
   1067000   1.0226604      17.009838      42.970534    
   1068000   0.97599234     17.474752      43.175441    
   1069000   1.0123129      17.740181      43.142186    
   1070000   1.0445042      18.397073      42.968238    
   1071000   0.99460438     17.510009      42.838362    
   1072000   0.97287176     17.180676      42.432028    
   1073000   0.95278788     17.534943      42.369501    
   1074000   0.97401612     17.792015      42.5015      
   1075000   0.99055549     17.377723      42.507489    
   1076000   0.97489752     17.515278      42.504618    
   1077000   1.0300828      18.149124      42.573862    
   1078000   1.004287       17.890194      42.48724     
   1079000   1.0097783      17.143733      42.336256    
   1080000   1.0137126      17.47109       42.325379    
   1081000   0.96718536     18.016385      42.207669    
   1082000   0.98302562     16.999828      41.859377    
   1083000   1.0216196      17.868429      41.814449    
   1084000   1.0260993      17.59464       41.668073    
   1085000   0.98903776     17.966692      41.60745     
   1086000   0.92423902     18.17795       41.463026    
   1087000   0.94294464     17.989542      41.359494    
   1088000   1.0150334      18.091508      41.242429    
   1089000   1.0352537      18.46452       41.034738    
   1090000   1.0387645      17.272443      40.824058    
   1091000   1.0390337      18.004187      40.630666    
   1092000   0.96304826     17.739871      40.62624     
   1093000   0.96226651     18.74823       40.451231    
   1094000   1.0610624      17.858141      40.323932    
   1095000   0.99639326     17.48108       40.199662    
   1096000   1.0618242      17.482768      39.96338     
   1097000   0.91826612     17.2003        39.516646    
   1098000   0.98185899     17.918579      39.517118    
   1099000   1.0091538      17.983221      39.482513    
   1100000   1.0240799      17.515955      39.548205    
   1101000   0.96253416     18.279158      39.735415    
   1102000   0.98958663     17.227293      39.869096    
   1103000   1.0099425      17.932126      39.486554    
   1104000   1.0088834      17.083934      39.29346     
   1105000   0.9606148      17.780821      39.247955    
   1106000   1.0148342      17.481674      39.389984    
   1107000   1.0108086      17.814787      39.188632    
   1108000   1.037893       18.064526      39.412809    
   1109000   0.9983798      17.587428      39.418511    
   1110000   0.96755474     17.559522      39.177915    
   1111000   1.0385317      17.559433      39.092256    
   1112000   0.98287738     18.145897      38.727221    
   1113000   1.0145323      17.560933      38.397859    
   1114000   1.0055214      17.117755      38.320873    
   1115000   0.95734112     17.816959      38.310723    
   1116000   1.0209045      17.534076      38.349286    
   1117000   1.0029347      17.94766       38.206365    
   1118000   1.0475887      17.63339       38.00892     
   1119000   1.0060443      18.045991      37.833913    
   1120000   1.0000588      17.591367      37.780465    
   1121000   0.99964858     17.374195      37.675003    
   1122000   0.96994275     17.170712      37.625142    
   1123000   1.0055625      17.296193      37.408062    
   1124000   1.0474822      17.432762      37.297504    
   1125000   0.95560491     18.117811      37.499788    
   1126000   1.0387642      17.061253      37.395131    
   1127000   1.0337479      17.942557      37.289482    
   1128000   1.0166038      17.528769      37.224542    
   1129000   1.032525       17.659291      37.104968    
   1130000   0.98938434     17.106378      36.98964     
   1131000   0.97350163     17.481773      36.656499    
   1132000   0.96073582     17.259103      36.509694    
   1133000   0.98589247     17.93242       36.621995    
   1134000   0.93575351     17.989349      36.28695     
   1135000   0.97938787     17.840507      36.359522    
   1136000   0.94311878     17.785628      36.37665     
   1137000   1.0254089      16.95425       36.162561    
   1138000   1.0007856      17.406406      36.195811    
   1139000   1.069026       17.27979       36.370917    
   1140000   1.0138407      18.015513      36.371881    
   1141000   0.98816578     18.034765      36.399694    
   1142000   1.0524981      16.789416      36.21763     
   1143000   0.9970514      17.186524      36.300922    
   1144000   0.95943451     17.604451      36.183428    
   1145000   0.99556076     17.650458      36.228828    
   1146000   1.0172156      18.28953       35.988491    
   1147000   0.99871473     17.847389      35.722108    
   1148000   0.96439965     17.566118      35.797616    
   1149000   0.99435663     17.499909      35.532874    
   1150000   1.0031808      18.158485      35.263886    
   1151000   1.0282562      17.933037      34.952274    
   1152000   0.98753204     18.127466      35.271559    
   1153000   0.99537913     17.91828       35.25462     
   1154000   0.97766377     17.567649      35.21807     
   1155000   0.96191527     17.280916      35.016865    
   1156000   0.99492492     18.450181      34.910381    
   1157000   1.0350243      17.937032      34.750106    
   1158000   0.97163261     17.874818      34.350039    
   1159000   0.9787736      17.742403      34.219402    
   1160000   0.97830774     17.292685      33.737349    
   1161000   1.030242       17.240989      33.629106    
   1162000   0.98160978     17.465396      33.385847    
   1163000   0.90581847     17.795684      33.135956    
   1164000   1.0723703      17.354587      33.133462    
   1165000   1.0121837      17.716571      33.521922    
   1166000   0.95254431     17.7689        33.536817    
   1167000   0.98548417     17.625832      33.444032    
   1168000   1.0503709      17.717545      33.40268     
   1169000   1.0187112      17.720259      33.1712      
   1170000   0.98422219     17.429614      33.357278    
   1171000   1.0507418      18.013337      33.124557    
   1172000   0.98872524     17.444154      32.994404    
   1173000   0.95195828     18.171047      32.946142    
   1174000   1.0039456      17.467326      32.617305    
   1175000   0.97240768     17.756977      32.441643    
   1176000   0.95776031     17.757878      32.46796     
   1177000   1.0291322      18.128263      32.496715    
   1178000   1.0502983      17.589476      32.391375    
   1179000   1.040989       17.504518      32.231645    
   1180000   1.0192395      18.116478      31.942081    
   1181000   0.98822912     18.093152      31.877994    
   1182000   1.0004561      17.327852      31.862406    
   1183000   1.0188273      18.144192      31.961936    
   1184000   0.99811874     17.294837      31.631186    
   1185000   0.99626063     17.489753      31.525764    
   1186000   1.0118511      16.827424      31.35685     
   1187000   0.97002994     17.557605      31.270266    
   1188000   0.96870415     18.196214      31.062907    
   1189000   0.9982135      18.228118      30.907618    
   1190000   1.0097932      17.500707      30.745246    
   1191000   1.0308137      17.759764      30.595492    
   1192000   0.99534472     17.577763      30.510233    
   1193000   1.0144198      17.079338      30.367147    
   1194000   0.98947288     17.970795      30.092954    
   1195000   0.96857823     17.475533      29.974491    
   1196000   0.98679871     17.624716      30.000286    
   1197000   0.97145709     17.432433      29.907237    
   1198000   1.0125001      17.325849      29.733893    
   1199000   0.97898548     16.494588      29.831022    
   1200000   1.0164125      17.688669      29.739764    
   1201000   1.0360297      17.318669      29.454493    
   1202000   1.0117732      16.773937      29.382296    
   1203000   0.94645596     17.405658      29.199414    
   1204000   1.0081907      17.745288      29.174322    
   1205000   1.0016513      18.054744      29.024407    
   1206000   0.97761303     17.232869      29.180271    
   1207000   1.0119702      17.483454      29.359567    
   1208000   1.0578267      17.037685      29.09226     
   1209000   1.007622       17.695003      29.289733    
   1210000   0.99881381     17.552024      28.947375    
   1211000   1.007642       17.795499      28.967196    
   1212000   0.99803391     16.912213      28.882732    
   1213000   0.98922681     16.986375      28.927558    
   1214000   0.98734438     17.217253      28.897533    
   1215000   1.0020001      17.332345      28.895448    
   1216000   1.0154448      17.513932      28.797654    
   1217000   0.97430395     17.104261      28.550054    
   1218000   0.9767897      17.50794       28.492903    
   1219000   1.0065241      16.638869      28.161089    
   1220000   0.99629201     17.523989      28.074618    
   1221000   1.0002808      16.832618      28.060908    
   1222000   1.0243606      17.126042      28.201511    
   1223000   0.97006157     17.99342       28.095787    
   1224000   0.97732253     17.466162      28.134023    
   1225000   1.0093051      17.756377      27.986352    
   1226000   0.93204847     17.672148      27.597083    
   1227000   0.97536245     17.065699      27.598077    
   1228000   0.96569365     17.575775      27.575162    
   1229000   1.0199361      16.97553       27.465252    
   1230000   0.98507654     17.785671      27.300049    
   1231000   0.97180146     17.140486      27.120877    
   1232000   1.004889       17.946241      27.059136    
   1233000   1.0153343      17.627788      26.707898    
   1234000   1.0071257      17.892432      26.455916    
   1235000   0.99670345     17.698808      26.396724    
   1236000   1.0344552      17.366308      26.266653    
   1237000   0.96839533     17.055981      26.128989    
   1238000   1.0750543      17.657305      25.981449    
   1239000   0.98632279     17.188784      25.834177    
   1240000   0.99441719     17.422487      25.611556    
   1241000   1.0718683      17.710074      25.825054    
   1242000   1.0191379      17.598762      25.891826    
   1243000   1.0115485      17.854821      26.027754    
   1244000   1.0130364      17.942045      25.86445     
   1245000   1.0215098      17.316287      25.75165     
   1246000   1.0058109      17.596065      25.631898    
   1247000   0.97824654     17.704435      25.740188    
   1248000   1.0135749      16.930767      25.729731    
   1249000   0.97512196     17.430391      25.540525    
   1250000   0.94680803     17.635823      25.286129    
   1251000   0.98741557     17.519039      25.161207    
   1252000   0.95970506     17.824043      25.148771    
   1253000   0.94366374     17.411726      25.228175    
   1254000   0.98344953     17.716648      25.374622    
   1255000   0.99680938     18.048479      25.318503    
   1256000   1.004656       17.61875       25.221007    
   1257000   0.99126627     16.812204      25.333699    
   1258000   0.97835922     17.724247      25.325954    
   1259000   1.0364855      17.974905      25.328634    
   1260000   1.0060634      18.516926      25.145234    
   1261000   1.0082174      16.811095      25.034901    
   1262000   0.96685861     17.076013      25.068943    
   1263000   0.96664228     17.671367      24.757889    
   1264000   1.0223423      17.959113      24.596295    
   1265000   0.98831442     17.071703      24.494628    
   1266000   0.99006599     17.839222      24.563003    
   1267000   1.0342885      18.220073      24.246152    
   1268000   1.0193737      17.691352      24.092809    
   1269000   1.0265092      17.802411      24.159406    
   1270000   1.0424426      17.217617      24.214785    
   1271000   1.0039009      17.738695      24.259757    
   1272000   0.97420086     16.537924      24.284552    
   1273000   1.0066216      17.209291      24.14427     
   1274000   0.97821797     17.09589       24.062296    
   1275000   1.0441544      17.207575      23.755352    
   1276000   1.0130502      17.152116      23.793633    
   1277000   0.99688745     17.484827      23.636522    
   1278000   1.0419016      17.673117      23.463908    
   1279000   1.0513996      17.991121      23.169209    
   1280000   1.0413426      17.440516      23.186324    
   1281000   1.0829552      17.479215      22.938318    
   1282000   1.0078633      16.945183      23.038987    
   1283000   0.98344271     17.298263      23.114663    
   1284000   0.96603456     17.040476      23.20665     
   1285000   1.0148552      17.935547      23.159165    
   1286000   0.95551643     17.291857      22.98547     
   1287000   1.0259599      17.380275      22.59468     
   1288000   0.97228795     17.407955      22.520746    
   1289000   1.0234797      17.753551      22.499692    
   1290000   1.005525       17.022433      22.544046    
   1291000   0.96807812     17.031238      22.212135    
   1292000   1.0045782      16.584807      22.10966     
   1293000   1.0099499      17.504972      21.888991    
   1294000   0.9981346      17.987633      21.768073    
   1295000   1.0403996      18.029385      21.684432    
   1296000   0.94897231     17.383082      21.705514    
   1297000   0.95341944     17.85552       21.582194    
   1298000   1.0463702      17.461531      21.335264    
   1299000   0.94915962     17.188595      21.274183    
   1300000   0.97801938     17.08553       21.06423     
   1301000   1.0350443      17.585295      21.188055    
   1302000   0.96659518     16.746288      20.981921    
   1303000   1.009639       17.193628      20.925885    
   1304000   1.040868       17.380072      20.812751    
   1305000   0.98544686     17.054503      20.944308    
   1306000   0.99858747     17.143397      21.005092    
   1307000   1.0143889      17.020628      20.813754    
   1308000   0.99621093     17.036343      20.634152    
   1309000   1.0092993      17.401746      20.463994    
   1310000   1.009808       16.766472      20.421632    
   1311000   1.039721       16.913402      20.569853    
   1312000   1.0002595      18.148312      20.736309    
   1313000   0.97798883     17.131179      20.244853    
   1314000   1.0532565      17.121673      20.107666    
   1315000   0.95634001     17.593424      20.061303    
   1316000   1.0211194      17.213886      19.998964    
   1317000   1.0791404      18.119285      20.016296    
   1318000   1.0326913      17.411819      19.949       
   1319000   1.0258351      18.231485      19.722195    
   1320000   1.0377484      17.410919      19.999408    
   1321000   1.0379947      17.2005        20.112539    
   1322000   0.97460965     17.530283      20.090015    
   1323000   1.0437851      17.910113      20.159184    
   1324000   0.994258       17.075299      19.941677    
   1325000   1.0327361      18.504163      19.889998    
   1326000   1.0072702      17.555814      20.094041    
   1327000   0.9700095      16.771469      20.194219    
   1328000   1.0681802      16.437934      20.295586    
   1329000   1.0308575      17.368163      20.500006    
   1330000   1.0037248      17.311034      20.447131    
   1331000   1.0225286      18.100854      20.444848    
   1332000   1.009899       17.285065      20.357222    
   1333000   0.98614238     17.625087      20.397678    
   1334000   1.0441403      18.214166      20.125657    
   1335000   1.0525076      17.810203      19.992064    
   1336000   0.99852835     17.534569      20.043771    
   1337000   0.95413481     17.451773      19.81332     
   1338000   0.9727525      17.287557      19.587867    
   1339000   0.95158503     17.269779      19.396765    
   1340000   1.0073156      17.70731       19.238095    
   1341000   1.0272198      18.428568      19.181121    
   1342000   1.0065644      17.570688      19.295047    
   1343000   1.0285924      17.357065      19.351179    
   1344000   1.0147121      17.412476      19.155519    
   1345000   1.0006407      17.999092      19.113187    
   1346000   1.0095376      17.51381       19.049554    
   1347000   0.96715285     18.047829      18.875749    
   1348000   0.98898678     17.496717      18.880315    
   1349000   1.0158307      17.797158      18.80241     
   1350000   1.0322196      18.405561      18.640668    
   1351000   1.0174554      18.355415      18.487133    
   1352000   0.98987174     17.888086      18.173798    
   1353000   0.99162462     17.395995      18.095689    
   1354000   0.99975873     17.709452      17.878796    
   1355000   0.98000993     16.962333      17.738008    
   1356000   0.98532382     17.301898      17.610925    
   1357000   1.0360737      17.036041      17.616457    
   1358000   0.99117803     17.388109      17.456412    
   1359000   0.95245166     17.154467      17.143969    
   1360000   1.0221408      17.563541      17.027032    
   1361000   1.0406932      17.660682      16.955357    
   1362000   0.97428158     17.958214      16.981103    
   1363000   0.99167291     17.457431      17.057059    
   1364000   0.99657804     16.805056      16.941271    
   1365000   0.98886849     16.945088      16.789731    
   1366000   1.041988       17.912536      16.582493    
   1367000   1.0430782      17.433351      16.637507    
   1368000   1.0092964      17.65618       16.414531    
   1369000   1.0259963      17.670687      16.185126    
   1370000   1.0080418      17.892753      15.868239    
   1371000   0.97924251     16.666212      15.734807    
   1372000   1.0396882      17.653572      15.868116    
   1373000   1.013141       16.888701      15.811386    
   1374000   0.9576346      17.121856      15.810309    
   1375000   1.0210631      18.004536      15.826151    
   1376000   1.0031732      17.042599      15.780377    
   1377000   0.97477961     16.90427       15.834289    
   1378000   1.0241531      17.151358      15.60933     
   1379000   0.97694946     17.32047       15.599214    
   1380000   0.94867562     17.037601      15.621998    
   1381000   0.94514192     18.88489       15.838617    
   1382000   0.9927077      17.495627      15.68353     
   1383000   1.0232349      17.329533      15.798833    
   1384000   1.0134186      16.899356      15.710754    
   1385000   0.98626299     16.77863       15.814601    
   1386000   0.99385267     17.143574      15.649749    
   1387000   0.97115417     17.297394      15.660759    
   1388000   0.97347796     16.7505        15.371915    
   1389000   0.98332633     17.702431      15.300454    
   1390000   0.9722834      17.179769      15.178779    
   1391000   1.0052968      16.774646      15.2483      
   1392000   0.98764083     17.557537      15.184186    
   1393000   1.0295616      17.806006      15.275861    
   1394000   0.97206239     17.023258      15.240877    
   1395000   1.0110069      17.415223      15.332643    
   1396000   0.95146666     16.880542      14.987723    
   1397000   1.0122488      16.890087      14.942726    
   1398000   0.97700887     17.579621      14.723772    
   1399000   1.0081247      17.457878      14.681443    
   1400000   1.0278348      17.597987      14.767632    
   1401000   1.0288702      17.891729      14.524618    
   1402000   1.0361603      17.099762      14.64042     
   1403000   1.0356145      17.812939      14.393827    
   1404000   0.98194708     16.91378       14.443148    
   1405000   0.97925319     17.894719      14.119847    
   1406000   0.99435163     17.743654      14.271978    
   1407000   1.0092067      16.745526      14.198958    
   1408000   1.0357927      17.133885      14.211627    
   1409000   0.97903501     17.114206      14.150199    
   1410000   1.0335915      17.772602      13.98049     
   1411000   0.98848095     17.29749       14.115974    
   1412000   1.0402125      17.718383      14.233216    
   1413000   0.98013999     16.924099      13.982737    
   1414000   0.9885881      16.76541       13.745116    
   1415000   0.99442416     17.671822      13.783964    
   1416000   1.0146273      18.070771      13.746591    
   1417000   1.0233159      17.119882      13.574626    
   1418000   1.0028332      17.915857      13.261637    
   1419000   0.97189281     17.124621      13.299386    
   1420000   1.0102087      17.099924      13.554936    
   1421000   0.99464745     17.040132      13.555756    
   1422000   1.0062875      17.699383      13.536812    
   1423000   1.04103        17.389666      13.333874    
   1424000   0.98866227     17.20197       13.155349    
   1425000   0.98036334     17.423505      12.957669    
   1426000   1.0081604      17.52497       12.64865     
   1427000   1.0093139      16.786623      12.565739    
   1428000   1.0315671      17.639536      12.325856    
   1429000   1.0113723      17.91465       12.214212    
   1430000   0.96503768     18.27188       12.049294    
   1431000   1.0291401      17.945737      12.015848    
   1432000   0.97948625     17.872862      12.105832    
   1433000   1.0329089      17.108274      12.037424    
   1434000   0.96344738     17.209442      12.189163    
   1435000   1.0344282      17.451804      11.907051    
   1436000   0.98350818     16.802568      12.004908    
   1437000   0.98835511     17.154434      11.928413    
   1438000   1.0091336      17.264001      11.62966     
   1439000   0.97601883     17.540478      11.528636    
   1440000   1.019937       17.908475      11.360871    
   1441000   0.94181486     16.696028      11.632647    
   1442000   1.0381         16.544448      11.476112    
   1443000   0.97627068     16.665519      11.246498    
   1444000   0.98469633     17.489921      11.200986    
   1445000   0.97224807     17.626978      11.038045    
   1446000   1.0116638      16.806464      10.987222    
   1447000   0.93933144     17.690313      10.833134    
   1448000   1.0025779      17.202843      10.843018    
   1449000   1.0491965      18.277302      10.680064    
   1450000   0.97884364     17.416802      10.326641    
   1451000   0.96309014     16.904499      10.10608     
   1452000   0.91850085     17.122209      10.054725    
   1453000   1.089482       17.702877      10.061243    
   1454000   1.0026191      17.534465      10.065716    
   1455000   0.99812109     17.208376      10.1394      
   1456000   0.99385861     16.974864      10.335575    
   1457000   1.021924       17.094555      10.298179    
   1458000   1.0264492      17.315836      10.14062     
   1459000   1.0068329      17.719953      9.9741977    
   1460000   1.058608       17.60579       9.6523284    
   1461000   1.0004003      17.09023       9.6707144    
   1462000   1.0110176      17.31177       9.4216189    
   1463000   1.0203296      17.427613      9.3728561    
   1464000   0.97346654     17.642062      9.2945323    
   1465000   0.99704015     17.450162      9.0895487    
   1466000   1.0281262      17.622779      9.0303098    
   1467000   1.0043837      17.255265      8.9440039    
   1468000   1.0641953      17.71249       9.0717613    
   1469000   0.99129665     17.22989       9.0138392    
   1470000   0.99769443     16.574577      8.8308337    
   1471000   0.98828325     17.93062       8.6117952    
   1472000   1.0893198      17.389816      8.4342885    
   1473000   0.94151398     17.245121      8.4199795    
   1474000   1.0015448      17.111256      8.4439288    
   1475000   0.97859483     16.633968      8.423579     
   1476000   0.9970812      17.84154       8.5772934    
   1477000   0.98691527     17.309769      8.630132     
   1478000   1.0170741      16.673828      8.5472302    
   1479000   0.93921308     16.925829      8.6969354    
   1480000   1.0652855      17.652136      8.5198798    
   1481000   1.0322115      17.191658      8.3964294    
   1482000   1.0364695      17.313374      8.4611418    
   1483000   1.0003596      18.003194      8.5666084    
   1484000   0.90149389     17.04999       8.6605594    
   1485000   0.92181793     16.769199      8.6739026    
   1486000   1.0218347      17.328914      8.680421     
   1487000   0.92425756     16.73248       8.7823417    
   1488000   1.0415677      16.834092      9.0580088    
   1489000   1.0431752      16.85128       9.1180871    
   1490000   1.0059507      17.428071      8.9327537    
   1491000   1.0077696      17.716753      8.886208     
   1492000   1.0422055      18.336378      8.7722368    
   1493000   0.97514236     17.325616      8.7585622    
   1494000   1.0350142      17.172752      8.4517841    
   1495000   0.94858453     16.735764      8.2481411    
   1496000   1.0339048      17.232086      8.3139695    
   1497000   0.98294189     17.209387      8.269403     
   1498000   0.97823647     17.140534      8.2250361    
   1499000   1.0207249      18.341296      8.3865218    
   1500000   0.99894717     17.571125      8.4621291    
   1501000   1.05066        17.720928      8.4613465    
   1502000   1.0268769      16.249167      8.3411141    
   1503000   1.0210078      17.120052      8.0151879    
   1504000   0.99234762     17.473681      7.8418353    
   1505000   0.9702655      17.179632      7.7057279    
   1506000   1.0072128      17.640697      7.6151558    
   1507000   1.0100218      17.538486      7.5817841    
   1508000   0.99585443     17.207228      7.536849     
   1509000   1.0671375      16.847657      7.6649062    
   1510000   1.0355344      16.624839      7.5217382    
   1511000   0.94769323     16.443728      7.587735     
   1512000   1.0092426      18.08405       7.5283689    
   1513000   1.0199626      17.496422      7.7281341    
   1514000   1.0045687      17.170731      7.6035333    
   1515000   1.0557579      17.4467        7.3519397    
   1516000   0.9994358      17.054738      7.438774     
   1517000   1.0229084      17.409037      7.379795     
   1518000   1.0795857      17.169277      7.1622642    
   1519000   1.0156813      17.43655       7.0767597    
Fix halt condition for fix-id 3 met on step 1520000 with value 6.981466998620187 (src/fix_halt.cpp:237)
   1520000   1.0034289      17.470147      6.981467     
Loop time of 3283.97 on 2 procs for 1420000 steps with 700 atoms

Performance: 373597.026 tau/day, 432.404 timesteps/s
113.8% CPU use with 1 MPI tasks x 2 OpenMP threads

MPI task timing breakdown:
Section |  min time  |  avg time  |  max time  |%varavg| %total
---------------------------------------------------------------
Pair    | 322.26     | 322.26     | 322.26     |   0.0 |  9.81
Bond    | 35.305     | 35.305     | 35.305     |   0.0 |  1.08
Neigh   | 2850.2     | 2850.2     | 2850.2     |   0.0 | 86.79
Comm    | 0.74309    | 0.74309    | 0.74309    |   0.0 |  0.02
Output  | 3.7827     | 3.7827     | 3.7827     |   0.0 |  0.12
Modify  | 65.23      | 65.23      | 65.23      |   0.0 |  1.99
Other   |            | 6.445      |            |       |  0.20

Nlocal:            700 ave         700 max         700 min
Histogram: 1 0 0 0 0 0 0 0 0 0
Nghost:              0 ave           0 max           0 min
Histogram: 1 0 0 0 0 0 0 0 0 0
Neighs:         110832 ave      110832 max      110832 min
Histogram: 1 0 0 0 0 0 0 0 0 0

Total # of neighbors = 110832
Ave neighs/atom = 158.33143
Ave special neighs/atom = 1.9971429
Neighbor list builds = 13073
Dangerous builds = 0

# This simulation is done
# Move onto the next one
clear
  using 2 OpenMP thread(s) per MPI task
package omp 0
using multi-threaded neighbor list subroutines
next f
jump SELF

###
# Reference paper:
# K. Kremer and G. S. Grest
# Dynamics of entangled linear polymer melts: A molecular-dynamics simulation
# J Chem Phys 92, 5057 (1990)

##################################
# MIHIR: for branched polymers
# LJ minimum first to expand and explore, then collapse
###

###
# Looping through the various linear polymers to simulate,
# define variables to switch through
variable f index bb100nuc0bl0bn0d30tot100 bb200nuc0bl0bn0d30tot200 bb300nuc0bl0bn0d30tot300 bb400nuc0bl0bn0d30tot400 bb500nuc0bl0bn0d30tot500 bb600nuc0bl0bn0d30tot600 bb700nuc0bl0bn0d30tot700 bb800nuc0bl0bn0d30tot800 bb900nuc0bl0bn0d30tot900 bb1000nuc0bl0bn0d30tot1000 bb1100nuc0bl0bn0d30tot1100 bb1200nuc0bl0bn0d30tot1200
###


###
# Box and units  (use LJ units and periodic boundaries)
###

units lj
log linear/logs3/$f.log
log linear/logs3/bb800nuc0bl0bn0d30tot800.log
