#atom_style bond #no stiffness
atom_style angle #with stiffness

boundary        p p p
###
# Pair interactions require lists of neighbours to be calculated
###

#neighbor 0.3 bin
neighbor 4 bin

neigh_modify every 1 delay 1 check yes
atom_modify sort 0 0
### Generate RESTART file, SPECIAL format, not a .txt file ###
### Useful if simulation crashes ###

restart 1000000 linear/restarts3/$f.restart
restart 1000000 linear/restarts3/bb800nuc0bl0bn0d30tot800.restart
#############################



### READ "start" data file ###

read_data linear/$f.dat
read_data linear/bb800nuc0bl0bn0d30tot800.dat
Reading data file ...
  orthogonal box = (-1000 -1000 -1000) to (1000 1000 1000)
  1 by 1 by 1 MPI processor grid
  reading atoms ...
  800 atoms
  scanning bonds ...
  1 = max bonds/atom
  scanning angles ...
  1 = max angles/atom
  reading bonds ...
  799 bonds
  reading angles ...
  798 angles
Finding 1-2 1-3 1-4 neighbors ...
  special bond factors lj:    0        0        0       
  special bond factors coul:  0        0        0       
     2 = max # of 1-2 neighbors
     2 = max # of 1-3 neighbors
     4 = max # of 1-4 neighbors
     6 = max # of special neighbors
  special bonds CPU = 0.001 seconds
  read_data CPU = 0.105 seconds

######################

### READ "REstart" data file ###

######################



###
# Define groups (atom type 1 is group 'all')
###
group all type 1
800 atoms in group all


###
# Dump configs - "simple dumpings"
###

###
# Dump configs + box coords
###

dump   1   all   custom   1000  linear/trjs3/$f.lammpstrj  id  x y z  ix iy iz
dump   1   all   custom   1000  linear/trjs3/bb800nuc0bl0bn0d30tot800.lammpstrj  id  x y z  ix iy iz
dump_modify   1   format line "%d %.5f %.5f %.5f %d %d %d"

########################################################################


###################################################################
# Stiffness term
#
# E = K * (1+cos(theta)), K>0
#
angle_style   cosine
#change this coefficient to change stiffness (e.g. 1,5,10)
angle_coeff   1 1.0
###################################################################

###################################################################
# Pair interaction between non-bonded atoms
#
#  Lennard-Jones 12-6 potential with cutoff:
#  potential E=4epsilon[ (sigma/r)^12 - (sigma/r)^6]  for r<r_cut
#
#  1.12246 = 2^(1/6) is the minimum of the potential


pair_style      lj/cut 1.12246152962189
#pair_style      lj/cut 3

#
#  pair_modify shift yes adds a constant to the potential such

#  that E(r_cut)=0. Forces remains unchanged.
#

pair_modify     shift yes

#
#  pair_coeff for lj/cut, specify 4:
#    * atom type interacting with
#    * atom type
#    * epsilon (energy units)
#    * sigma (distance units)
#

pair_coeff      1 1 1.0 1.0
###################################################################

###################################################################
# Pair interaction between non-bonded atoms
#
#  soft potential, for PUSHING apart overlapping atoms
#  potential E=A*(1 + cos(pi*r/r_c))
#
#  1.12246 = 2^(1/6) is the cut-off r_c

#pair_style     soft 1.12246152962189

#
#  pair_coeff for soft, specify 3:
#    * atom type interacting with
#    * atom type
#    * A
#
#

#pair_coeff      1 1 100.0
###################################################################

###################################################################
# Pair interaction between bonded atoms
#
# Fene potential + Lennard Jones 12-6:

#
#  E= - 0.5 K R0^2 ln[ 1- (r/R0)^2]
#     + 4epsilon[ (sigma/r)^12 - (sigma/r)^6] + epsilon
#

bond_style   fene


#
# For style fene, specify:
#   * bond type
#   * K (energy/distance^2)
#   * R0 (distance)
#   * epsilon (energy)  (LJ component)
#   * sigma (distance)  (LJ component)
#


special_bonds fene #<=== I M P O R T A N T (new command)
Finding 1-2 1-3 1-4 neighbors ...
  special bond factors lj:    0        1        1       
  special bond factors coul:  0        1        1       
     2 = max # of 1-2 neighbors
     6 = max # of special neighbors
  special bonds CPU = 0.000 seconds

bond_coeff   1   30   2   1.0   1.0


###################################################

###################################################################
# Pair interaction between bonded atoms
#
# Harmonic potential:
#
#  E= K * (R-R0)^2
#

#bond_style   harmonic

#
# For style harmonic, specify:
#   * bond type
#   * K (energy/distance^2)
#   * R0 (distance)
#

#bond_coeff   1   60.0   1.0
#bond_coeff   2   harmonic 0.1   1.0

###################################################
compute 1 all gyration
variable rog equal c_1
#compute 2 all coord/atom cutoff 1.1

#dump 2 all custom 10000 contact_number.dump id c_2


###
# Set up fixes
###
thermo_style   custom   step  temp enthalpy c_1
fix 1 all nve   ###NVE ensemble

fix 2 all   langevin   1.0 1.0 1.0  158102   ###Langevin integrator Tstart Tstop 1/friction rndseed


##### Sample thermodynamic info  (temperature, energy, pressure, etc.) #####
thermo 1000









############################################################################

###
# set timestep of integrator

timestep 0.01

###
# run integration for a number of steps
###
#run 0
#variable r equal c_1
#if "$r < 63.1" then "quit 1"

# lj potential minimum, cause molecule to explore
run 100000
Generated 0 of 0 mixed pair_coeff terms from geometric mixing rule
Last active /omp style is angle_style cosine/omp
Neighbor list info ...
  update: every = 1 steps, delay = 1 steps, check = yes
  max neighbors/atom: 2000, page size: 100000
  master list distance cutoff = 5.1224615
  ghost atom cutoff = 5.1224615
  binsize = 2.5612308, bins = 781 781 781
  1 neighbor lists, perpetual/occasional/extra = 1 0 0
  (1) pair lj/cut/omp, perpetual
      attributes: half, newton on, omp
      pair build: half/bin/newton/omp
      stencil: half/bin/3d
      bin: standard
WARNING: Communication cutoff 5.12246152962189 is shorter than a bond length based estimate of 5.455. This may lead to errors. (src/comm.cpp:723)
Per MPI rank memory allocation (min/avg/max) = 1860 | 1860 | 1860 Mbytes
   Step          Temp         Enthalpy         c_1      
         0   0              13.409724      200.00029    
      1000   1.0081859      18.606734      199.81871    
      2000   0.99140716     19.053671      199.53861    
      3000   0.98110045     18.910052      199.45227    
      4000   0.9918597      18.432029      199.10848    
      5000   0.97893022     18.404675      198.86552    
      6000   1.001133       18.565846      198.6222     
      7000   0.99079502     19.251193      198.44608    
      8000   0.99575813     18.740699      198.36285    
      9000   1.0151946      18.980799      198.23794    
     10000   1.0810023      19.450239      198.11374    
     11000   1.0184164      19.126254      198.02315    
     12000   0.9830432      19.339239      197.73286    
     13000   1.06036        18.915539      197.62735    
     14000   1.0467911      18.973512      197.3934     
     15000   1.0405791      19.091741      197.30349    
     16000   1.0078583      19.48375       197.06434    
     17000   0.99156985     19.227488      196.83522    
     18000   1.0423621      19.218514      196.55802    
     19000   1.0489447      19.391066      196.30299    
     20000   0.95422888     19.258846      195.98494    
     21000   1.0389372      19.08865       195.73521    
     22000   1.0668366      19.294032      195.54728    
     23000   0.99123921     18.599779      195.31142    
     24000   0.98226838     19.572946      195.01885    
     25000   1.0171115      19.321451      194.72525    
     26000   0.9834309      19.023754      194.2176     
     27000   0.99454798     19.429214      193.96245    
     28000   0.9950516      19.549977      193.71033    
     29000   0.96894235     19.3714        193.66027    
     30000   0.9946207      19.384351      193.34367    
     31000   1.0145662      18.934415      192.8822     
     32000   1.065675       19.437962      192.74411    
     33000   0.96208009     18.635915      192.35147    
     34000   0.96376988     18.631988      192.20026    
     35000   0.96777311     19.431506      191.78714    
     36000   1.0120988      19.233717      191.50864    
     37000   0.98874374     19.189651      191.26724    
     38000   0.98187279     19.793506      191.08415    
     39000   1.0072301      19.304402      190.7328     
     40000   0.98191999     19.273333      190.57401    
     41000   1.0134466      19.305091      190.32227    
     42000   0.99194181     19.153365      190.38735    
     43000   1.0001525      19.609106      190.34585    
     44000   1.0273978      19.522861      190.2358     
     45000   1.0174647      19.652591      190.09571    
     46000   0.97689874     19.501842      189.90831    
     47000   0.98719296     18.992225      189.79619    
     48000   1.0087557      20.00892       189.63292    
     49000   1.0025535      19.219385      189.5962     
     50000   1.0139408      19.0608        189.61743    
     51000   1.0298584      19.61232       189.44757    
     52000   1.0325791      19.463551      189.37953    
     53000   0.9837582      19.232689      189.16955    
     54000   0.990327       19.324194      189.04278    
     55000   1.049794       19.375769      188.91253    
     56000   0.98477576     19.444459      188.77304    
     57000   1.0554978      20.005986      188.65367    
     58000   0.99938613     18.928212      188.45786    
     59000   1.01067        19.710844      188.35113    
     60000   0.9912135      19.763358      188.20381    
     61000   0.94448275     18.950035      188.14232    
     62000   1.0014621      19.695605      187.77045    
     63000   0.93874219     19.111513      187.6667     
     64000   0.9965879      19.772113      187.5326     
     65000   0.97712334     19.827176      187.39066    
     66000   0.99730846     19.648963      186.99867    
     67000   1.0429394      19.594533      186.70122    
     68000   1.0547277      19.615085      186.55038    
     69000   0.96031427     19.760926      186.61252    
     70000   0.99798495     19.518439      186.6165     
     71000   0.98922903     19.901446      186.41526    
     72000   1.0054706      19.387739      186.14188    
     73000   1.0009062      19.152934      185.71739    
     74000   1.0152176      19.221542      185.55728    
     75000   0.98784764     19.362614      185.48533    
     76000   1.0025825      20.159446      185.59267    
     77000   1.0085185      19.964374      185.48694    
     78000   1.0087918      19.67702       185.45551    
     79000   1.0382968      19.788466      185.33728    
     80000   1.0003637      19.244022      185.15019    
     81000   0.94855489     19.445705      185.00345    
     82000   0.9929625      19.63953       185.08296    
     83000   1.0107962      19.62556       184.99191    
     84000   0.99578988     19.513169      185.11229    
     85000   1.0195764      19.758352      185.39008    
     86000   1.0200478      19.688535      185.05027    
     87000   1.0167333      19.781782      184.94872    
     88000   0.96843017     19.663324      184.95106    
     89000   1.0444157      19.155796      184.71144    
     90000   0.91706427     19.782007      184.41986    
     91000   0.94939777     19.372888      184.48691    
     92000   0.9960682      19.836416      184.2503     
     93000   0.97683441     18.987816      184.26698    
     94000   0.9744808      19.591268      184.00866    
     95000   1.0014625      19.206928      183.70909    
     96000   0.98486463     19.426499      183.73391    
     97000   0.98681126     19.518504      183.58811    
     98000   0.97072592     19.091691      183.56366    
     99000   1.039188       20.067355      183.47567    
    100000   0.9973778      19.521712      183.2528     
Loop time of 251.53 on 2 procs for 100000 steps with 800 atoms

Performance: 343497.382 tau/day, 397.566 timesteps/s
103.6% CPU use with 1 MPI tasks x 2 OpenMP threads

MPI task timing breakdown:
Section |  min time  |  avg time  |  max time  |%varavg| %total
---------------------------------------------------------------
Pair    | 0.81912    | 0.81912    | 0.81912    |   0.0 |  0.33
Bond    | 1.8942     | 1.8942     | 1.8942     |   0.0 |  0.75
Neigh   | 244.1      | 244.1      | 244.1      |   0.0 | 97.05
Comm    | 0.026883   | 0.026883   | 0.026883   |   0.0 |  0.01
Output  | 0.22631    | 0.22631    | 0.22631    |   0.0 |  0.09
Modify  | 4.1884     | 4.1884     | 4.1884     |   0.0 |  1.67
Other   |            | 0.2714     |            |       |  0.11

Nlocal:            800 ave         800 max         800 min
Histogram: 1 0 0 0 0 0 0 0 0 0
Nghost:              0 ave           0 max           0 min
Histogram: 1 0 0 0 0 0 0 0 0 0
Neighs:           3984 ave        3984 max        3984 min
Histogram: 1 0 0 0 0 0 0 0 0 0

Total # of neighbors = 3984
Ave neighs/atom = 4.98
Ave special neighs/atom = 1.9975
Neighbor list builds = 1045
Dangerous builds = 0

# Replace lj potential, now collapse
pair_style      lj/cut 3

# Cutoff simul when gyration under 5
# Variable created with equal requires v_ + 'name'
fix 3 all halt 1000 v_rog < 7

run 5000000
Generated 0 of 0 mixed pair_coeff terms from geometric mixing rule
Last active /omp style is angle_style cosine/omp
Per MPI rank memory allocation (min/avg/max) = 1860 | 1860 | 1860 Mbytes
   Step          Temp         Enthalpy         c_1      
    100000   0.9973778      19.053989      183.2528     
    101000   0.99498304     19.496479      183.13085    
    102000   1.049318       19.687322      183.07387    
    103000   0.96513923     19.170952      183.07427    
    104000   1.0220012      19.202508      182.84677    
    105000   0.97619731     18.871545      182.70328    
    106000   1.0380276      18.990415      182.30534    
    107000   1.0008612      19.195738      182.00723    
    108000   0.97735059     20.065943      181.7505     
    109000   0.93194886     19.025509      181.51091    
    110000   0.98779906     18.738348      181.29705    
    111000   0.99276235     18.619497      181.15959    
    112000   1.0069355      19.046972      180.92858    
    113000   1.0485006      18.896501      180.72596    
    114000   1.0192686      19.318274      180.41716    
    115000   0.98062343     19.031469      180.57098    
    116000   1.0089104      19.185701      180.35614    
    117000   1.0096172      19.122225      180.26195    
    118000   1.0185361      18.966988      180.42865    
    119000   0.98695504     18.904861      180.50157    
    120000   1.0720347      19.429835      180.51717    
    121000   1.0511759      19.620395      180.37488    
    122000   0.98970741     18.793928      180.37614    
    123000   1.0091378      18.910898      180.09833    
    124000   1.0066979      19.233213      179.86394    
    125000   1.0046115      18.836905      179.94426    
    126000   0.97144959     19.270692      179.70216    
    127000   1.0053888      19.298191      179.74017    
    128000   0.96882816     18.978885      179.61399    
    129000   0.98228789     19.22266       179.45362    
    130000   1.0168741      18.83643       179.57758    
    131000   1.012797       18.800779      179.18318    
    132000   0.98263141     19.174746      178.97738    
    133000   1.0279889      19.325394      178.72812    
    134000   0.97917504     19.273571      178.85607    
    135000   1.023727       19.276542      178.59622    
    136000   0.99089063     19.065366      178.80959    
    137000   0.98484542     19.301082      178.55804    
    138000   0.95319026     19.151488      178.34444    
    139000   1.0259242      19.144838      178.12571    
    140000   1.0283301      19.196107      178.12954    
    141000   1.0048775      18.871522      177.92107    
    142000   0.97336628     18.922553      177.99353    
    143000   1.0164234      19.626914      177.70839    
    144000   0.99204514     19.681508      177.57758    
    145000   0.9755537      18.584048      177.27579    
    146000   0.99444908     18.540173      177.35226    
    147000   1.0257354      18.448752      177.30412    
    148000   1.0299407      19.297135      177.19969    
    149000   0.99481665     19.55807       177.19425    
    150000   1.0238699      19.186283      176.82579    
    151000   1.0221367      19.224047      176.6543     
    152000   0.99701781     18.611174      176.4939     
    153000   0.97400978     19.362782      176.29655    
    154000   1.0005626      19.093037      176.13087    
    155000   1.0007031      18.756607      176.11566    
    156000   0.96922858     19.181341      176.03597    
    157000   0.98953001     18.967238      175.96934    
    158000   0.96686361     19.379577      175.64535    
    159000   1.0096157      18.664166      175.34879    
    160000   1.005106       18.818681      175.183      
    161000   0.98611275     18.616243      175.00134    
    162000   0.98649208     18.55209       175.18455    
    163000   0.9889023      18.894149      175.08799    
    164000   1.0433937      19.000907      174.80567    
    165000   0.98500617     19.349755      174.51964    
    166000   1.0091697      18.367053      174.25961    
    167000   1.0211835      19.062248      174.33981    
    168000   1.0153631      19.063466      174.25251    
    169000   1.0250945      19.375427      174.26068    
    170000   1.0137771      19.434655      174.12119    
    171000   0.98139943     19.385446      173.69847    
    172000   0.99310338     18.62998       173.55019    
    173000   0.9712294      19.058687      173.38534    
    174000   1.019054       18.827261      173.47769    
    175000   1.0135558      18.563902      173.20135    
    176000   1.0295184      18.764712      173.09059    
    177000   0.99937296     19.352321      173.22182    
    178000   1.0060763      19.300218      173.01546    
    179000   0.94646735     18.914742      172.84283    
    180000   1.0108559      19.159786      172.79983    
    181000   0.99759049     19.649907      172.86567    
    182000   1.0411594      19.283943      172.55749    
    183000   1.0391657      19.23313       172.33798    
    184000   0.98878775     19.449256      172.11453    
    185000   0.99065724     18.666358      171.87815    
    186000   1.0510581      19.386048      171.64959    
    187000   1.0339765      18.862119      171.60429    
    188000   1.0285801      19.56287       171.37803    
    189000   1.0410258      19.317473      171.07134    
    190000   0.9920762      18.529132      171.20646    
    191000   0.99715271     18.629595      170.89917    
    192000   1.0326579      18.994196      170.54247    
    193000   0.98281831     19.002152      170.21926    
    194000   0.99923149     19.419332      170.0192     
    195000   1.0347884      19.082699      169.97645    
    196000   1.0200947      19.377907      170.11753    
    197000   1.011071       18.475029      169.90074    
    198000   0.99295427     19.119344      169.71863    
    199000   1.0226596      19.151503      169.61173    
    200000   0.97937216     18.846181      169.86444    
    201000   0.96468946     19.21548       169.69846    
    202000   1.0269889      18.819301      169.41106    
    203000   0.96570755     18.466296      169.22391    
    204000   0.95831091     19.511527      169.29905    
    205000   0.98026321     18.851031      168.84745    
    206000   0.94354043     18.559059      168.51765    
    207000   0.98408099     19.424131      168.38944    
    208000   0.98902312     18.278009      168.33051    
    209000   0.99111146     18.644923      168.04536    
    210000   1.0633929      19.271786      167.8206     
    211000   1.0271004      19.645447      167.55081    
    212000   1.012717       19.126172      167.52085    
    213000   1.0096087      19.217301      167.35321    
    214000   0.99424469     19.67448       167.40596    
    215000   1.0114315      18.756345      166.83555    
    216000   1.0033674      19.15          166.71758    
    217000   1.026788       19.0981        166.65647    
    218000   1.0103554      19.569855      166.22942    
    219000   1.0336898      19.166496      166.05509    
    220000   1.0452127      18.553537      165.79634    
    221000   1.0134878      19.1347        165.92953    
    222000   1.0002115      18.896738      165.99274    
    223000   1.0184176      19.466276      165.78835    
    224000   1.0045311      18.835702      165.41325    
    225000   0.99398248     18.681308      165.20518    
    226000   0.96991199     19.136267      165.13522    
    227000   1.0328686      19.493397      164.96241    
    228000   1.0036984      19.052192      164.75762    
    229000   0.98204213     18.860364      164.75354    
    230000   0.97206234     18.842922      164.76522    
    231000   1.0612016      19.385541      164.53286    
    232000   0.9859552      18.786092      164.16921    
    233000   1.0423057      19.730278      163.89082    
    234000   0.99775783     19.394684      163.88859    
    235000   0.98590401     19.176114      163.91805    
    236000   1.0973796      19.566851      163.79703    
    237000   0.98879876     19.076142      163.69177    
    238000   0.99909455     18.867349      163.35728    
    239000   0.99524931     19.170829      163.03956    
    240000   1.0265976      19.611768      162.9495     
    241000   0.97403403     19.149371      162.99667    
    242000   1.023126       19.121598      162.87624    
    243000   1.0296552      19.071423      162.83009    
    244000   1.0091036      18.943735      162.80774    
    245000   1.0067532      18.851492      162.99732    
    246000   1.0111468      19.462558      162.86153    
    247000   1.0055152      18.534046      162.93982    
    248000   0.97973782     18.744501      162.82749    
    249000   1.0160781      19.145958      162.56733    
    250000   0.9743073      18.953424      162.42429    
    251000   0.99194891     18.522006      162.46917    
    252000   1.083502       19.215839      162.42964    
    253000   0.98823333     18.579494      162.11048    
    254000   1.001647       18.546958      162.06897    
    255000   0.94060556     18.725903      161.85858    
    256000   1.0311007      18.803542      161.96763    
    257000   0.97652788     19.437467      162.20509    
    258000   1.0177543      18.830086      162.03294    
    259000   0.99169829     18.483331      161.70864    
    260000   1.0614045      19.089886      161.58674    
    261000   1.0122448      18.919533      161.42008    
    262000   1.0217169      18.798379      161.00165    
    263000   1.0029821      19.638899      160.98972    
    264000   1.0080674      18.910487      160.7617     
    265000   0.99161695     19.647929      160.55211    
    266000   1.0139007      18.953166      160.51398    
    267000   1.0422274      18.787583      160.50277    
    268000   0.9537852      19.343423      160.57568    
    269000   0.99963612     18.391944      160.21812    
    270000   1.0044359      19.327937      160.14163    
    271000   0.99252454     18.882458      160.07323    
    272000   0.96673833     19.213267      160.10289    
    273000   1.0071551      18.75318       159.6167     
    274000   1.0201829      18.907747      159.2537     
    275000   0.972025       18.774962      158.93211    
    276000   0.9940873      18.541141      158.86575    
    277000   1.0145335      18.774375      158.78398    
    278000   0.98611432     18.593026      158.75031    
    279000   0.98189366     19.547535      158.56873    
    280000   0.96218895     19.015483      158.58333    
    281000   0.94356106     19.074895      158.4113     
    282000   1.0140006      18.555151      158.26562    
    283000   1.0292017      18.72337       158.14429    
    284000   0.99199514     19.040714      158.03799    
    285000   1.007          18.7063        157.95391    
    286000   0.97544756     18.344856      157.85934    
    287000   0.97897948     18.181178      157.80348    
    288000   1.0582284      19.222758      157.55213    
    289000   1.0597986      19.435184      157.52853    
    290000   0.98238558     19.095981      157.2398     
    291000   0.99829982     19.289069      157.00609    
    292000   1.0299529      19.327347      156.60675    
    293000   1.0189084      18.925583      156.56101    
    294000   0.96566851     18.977981      156.5649     
    295000   0.97564009     18.558064      156.73893    
    296000   1.0086437      18.457371      156.60031    
    297000   1.0406052      19.224998      156.31307    
    298000   1.0004663      18.774722      155.99042    
    299000   1.0246668      19.04919       155.71584    
    300000   0.96971803     18.818144      155.57295    
    301000   1.0006735      18.713715      155.56725    
    302000   1.044711       19.211621      155.37682    
    303000   1.0327227      18.321894      155.4287     
    304000   1.0495232      19.333271      155.32964    
    305000   0.95158695     18.823647      155.11069    
    306000   1.002309       18.367163      155.17848    
    307000   1.0107713      19.211237      154.856      
    308000   0.96977933     18.839783      154.77542    
    309000   1.0495855      19.690869      154.43482    
    310000   0.99403008     18.577566      154.4717     
    311000   0.99490799     18.604765      154.50441    
    312000   1.0692268      19.297879      154.24926    
    313000   0.98659744     19.237278      154.10696    
    314000   0.98454045     19.27778       154.1601     
    315000   1.0056864      18.671055      153.96177    
    316000   0.98765067     19.211737      153.80197    
    317000   1.0041828      18.742187      153.73163    
    318000   0.99781069     19.332044      153.56176    
    319000   0.97398567     18.383292      153.51521    
    320000   1.0094458      19.142023      153.52706    
    321000   1.0181532      18.944109      153.32603    
    322000   0.98312722     18.413406      153.28702    
    323000   0.98033096     19.021137      152.97893    
    324000   1.0117019      19.333813      152.89685    
    325000   1.0227796      19.007291      152.76154    
    326000   1.026534       19.161107      152.44131    
    327000   1.0236488      18.655425      152.41655    
    328000   1.0040525      18.89453       152.32567    
    329000   0.99945083     19.171849      152.02903    
    330000   1.0360466      19.523608      151.65802    
    331000   0.97469584     18.397497      151.21741    
    332000   0.98853489     19.238188      150.89812    
    333000   1.0198622      19.045097      150.70056    
    334000   0.99558346     18.986574      150.75171    
    335000   0.96773921     19.118728      150.42256    
    336000   1.0278335      18.909426      150.32085    
    337000   1.020002       18.693624      150.23793    
    338000   0.99736648     19.450961      150.05371    
    339000   0.95009319     18.227962      149.9878     
    340000   0.98877277     18.625215      149.78828    
    341000   1.0125158      18.034881      149.64141    
    342000   1.0558213      19.184487      149.39192    
    343000   1.0501887      18.98524       149.44207    
    344000   0.99798068     19.388039      149.70045    
    345000   0.97828629     18.44616       149.60159    
    346000   0.99554989     18.785948      149.3976     
    347000   0.97998377     19.145175      149.36898    
    348000   1.0014735      19.340934      149.30084    
    349000   0.95590044     18.908862      149.17308    
    350000   1.0023886      18.807922      149.08502    
    351000   1.009317       19.100203      148.88963    
    352000   1.0247298      18.811287      148.90868    
    353000   0.9965472      19.071135      148.80415    
    354000   0.97132885     18.167287      148.89732    
    355000   0.97256742     19.137637      148.81767    
    356000   1.0340472      19.106073      148.78324    
    357000   1.0022701      19.01415       148.63591    
    358000   1.0368183      18.792841      148.35825    
    359000   1.0061329      18.565299      148.31319    
    360000   1.0241468      18.047689      148.26938    
    361000   1.0533454      18.662882      148.26827    
    362000   1.0074427      19.324671      148.15944    
    363000   1.0626531      18.201706      148.07162    
    364000   1.0328046      19.044131      147.92405    
    365000   0.96263563     18.765106      147.83219    
    366000   1.0555186      19.449622      147.47693    
    367000   0.93057862     18.304226      147.40627    
    368000   1.0000707      18.970845      147.12089    
    369000   0.97632867     18.939657      146.87634    
    370000   0.98310991     18.773157      147.12096    
    371000   1.0146639      18.299179      146.75276    
    372000   1.0390446      19.015563      146.79392    
    373000   1.0355323      19.16393       146.9181     
    374000   1.0041734      18.674828      146.95069    
    375000   1.0193212      19.371453      146.85566    
    376000   1.0142793      18.298757      146.74437    
    377000   1.0031447      18.5612        146.44556    
    378000   1.0375967      19.489586      146.31088    
    379000   0.99183041     18.331675      146.37732    
    380000   1.0657129      18.897581      146.5041     
    381000   1.0531673      18.695597      146.65311    
    382000   0.99280761     19.37383       146.74836    
    383000   1.0104236      18.627001      146.59818    
    384000   1.0014699      18.58097       146.41139    
    385000   1.0059662      19.275397      146.24287    
    386000   1.0221865      18.755856      146.08366    
    387000   0.99483423     18.734805      145.88774    
    388000   0.98225219     18.901193      145.68841    
    389000   0.96090752     18.548593      145.66151    
    390000   1.0391481      19.10057       145.52256    
    391000   1.0131065      18.824287      145.45646    
    392000   1.0369568      19.001024      145.37254    
    393000   1.0343261      19.014269      145.27534    
    394000   1.0278371      18.609096      145.19851    
    395000   1.0588347      18.767881      145.11621    
    396000   0.99338981     18.693731      144.95015    
    397000   1.033985       19.104819      144.83108    
    398000   1.0384917      19.519847      144.6551     
    399000   0.9747258      18.890948      144.67021    
    400000   1.0194151      18.3962        144.77686    
    401000   1.0647006      18.845756      144.60272    
    402000   0.96417598     18.922834      144.62763    
    403000   0.97538813     18.266755      144.53573    
    404000   1.0278495      18.933516      144.49452    
    405000   1.0334726      18.762311      144.35393    
    406000   0.97850667     18.8699        144.22013    
    407000   0.99472612     18.862655      143.91921    
    408000   1.0130118      18.461093      143.76755    
    409000   0.98929477     18.885798      143.70249    
    410000   0.95969742     18.783735      143.68563    
    411000   1.0051203      18.71314       143.7401     
    412000   1.0604994      18.736925      143.7578     
    413000   1.0610712      19.028785      143.7784     
    414000   0.97845365     18.870306      143.70763    
    415000   0.98832493     19.227354      143.61587    
    416000   0.9508683      19.293947      143.61762    
    417000   1.0540996      19.385402      143.50365    
    418000   0.96631565     19.121837      143.53463    
    419000   0.97800092     18.089408      143.08761    
    420000   1.0075021      18.59731       142.9178     
    421000   0.99743488     18.846044      142.84872    
    422000   1.0086012      18.604891      142.69389    
    423000   1.038619       18.782644      142.57269    
    424000   0.99905134     19.12136       142.55542    
    425000   1.0169381      19.170499      142.10596    
    426000   1.0301306      19.113244      141.97409    
    427000   1.0038623      18.614101      141.89689    
    428000   0.9980686      19.0176        141.61563    
    429000   1.0511843      19.354012      141.60862    
    430000   0.96495695     19.242512      141.98132    
    431000   0.99472322     19.033873      141.6106     
    432000   0.96480092     18.686165      141.34091    
    433000   1.0098681      19.125157      141.1584     
    434000   1.0193404      19.2234        141.1227     
    435000   0.95516506     18.743153      140.94558    
    436000   0.98009308     19.138529      140.83767    
    437000   0.99221106     18.765427      140.75404    
    438000   0.93368968     18.626003      140.55488    
    439000   0.97125951     18.713436      140.37217    
    440000   1.0327096      18.859836      140.14602    
    441000   1.0462305      18.95657       139.67603    
    442000   0.96942856     18.682205      139.36457    
    443000   1.0082343      18.998255      139.21868    
    444000   0.96627478     19.130868      139.11958    
    445000   0.96498038     19.166229      139.22421    
    446000   0.9896681      18.873841      139.22875    
    447000   1.0280991      19.149548      139.22977    
    448000   0.97812499     19.044156      139.34861    
    449000   0.98462251     19.709234      139.33545    
    450000   1.005355       18.662189      139.19021    
    451000   1.0008406      19.700728      139.08659    
    452000   0.99818943     18.363197      138.6937     
    453000   0.98033943     18.862597      138.51843    
    454000   0.99348081     19.000851      138.55379    
    455000   1.0095385      18.819887      138.0856     
    456000   0.99275543     19.037397      137.8552     
    457000   1.0301726      19.06338       137.81784    
    458000   1.0704214      19.217525      137.56193    
    459000   1.018934       19.343855      137.19862    
    460000   1.0323358      18.419165      137.08373    
    461000   1.0043273      19.377457      137.21551    
    462000   0.97557473     18.941078      137.25577    
    463000   0.97394141     18.518424      137.20367    
    464000   0.96398214     18.556827      136.98858    
    465000   1.0025517      18.649122      136.74035    
    466000   1.0083656      18.655817      136.72467    
    467000   1.0040425      18.931229      136.53137    
    468000   0.96753712     18.926007      136.34111    
    469000   1.0412857      18.633538      136.47902    
    470000   1.0180252      19.454737      136.48336    
    471000   0.95903108     18.537857      136.53932    
    472000   1.012003       19.148392      136.42113    
    473000   0.97581833     19.145435      136.44309    
    474000   1.0150906      18.255184      136.38156    
    475000   0.95990159     18.569482      136.41598    
    476000   0.99920036     18.762045      136.27555    
    477000   0.96968985     18.722281      136.21405    
    478000   0.98827827     18.761618      136.20534    
    479000   0.99564557     18.254036      136.14623    
    480000   1.0219836      19.330907      135.95968    
    481000   1.0159338      18.631174      135.9292     
    482000   0.98624565     18.930753      135.76204    
    483000   1.0068472      18.697337      135.65955    
    484000   0.96168672     18.672388      135.51796    
    485000   1.01082        18.706894      135.41757    
    486000   0.99027148     18.842324      135.22392    
    487000   1.0332229      18.643626      135.19039    
    488000   0.97433744     19.524521      135.04177    
    489000   0.99381674     18.630953      134.78147    
    490000   1.0338955      18.766138      134.71776    
    491000   1.0332917      18.936206      134.85341    
    492000   0.99140627     18.285644      134.85794    
    493000   0.96538824     18.315984      134.8074     
    494000   0.94882361     18.948037      134.60309    
    495000   1.0080178      18.79367       134.58116    
    496000   1.0350691      18.644096      134.68801    
    497000   0.99455633     18.576851      134.72825    
    498000   0.9875327      18.656426      134.71381    
    499000   1.0205944      18.966355      134.49845    
    500000   0.99809229     18.47287       134.14927    
    501000   0.92978381     18.644423      134.16454    
    502000   1.0029584      18.836409      133.96689    
    503000   1.0237869      18.794566      133.84721    
    504000   1.0102616      18.726131      133.69172    
    505000   0.96489041     19.331052      133.68954    
    506000   0.96129055     19.013591      133.54206    
    507000   1.0144114      18.168607      133.65966    
    508000   1.0011868      19.109089      133.59885    
    509000   1.0251334      18.318669      133.17547    
    510000   0.96684057     18.554912      133.15712    
    511000   1.0278352      18.964756      133.17338    
    512000   1.0067349      19.329094      133.06092    
    513000   0.96235927     18.661962      133.09293    
    514000   0.99370592     18.447302      133.31552    
    515000   0.99935186     19.557304      133.16999    
    516000   1.0039191      18.675863      132.89391    
    517000   0.95955237     18.987696      132.58652    
    518000   1.0382682      18.409519      132.23454    
    519000   0.95152791     19.248244      132.34065    
    520000   0.91897667     18.424701      132.37728    
    521000   1.0102112      18.92466       132.40771    
    522000   0.97460006     18.434335      132.36212    
    523000   0.98905888     18.465643      132.36078    
    524000   0.99535857     18.09364       132.21518    
    525000   0.98572268     18.726215      131.9345     
    526000   0.95873222     19.117564      131.63477    
    527000   1.0127694      18.601875      131.41853    
    528000   1.0141223      18.668519      131.23951    
    529000   1.0024459      18.91231       130.98998    
    530000   0.96367183     18.59036       130.99307    
    531000   1.0038723      18.436241      131.02558    
    532000   0.9748471      18.959152      130.53978    
    533000   0.94366308     19.011386      130.1452     
    534000   1.0004889      19.338454      130.26453    
    535000   1.073246       19.237848      130.21559    
    536000   1.0234369      18.62213       130.07917    
    537000   0.97278994     19.224566      129.88419    
    538000   1.0639953      18.564542      129.76979    
    539000   1.0345714      18.590141      129.71424    
    540000   1.0262516      19.034949      129.48448    
    541000   1.0288384      18.868424      129.28005    
    542000   1.045851       18.738849      129.67586    
    543000   0.96940316     18.555472      129.49986    
    544000   0.97604841     18.40753       129.50941    
    545000   1.0475964      17.906706      129.36223    
    546000   0.99937688     18.482085      129.16219    
    547000   1.0446875      18.808917      128.97553    
    548000   1.0488048      18.56162       128.71192    
    549000   0.95916689     18.614419      128.41868    
    550000   1.0016643      18.724587      128.38147    
    551000   0.98945156     19.000742      128.26902    
    552000   1.0097586      18.741702      127.81213    
    553000   0.9897484      18.570097      127.58065    
    554000   0.99916587     18.390835      127.44509    
    555000   0.97301568     18.099869      127.57073    
    556000   0.97287146     18.528079      127.36238    
    557000   0.99670491     19.205398      127.50594    
    558000   0.99433527     18.365302      127.5488     
    559000   0.99133695     18.430434      127.43382    
    560000   0.96741947     18.549214      127.24206    
    561000   1.0009921      18.917682      127.10489    
    562000   0.98530644     19.154813      126.92817    
    563000   1.0065707      18.976416      126.80329    
    564000   1.0095968      19.017011      126.86804    
    565000   1.0173403      18.730409      126.67547    
    566000   0.99167488     18.932905      126.74003    
    567000   1.0086274      18.633928      126.946      
    568000   0.95707729     18.641964      126.69234    
    569000   0.98468231     18.887195      126.57925    
    570000   1.0065943      19.226308      126.37585    
    571000   1.017178       18.322898      126.37677    
    572000   0.98830793     18.840277      126.51884    
    573000   0.9905399      18.839865      126.79153    
    574000   1.0086136      18.982984      126.74868    
    575000   0.98268363     18.636212      126.81375    
    576000   1.0104647      18.585438      126.57164    
    577000   0.98745238     18.624525      126.38879    
    578000   0.97291989     18.62851       126.03445    
    579000   0.97234214     18.332151      125.93362    
    580000   0.99465041     18.233993      125.88068    
    581000   1.0167235      19.223077      125.69586    
    582000   0.95779894     18.560007      125.80931    
    583000   1.004857       18.529389      125.66711    
    584000   0.96993997     18.689734      125.67357    
    585000   1.011579       18.789084      125.51991    
    586000   1.0630616      18.864204      125.20787    
    587000   1.0288596      18.22978       125.0836     
    588000   1.0134862      18.444633      125.14357    
    589000   1.0185084      18.464094      124.95983    
    590000   0.98714178     18.590239      124.73249    
    591000   1.0486211      19.006972      124.74147    
    592000   0.99573999     18.311766      124.56268    
    593000   0.98829931     18.33516       124.55312    
    594000   0.97520983     18.882236      124.52226    
    595000   0.95100282     19.099971      124.31981    
    596000   1.0038478      18.241526      124.43358    
    597000   1.0227431      19.245262      124.40081    
    598000   1.0111907      18.37496       124.11473    
    599000   1.0100589      18.318012      123.92508    
    600000   1.0006315      18.783384      123.86453    
    601000   1.034667       18.817546      123.71493    
    602000   1.003864       18.868829      123.54892    
    603000   1.021535       19.155084      123.51153    
    604000   0.96156157     18.370001      123.39159    
    605000   1.0292669      19.171948      123.22105    
    606000   1.032065       18.911362      123.22026    
    607000   1.0395278      18.673454      123.2595     
    608000   1.0104897      19.117369      123.05127    
    609000   1.0224795      19.105574      122.96882    
    610000   1.0482039      18.98802       123.1316     
    611000   1.0323085      18.820792      122.87788    
    612000   0.95807789     18.418378      122.99212    
    613000   0.9954898      18.459034      122.93558    
    614000   1.0221377      18.624012      122.73545    
    615000   0.98229589     18.773827      122.54741    
    616000   1.0172316      18.562659      122.5385     
    617000   0.96915528     18.188782      122.54819    
    618000   0.97868508     18.92098       122.5334     
    619000   0.99980152     18.691987      122.64505    
    620000   1.0279885      18.906468      122.54216    
    621000   0.96622589     18.188445      122.55118    
    622000   0.98891422     18.930205      122.70659    
    623000   1.0582475      18.37324       122.47168    
    624000   1.033875       18.291788      122.49557    
    625000   0.98341921     18.869019      122.36691    
    626000   0.98859046     18.58995       122.55084    
    627000   0.97954908     18.514989      122.46138    
    628000   1.0087314      18.908294      122.28941    
    629000   0.98074525     18.393518      122.23145    
    630000   1.0317567      18.655136      122.20263    
    631000   1.0266157      19.221186      121.9554     
    632000   0.98952875     18.515996      121.8523     
    633000   1.0423415      18.494044      121.79652    
    634000   0.99586206     18.27876       121.63291    
    635000   1.000309       18.643065      121.45298    
    636000   0.97322643     18.554348      121.26863    
    637000   0.98786478     18.41861       121.33549    
    638000   1.0758452      19.12645       121.50453    
    639000   1.0448253      18.485673      121.37956    
    640000   0.9973098      17.914044      121.35461    
    641000   0.99362403     18.088659      121.28467    
    642000   0.99364504     18.425446      121.0752     
    643000   0.98856428     18.682728      120.88778    
    644000   1.0341961      18.62617       120.29943    
    645000   1.0641588      18.732282      120.06468    
    646000   1.0086869      18.596993      120.16532    
    647000   0.9723345      18.387568      120.22471    
    648000   0.95189947     18.132385      120.38247    
    649000   1.0272956      18.930458      120.31202    
    650000   0.96360717     18.390131      119.86227    
    651000   0.98823726     18.407405      120.02871    
    652000   0.95451221     18.446504      119.74042    
    653000   0.96501214     18.017415      119.55218    
    654000   0.96529203     18.185181      119.67296    
    655000   1.0242976      18.692953      119.36166    
    656000   1.0323422      18.26803       119.39746    
    657000   1.0024153      19.200654      119.4359     
    658000   0.95807751     18.45415       119.28776    
    659000   1.0003176      17.930759      118.8549     
    660000   0.98048344     18.535152      118.74119    
    661000   1.0272232      18.151588      118.69577    
    662000   0.97073375     18.953518      118.45139    
    663000   0.97434289     18.227762      118.61048    
    664000   0.99079052     18.338264      118.60446    
    665000   1.0487592      18.69446       118.4682     
    666000   0.95377436     18.131882      118.57316    
    667000   1.0088089      18.019474      118.51988    
    668000   0.99240503     17.949271      118.37274    
    669000   0.98298719     18.085759      118.02851    
    670000   0.9697985      18.877051      117.67397    
    671000   1.0101918      18.108437      117.70752    
    672000   0.98816189     18.501585      117.67648    
    673000   0.9951446      18.024386      117.62091    
    674000   1.0153051      18.121579      117.83629    
    675000   1.007271       17.936261      117.89893    
    676000   0.97727343     18.271786      117.83854    
    677000   1.0428216      18.342013      117.77636    
    678000   0.99567972     18.515211      117.84158    
    679000   0.98753538     18.236898      117.82417    
    680000   0.98144714     18.247925      117.51614    
    681000   1.0021357      18.249966      117.61745    
    682000   1.0068732      18.830805      117.46808    
    683000   1.0526753      18.76126       117.5716     
    684000   0.98000579     17.801406      117.3875     
    685000   0.99955346     18.823734      117.22436    
    686000   0.96947598     18.187935      116.8935     
    687000   1.0574514      18.211276      116.97753    
    688000   1.0539556      18.993973      116.73335    
    689000   0.9791973      17.867504      116.77908    
    690000   1.0100822      18.582554      116.38675    
    691000   0.97261775     18.34165       116.24562    
    692000   0.98565386     18.469143      116.40396    
    693000   0.97597608     18.055606      116.28735    
    694000   0.99143127     18.575209      116.06713    
    695000   1.007112       18.112277      116.26445    
    696000   1.0177096      19.195536      115.923      
    697000   1.0086325      17.988085      115.82624    
    698000   0.96267767     18.218959      115.79057    
    699000   0.99029811     18.00172       115.5342     
    700000   0.95145445     18.184045      115.54275    
    701000   0.99108339     18.725707      115.36688    
    702000   0.99255167     18.401552      114.81919    
    703000   1.0169283      18.453977      114.80541    
    704000   0.97108476     18.816503      114.60189    
    705000   0.98064513     18.116426      114.51464    
    706000   0.99905871     18.156912      114.53378    
    707000   1.0244835      18.477207      114.48429    
    708000   0.98588741     18.986714      114.43022    
    709000   1.0187229      18.597782      114.44848    
    710000   1.0177886      18.399754      114.35591    
    711000   1.018771       18.381747      114.49515    
    712000   0.96816992     18.433872      114.32641    
    713000   0.9649637      18.62123       114.20082    
    714000   0.96114961     18.962327      114.12714    
    715000   1.0047417      17.823251      113.98275    
    716000   0.96446391     18.412765      113.93098    
    717000   0.98409132     17.838874      113.88496    
    718000   0.9916472      17.784503      113.48797    
    719000   0.9700131      18.100592      113.28084    
    720000   1.0048076      18.814311      113.15569    
    721000   0.97130024     18.49205       113.17338    
    722000   0.98758571     18.39455       113.36292    
    723000   0.9810745      18.20958       113.13723    
    724000   0.97459372     18.434356      113.23331    
    725000   1.0528725      18.798485      113.119      
    726000   1.0264466      18.810726      113.1434     
    727000   1.0138195      18.821277      113.04206    
    728000   1.029144       18.308101      112.97129    
    729000   1.0361777      18.07988       112.76075    
    730000   1.0310052      18.415901      113.02833    
    731000   1.0199318      18.264753      112.8805     
    732000   1.0113442      18.133735      112.75281    
    733000   0.93459536     18.485226      112.61596    
    734000   0.96689996     18.457755      112.52443    
    735000   0.95614363     18.035351      112.41385    
    736000   1.0173139      18.185541      112.30008    
    737000   1.0063445      18.635492      112.2959     
    738000   0.95931061     18.249706      112.31862    
    739000   1.002141       18.548708      112.17357    
    740000   0.98795966     18.593831      112.14303    
    741000   1.0114771      18.637972      112.10933    
    742000   0.98670715     18.351304      112.36268    
    743000   1.0179144      18.107536      112.16789    
    744000   0.98531173     18.048425      112.28959    
    745000   1.0486727      18.422327      112.30189    
    746000   0.99138285     18.338729      112.28446    
    747000   0.9886722      18.663069      112.20041    
    748000   0.96309206     18.32158       111.93398    
    749000   1.0210648      18.400592      111.79434    
    750000   0.97030939     18.652844      111.75581    
    751000   1.0055747      18.369381      111.61919    
    752000   1.0330211      18.907135      111.58891    
    753000   0.97271527     18.055818      111.52216    
    754000   0.97457237     18.230787      111.29518    
    755000   0.97414105     18.657071      111.085      
    756000   0.98502643     17.759767      110.93192    
    757000   1.0646115      18.475074      110.85607    
    758000   1.031361       18.647416      110.83592    
    759000   1.0252361      19.126587      110.64992    
    760000   1.0365481      18.798319      110.44122    
    761000   1.0155565      18.752402      110.34783    
    762000   0.97773634     18.6306        110.29941    
    763000   1.0267501      18.412664      110.17468    
    764000   1.0079909      18.148368      110.158      
    765000   0.97452463     18.765043      110.02895    
    766000   1.0572437      17.994211      110.17299    
    767000   1.0337298      18.379412      110.15981    
    768000   1.011164       18.035694      109.96705    
    769000   0.97342259     17.925583      109.91984    
    770000   0.99992659     17.833069      109.71892    
    771000   1.0430017      17.960169      109.73438    
    772000   1.0197619      19.118523      109.59222    
    773000   1.0407065      18.138499      109.77694    
    774000   1.0066068      18.388064      109.75191    
    775000   1.0009613      18.728141      109.61366    
    776000   1.0270565      18.464657      109.57311    
    777000   1.0345846      18.821454      109.35801    
    778000   1.0189732      18.143407      109.41389    
    779000   1.0047759      18.229138      109.49883    
    780000   1.0602946      18.143892      109.55628    
    781000   1.0210394      18.75841       109.4527     
    782000   1.0090324      18.509926      109.58796    
    783000   1.0385269      18.357703      109.16116    
    784000   1.007394       18.478171      108.9998     
    785000   1.0152463      18.017115      108.99376    
    786000   0.9977123      18.109868      108.89424    
    787000   0.98726602     18.409399      108.68445    
    788000   0.96810046     18.025746      108.46749    
    789000   0.97059466     18.164086      108.50528    
    790000   0.98749039     18.150155      108.51097    
    791000   0.99974973     18.556779      108.23523    
    792000   1.0913086      18.992339      108.3503     
    793000   0.99673669     18.499403      108.22269    
    794000   1.036152       18.674962      108.16088    
    795000   1.0345761      18.453901      107.93705    
    796000   0.96854776     18.222736      108.10068    
    797000   1.0066666      18.184566      107.77869    
    798000   1.0011204      18.667433      107.84866    
    799000   1.0017913      18.61926       107.9059     
    800000   1.0429185      18.617301      107.73649    
    801000   1.0290463      18.59906       107.55238    
    802000   0.95444965     17.942988      107.58145    
    803000   0.90572851     17.430358      107.50204    
    804000   0.98289259     18.431049      107.32667    
    805000   0.95799539     18.35376       107.4887     
    806000   1.0633648      18.980675      107.57817    
    807000   1.0058779      18.635632      107.51341    
    808000   1.000255       18.82286       107.37149    
    809000   0.99417533     18.083736      107.36809    
    810000   1.0263162      18.431448      107.03874    
    811000   1.0156163      18.186393      107.07996    
    812000   0.95041599     18.070828      106.98174    
    813000   0.97301452     18.49431       106.64292    
    814000   1.0004578      18.632441      106.42943    
    815000   1.0042557      18.126331      106.41121    
    816000   1.0138147      18.065286      106.18688    
    817000   0.99110824     18.117684      106.0503     
    818000   1.0157707      18.72543       106.06779    
    819000   1.0054222      18.103525      105.75531    
    820000   1.0268573      17.791349      105.75885    
    821000   1.0309142      18.599571      105.7622     
    822000   1.033224       18.730136      105.82372    
    823000   1.0232316      18.22694       106.05771    
    824000   1.0092169      18.037422      105.76437    
    825000   1.0013572      18.457332      105.87477    
    826000   0.96855919     18.533307      105.89969    
    827000   1.0426779      18.304516      105.73448    
    828000   0.98295667     18.606043      105.44585    
    829000   1.0475899      18.626988      105.53169    
    830000   0.98817667     18.297395      105.80459    
    831000   0.98785662     18.304692      105.84994    
    832000   1.0219826      18.888514      105.68148    
    833000   0.98730864     18.704132      105.56365    
    834000   1.0024407      18.118546      105.4643     
    835000   1.0140222      17.988897      105.31389    
    836000   0.97505471     18.024842      105.1707     
    837000   1.0122291      18.304624      105.08733    
    838000   0.98222022     18.747441      104.90234    
    839000   1.0435448      18.563248      104.83396    
    840000   1.0087942      17.942272      104.89209    
    841000   1.0325121      18.027302      104.90111    
    842000   1.0629056      18.331093      104.8046     
    843000   1.0349211      18.771546      104.54041    
    844000   0.98998983     17.805562      104.21914    
    845000   1.0190257      18.215854      104.05801    
    846000   1.0307575      18.571791      104.09488    
    847000   0.95786491     18.026291      104.05534    
    848000   0.99704256     18.696643      103.82994    
    849000   1.0089965      18.370366      103.68273    
    850000   0.97286192     18.277623      103.83697    
    851000   0.97608461     18.461237      103.74475    
    852000   1.0259129      18.589255      103.54906    
    853000   1.0077052      18.196673      103.38171    
    854000   1.0434822      17.271824      103.0795     
    855000   0.99187156     18.043412      103.09686    
    856000   1.0085614      17.859449      103.15193    
    857000   0.98653584     17.924656      103.54161    
    858000   1.0364622      17.96364       103.79722    
    859000   1.0357665      18.668127      103.58043    
    860000   1.0264986      18.169337      103.53149    
    861000   0.94525788     18.352292      103.42083    
    862000   1.0168443      18.289887      103.22203    
    863000   0.99186262     17.694735      103.03946    
    864000   1.028593       18.353794      102.7605     
    865000   1.0038112      18.964496      102.60474    
    866000   0.98115157     18.172384      102.44801    
    867000   1.0379766      18.254768      102.27422    
    868000   1.0037622      18.641498      102.26818    
    869000   0.9756016      18.075342      102.45902    
    870000   0.97832519     18.697145      102.37227    
    871000   1.0072314      18.421963      102.3005     
    872000   0.9561542      18.275927      102.11733    
    873000   1.0647582      18.400029      101.86428    
    874000   1.0199799      19.023973      102.03487    
    875000   0.96373343     18.228771      101.94519    
    876000   0.98171216     18.90738       101.78327    
    877000   0.99826796     18.182395      101.48558    
    878000   1.0196447      18.076483      101.62321    
    879000   1.0364398      18.352657      101.73571    
    880000   1.02723        18.938055      101.76699    
    881000   0.9851978      17.861522      101.47165    
    882000   1.0019278      18.638731      101.3097     
    883000   0.97443905     18.365034      101.30841    
    884000   0.9935001      18.784997      101.11141    
    885000   1.0038475      17.845489      101.08095    
    886000   0.97570531     18.405         101.07121    
    887000   1.0211955      18.389315      100.83038    
    888000   1.0636988      18.515385      100.6587     
    889000   0.95701868     18.583285      100.69296    
    890000   0.98444788     17.975763      100.60949    
    891000   0.97706948     18.185008      100.61099    
    892000   0.9805137      18.378665      100.44485    
    893000   1.0047617      18.478981      100.63488    
    894000   1.0711251      18.398429      100.37082    
    895000   1.020979       18.416168      100.05417    
    896000   1.0039545      18.021218      99.80473     
    897000   0.96247095     18.311579      99.620967    
    898000   0.9939027      18.006239      99.525365    
    899000   1.0013639      18.347207      99.655618    
    900000   0.9810872      18.265498      99.510686    
    901000   1.0573179      19.005626      99.213506    
    902000   1.0421569      18.079758      99.330365    
    903000   1.0078555      18.324143      99.265847    
    904000   1.0070535      18.124901      99.019139    
    905000   1.0577469      18.138234      99.061029    
    906000   1.0058001      18.270121      99.022942    
    907000   1.0337731      18.491643      99.089289    
    908000   0.9613532      18.246556      98.933008    
    909000   1.0046911      18.852446      98.674629    
    910000   0.97193776     18.030663      98.664333    
    911000   0.97117773     18.561537      98.717415    
    912000   0.99811129     18.269298      98.621149    
    913000   1.0123341      18.081664      98.672511    
    914000   1.0291943      19.135712      98.439609    
    915000   1.0028725      18.240603      98.27317     
    916000   0.99628246     17.868043      98.070077    
    917000   0.98283026     18.022269      97.836675    
    918000   1.0159557      17.561763      97.711323    
    919000   0.99484147     17.868864      97.691797    
    920000   0.94793593     17.286549      97.660283    
    921000   1.0095094      18.227718      97.671576    
    922000   1.0274368      18.497944      97.571363    
    923000   0.99720936     17.921324      97.417448    
    924000   1.0396744      18.035301      97.578241    
    925000   1.0743348      18.76386       97.606233    
    926000   1.0920201      18.469412      97.563018    
    927000   1.0053248      18.180851      97.516172    
    928000   1.0337201      18.59497       97.350921    
    929000   1.0431179      18.815075      97.314912    
    930000   0.96412345     18.275323      97.13777     
    931000   0.9961626      18.248416      96.824107    
    932000   1.0310778      18.297746      96.939757    
    933000   0.99510175     18.528493      96.968882    
    934000   0.9924737      18.052578      97.046908    
    935000   0.98750212     18.273185      96.868686    
    936000   0.97860229     18.068481      96.766831    
    937000   0.98911581     18.182099      96.775965    
    938000   1.0001857      18.175509      96.616329    
    939000   1.029419       18.382249      96.582785    
    940000   1.021831       18.409817      96.327277    
    941000   0.9818769      18.212986      96.30181     
    942000   0.99405921     18.285246      96.146767    
    943000   1.0218289      18.191569      95.944295    
    944000   0.95362848     18.223056      95.80733     
    945000   1.0032216      17.84531       95.868813    
    946000   1.0325791      18.903056      95.720784    
    947000   1.0291413      17.839194      95.65105     
    948000   0.93489308     18.366484      95.326056    
    949000   0.97707052     17.879023      95.355842    
    950000   1.0029408      18.549013      95.23898     
    951000   1.0306882      18.097864      94.973628    
    952000   1.0133644      17.81947       95.060147    
    953000   0.99690234     17.837334      95.139933    
    954000   0.99943401     17.865336      94.973332    
    955000   1.0596216      18.027917      94.679042    
    956000   1.0192019      17.946634      94.845425    
    957000   0.98301168     17.971647      94.962613    
    958000   1.0359661      18.377261      94.610215    
    959000   0.9969478      18.245131      94.715363    
    960000   1.0080094      18.19167       94.666281    
    961000   1.0333745      17.518492      94.447399    
    962000   1.0088462      17.250509      94.322876    
    963000   1.024935       18.058251      94.225717    
    964000   1.0314468      18.58421       94.207679    
    965000   0.97375198     17.563128      93.888003    
    966000   1.03149        18.009339      93.598284    
    967000   0.98353421     18.051007      93.345283    
    968000   1.0211841      18.383827      93.010035    
    969000   0.96066162     17.813488      92.886127    
    970000   0.96584979     17.967749      92.882014    
    971000   0.9858366      18.420873      92.703234    
    972000   0.99750659     17.537518      92.640005    
    973000   1.0515428      18.301117      92.683038    
    974000   1.0336042      18.076268      92.3097      
    975000   1.0323309      18.489844      92.162697    
    976000   0.99995586     19.223426      92.067889    
    977000   0.99893484     17.850574      91.82407     
    978000   0.98023479     17.8217        91.723979    
    979000   0.97224076     17.820668      91.714691    
    980000   0.94672057     18.019257      91.421258    
    981000   0.98764398     18.350766      91.18826     
    982000   1.048703       18.367045      91.456151    
    983000   0.99563725     18.141004      91.356025    
    984000   1.0055774      18.367037      91.530163    
    985000   0.99013793     17.927005      91.540159    
    986000   0.94571247     18.099047      91.475787    
    987000   0.98586678     18.016793      91.651762    
    988000   0.97547504     18.059777      91.599117    
    989000   1.0057075      17.454878      91.61941     
    990000   1.0045119      17.49891       91.697022    
    991000   1.0424788      18.195698      91.744652    
    992000   1.0350088      18.028443      91.745978    
    993000   0.97969832     17.589057      91.493039    
    994000   1.0130895      17.950587      91.411512    
    995000   0.99670805     18.77672       91.384971    
    996000   1.0139363      18.783238      90.953825    
    997000   1.0255386      17.978969      90.903327    
    998000   1.0187032      18.194408      90.846354    
    999000   1.0385923      18.055954      90.85887     
   1000000   0.98297297     17.747119      90.667654    
   1001000   0.99788533     18.578533      90.300095    
   1002000   0.99352635     18.052773      90.368978    
   1003000   0.98448274     18.031208      90.444992    
   1004000   1.0077188      18.678553      90.198709    
   1005000   0.97944566     17.699215      90.132912    
   1006000   1.0124704      18.326511      90.35861     
   1007000   0.93760711     18.465559      90.443035    
   1008000   0.98911503     18.450528      90.403654    
   1009000   1.0183729      18.01753       90.414403    
   1010000   1.0171054      18.174561      90.395       
   1011000   0.9856617      18.203277      90.402833    
   1012000   0.98604851     18.023628      90.486002    
   1013000   1.0020609      17.712181      90.28128     
   1014000   0.98665644     18.287464      90.176382    
   1015000   0.94954851     17.910442      90.373257    
   1016000   1.0167825      18.081722      90.299682    
   1017000   0.95906069     17.282389      90.187255    
   1018000   1.0272965      18.292677      90.107179    
   1019000   0.93667699     17.443977      89.86422     
   1020000   1.0110886      17.892764      89.85116     
   1021000   0.99453791     18.586995      89.636402    
   1022000   0.99932226     17.738253      89.310539    
   1023000   1.0327958      18.112952      89.121056    
   1024000   1.0174141      18.408356      89.034703    
   1025000   0.9758307      17.762606      89.06394     
   1026000   0.98931107     18.019302      88.827401    
   1027000   1.0221888      18.383844      88.639592    
   1028000   1.0142086      18.335989      88.636033    
   1029000   0.98718525     17.99478       88.50304     
   1030000   0.95617296     17.543154      88.15104     
   1031000   1.0359979      18.234762      87.907054    
   1032000   1.052575       17.738821      87.96394     
   1033000   1.0369116      18.12398       87.758223    
   1034000   1.0400925      17.382089      87.983261    
   1035000   0.98806723     17.504183      88.011303    
   1036000   1.0158496      18.086954      88.177985    
   1037000   1.0082843      18.129449      88.107584    
   1038000   1.0018938      18.104051      87.91748     
   1039000   1.0432358      17.767214      88.039375    
   1040000   0.98598358     18.276838      87.860892    
   1041000   1.0366195      18.31023       87.861307    
   1042000   0.9942095      17.585832      87.735872    
   1043000   1.0136378      18.412344      87.47318     
   1044000   0.94501797     18.166347      87.240067    
   1045000   0.96095634     18.194926      87.157252    
   1046000   0.95410802     18.072807      87.179747    
   1047000   0.98741338     17.3353        86.88361     
   1048000   1.0101699      17.895267      86.814992    
   1049000   0.92237006     17.848117      86.696626    
   1050000   1.0200858      17.801417      86.617534    
   1051000   0.99891353     18.167202      86.551518    
   1052000   0.99581384     18.370657      86.356379    
   1053000   1.000145       18.436844      86.294867    
   1054000   1.0069229      18.964096      86.275209    
   1055000   1.0164568      17.18487       86.193452    
   1056000   1.02784        18.395129      86.244377    
   1057000   1.0149264      18.010703      86.155403    
   1058000   0.99650813     18.054264      86.280305    
   1059000   0.98921808     18.025712      86.266903    
   1060000   0.99671189     18.067568      86.104212    
   1061000   1.0238365      18.525852      85.802343    
   1062000   1.0500255      17.822731      85.665486    
   1063000   0.99802653     17.893405      85.657667    
   1064000   0.95705917     18.184293      85.538085    
   1065000   1.0153007      18.520448      85.474045    
   1066000   1.0073635      17.884041      85.334105    
   1067000   1.0056176      18.088648      85.266118    
   1068000   0.97583362     18.485485      85.119934    
   1069000   0.98296267     17.499076      84.989814    
   1070000   0.98826358     17.677976      84.967121    
   1071000   1.0305517      17.651716      84.615383    
   1072000   0.99929864     17.413973      84.472061    
   1073000   0.96148346     18.311002      84.202653    
   1074000   1.0042389      18.123174      84.015496    
   1075000   1.0770045      18.346199      84.128899    
   1076000   1.0060315      17.806494      84.324533    
   1077000   0.98545421     17.984725      84.094227    
   1078000   1.0479675      18.313044      84.078143    
   1079000   0.96410706     17.65392       83.985582    
   1080000   1.0054079      18.676324      84.011407    
   1081000   0.99765189     17.963893      84.00891     
   1082000   1.01182        18.104682      83.928736    
   1083000   1.0572807      17.500828      83.77908     
   1084000   0.98609121     17.788354      83.680124    
   1085000   1.0280952      17.831639      83.557643    
   1086000   0.97535493     17.914276      83.580657    
   1087000   1.0402034      18.145329      83.534483    
   1088000   1.0124958      18.137433      83.466239    
   1089000   1.0127771      18.021837      83.509338    
   1090000   1.002427       18.287834      83.281495    
   1091000   1.0809774      17.510641      83.29433     
   1092000   0.99395086     17.686341      83.444157    
   1093000   1.0224859      18.192107      83.610626    
   1094000   0.94262645     18.00795       83.421533    
   1095000   1.0494603      18.173204      83.358729    
   1096000   0.99474152     17.663804      83.163768    
   1097000   1.0133927      18.558686      82.728998    
   1098000   1.051599       17.809986      82.776492    
   1099000   1.0027143      17.874979      82.947776    
   1100000   1.0554007      18.168907      82.876091    
   1101000   0.99467512     18.131792      82.658423    
   1102000   1.0252161      17.636719      82.632113    
   1103000   0.9860181      18.796226      82.508627    
   1104000   0.9854341      18.122113      82.531624    
   1105000   0.99496161     17.899753      82.347678    
   1106000   0.99502789     18.381998      81.826369    
   1107000   0.99217602     17.671765      81.879925    
   1108000   0.98106262     17.973451      81.936286    
   1109000   1.0026656      18.801556      81.975478    
   1110000   0.95903543     17.868085      81.867869    
   1111000   1.0028316      18.612394      81.713942    
   1112000   1.006755       18.468324      81.487971    
   1113000   1.0584104      18.030067      81.435291    
   1114000   0.98391012     17.947352      81.359646    
   1115000   0.9735104      17.691928      81.374506    
   1116000   1.0155155      18.127758      81.224154    
   1117000   1.0168894      17.789137      80.973856    
   1118000   0.96714219     18.134825      80.892999    
   1119000   1.0006339      17.848664      80.653515    
   1120000   1.0275119      17.725113      80.468033    
   1121000   0.98634021     17.734143      80.541257    
   1122000   1.0490778      18.145448      80.739751    
   1123000   1.0082779      17.683874      80.446387    
   1124000   1.0007927      18.62473       80.289065    
   1125000   0.95831514     17.82337       80.235839    
   1126000   1.0543575      17.917492      80.074401    
   1127000   1.0177885      18.186244      79.817973    
   1128000   0.96567867     18.075411      79.489523    
   1129000   1.0183535      17.945036      79.52251     
   1130000   1.0687871      18.259173      79.22408     
   1131000   1.0191337      17.619103      79.094437    
   1132000   1.0248907      17.84614       79.252801    
   1133000   0.99068749     18.028452      79.017574    
   1134000   1.0187076      18.153646      78.603532    
   1135000   0.96713581     17.956893      78.666496    
   1136000   0.97263667     17.384519      78.839758    
   1137000   0.97452563     18.194641      78.735762    
   1138000   1.0465146      18.031606      78.58519     
   1139000   1.0125374      18.65861       78.557872    
   1140000   0.97206178     17.8921        78.435808    
   1141000   1.0144382      18.278505      78.274993    
   1142000   0.9839734      17.978979      78.140975    
   1143000   0.99009851     17.788402      78.300712    
   1144000   0.96559491     17.492561      78.238699    
   1145000   0.98816268     18.520059      78.325733    
   1146000   1.0089053      18.116108      78.227142    
   1147000   0.97659041     17.655658      78.171577    
   1148000   0.9506554      18.122085      77.899674    
   1149000   0.98136097     17.600107      77.818476    
   1150000   1.0669426      18.239279      77.445365    
   1151000   0.99854001     17.953782      77.331752    
   1152000   0.9834675      18.495904      77.185       
   1153000   1.065192       18.824045      77.283281    
   1154000   0.97036537     17.480145      77.192255    
   1155000   1.0496824      18.389766      77.296082    
   1156000   1.0113783      17.178586      76.972029    
   1157000   1.0335155      18.16472       76.752022    
   1158000   0.95773256     17.982079      76.706859    
   1159000   0.97871478     17.431394      76.673652    
   1160000   1.0351757      17.963552      76.632169    
   1161000   0.98161634     17.459296      76.604651    
   1162000   0.98473543     17.14392       76.477454    
   1163000   1.0374099      18.418124      76.159169    
   1164000   1.0272016      17.946375      75.903515    
   1165000   1.0389533      17.56504       75.808578    
   1166000   1.0129089      17.96351       75.894303    
   1167000   1.0001389      18.318774      76.153301    
   1168000   0.95537447     17.676287      76.188962    
   1169000   1.0539718      18.101167      75.985279    
   1170000   0.99583053     17.955662      75.962362    
   1171000   1.0038487      18.260111      75.772167    
   1172000   1.0822866      18.154314      75.405217    
   1173000   1.0253279      17.794511      75.539685    
   1174000   0.94940257     18.488701      75.125302    
   1175000   1.0213696      17.914675      74.866682    
   1176000   1.0245472      17.615952      74.924448    
   1177000   0.96648771     17.046399      74.902077    
   1178000   0.99868422     17.687121      75.062156    
   1179000   0.99910242     17.826608      75.215626    
   1180000   1.0371402      17.578129      75.18399     
   1181000   0.97880738     17.657845      75.139046    
   1182000   1.020258       17.676381      74.971805    
   1183000   1.0014873      17.306026      74.836673    
   1184000   1.0234303      18.077316      74.821669    
   1185000   0.95925817     17.727315      74.90505     
   1186000   1.025367       18.033078      74.866182    
   1187000   0.96072281     17.914211      74.743719    
   1188000   1.0103521      17.711287      74.562541    
   1189000   1.0341984      18.287076      74.549133    
   1190000   0.96480592     17.418826      74.592806    
   1191000   0.95658667     17.849024      74.406514    
   1192000   1.0158853      18.07201       74.199462    
   1193000   0.97154295     17.498058      74.37109     
   1194000   1.050885       18.519965      73.992712    
   1195000   1.0136921      17.486469      73.823946    
   1196000   1.0188961      18.231672      73.745054    
   1197000   1.0160719      18.369889      73.992958    
   1198000   0.99817928     17.435483      74.17492     
   1199000   0.9793937      17.846917      74.339812    
   1200000   1.0307372      17.978391      74.388675    
   1201000   1.0626627      17.863058      74.295288    
   1202000   1.0659302      17.872058      74.483929    
   1203000   1.0345145      17.938717      74.70344     
   1204000   1.0390566      17.974355      74.592364    
   1205000   1.0306861      17.529922      74.485053    
   1206000   0.98918484     17.721307      74.237548    
   1207000   1.0085643      17.208046      74.355982    
   1208000   1.0337643      17.905453      74.001074    
   1209000   0.99395492     17.894099      73.94315     
   1210000   0.96093554     16.938686      74.103312    
   1211000   0.97782133     17.501161      74.208771    
   1212000   0.97152382     17.734264      74.203512    
   1213000   1.0581133      17.60294       74.295954    
   1214000   1.0209228      17.642489      74.209338    
   1215000   0.96913822     17.556865      73.797241    
   1216000   0.99009162     17.659356      73.608902    
   1217000   1.0164069      17.59991       73.551492    
   1218000   1.007211       18.335161      73.380165    
   1219000   1.0142119      17.485701      72.976937    
   1220000   0.98828104     17.949956      72.978384    
   1221000   0.99094528     17.466921      72.80961     
   1222000   1.0198003      17.573145      73.000929    
   1223000   1.0130642      18.036406      72.915514    
   1224000   0.9822294      18.40015       72.945968    
   1225000   1.005949       17.587141      72.514873    
   1226000   1.0387542      17.363207      72.387554    
   1227000   0.94753669     18.025299      72.311915    
   1228000   0.94762007     17.66681       72.106577    
   1229000   0.97070257     17.849241      72.006589    
   1230000   1.0169323      17.87177       71.99647     
   1231000   1.027859       17.689822      71.783252    
   1232000   1.0101812      17.579971      71.617402    
   1233000   1.0342023      17.807424      71.523161    
   1234000   1.0264628      18.164327      71.157343    
   1235000   1.0062856      18.259084      71.23971     
   1236000   0.97059103     18.073389      71.02536     
   1237000   0.99627511     17.196567      70.78486     
   1238000   0.96146539     18.183833      70.996878    
   1239000   1.0229312      17.371825      70.779524    
   1240000   0.94832414     17.965753      70.532209    
   1241000   0.97694402     17.641735      70.411231    
   1242000   1.0140794      18.293649      70.429809    
   1243000   0.98378416     17.480789      70.559547    
   1244000   0.98977352     18.441882      70.662031    
   1245000   1.0171045      17.829183      70.687074    
   1246000   0.98555354     17.659631      70.471292    
   1247000   1.0434533      17.547813      70.350574    
   1248000   1.0354246      17.933612      70.414524    
   1249000   0.98060619     17.744685      70.315935    
   1250000   0.99606428     17.880401      70.245917    
   1251000   1.0569433      17.820091      70.016338    
   1252000   1.0435686      18.067771      70.241198    
   1253000   0.98786488     18.167861      70.318514    
   1254000   1.0089432      17.819915      70.078775    
   1255000   1.0105858      17.928898      70.108455    
   1256000   0.96699629     18.011541      70.093851    
   1257000   0.96343819     17.78233       70.142965    
   1258000   0.97987355     17.415523      70.059947    
   1259000   1.081033       17.664018      70.140003    
   1260000   0.97393623     17.41808       69.924156    
   1261000   1.053777       18.06561       69.694184    
   1262000   1.0295433      17.869836      69.71036     
   1263000   0.99801626     17.478894      69.538158    
   1264000   0.96729675     17.856184      69.283799    
   1265000   1.0147963      18.208433      69.085311    
   1266000   1.0099895      17.972929      68.904637    
   1267000   1.0071382      17.708665      68.581613    
   1268000   1.0274067      17.871637      68.52151     
   1269000   0.93208706     18.156731      68.519552    
   1270000   1.0404373      18.320334      68.488914    
   1271000   0.9829464      18.093643      68.217684    
   1272000   1.0558244      18.200279      67.928137    
   1273000   0.98596846     17.539818      67.610234    
   1274000   1.0248669      18.150495      67.346685    
   1275000   1.0210605      17.771035      67.395965    
   1276000   1.0075262      17.933322      67.437185    
   1277000   0.98603161     17.8318        67.428253    
   1278000   0.96511357     17.678759      67.371423    
   1279000   0.98146599     17.746307      67.412734    
   1280000   0.97617465     17.268743      67.199279    
   1281000   0.96874598     17.581553      67.332541    
   1282000   0.9896058      17.502419      67.332051    
   1283000   0.96774665     17.752562      66.99481     
   1284000   1.0153439      17.875288      66.886695    
   1285000   1.0069629      17.403319      66.772468    
   1286000   1.0317351      17.388546      66.887578    
   1287000   1.0042191      17.455964      66.966761    
   1288000   0.99462722     18.373074      66.96034     
   1289000   1.0117822      17.385196      66.81241     
   1290000   0.98653772     17.573824      66.719592    
   1291000   1.0185278      18.133649      66.560483    
   1292000   1.0000776      17.186722      66.380954    
   1293000   0.99724155     17.310958      66.317125    
   1294000   0.98143368     18.401491      66.326029    
   1295000   0.98141112     18.158126      66.331887    
   1296000   0.99686732     17.987561      66.34601     
   1297000   1.0103823      17.900435      66.492522    
   1298000   0.99325634     17.83636       66.160848    
   1299000   0.98358586     17.357423      65.802254    
   1300000   0.97865633     17.500722      65.645801    
   1301000   0.96456156     17.525951      65.426297    
   1302000   0.99321722     17.595079      65.156367    
   1303000   1.0177794      18.089875      65.075591    
   1304000   1.0335034      18.013069      64.896452    
   1305000   0.9641563      17.325324      64.901685    
   1306000   0.99320012     17.918933      64.748843    
   1307000   0.9442896      17.477426      64.572157    
   1308000   1.0380115      17.793823      64.468639    
   1309000   0.99523889     17.646521      64.352614    
   1310000   0.97731282     17.491367      64.489065    
   1311000   1.0093367      18.110696      64.530766    
   1312000   1.0055656      17.347446      64.470877    
   1313000   0.97818748     17.772697      64.530502    
   1314000   0.95810942     17.663653      64.514759    
   1315000   0.98046119     17.711208      64.250623    
   1316000   0.97325275     17.763273      64.105892    
   1317000   1.0210465      17.457447      64.001951    
   1318000   1.0493114      17.453487      63.894098    
   1319000   0.97840618     17.846188      63.670368    
   1320000   0.9712558      17.403298      63.69037     
   1321000   1.03779        17.529536      63.380624    
   1322000   1.0039958      17.935783      63.384985    
   1323000   1.0033244      18.136212      63.36104     
   1324000   1.0144774      17.718777      63.527149    
   1325000   1.0365846      18.237047      63.499321    
   1326000   0.98700757     17.568055      63.471398    
   1327000   1.0061422      17.839346      63.433126    
   1328000   0.99469535     17.924113      63.371547    
   1329000   1.0255751      17.275027      63.022375    
   1330000   1.0019285      17.810204      63.084494    
   1331000   0.96395864     17.662184      63.064135    
   1332000   0.9996417      17.230229      63.220888    
   1333000   1.0419774      17.601005      63.607349    
   1334000   1.0445101      18.115136      63.625778    
   1335000   0.98520402     18.437686      63.637147    
   1336000   1.0387617      17.098629      63.395316    
   1337000   0.99675034     17.474931      63.370968    
   1338000   1.0110138      18.284754      63.473889    
   1339000   0.94021249     17.55276       63.51876     
   1340000   1.0206784      17.369146      63.443707    
   1341000   1.0547097      17.641124      63.224681    
   1342000   1.0021012      17.958045      62.914873    
   1343000   0.96083615     17.164838      62.82119     
   1344000   1.0104605      17.715376      62.83183     
   1345000   0.97551254     17.524862      62.995035    
   1346000   0.97013663     17.519237      62.93979     
   1347000   1.0346566      17.877289      62.988476    
   1348000   0.99822818     17.527137      62.976942    
   1349000   1.0001628      17.630956      62.757515    
   1350000   1.0186809      18.00569       62.704995    
   1351000   1.0112644      18.078825      62.660277    
   1352000   0.99941697     17.638582      62.71476     
   1353000   1.0263399      17.987059      62.466646    
   1354000   0.96830581     17.434054      62.212702    
   1355000   0.96868979     17.965033      61.985393    
   1356000   0.97072073     17.629329      61.795005    
   1357000   0.94684322     17.669591      61.945987    
   1358000   1.0131428      17.803438      61.71558     
   1359000   1.017786       17.777261      61.550774    
   1360000   0.98003175     18.107333      61.703128    
   1361000   0.9905887      17.46347       61.740121    
   1362000   1.029057       18.365548      61.528493    
   1363000   0.98772866     17.347909      61.430642    
   1364000   0.99086458     18.008045      61.493898    
   1365000   1.0339738      18.027212      61.518584    
   1366000   1.0000167      18.426638      61.453725    
   1367000   1.0138574      17.830572      61.401591    
   1368000   0.99387594     17.769568      61.368801    
   1369000   0.9550344      17.97273       61.194544    
   1370000   1.0015703      17.425297      61.063004    
   1371000   0.9786671      17.650698      61.003898    
   1372000   0.98877892     17.764319      60.913483    
   1373000   0.95499383     17.344967      60.85542     
   1374000   1.0247877      17.888077      60.706434    
   1375000   1.0090052      18.158238      60.573242    
   1376000   1.0556183      18.030353      60.366915    
   1377000   0.99837239     17.773843      60.25481     
   1378000   1.0339153      17.710637      60.118153    
   1379000   0.97421586     17.670738      60.072209    
   1380000   0.98384859     17.804298      60.075138    
   1381000   1.0064841      17.295608      59.882389    
   1382000   1.0233284      17.530258      59.667166    
   1383000   0.99009601     18.308413      59.69369     
   1384000   1.0273564      17.449733      59.677526    
   1385000   1.038904       17.702011      59.450216    
   1386000   1.0021827      18.177725      59.154837    
   1387000   1.0395565      17.631314      59.126014    
   1388000   1.0127673      17.605321      58.986564    
   1389000   1.0113671      18.418833      58.793676    
   1390000   1.032176       17.825825      58.53576     
   1391000   0.99900562     17.524574      58.421045    
   1392000   0.97313012     17.428085      58.20739     
   1393000   1.0433652      17.570232      58.132776    
   1394000   1.0265399      17.884746      58.160801    
   1395000   1.031248       17.463164      58.135756    
   1396000   1.0100854      17.89654       58.073852    
   1397000   1.0057679      18.089654      58.255129    
   1398000   1.0394276      17.245528      58.153462    
   1399000   1.0726955      17.589726      57.87995     
   1400000   0.98248636     17.617398      57.817428    
   1401000   0.99020615     17.514022      57.801643    
   1402000   1.0140961      17.324406      57.976006    
   1403000   1.0093738      18.04279       58.017551    
   1404000   1.0640461      17.584409      57.939472    
   1405000   1.023551       17.442942      57.988293    
   1406000   1.0362627      17.23358       57.891121    
   1407000   1.0415704      18.062357      57.961388    
   1408000   1.031671       18.22507       58.03513     
   1409000   0.99218318     17.50912       57.96545     
   1410000   1.0500532      17.611865      57.925409    
   1411000   1.002163       17.729983      57.727353    
   1412000   0.96296961     17.774763      57.710584    
   1413000   1.0090276      17.841357      57.697123    
   1414000   1.0167204      17.268349      57.794509    
   1415000   0.93988446     17.721035      57.715013    
   1416000   0.96886189     18.120731      57.873388    
   1417000   0.985655       17.573725      57.669451    
   1418000   1.0275641      17.915462      57.436372    
   1419000   1.0440654      18.2522        57.282113    
   1420000   1.0172936      17.999955      57.353299    
   1421000   1.0188489      18.123632      57.161777    
   1422000   1.0061455      18.383276      57.015883    
   1423000   1.0336778      17.666985      56.779697    
   1424000   0.97720084     17.577864      56.47932     
   1425000   1.0126789      18.033354      56.410475    
   1426000   1.0362908      17.005809      56.563175    
   1427000   1.0101874      18.101625      56.36727     
   1428000   0.9942611      18.119677      56.461128    
   1429000   0.95772031     17.876856      56.196812    
   1430000   0.94919249     17.777273      56.133191    
   1431000   1.0140517      17.5218        56.051566    
   1432000   1.0331193      18.136884      55.904834    
   1433000   0.98828523     17.324864      55.629593    
   1434000   1.0117998      17.163408      55.899386    
   1435000   0.99394191     18.106032      55.706669    
   1436000   0.96376704     17.789381      55.487739    
   1437000   1.0133096      17.791619      55.448342    
   1438000   1.0121872      17.224834      55.370397    
   1439000   1.0099109      17.238662      55.353424    
   1440000   1.0283915      17.477851      55.274638    
   1441000   1.065618       17.973965      55.085757    
   1442000   0.99988417     17.628156      54.789374    
   1443000   1.0180505      17.760976      54.756321    
   1444000   0.96331624     17.674527      54.635826    
   1445000   0.99171553     17.638864      54.395038    
   1446000   1.0885022      18.646614      54.285118    
   1447000   0.9912139      18.214259      54.489219    
   1448000   0.99442456     17.78158       54.654439    
   1449000   1.0021354      17.595656      54.902508    
   1450000   0.97780779     17.82256       54.922192    
   1451000   1.0272616      17.104738      54.697812    
   1452000   1.0450326      17.972778      54.415459    
   1453000   0.95572766     17.50886       54.298251    
   1454000   1.023253       17.171936      54.349494    
   1455000   0.97321818     18.279531      53.970863    
   1456000   1.0002092      17.545833      53.762498    
   1457000   0.98954424     17.763844      53.502867    
   1458000   0.99994631     17.266088      53.291314    
   1459000   1.0433674      17.190119      53.277086    
   1460000   1.020844       17.762997      53.539462    
   1461000   1.0149068      17.482983      53.398781    
   1462000   1.0039702      17.422526      53.279614    
   1463000   1.0179275      17.824313      53.140194    
   1464000   1.0007415      17.000429      53.160862    
   1465000   1.0372978      17.896175      52.994668    
   1466000   0.9858568      17.447132      52.597727    
   1467000   1.0119222      18.531424      52.365159    
   1468000   1.0127121      18.112402      52.435696    
   1469000   0.9423897      16.902875      52.26465     
   1470000   0.96596641     17.461634      52.614812    
   1471000   0.9922345      17.15191       52.251835    
   1472000   1.0474503      18.215998      52.302651    
   1473000   1.0160675      17.630851      52.408231    
   1474000   0.98762237     17.693582      52.414813    
   1475000   1.0206934      17.257703      52.581454    
   1476000   0.99999914     17.879936      52.531085    
   1477000   0.9688077      17.638398      52.598637    
   1478000   1.046057       18.0276        52.362618    
   1479000   1.0012245      18.183227      52.412976    
   1480000   1.0360025      18.958811      52.313398    
   1481000   1.0032815      17.2071        52.240323    
   1482000   1.0158361      17.427157      52.178431    
   1483000   0.98948212     17.216735      52.165194    
   1484000   1.0184786      17.410325      51.959061    
   1485000   1.051272       18.34763       51.872739    
   1486000   1.0280851      16.936344      51.661011    
   1487000   0.95678308     17.528767      51.440903    
   1488000   0.98566172     18.332291      51.457427    
   1489000   0.99834295     17.887586      51.175922    
   1490000   1.0026482      17.877738      51.127098    
   1491000   0.96809792     17.406931      50.823916    
   1492000   1.0343509      17.277185      50.975608    
   1493000   1.0073284      17.64208       50.972799    
   1494000   0.99058966     17.684693      50.94704     
   1495000   1.0019934      17.048128      50.604844    
   1496000   0.98465265     17.678311      50.341312    
   1497000   1.0237663      17.720778      50.558973    
   1498000   0.98164277     17.929469      50.557847    
   1499000   0.98696599     17.186212      50.681877    
   1500000   0.98633927     17.078474      50.983413    
   1501000   1.0024734      17.558274      51.178405    
   1502000   0.97197481     17.425158      51.002326    
   1503000   1.0247011      17.193518      50.595949    
   1504000   0.95821399     17.706681      50.502521    
   1505000   0.98134023     17.626108      50.691143    
   1506000   1.013476       18.167937      50.491587    
   1507000   1.0169525      17.435537      50.426338    
   1508000   1.00891        17.328618      50.208548    
   1509000   1.0411194      17.861196      50.298857    
   1510000   0.99308092     17.797475      50.316655    
   1511000   0.9912301      16.996417      50.3921      
   1512000   1.0288839      17.943184      50.455994    
   1513000   1.0060473      17.069527      50.154371    
   1514000   1.0308797      17.440833      50.341837    
   1515000   0.99609184     17.541335      50.046226    
   1516000   0.96306626     18.545079      50.083617    
   1517000   0.99785575     17.173902      50.029532    
   1518000   0.99780415     17.942515      49.960883    
   1519000   1.0238423      17.225055      49.812864    
   1520000   0.94975159     17.436257      49.745729    
   1521000   0.98812235     17.744296      49.365344    
   1522000   0.97549462     17.576607      49.339014    
   1523000   0.98541368     17.696947      49.159548    
   1524000   1.051196       17.520064      49.368463    
   1525000   0.95315207     17.794574      49.267981    
   1526000   0.96562446     16.6551        49.271062    
   1527000   0.99931839     17.094026      49.277126    
   1528000   0.99727742     17.345191      49.161642    
   1529000   1.0694297      17.8518        49.019652    
   1530000   1.0318511      17.85776       49.00288     
   1531000   0.96880707     18.145489      49.06775     
   1532000   1.0069145      17.839304      48.975684    
   1533000   1.0631275      18.404843      49.092324    
   1534000   0.97538358     17.351657      49.019667    
   1535000   0.99843726     17.42418       48.659361    
   1536000   0.95851208     17.7623        48.635224    
   1537000   0.98114248     18.072353      48.555677    
   1538000   0.95166878     17.546675      48.968401    
   1539000   0.98439537     17.146587      48.615873    
   1540000   1.0000336      17.945705      48.508789    
   1541000   1.0495312      17.89203       48.64988     
   1542000   0.99373592     17.318851      48.563552    
   1543000   1.0529351      18.302566      48.242151    
   1544000   1.059988       17.812721      48.25426     
   1545000   1.0437227      18.653654      48.326313    
   1546000   0.97899107     17.889036      48.290494    
   1547000   0.96222054     16.936731      47.914469    
   1548000   0.95552702     17.637515      47.876471    
   1549000   0.95554654     17.447965      48.059719    
   1550000   1.0181578      16.989753      47.888214    
   1551000   1.0310836      18.034564      47.818664    
   1552000   0.99827439     17.977161      47.662035    
   1553000   1.082088       17.643824      47.576412    
   1554000   1.0008843      17.696845      47.470728    
   1555000   0.96886359     17.876897      47.711673    
   1556000   1.007351       17.479941      47.748124    
   1557000   1.003813       17.191937      47.738444    
   1558000   0.97400177     17.518826      47.911924    
   1559000   0.97104377     17.49132       47.957306    
   1560000   1.0015215      17.560638      47.856135    
   1561000   0.99616789     17.745454      47.760092    
   1562000   0.95351005     17.233343      47.794473    
   1563000   0.97367302     17.984353      47.705499    
   1564000   1.0159068      17.659452      47.78027     
   1565000   0.98881021     17.636912      47.835227    
   1566000   1.0307601      18.078121      47.795519    
   1567000   0.97902816     17.56218       48.019067    
   1568000   0.99702664     17.442845      47.890402    
   1569000   0.9840469      17.539281      47.777167    
   1570000   1.0174047      17.717435      47.739615    
   1571000   0.98679258     18.004846      47.744897    
   1572000   1.0127259      17.680086      47.744248    
   1573000   1.0238854      17.683945      47.462191    
   1574000   1.019867       17.956473      47.403744    
   1575000   0.97606485     17.535587      47.333528    
   1576000   1.001984       17.678726      47.165176    
   1577000   1.0585676      17.629421      47.223642    
   1578000   0.9990518      18.480348      47.085323    
   1579000   1.0091137      17.743036      46.923176    
   1580000   1.012599       18.282648      46.618145    
   1581000   1.0088082      17.188129      46.532494    
   1582000   1.0056418      18.144702      46.417202    
   1583000   0.96380228     17.819628      46.4292      
   1584000   1.0149159      17.596333      46.393466    
   1585000   0.99329749     17.816942      46.232607    
   1586000   1.0230332      17.706211      46.176225    
   1587000   1.0022066      17.670078      46.219023    
   1588000   1.0394719      17.865017      46.116613    
   1589000   1.0228699      17.826623      46.086178    
   1590000   1.0315607      17.616494      45.909523    
   1591000   1.0281015      18.244171      45.731856    
   1592000   1.0179276      17.76659       45.498592    
   1593000   1.0333142      17.819859      45.371522    
   1594000   0.97013858     17.75078       44.866481    
   1595000   1.0093895      17.226144      44.937447    
   1596000   1.0341349      17.480071      44.864756    
   1597000   0.96195512     17.704387      44.936506    
   1598000   1.0261243      17.695561      44.753972    
   1599000   0.98177598     17.36854       44.306948    
   1600000   0.96359282     17.481978      44.249043    
   1601000   0.97308326     18.020165      44.232706    
   1602000   1.0077403      17.091051      44.023788    
   1603000   1.0141211      17.491994      44.068458    
   1604000   0.97929583     17.212852      43.774655    
   1605000   0.99687331     17.720845      43.510312    
   1606000   0.98231511     17.432076      43.460545    
   1607000   1.0003009      17.893036      43.402231    
   1608000   1.0018033      17.110087      43.256283    
   1609000   1.0325042      17.316748      42.774419    
   1610000   1.0407788      17.696906      42.578758    
   1611000   0.99761741     17.733976      42.278812    
   1612000   0.9838005      17.32262       42.161638    
   1613000   0.9959617      17.595455      42.366132    
   1614000   1.0214678      17.642671      42.38757     
   1615000   1.0169649      17.497958      42.034779    
   1616000   1.0274037      17.527738      41.856251    
   1617000   0.96951708     18.007645      41.628551    
   1618000   0.9874707      17.556761      41.586576    
   1619000   1.0036276      18.357986      41.580565    
   1620000   0.98418963     17.34807       41.50234     
   1621000   1.0674588      17.959751      41.31126     
   1622000   1.0100869      17.599137      41.27356     
   1623000   1.0158295      17.866871      41.272601    
   1624000   1.00167        17.777412      41.338996    
   1625000   1.017086       17.422059      41.137321    
   1626000   0.89896576     17.369525      41.067802    
   1627000   0.96765049     17.062296      40.69544     
   1628000   1.0309809      17.034365      40.755143    
   1629000   1.0364128      17.356409      40.604448    
   1630000   0.99756023     17.645707      40.58644     
   1631000   1.0045158      18.067694      40.551719    
   1632000   0.95251088     18.106894      40.533824    
   1633000   0.99707003     17.520677      40.529911    
   1634000   1.0143382      17.712025      40.472287    
   1635000   1.0187475      17.840354      40.296901    
   1636000   0.97138243     17.459712      40.167438    
   1637000   1.0315454      17.436562      40.38647     
   1638000   1.0161001      18.450973      40.314346    
   1639000   1.0442024      18.406721      40.428465    
   1640000   1.0391995      17.636329      40.308955    
   1641000   0.9955841      17.396603      40.009852    
   1642000   1.0027615      17.130772      40.083827    
   1643000   0.98872004     17.198872      40.067168    
   1644000   0.9611107      17.556723      39.900471    
   1645000   1.0040762      17.162041      39.698235    
   1646000   0.9770144      17.215067      39.4717      
   1647000   1.0095133      17.85264       39.353585    
   1648000   0.92029687     17.273788      39.244341    
   1649000   0.92235294     17.375467      39.139581    
   1650000   1.0101891      17.621245      39.0016      
   1651000   0.97764558     17.530545      38.975961    
   1652000   0.99591527     17.117067      38.88165     
   1653000   1.0013346      17.854516      38.571311    
   1654000   1.0163884      18.003697      38.551523    
   1655000   1.0002784      17.215262      38.354859    
   1656000   0.98402562     17.27418       38.134285    
   1657000   0.96392064     16.874406      38.127006    
   1658000   0.99385203     18.016711      38.065652    
   1659000   0.96756413     17.492433      38.00615     
   1660000   0.99880953     17.325366      37.763159    
   1661000   0.9437257      17.382376      37.61384     
   1662000   1.0081114      16.976874      37.619037    
   1663000   1.044801       17.383764      37.429917    
   1664000   1.005269       17.577673      37.26962     
   1665000   1.0133652      17.632543      37.057253    
   1666000   0.99471645     17.700323      36.890373    
   1667000   1.038075       17.400009      36.845908    
   1668000   1.0330908      17.555078      36.741641    
   1669000   0.9908862      17.112861      36.740369    
   1670000   0.98625249     17.042794      36.574364    
   1671000   1.002453       17.441575      36.566109    
   1672000   1.0089496      18.202995      36.313959    
   1673000   0.9949199      17.38015       35.962418    
   1674000   0.97984197     17.667915      35.885792    
   1675000   0.94633033     16.757795      36.039774    
   1676000   1.0191972      17.330875      35.98433     
   1677000   0.95126292     17.771694      36.034111    
   1678000   1.0041908      17.991806      35.826081    
   1679000   1.0625897      17.657227      35.784534    
   1680000   1.0011399      17.57695       35.711386    
   1681000   1.0019755      17.582934      35.567274    
   1682000   0.97994704     17.809472      35.518902    
   1683000   0.97686416     17.460865      35.363559    
   1684000   1.0247009      17.966397      35.373848    
   1685000   1.0191521      17.548662      35.033005    
   1686000   0.98213685     17.28088       34.922727    
   1687000   0.96217607     17.140353      34.743237    
   1688000   0.95606332     17.148664      34.421856    
   1689000   0.99370431     17.575291      34.226464    
   1690000   1.049113       17.392096      34.27932     
   1691000   0.98879991     17.68225       34.2626      
   1692000   1.0058716      17.785536      33.930309    
   1693000   0.99008016     16.889438      33.869667    
   1694000   0.97347395     17.617359      33.829811    
   1695000   0.97690674     17.391131      33.497594    
   1696000   0.98341928     17.222181      33.536011    
   1697000   0.97806972     17.535897      33.519805    
   1698000   0.93947247     17.316056      33.182824    
   1699000   1.0037548      17.186741      32.677105    
   1700000   0.98243329     17.413183      32.515081    
   1701000   1.0098956      18.155628      32.567186    
   1702000   1.0264083      17.438345      32.27524     
   1703000   1.018425       17.777616      32.196603    
   1704000   1.0023016      17.357982      32.07874     
   1705000   1.0096224      17.650786      32.12575     
   1706000   0.99055616     17.265858      32.348002    
   1707000   1.0164306      17.747704      32.385764    
   1708000   0.96649578     16.606359      32.002692    
   1709000   1.0187369      18.120011      32.11019     
   1710000   0.98948516     17.960064      31.894119    
   1711000   0.98421244     18.034442      31.693924    
   1712000   1.0000483      17.161381      31.691234    
   1713000   1.0000585      17.802879      31.641477    
   1714000   0.96037665     17.569343      31.7128      
   1715000   1.0735748      17.344608      31.539549    
   1716000   0.96420211     17.025044      31.446039    
   1717000   0.99811648     17.510866      31.544367    
   1718000   1.050741       17.588056      31.535204    
   1719000   0.93739355     17.895068      31.380165    
   1720000   0.99706294     17.659747      31.4946      
   1721000   1.0005279      16.637596      31.409773    
   1722000   1.0910073      18.243272      31.47716     
   1723000   0.98882705     17.278741      31.612995    
   1724000   1.0272281      17.573105      31.396853    
   1725000   0.98359442     17.672834      31.310316    
   1726000   0.9798103      18.04195       31.268357    
   1727000   0.97210731     17.169588      31.352936    
   1728000   1.0113169      17.725152      31.067942    
   1729000   0.97847421     17.21731       31.330039    
   1730000   1.0003573      17.697799      31.410907    
   1731000   1.0666888      17.644389      31.543178    
   1732000   1.0636865      18.156669      31.5655      
   1733000   1.0710766      18.070184      31.386222    
   1734000   1.0241636      17.892664      31.428104    
   1735000   1.0105492      17.824138      31.524731    
   1736000   0.96630816     17.552722      31.519608    
   1737000   0.98606789     17.289255      31.389806    
   1738000   1.000665       17.899277      31.31308     
   1739000   0.92796435     16.783837      31.417505    
   1740000   0.98895581     17.318993      31.579562    
   1741000   1.0216982      16.949298      31.549976    
   1742000   1.0017015      17.938353      31.341644    
   1743000   1.0022011      17.745365      31.230478    
   1744000   0.98299797     16.732665      31.437724    
   1745000   1.0086273      17.582641      31.381613    
   1746000   0.9764103      17.325534      31.26339     
   1747000   1.0725449      17.903816      31.080295    
   1748000   0.99810303     17.521709      30.845893    
   1749000   1.0480835      17.381373      30.628408    
   1750000   1.0101959      16.97066       30.508834    
   1751000   0.98156868     17.275692      30.567439    
   1752000   0.97739783     16.817698      30.518205    
   1753000   0.98419887     17.902784      30.419481    
   1754000   1.0081606      17.181679      30.365154    
   1755000   1.0114673      17.637852      29.950457    
   1756000   1.0116141      17.906118      29.800152    
   1757000   1.0437949      17.662525      29.695175    
   1758000   1.0192188      17.452633      29.426833    
   1759000   1.0224804      17.664165      29.239258    
   1760000   0.98456564     17.408055      29.140786    
   1761000   1.0657294      17.360169      29.148969    
   1762000   1.0348257      17.318916      29.066134    
   1763000   0.99795957     17.479072      29.048004    
   1764000   0.97311442     17.300857      29.006485    
   1765000   0.98215237     17.270265      28.927301    
   1766000   1.0290905      17.860324      29.048763    
   1767000   1.0106104      17.762658      29.122115    
   1768000   0.97880258     17.566054      28.971911    
   1769000   1.0368003      17.877813      29.049612    
   1770000   0.9849286      18.126646      29.032453    
   1771000   1.0161488      17.055438      28.568296    
   1772000   1.0040783      17.252949      28.394664    
   1773000   0.98322486     17.351868      28.386295    
   1774000   1.030538       17.598612      28.541935    
   1775000   0.99640197     17.046796      28.515037    
   1776000   1.0505388      18.166123      28.267332    
   1777000   1.0395678      17.76106       28.195941    
   1778000   1.0074566      16.907233      27.949505    
   1779000   1.0187015      17.672469      27.905173    
   1780000   0.97134975     17.276173      27.740646    
   1781000   0.97889096     17.955013      27.981157    
   1782000   0.96659437     17.045241      27.917285    
   1783000   0.94613612     16.959445      27.876848    
   1784000   1.0002027      17.335758      27.783311    
   1785000   1.0051266      17.83587       27.605063    
   1786000   0.92342635     17.337282      27.606048    
   1787000   0.98434483     17.034664      27.409919    
   1788000   1.0343083      17.389081      27.282934    
   1789000   1.0511738      17.06598       27.13993     
   1790000   1.0238819      16.942528      27.085663    
   1791000   1.0462787      17.27482       27.30132     
   1792000   1.0357935      17.50362       27.003078    
   1793000   1.0261322      17.46289       26.849412    
   1794000   1.0054636      16.994257      26.516167    
   1795000   0.96983886     17.440581      26.457244    
   1796000   1.0115046      16.896541      26.8216      
   1797000   1.007374       16.867722      26.733345    
   1798000   1.0228038      16.670083      26.698242    
   1799000   0.97785513     17.6287        26.490213    
   1800000   0.99171505     17.231116      26.155641    
   1801000   1.0459061      17.510185      26.231375    
   1802000   0.98056238     17.142062      26.055514    
   1803000   0.97190054     17.710361      25.898804    
   1804000   1.0034221      17.103894      25.81909     
   1805000   1.0109159      17.374775      25.771603    
   1806000   1.0220884      17.779612      25.663073    
   1807000   1.0200916      17.455         25.783681    
   1808000   0.96744155     17.693161      25.700849    
   1809000   1.0189028      17.672243      25.615001    
   1810000   0.98185285     17.25996       25.63941     
   1811000   1.0026772      18.253158      25.573298    
   1812000   0.96135006     17.393776      25.483175    
   1813000   1.0176721      16.683925      25.499975    
   1814000   1.0558484      17.437704      25.372574    
   1815000   1.0266767      17.428665      25.560817    
   1816000   1.0087861      16.450586      25.589848    
   1817000   1.0037949      17.35416       25.453436    
   1818000   1.0546563      17.435223      25.498298    
   1819000   0.98189727     16.713977      25.555694    
   1820000   0.99602595     17.43574       25.211857    
   1821000   1.0325291      17.375345      25.312543    
   1822000   1.0289656      17.302357      25.070601    
   1823000   0.97689598     17.166651      25.175821    
   1824000   0.97540359     17.377259      25.019017    
   1825000   1.0248245      17.097471      25.281597    
   1826000   0.98804047     17.527621      25.025041    
   1827000   0.96029491     16.848446      25.031673    
   1828000   0.95283305     17.895145      25.085008    
   1829000   0.97673628     17.110837      24.910749    
   1830000   1.0240239      17.516849      24.59202     
   1831000   1.0180924      17.441497      24.510072    
   1832000   1.0661638      17.900891      24.4628      
   1833000   1.0215947      17.285105      24.49175     
   1834000   1.0401327      16.936892      24.469081    
   1835000   1.0064434      16.742968      24.130546    
   1836000   0.96576832     17.325392      24.011093    
   1837000   0.9857336      17.050501      24.114009    
   1838000   0.99206848     17.702336      23.824603    
   1839000   0.98567425     17.248443      23.616469    
   1840000   1.0003529      17.428968      23.350986    
   1841000   1.0091366      17.057436      22.914518    
   1842000   0.98378049     16.967559      23.113938    
   1843000   0.97979951     16.942516      22.817516    
   1844000   1.0099022      17.200837      22.521334    
   1845000   0.98209053     17.116168      22.467976    
   1846000   1.0262661      17.398319      22.538486    
   1847000   1.0126281      17.293924      22.331214    
   1848000   1.0052204      16.739189      22.296346    
   1849000   0.97577855     17.185683      22.290664    
   1850000   1.002677       17.266671      22.38506     
   1851000   1.001442       17.723965      22.327833    
   1852000   1.0389769      17.003243      22.397756    
   1853000   1.0170294      17.993613      22.233673    
   1854000   0.98885506     17.61973       21.937685    
   1855000   1.0052866      17.018448      21.803745    
   1856000   1.0219437      18.106649      21.724521    
   1857000   0.98587132     17.901174      21.893       
   1858000   0.99727636     17.418321      21.7582      
   1859000   1.0032933      17.636687      21.49311     
   1860000   1.0158408      17.509728      21.560579    
   1861000   1.0136506      17.743676      21.489893    
   1862000   1.0224123      17.555813      21.439095    
   1863000   0.99153783     17.532535      21.545907    
   1864000   0.98949614     17.237724      21.388561    
   1865000   0.98432382     17.214863      21.262335    
   1866000   1.0211872      17.721127      21.121067    
   1867000   1.0146304      17.322357      21.113138    
   1868000   1.0262876      17.406461      21.075193    
   1869000   1.0198266      17.445748      20.934216    
   1870000   1.0191734      17.102312      20.805513    
   1871000   0.98727562     16.862413      20.771892    
   1872000   0.97917471     17.373824      20.721986    
   1873000   1.0108342      17.180155      20.470567    
   1874000   0.99363235     17.693835      20.338326    
   1875000   1.0026541      17.212212      20.247858    
   1876000   1.0398035      16.955211      20.212474    
   1877000   1.0023738      17.684352      20.073347    
   1878000   1.0189618      17.408439      19.715828    
   1879000   1.0327639      17.409885      19.81491     
   1880000   1.0299992      17.091668      19.582896    
   1881000   1.0348494      17.496557      19.487719    
   1882000   0.97733958     17.226277      19.518603    
   1883000   0.96604267     16.999247      19.577593    
   1884000   1.015095       17.578013      19.824652    
   1885000   0.98908994     16.649961      19.924196    
   1886000   0.94908277     16.70826       19.601463    
   1887000   0.9998689      18.02687       19.612241    
   1888000   1.0254687      17.029976      19.620249    
   1889000   0.99503541     16.771973      19.571036    
   1890000   1.0155196      17.540429      19.235382    
   1891000   0.9549907      17.352853      19.07254     
   1892000   0.97041429     17.145093      18.677634    
   1893000   1.0248188      17.499082      18.588957    
   1894000   0.9661073      17.109354      18.628472    
   1895000   1.0229288      18.039959      18.303804    
   1896000   1.0102504      16.990391      18.244628    
   1897000   0.95544367     17.552468      17.979299    
   1898000   0.98975315     17.639628      17.773787    
   1899000   1.0225661      17.351384      18.02172     
   1900000   0.9657062      17.672995      17.996938    
   1901000   0.99263194     17.404323      17.918175    
   1902000   1.0309364      17.609639      18.051012    
   1903000   1.0369841      17.610636      17.70406     
   1904000   1.0758512      17.130488      17.743497    
   1905000   0.98552916     17.470992      17.406833    
   1906000   0.99995505     17.238989      17.257851    
   1907000   1.0325261      17.430262      17.166535    
   1908000   0.98670769     17.668332      16.806956    
   1909000   0.97794761     17.011415      16.621609    
   1910000   0.9401583      17.390295      16.56719     
   1911000   0.97871895     17.173108      16.3653      
   1912000   0.99223321     17.792284      16.440807    
   1913000   1.0057815      17.358906      16.19349     
   1914000   0.97020542     17.946368      16.245654    
   1915000   0.98469269     17.086381      16.11409     
   1916000   1.0154928      17.292062      16.199469    
   1917000   1.0034094      17.141047      16.186338    
   1918000   1.0374365      17.822083      16.150861    
   1919000   0.99922198     17.158798      15.968887    
   1920000   0.99229665     17.050115      15.831361    
   1921000   0.9818509      17.683524      15.493279    
   1922000   1.0319805      17.22997       15.174871    
   1923000   1.0288641      17.149499      14.970708    
   1924000   1.0238578      17.354022      14.947771    
   1925000   0.9789497      17.199621      14.784593    
   1926000   1.0257843      17.556229      14.819528    
   1927000   1.0012215      17.093866      14.489509    
   1928000   0.96971397     17.058057      14.411323    
   1929000   0.99394325     16.633531      14.442471    
   1930000   1.0029693      17.695013      14.126157    
   1931000   1.0130033      17.260442      13.813148    
   1932000   0.95570203     17.592586      13.555179    
   1933000   1.0151864      16.731469      13.567067    
   1934000   1.0187043      17.080956      13.536513    
   1935000   0.98321902     17.907522      13.365193    
   1936000   1.0581449      17.151301      13.258827    
   1937000   0.99491991     17.168333      13.031031    
   1938000   1.0235992      17.321162      12.969998    
   1939000   0.9834299      17.319928      13.147223    
   1940000   1.0467321      17.035279      13.335521    
   1941000   0.99924452     17.348471      13.009187    
   1942000   0.9706771      17.38069       12.956557    
   1943000   0.99200825     18.250219      12.906416    
   1944000   0.95107877     16.59695       12.925806    
   1945000   0.97024713     17.382025      12.755588    
   1946000   0.98548549     17.174823      12.677532    
   1947000   1.0038094      17.314571      12.581118    
   1948000   1.0194023      17.280095      12.581471    
   1949000   1.0353026      16.674154      12.560473    
   1950000   1.0079634      16.677835      12.561705    
   1951000   1.0203126      17.330136      12.402133    
   1952000   0.9730608      17.305431      12.436748    
   1953000   1.0576471      17.459442      12.473515    
   1954000   0.96509131     16.954696      12.318042    
   1955000   1.0119438      17.535124      12.113958    
   1956000   1.0036052      16.907759      12.001166    
   1957000   0.97983009     17.05955       12.016832    
   1958000   1.0105071      17.608707      12.014286    
   1959000   1.0489885      17.248323      11.865476    
   1960000   0.9596875      17.069716      12.008564    
   1961000   0.97477165     17.045292      12.044222    
   1962000   1.0091804      16.674618      12.005393    
   1963000   1.012884       17.279789      11.88606     
   1964000   0.97827223     17.33581       11.653637    
   1965000   0.96437215     16.615535      11.623013    
   1966000   0.94938656     17.191535      11.318258    
   1967000   0.9855714      17.159125      11.025433    
   1968000   0.9993552      16.677357      11.124113    
   1969000   0.9925346      17.691749      10.923445    
   1970000   0.99683425     17.512601      10.883519    
   1971000   0.98196397     17.657104      10.928796    
   1972000   1.0068499      17.82078       10.834863    
   1973000   0.99376079     16.927368      10.79155     
   1974000   1.0318063      17.494495      10.691642    
   1975000   0.99619968     17.166088      10.473793    
   1976000   1.0192223      17.476283      10.468748    
   1977000   0.98171842     16.428228      10.688741    
   1978000   1.0230092      17.873005      10.724614    
   1979000   0.99539826     17.08386       10.59318     
   1980000   1.0161355      17.629371      10.52176     
   1981000   0.9882393      16.755979      10.367415    
   1982000   1.0201184      16.90297       10.29054     
   1983000   1.0620081      17.234316      10.234072    
   1984000   0.99565709     17.169471      10.172851    
   1985000   0.99032626     17.420746      10.204413    
   1986000   1.0073788      17.293211      10.290131    
   1987000   0.99296707     17.247355      10.131195    
   1988000   1.0243293      17.972024      9.9001764    
   1989000   0.96850853     16.547903      9.7356331    
   1990000   1.0034347      17.273148      9.2313026    
   1991000   0.95523762     17.047975      9.1300113    
   1992000   1.0634197      17.307059      8.9442806    
   1993000   1.0236761      17.70286       8.8420284    
   1994000   1.000102       17.018085      8.6441119    
   1995000   1.0166093      17.240535      8.538312     
   1996000   1.0444343      17.175999      8.5901647    
   1997000   0.97202103     16.945099      8.5831228    
   1998000   1.0015478      16.921226      8.5300403    
   1999000   0.96636587     17.646772      8.526249     
   2000000   0.98539914     17.342623      8.5432246    
   2001000   1.0004459      16.748979      8.6672822    
   2002000   0.97746855     17.330994      8.4441829    
   2003000   1.0212098      17.024582      8.3381565    
   2004000   0.96469071     17.072974      8.1597875    
   2005000   0.98349635     16.900645      8.2016776    
   2006000   0.99342822     17.087952      8.4018056    
   2007000   0.98303505     16.935096      8.2970897    
   2008000   0.975286       16.832936      8.3848694    
   2009000   1.0244641      17.194384      8.1956702    
   2010000   1.0291968      17.052724      8.1527084    
   2011000   1.0277149      17.051433      8.0110803    
   2012000   1.0397801      17.828105      7.8786571    
   2013000   0.97945964     16.506345      7.8434434    
   2014000   1.0107987      16.770085      7.673769     
   2015000   1.0077699      18.00757       7.636675     
   2016000   1.0203611      17.052267      7.7829813    
   2017000   1.0041293      17.559283      7.7569057    
   2018000   0.96087305     17.221102      7.5327763    
   2019000   0.99841636     17.163285      7.3650186    
   2020000   1.0324266      17.4972        7.5217388    
   2021000   0.96642096     16.625823      7.2580311    
   2022000   0.94313334     17.401655      7.1593379    
Fix halt condition for fix-id 3 met on step 2023000 with value 6.996923962653959 (src/fix_halt.cpp:237)
   2023000   0.95280103     17.316913      6.996924     
Loop time of 2305.18 on 2 procs for 1923000 steps with 800 atoms

Performance: 720756.183 tau/day, 834.209 timesteps/s
125.8% CPU use with 1 MPI tasks x 2 OpenMP threads

MPI task timing breakdown:
Section |  min time  |  avg time  |  max time  |%varavg| %total
---------------------------------------------------------------
Pair    | 430.16     | 430.16     | 430.16     |   0.0 | 18.66
Bond    | 39.235     | 39.235     | 39.235     |   0.0 |  1.70
Neigh   | 1739.8     | 1739.8     | 1739.8     |   0.0 | 75.47
Comm    | 0.66447    | 0.66447    | 0.66447    |   0.0 |  0.03
Output  | 4.4684     | 4.4684     | 4.4684     |   0.0 |  0.19
Modify  | 84.652     | 84.652     | 84.652     |   0.0 |  3.67
Other   |            | 6.215      |            |       |  0.27

Nlocal:            800 ave         800 max         800 min
Histogram: 1 0 0 0 0 0 0 0 0 0
Nghost:              0 ave           0 max           0 min
Histogram: 1 0 0 0 0 0 0 0 0 0
Neighs:         139210 ave      139210 max      139210 min
Histogram: 1 0 0 0 0 0 0 0 0 0

Total # of neighbors = 139210
Ave neighs/atom = 174.0125
Ave special neighs/atom = 1.9975
Neighbor list builds = 18083
Dangerous builds = 0

# This simulation is done
# Move onto the next one
clear
  using 2 OpenMP thread(s) per MPI task
package omp 0
using multi-threaded neighbor list subroutines
next f
jump SELF

###
# Reference paper:
# K. Kremer and G. S. Grest
# Dynamics of entangled linear polymer melts: A molecular-dynamics simulation
# J Chem Phys 92, 5057 (1990)

##################################
# MIHIR: for branched polymers
# LJ minimum first to expand and explore, then collapse
###

###
# Looping through the various linear polymers to simulate,
# define variables to switch through
# variable f index bb100nuc0bl0bn0d30tot100 bb200nuc0bl0bn0d30tot200 bb300nuc0bl0bn0d30tot300 bb400nuc0bl0bn0d30tot400 bb500nuc0bl0bn0d30tot500 bb600nuc0bl0bn0d30tot600 bb700nuc0bl0bn0d30tot700 bb800nuc0bl0bn0d30tot800 bb900nuc0bl0bn0d30tot900 bb1000nuc0bl0bn0d30tot1000 bb1100nuc0bl0bn0d30tot1100 bb1200nuc0bl0bn0d30tot1200
variable f index bb800nuc0bl0bn0d30tot800 bb900nuc0bl0bn0d30tot900 bb1000nuc0bl0bn0d30tot1000 bb1100nuc0bl0bn0d30tot1100 bb1200nuc0bl0bn0d30tot1200
###


###
# Box and units  (use LJ units and periodic boundaries)
###

units lj
log linear/logs3/$f.log
log linear/logs3/bb900nuc0bl0bn0d30tot900.log
