#atom_style bond #no stiffness
atom_style angle #with stiffness

boundary        p p p
###
# Pair interactions require lists of neighbours to be calculated
###

#neighbor 0.3 bin
neighbor 4 bin

neigh_modify every 1 delay 1 check yes
atom_modify sort 0 0
### Generate RESTART file, SPECIAL format, not a .txt file ###
### Useful if simulation crashes ###

restart 1000000 tshaped/restarts3/$f.restart
restart 1000000 tshaped/restarts3/bb466nuc1bl233bn3d30tot700.restart
#############################



### READ "start" data file ###

read_data tshaped/$f.dat
read_data tshaped/bb466nuc1bl233bn3d30tot700.dat
Reading data file ...
  orthogonal box = (-1000 -1000 -1000) to (1000 1000 1000)
  1 by 1 by 1 MPI processor grid
  reading atoms ...
  700 atoms
  scanning bonds ...
  2 = max bonds/atom
  scanning angles ...
  3 = max angles/atom
  reading bonds ...
  699 bonds
  reading angles ...
  699 angles
Finding 1-2 1-3 1-4 neighbors ...
  special bond factors lj:    0        0        0       
  special bond factors coul:  0        0        0       
     3 = max # of 1-2 neighbors
     3 = max # of 1-3 neighbors
     6 = max # of 1-4 neighbors
     9 = max # of special neighbors
  special bonds CPU = 0.006 seconds
  read_data CPU = 0.235 seconds

######################

### READ "REstart" data file ###

######################



###
# Define groups (atom type 1 is group 'all')
###
group all type 1
700 atoms in group all


###
# Dump configs - "simple dumpings"
###

###
# Dump configs + box coords
###

dump   1   all   custom   1000  tshaped/trjs3/$f.lammpstrj  id  x y z  ix iy iz
dump   1   all   custom   1000  tshaped/trjs3/bb466nuc1bl233bn3d30tot700.lammpstrj  id  x y z  ix iy iz
dump_modify   1   format line "%d %.5f %.5f %.5f %d %d %d"

########################################################################


###################################################################
# Stiffness term
#
# E = K * (1+cos(theta)), K>0
#
angle_style   cosine
#change this coefficient to change stiffness (e.g. 1,5,10)
angle_coeff   1 1.0
###################################################################

###################################################################
# Pair interaction between non-bonded atoms
#
#  Lennard-Jones 12-6 potential with cutoff:
#  potential E=4epsilon[ (sigma/r)^12 - (sigma/r)^6]  for r<r_cut
#
#  1.12246 = 2^(1/6) is the minimum of the potential


pair_style      lj/cut 1.12246152962189
#pair_style      lj/cut 3

#
#  pair_modify shift yes adds a constant to the potential such

#  that E(r_cut)=0. Forces remains unchanged.
#

pair_modify     shift yes

#
#  pair_coeff for lj/cut, specify 4:
#    * atom type interacting with
#    * atom type
#    * epsilon (energy units)
#    * sigma (distance units)
#

pair_coeff      1 1 1.0 1.0
###################################################################

###################################################################
# Pair interaction between non-bonded atoms
#
#  soft potential, for PUSHING apart overlapping atoms
#  potential E=A*(1 + cos(pi*r/r_c))
#
#  1.12246 = 2^(1/6) is the cut-off r_c

#pair_style     soft 1.12246152962189

#
#  pair_coeff for soft, specify 3:
#    * atom type interacting with
#    * atom type
#    * A
#
#

#pair_coeff      1 1 100.0
###################################################################

###################################################################
# Pair interaction between bonded atoms
#
# Fene potential + Lennard Jones 12-6:

#
#  E= - 0.5 K R0^2 ln[ 1- (r/R0)^2]
#     + 4epsilon[ (sigma/r)^12 - (sigma/r)^6] + epsilon
#

bond_style   fene


#
# For style fene, specify:
#   * bond type
#   * K (energy/distance^2)
#   * R0 (distance)
#   * epsilon (energy)  (LJ component)
#   * sigma (distance)  (LJ component)
#


special_bonds fene #<=== I M P O R T A N T (new command)
Finding 1-2 1-3 1-4 neighbors ...
  special bond factors lj:    0        1        1       
  special bond factors coul:  0        1        1       
     3 = max # of 1-2 neighbors
     9 = max # of special neighbors
  special bonds CPU = 0.000 seconds

bond_coeff   1   30   2   1.0   1.0


###################################################

###################################################################
# Pair interaction between bonded atoms
#
# Harmonic potential:
#
#  E= K * (R-R0)^2
#

#bond_style   harmonic

#
# For style harmonic, specify:
#   * bond type
#   * K (energy/distance^2)
#   * R0 (distance)
#

#bond_coeff   1   60.0   1.0
#bond_coeff   2   harmonic 0.1   1.0

###################################################
compute 1 all gyration
variable rog equal c_1
#compute 2 all coord/atom cutoff 1.1

#dump 2 all custom 10000 contact_number.dump id c_2


###
# Set up fixes
###
thermo_style   custom   step  temp enthalpy c_1
fix 1 all nve   ###NVE ensemble

fix 2 all   langevin   1.0 1.0 1.0  158102   ###Langevin integrator Tstart Tstop 1/friction rndseed


##### Sample thermodynamic info  (temperature, energy, pressure, etc.) #####
thermo 1000









############################################################################

###
# set timestep of integrator

timestep 0.01

###
# run integration for a number of steps
###
#run 0
#variable r equal c_1
#if "$r < 63.1" then "quit 1"

# lj potential minimum, cause molecule to explore
run 100000
Generated 0 of 0 mixed pair_coeff terms from geometric mixing rule
Last active /omp style is angle_style cosine/omp
Neighbor list info ...
  update: every = 1 steps, delay = 1 steps, check = yes
  max neighbors/atom: 2000, page size: 100000
  master list distance cutoff = 5.1224615
  ghost atom cutoff = 5.1224615
  binsize = 2.5612308, bins = 781 781 781
  1 neighbor lists, perpetual/occasional/extra = 1 0 0
  (1) pair lj/cut/omp, perpetual
      attributes: half, newton on, omp
      pair build: half/bin/newton/omp
      stencil: half/bin/3d
      bin: standard
WARNING: Communication cutoff 5.12246152962189 is shorter than a bond length based estimate of 5.455. This may lead to errors. (src/comm.cpp:723)
Per MPI rank memory allocation (min/avg/max) = 1860 | 1860 | 1860 Mbytes
   Step          Temp         Enthalpy         c_1      
         0   0              13.403887      115.69713    
      1000   1.0321655      19.414003      115.5501     
      2000   0.97823198     18.603815      115.21577    
      3000   1.0466692      19.105909      114.6406     
      4000   1.0010577      18.792362      114.40706    
      5000   1.0210351      19.192038      114.07573    
      6000   1.0014497      18.98652       113.85142    
      7000   1.0739045      19.917649      113.67839    
      8000   1.0630194      19.03647       113.27693    
      9000   0.9962076      18.831249      112.96416    
     10000   0.98154411     19.142241      112.82656    
     11000   1.0377997      18.688608      112.66641    
     12000   1.0112071      18.96683       112.36611    
     13000   0.99150172     19.158507      112.2829     
     14000   0.99718283     19.27648       112.0194     
     15000   0.97299363     19.20694       111.37974    
     16000   1.0096769      18.914934      111.12899    
     17000   0.97299014     18.822324      111.01906    
     18000   1.0093113      19.443493      110.86394    
     19000   1.0122687      19.046905      110.72602    
     20000   1.0024307      19.257081      110.33405    
     21000   0.9692158      19.95456       110.12887    
     22000   0.98909439     19.168981      109.99677    
     23000   1.0101967      19.784876      109.64805    
     24000   0.95801989     19.62389       109.51071    
     25000   0.96178282     19.415917      109.34439    
     26000   0.95903257     19.734463      108.92963    
     27000   1.020849       19.821518      108.95105    
     28000   0.92223601     19.637518      108.6692     
     29000   1.0179258      18.986577      108.26444    
     30000   0.97217469     19.410822      107.97393    
     31000   1.0122812      19.474816      107.73083    
     32000   0.99757549     19.124002      107.50271    
     33000   1.0308888      19.572884      107.10133    
     34000   0.95692233     19.458627      106.78303    
     35000   0.97834134     19.322159      106.33946    
     36000   0.98128149     19.116452      106.30989    
     37000   1.0399655      19.459762      106.04969    
     38000   0.9778011      18.678757      105.85051    
     39000   1.0105194      19.632735      105.32137    
     40000   0.96248504     19.921884      104.99097    
     41000   1.00501        19.84683       104.91282    
     42000   0.98656278     19.819377      104.69135    
     43000   1.0448742      19.674715      104.42302    
     44000   1.0011663      19.589477      103.87643    
     45000   0.9449079      19.851832      103.5013     
     46000   1.0046528      19.72848       103.03174    
     47000   1.0165359      19.533624      102.68737    
     48000   1.0457076      20.319891      102.53797    
     49000   0.97097188     19.960645      102.1584     
     50000   0.99559925     20.098471      101.76355    
     51000   0.98204669     19.960317      101.70486    
     52000   0.98806443     19.776012      101.19679    
     53000   1.0193266      20.303885      101.05059    
     54000   0.95359041     19.791136      100.83063    
     55000   1.0393261      19.770697      100.78732    
     56000   1.0035174      19.864552      100.33659    
     57000   1.0072914      20.494152      100.24233    
     58000   1.0001492      19.722516      100.06647    
     59000   1.0477435      19.867048      99.835974    
     60000   0.95512241     19.729527      99.384661    
     61000   1.0034226      20.360529      99.47397     
     62000   1.0565016      19.911216      99.217253    
     63000   1.0293216      20.096221      98.942837    
     64000   1.0047641      19.795538      98.92621     
     65000   1.0123369      19.999192      98.714877    
     66000   1.0042638      20.006594      98.611011    
     67000   1.0835271      19.923238      98.218822    
     68000   1.0440866      19.891325      98.349466    
     69000   0.99749472     19.947758      97.880458    
     70000   1.0406818      20.312335      97.507657    
     71000   0.97656964     20.038851      97.397676    
     72000   0.92444368     19.263301      97.147242    
     73000   1.0700904      20.122707      96.992018    
     74000   0.9722161      19.464207      96.736787    
     75000   1.0022165      19.802868      96.449769    
     76000   1.0431333      20.237597      96.316849    
     77000   1.0402318      20.099528      96.1938      
     78000   0.98967163     20.392194      95.741126    
     79000   1.0190919      19.672854      95.640922    
     80000   0.98862911     20.051772      95.841117    
     81000   0.98865829     20.245236      95.757494    
     82000   0.96247788     19.409777      95.629871    
     83000   0.98940705     20.182485      95.328168    
     84000   0.97261135     20.08494       95.132782    
     85000   0.9902043      19.717526      95.21004     
     86000   1.0609759      19.849296      95.026739    
     87000   1.0009401      20.923843      94.801108    
     88000   0.98253137     20.255997      94.631252    
     89000   0.96175347     19.560311      94.68824     
     90000   1.0340155      19.984283      94.092298    
     91000   1.0465737      20.24722       94.031024    
     92000   0.98682556     19.989502      93.978463    
     93000   1.0019088      19.916357      93.989411    
     94000   1.0000717      20.355199      93.810946    
     95000   1.0057531      20.03034       93.730968    
     96000   0.99389226     19.98877       93.631693    
     97000   1.0031468      19.979009      93.481573    
     98000   1.0170712      19.718892      93.286829    
     99000   0.97383942     19.875531      92.929626    
    100000   0.99567602     19.924155      93.073609    
Loop time of 623.97 on 2 procs for 100000 steps with 700 atoms

Performance: 138468.085 tau/day, 160.264 timesteps/s
101.4% CPU use with 1 MPI tasks x 2 OpenMP threads

MPI task timing breakdown:
Section |  min time  |  avg time  |  max time  |%varavg| %total
---------------------------------------------------------------
Pair    | 1.012      | 1.012      | 1.012      |   0.0 |  0.16
Bond    | 2.0642     | 2.0642     | 2.0642     |   0.0 |  0.33
Neigh   | 616.41     | 616.41     | 616.41     |   0.0 | 98.79
Comm    | 0.042762   | 0.042762   | 0.042762   |   0.0 |  0.01
Output  | 0.26085    | 0.26085    | 0.26085    |   0.0 |  0.04
Modify  | 3.8132     | 3.8132     | 3.8132     |   0.0 |  0.61
Other   |            | 0.3627     |            |       |  0.06

Nlocal:            700 ave         700 max         700 min
Histogram: 1 0 0 0 0 0 0 0 0 0
Nghost:              0 ave           0 max           0 min
Histogram: 1 0 0 0 0 0 0 0 0 0
Neighs:           3988 ave        3988 max        3988 min
Histogram: 1 0 0 0 0 0 0 0 0 0

Total # of neighbors = 3988
Ave neighs/atom = 5.6971429
Ave special neighs/atom = 1.9971429
Neighbor list builds = 1074
Dangerous builds = 0

# Replace lj potential, now collapse
pair_style      lj/cut 3

# Cutoff simul when gyration under 5
# Variable created with equal requires v_ + 'name'
fix 3 all halt 1000 v_rog < 7

run 5000000
Generated 0 of 0 mixed pair_coeff terms from geometric mixing rule
Last active /omp style is angle_style cosine/omp
Per MPI rank memory allocation (min/avg/max) = 1860 | 1860 | 1860 Mbytes
   Step          Temp         Enthalpy         c_1      
    100000   0.99567602     19.31936       93.073609    
    101000   0.93783978     19.857513      92.948262    
    102000   0.99271717     19.817709      92.878165    
    103000   1.0033273      19.161959      92.95649     
    104000   0.98136167     19.22699       92.615059    
    105000   0.97239591     19.677435      92.331023    
    106000   1.0030814      19.675552      92.109696    
    107000   0.97963244     19.268658      91.713965    
    108000   0.97417867     19.467545      91.358641    
    109000   0.97434337     19.784073      90.97027     
    110000   1.005403       19.572353      90.724151    
    111000   0.97932841     19.493338      90.456739    
    112000   1.0217332      19.595497      90.057121    
    113000   0.96717157     19.126769      89.891575    
    114000   0.99255269     19.950483      89.819151    
    115000   1.0449165      19.814511      89.754634    
    116000   0.98694757     19.525912      89.626097    
    117000   0.97365876     20.0726        89.018691    
    118000   0.98650441     20.227012      88.949285    
    119000   0.99544267     19.69841       88.81237     
    120000   0.97546381     19.754493      88.701216    
    121000   1.0362357      19.328075      88.446431    
    122000   1.0244159      19.475689      88.302344    
    123000   1.0016273      19.334544      88.347851    
    124000   1.0366441      19.697141      88.390697    
    125000   0.95878689     18.953868      88.017064    
    126000   1.0160495      19.261039      88.023479    
    127000   1.0063596      19.330193      87.70384     
    128000   1.0436036      20.234536      87.593787    
    129000   0.97270696     19.665913      87.57531     
    130000   1.0158263      19.084471      87.554061    
    131000   1.017367       19.356788      87.301915    
    132000   0.98409676     19.330743      87.097739    
    133000   1.0835749      19.358724      86.905852    
    134000   0.99402183     19.072514      86.834001    
    135000   0.99479926     20.04854       86.453668    
    136000   1.0331649      19.430128      86.337063    
    137000   1.0342218      19.335941      86.165361    
    138000   1.0035277      18.671456      86.03128     
    139000   1.0040579      19.570945      85.611714    
    140000   0.98896873     19.059599      85.584048    
    141000   0.97235365     18.764444      85.717795    
    142000   1.0151048      19.84384       85.661681    
    143000   1.039621       19.604802      85.557471    
    144000   1.0410562      20.178787      85.520549    
    145000   0.97964341     19.43347       85.731664    
    146000   1.0186415      20.00151       85.267261    
    147000   0.99951335     19.66582       85.095296    
    148000   1.0004581      19.12795       84.859822    
    149000   1.0387702      19.608263      84.738963    
    150000   1.0336503      19.567977      84.459932    
    151000   1.0042131      19.258552      84.460978    
    152000   0.96618611     19.038631      84.126757    
    153000   0.96001076     19.324095      83.817093    
    154000   1.0365469      18.879018      83.957573    
    155000   1.0077816      19.315931      83.817205    
    156000   0.99852247     18.901144      83.441769    
    157000   1.0232638      19.187895      83.366658    
    158000   0.98429511     18.9036        83.305842    
    159000   1.0173451      18.847567      83.002295    
    160000   0.9847514      19.280608      82.927511    
    161000   0.99897189     18.988681      82.804102    
    162000   1.047711       19.251459      82.853562    
    163000   0.98584838     19.011367      82.963624    
    164000   1.0259739      19.351358      82.903433    
    165000   0.9575585      18.841399      82.901213    
    166000   0.98805949     19.851939      82.815453    
    167000   1.0043074      19.053053      82.445215    
    168000   1.0201212      18.470712      82.369287    
    169000   0.95289228     18.566401      82.219711    
    170000   0.96771196     18.977595      82.032816    
    171000   1.0156468      19.402538      81.623385    
    172000   0.97479861     19.177394      81.272192    
    173000   0.97565185     19.297234      81.051176    
    174000   1.0215665      19.10496       80.669615    
    175000   1.003609       19.494961      80.529132    
    176000   1.0129285      18.943823      80.392929    
    177000   1.0350278      19.395601      80.352807    
    178000   1.0554149      19.181654      80.431291    
    179000   0.97601733     18.918378      80.085991    
    180000   1.0178859      19.175987      79.908391    
    181000   0.9909189      19.156639      79.612335    
    182000   1.0211087      18.98815       79.274735    
    183000   1.0569568      19.53704       78.923411    
    184000   1.0096398      19.170214      78.466142    
    185000   1.0077921      18.54537       78.323661    
    186000   1.0374949      18.726423      78.301775    
    187000   1.0305111      18.82951       78.455701    
    188000   0.99248914     18.811061      78.286512    
    189000   1.0353214      19.123113      78.185224    
    190000   1.0103603      19.21767       77.778964    
    191000   0.9862063      18.464092      77.945005    
    192000   1.0134819      18.775026      77.929936    
    193000   0.98479171     19.368579      77.858421    
    194000   0.98453579     19.063013      77.481809    
    195000   1.0426897      18.75148       77.500354    
    196000   0.93262127     18.258725      77.255086    
    197000   0.9872702      18.521058      77.217952    
    198000   0.92023231     18.651672      76.899294    
    199000   1.0141356      18.427704      76.863404    
    200000   1.0022876      18.819853      76.570691    
    201000   0.96791213     18.984597      76.22888     
    202000   0.98258517     19.234018      76.218496    
    203000   1.0185708      19.054557      76.119099    
    204000   0.99402317     19.273293      76.052737    
    205000   1.0062673      19.411311      76.066753    
    206000   0.98292004     18.765534      75.786307    
    207000   1.0494201      18.843102      75.612547    
    208000   0.99540084     18.48891       75.385961    
    209000   0.9940998      18.702532      75.322829    
    210000   0.98623156     19.127843      75.398021    
    211000   1.0047668      19.205009      75.352164    
    212000   1.012937       18.69982       75.445211    
    213000   1.013413       18.633154      75.238343    
    214000   1.021049       18.852804      75.184802    
    215000   1.1025478      18.967331      74.933316    
    216000   0.97228864     19.060877      74.848342    
    217000   0.97064668     19.039907      74.823198    
    218000   0.97716425     18.834955      74.679955    
    219000   1.0330748      18.31376       74.655073    
    220000   1.001013       18.881779      74.698356    
    221000   1.0346425      18.832468      74.222545    
    222000   0.96730935     18.12952       73.889579    
    223000   0.98979969     18.832415      73.652174    
    224000   1.022285       19.032682      73.416985    
    225000   0.98290933     18.027986      73.210885    
    226000   1.0120808      18.772401      73.177182    
    227000   1.0325946      18.217519      73.269971    
    228000   0.98026093     18.4158        72.974337    
    229000   0.98441218     18.304943      73.13053     
    230000   1.0414777      19.217353      72.831782    
    231000   1.0086273      18.728159      72.644791    
    232000   1.0123341      19.169556      72.784748    
    233000   0.9763672      18.455615      72.732007    
    234000   1.0227532      18.542615      72.499485    
    235000   1.006839       18.888393      72.280017    
    236000   1.0077429      19.275613      72.241912    
    237000   1.0278288      18.748382      72.005868    
    238000   1.0696416      19.109405      71.938948    
    239000   1.0025976      18.478572      71.956461    
    240000   1.05661        19.015419      71.562221    
    241000   1.0716331      18.872793      71.425915    
    242000   1.0200951      18.731289      71.318169    
    243000   0.9816452      18.503109      70.73675     
    244000   1.0424395      18.947578      70.875169    
    245000   0.95578828     19.064786      70.829899    
    246000   0.99302781     18.90045       70.553485    
    247000   0.99825602     18.369353      70.523398    
    248000   1.0014981      18.795968      70.125563    
    249000   1.0062369      18.718985      69.910151    
    250000   1.0297956      18.588487      69.682151    
    251000   0.98925056     18.494325      69.445       
    252000   0.99617935     18.799485      69.64796     
    253000   1.0011613      18.067262      69.52286     
    254000   1.0344807      18.753055      69.237       
    255000   1.004773       19.051068      69.23362     
    256000   0.99478484     19.279219      68.849612    
    257000   1.0301719      18.700756      68.65087     
    258000   0.98266741     19.007564      68.703951    
    259000   1.0109897      18.734998      68.494308    
    260000   1.0393097      19.172145      68.54118     
    261000   0.97438905     18.440965      68.354558    
    262000   1.0661364      18.819424      68.219202    
    263000   1.0335405      18.664952      68.143269    
    264000   1.0064115      18.510498      68.107796    
    265000   1.023448       18.54156       67.936636    
    266000   0.97395485     19.01881       67.794501    
    267000   1.0126311      17.849767      67.384363    
    268000   1.0302894      18.800689      67.162973    
    269000   0.9938179      18.575584      66.91487     
    270000   1.0169352      18.64016       67.010265    
    271000   1.0002121      18.883744      66.697213    
    272000   0.99429946     18.804222      66.464776    
    273000   0.99681139     18.67165       66.51952     
    274000   0.95540335     18.541251      66.028239    
    275000   0.93275396     17.794171      65.998525    
    276000   0.98163184     18.153659      65.86228     
    277000   0.98074812     17.972344      65.681245    
    278000   1.1030074      18.963027      65.078515    
    279000   1.0222192      19.415389      64.99923     
    280000   0.98248528     18.985002      64.677913    
    281000   1.0183252      18.459134      64.550678    
    282000   0.99795996     18.245994      64.090853    
    283000   1.0154545      19.261337      63.768628    
    284000   0.97319938     18.748656      63.464404    
    285000   0.98316855     18.624008      63.291965    
    286000   1.0065085      18.469171      63.330913    
    287000   0.95067429     17.715979      63.243613    
    288000   1.0110307      19.067138      63.026396    
    289000   1.0125832      18.51972       62.952842    
    290000   0.95341128     18.655983      62.713278    
    291000   1.0332602      18.295984      62.579893    
    292000   1.0366732      19.115361      62.266873    
    293000   1.0000487      18.915029      62.412614    
    294000   0.99765698     19.092885      62.434725    
    295000   1.0354891      18.484378      62.45404     
    296000   1.012997       18.651945      62.653232    
    297000   0.98743343     18.852965      62.443508    
    298000   1.0532845      18.452605      62.23098     
    299000   1.0044255      18.657943      62.089708    
    300000   0.95832871     18.916593      62.097811    
    301000   0.94895961     19.321381      61.774305    
    302000   0.9761436      18.784466      61.625457    
    303000   0.97134828     18.77882       61.369551    
    304000   1.0011455      18.440969      61.015798    
    305000   0.98641543     18.582269      60.84852     
    306000   0.97378979     18.105481      60.668622    
    307000   0.97102777     17.781545      60.549846    
    308000   1.021728       18.775689      60.175141    
    309000   0.98627317     18.4964        59.937243    
    310000   1.0026292      18.258281      59.591082    
    311000   0.97528804     18.381035      59.541312    
    312000   0.97946606     18.906632      59.572137    
    313000   1.0003111      18.017928      59.516757    
    314000   1.0035001      18.3037        59.490602    
    315000   1.007247       18.214668      59.359947    
    316000   1.0426567      18.649414      59.14729     
    317000   0.98716126     17.854024      58.897108    
    318000   1.0544505      18.920215      58.814551    
    319000   1.0072701      18.737151      58.797823    
    320000   0.96307291     18.280365      58.604178    
    321000   1.0257301      18.714574      58.441516    
    322000   0.96824663     18.121145      58.491173    
    323000   0.98589683     18.058072      58.380621    
    324000   0.94778756     18.59333       58.021877    
    325000   0.98914923     18.290723      57.878751    
    326000   1.012645       18.05224       57.782315    
    327000   1.0129238      18.414095      57.5768      
    328000   0.97456414     18.111398      57.722437    
    329000   0.99582131     18.140607      57.33617     
    330000   0.93306781     19.043707      57.17119     
    331000   1.0641024      18.626845      57.128709    
    332000   0.9932882      18.412825      57.244392    
    333000   0.98792843     18.129869      57.040498    
    334000   0.9606568      17.612582      56.780704    
    335000   0.99733624     18.058767      56.432416    
    336000   0.95399807     18.21935       56.407701    
    337000   1.0016808      18.718147      56.148409    
    338000   0.9877956      17.771977      56.023327    
    339000   0.96421236     18.20829       55.803092    
    340000   0.99303108     18.248446      55.560423    
    341000   1.0236453      18.545932      55.518636    
    342000   0.98524644     18.647579      55.343952    
    343000   0.96211124     18.260252      55.026934    
    344000   1.0312594      18.597936      54.977516    
    345000   0.99306888     18.42381       54.927804    
    346000   1.0294175      18.108023      54.864294    
    347000   0.99358487     18.55343       54.479657    
    348000   1.0317784      18.109171      54.526249    
    349000   1.0052364      18.224904      54.182425    
    350000   0.99186464     18.991332      54.11801     
    351000   1.046579       18.087955      53.897589    
    352000   1.0429028      19.060201      53.627097    
    353000   1.0003726      18.001214      53.469925    
    354000   0.989146       17.688783      53.33346     
    355000   1.0162764      18.535077      53.12091     
    356000   0.98516332     18.097038      53.031567    
    357000   0.98858546     18.466585      52.943858    
    358000   1.028422       18.471259      52.737043    
    359000   1.030703       17.784819      52.777968    
    360000   0.96278101     17.508889      52.704762    
    361000   1.0118301      17.980025      52.636419    
    362000   0.98113918     18.144253      52.536732    
    363000   0.9506513      18.844018      52.210622    
    364000   0.97153326     18.455768      52.044197    
    365000   1.0234149      18.190988      51.989959    
    366000   0.97055876     18.905549      51.643649    
    367000   1.02309        18.280521      51.197464    
    368000   0.96826564     17.825141      51.190821    
    369000   0.96281649     17.85939       51.266665    
    370000   1.0900469      18.341496      50.96658     
    371000   0.9622036      18.674114      51.001063    
    372000   0.99839225     18.364126      50.530369    
    373000   1.0069141      18.785064      50.148712    
    374000   0.99435527     18.067511      49.624787    
    375000   1.0380568      18.711408      49.312302    
    376000   0.93182231     18.040877      49.454234    
    377000   0.98183639     17.9744        49.562726    
    378000   0.98649138     18.965713      49.472146    
    379000   0.96889911     18.382633      48.991692    
    380000   1.0205789      19.336151      48.797491    
    381000   0.98814037     18.30256       48.56827     
    382000   0.96941725     17.945021      48.234122    
    383000   1.0226117      18.271927      48.147098    
    384000   0.99489632     18.655845      48.073068    
    385000   1.0318823      18.380215      47.984045    
    386000   0.980325       17.979023      47.872305    
    387000   1.0333702      17.851418      47.803788    
    388000   0.96516346     19.192333      47.585805    
    389000   1.0017594      17.654762      47.425218    
    390000   0.94497409     18.038675      47.2838      
    391000   0.9618807      17.922754      47.126028    
    392000   0.96282667     17.680691      46.983707    
    393000   0.95184996     18.784941      46.730847    
    394000   0.99350331     17.875224      46.353396    
    395000   1.0216765      18.370655      46.314021    
    396000   1.056848       18.563582      46.038842    
    397000   0.95703527     17.403311      46.123005    
    398000   1.003665       17.935639      46.327973    
    399000   1.0037104      17.879323      46.323276    
    400000   1.0539096      18.514389      46.012427    
    401000   1.0003076      18.376756      45.935559    
    402000   1.0024896      18.204255      45.822541    
    403000   1.0098738      18.122632      45.507521    
    404000   0.99152882     18.544781      45.311384    
    405000   1.0128903      18.01918       45.296138    
    406000   1.0236719      17.880212      45.058287    
    407000   1.0308048      18.114388      44.634767    
    408000   0.99746284     18.036642      44.102736    
    409000   0.97713583     18.476748      43.675314    
    410000   1.0124376      19.192285      43.454259    
    411000   0.98637228     18.276805      43.060924    
    412000   1.0088183      18.848716      42.912459    
    413000   1.0272905      17.990469      42.729264    
    414000   0.9855491      18.299275      42.647616    
    415000   1.0276705      18.003974      42.682666    
    416000   1.0254773      17.983276      42.581739    
    417000   0.98743618     18.376857      42.350189    
    418000   1.0825908      18.55057       42.226616    
    419000   1.0181108      18.488564      42.032083    
    420000   1.0573655      18.635081      41.947515    
    421000   1.0214228      18.280205      41.641636    
    422000   1.0149466      18.270336      41.730505    
    423000   1.0351883      17.978768      41.650858    
    424000   0.99176243     18.779074      41.694548    
    425000   1.050576       18.072771      41.72716     
    426000   0.9437678      18.122465      41.524746    
    427000   0.9967193      18.364331      41.254525    
    428000   0.98706209     18.237873      41.130943    
    429000   1.0065747      18.205284      41.01287     
    430000   1.0300151      19.195396      40.681422    
    431000   1.0036113      18.303132      40.592729    
    432000   1.053719       18.394351      40.328425    
    433000   1.068007       18.568399      40.369178    
    434000   0.98487718     18.678645      40.45777     
    435000   0.93092768     17.855203      40.399546    
    436000   0.9573347      18.25688       40.226691    
    437000   1.0725776      17.976798      40.145956    
    438000   0.99933845     17.888897      40.363401    
    439000   0.99754464     17.415541      40.448815    
    440000   0.96931588     17.938489      40.365861    
    441000   1.0539602      18.681806      40.08558     
    442000   1.0150957      17.885372      39.891608    
    443000   0.96398851     17.513581      39.816191    
    444000   1.0145319      17.809563      39.783468    
    445000   1.0346155      17.772109      39.69212     
    446000   1.0309762      18.549459      39.455001    
    447000   0.95164185     18.331594      39.135984    
    448000   1.037626       17.854902      38.7787      
    449000   1.0026841      18.059797      38.792607    
    450000   0.99995553     17.599308      38.703308    
    451000   0.9780553      17.953715      38.382807    
    452000   1.0171395      17.987896      38.302483    
    453000   1.0030313      17.736009      38.32668     
    454000   1.0380465      18.172357      38.111376    
    455000   1.0012991      17.632879      38.008031    
    456000   0.99819202     18.581313      37.633319    
    457000   0.98075214     18.105431      37.310948    
    458000   1.0445864      17.474135      36.868889    
    459000   0.99700733     17.980297      36.672662    
    460000   1.013938       17.810311      36.700124    
    461000   1.0290749      17.9131        36.863412    
    462000   1.0029595      17.826594      36.831839    
    463000   1.0030428      18.114443      36.348397    
    464000   1.0655819      17.806476      36.417943    
    465000   0.96967621     17.871959      36.221901    
    466000   1.0131493      18.272895      36.12452     
    467000   1.0114868      18.162323      35.841368    
    468000   0.9866776      18.024134      35.765948    
    469000   1.0002599      17.927463      35.647264    
    470000   0.98125647     17.885273      35.625291    
    471000   1.0375816      18.248245      35.528668    
    472000   0.99662608     17.815163      35.286362    
    473000   1.0177054      18.159541      35.440517    
    474000   1.0002612      17.609661      35.267756    
    475000   1.0567647      17.977221      34.997996    
    476000   1.0247446      18.063096      34.681253    
    477000   1.0019043      18.505269      34.636139    
    478000   0.97480094     17.630327      34.502194    
    479000   1.0709037      18.746826      34.362175    
    480000   0.99448885     18.295012      33.936095    
    481000   1.0294513      18.687446      33.780599    
    482000   1.0108654      18.825864      33.626773    
    483000   1.0215811      18.02753       33.717296    
    484000   1.0036102      18.179855      33.429516    
    485000   0.98804821     18.064755      33.132064    
    486000   0.9863371      18.368734      33.030273    
    487000   1.0065818      18.128929      32.69665     
    488000   0.94566692     17.792544      32.351218    
    489000   1.0004035      18.019563      32.205329    
    490000   0.9515849      17.734018      31.988072    
    491000   1.0185649      18.774926      31.735449    
    492000   1.0437511      19.109869      31.720573    
    493000   1.0000156      17.998876      31.560205    
    494000   1.0152109      17.228031      31.509578    
    495000   0.96499938     18.47238       31.657812    
    496000   1.0120303      17.186251      31.411248    
    497000   1.0187256      18.102938      31.352056    
    498000   1.010278       18.107971      30.956203    
    499000   1.0028518      17.857339      30.680853    
    500000   1.0388563      18.060676      30.669834    
    501000   0.98363632     18.116792      30.468152    
    502000   1.0075586      17.273918      30.176847    
    503000   0.93662058     18.029364      29.940622    
    504000   0.96316554     18.063954      29.823459    
    505000   0.95110868     17.316791      29.62239     
    506000   1.0195457      17.877293      29.724294    
    507000   1.0329136      17.538605      29.737774    
    508000   1.0128408      17.559537      29.506126    
    509000   0.92823822     17.85464       29.588746    
    510000   0.9999099      18.690375      29.352076    
    511000   0.94603787     16.952571      29.424718    
    512000   1.0297141      17.713166      29.027745    
    513000   0.97353081     17.492166      28.788879    
    514000   1.0600839      18.85659       28.339441    
    515000   1.0192859      18.187489      28.534958    
    516000   1.0445127      17.82947       28.454675    
    517000   0.98669262     17.178625      28.152685    
    518000   0.97965044     17.647521      28.089912    
    519000   1.0394406      17.976961      27.990424    
    520000   1.0386903      18.330357      27.890559    
    521000   0.95168928     18.219579      27.750411    
    522000   1.0176993      18.019836      27.57721     
    523000   0.96281876     17.662758      27.487161    
    524000   0.99051154     18.134105      27.366625    
    525000   1.0352046      17.178292      27.324717    
    526000   1.0244798      17.522285      27.029288    
    527000   1.0156972      17.982932      26.874522    
    528000   0.96935502     17.867809      26.606498    
    529000   0.99478838     17.895075      26.361039    
    530000   1.0343828      17.838882      26.00204     
    531000   1.0162248      18.556084      26.052096    
    532000   1.0178292      18.355862      25.692946    
    533000   1.0316725      17.900034      25.551528    
    534000   1.0292379      18.179339      25.480742    
    535000   1.0705459      17.617813      25.142911    
    536000   0.98848787     17.658704      24.767355    
    537000   0.99557606     17.755427      24.667728    
    538000   0.99513832     17.682007      24.376537    
    539000   1.0023911      17.283446      24.273992    
    540000   1.0244547      18.16676       24.141053    
    541000   0.96176245     18.134289      23.948345    
    542000   0.95583784     18.141338      23.677185    
    543000   0.96693856     17.354963      23.606478    
    544000   1.0319012      18.367915      23.343628    
    545000   1.0045566      17.801618      22.96936     
    546000   0.98211327     17.219294      22.47799     
    547000   1.0180287      17.98389       22.235772    
    548000   1.0051274      18.232545      22.12701     
    549000   1.0540692      17.782742      21.896661    
    550000   1.0335148      17.989495      21.789319    
    551000   1.0143309      17.833442      21.669245    
    552000   1.0546348      18.215352      21.503525    
    553000   1.000654       17.813243      21.517867    
    554000   0.94322181     17.755519      21.755402    
    555000   1.058533       17.308038      21.657421    
    556000   1.0112592      18.297345      21.331574    
    557000   1.0255412      17.39038       21.217705    
    558000   0.96886306     17.552936      21.201074    
    559000   1.0197521      18.168854      21.197224    
    560000   1.005013       17.905983      21.010085    
    561000   1.0504303      17.812305      20.98507     
    562000   0.98489098     17.265395      20.933315    
    563000   1.0063187      17.615899      20.93393     
    564000   1.0666197      18.482357      20.674173    
    565000   0.96912202     17.308924      20.300784    
    566000   0.96705538     18.619329      20.017324    
    567000   0.97019677     17.420797      19.783815    
    568000   0.96629895     16.849406      19.543956    
    569000   1.0487634      18.251729      19.397494    
    570000   1.0124262      17.239088      18.865767    
    571000   1.0592509      18.323881      18.854483    
    572000   0.98365251     17.347998      18.719199    
    573000   0.98869067     17.209559      18.459589    
    574000   0.96553927     17.974096      18.428806    
    575000   0.97756107     18.213161      18.408       
    576000   1.0273678      17.508647      18.075614    
    577000   0.9820477      18.405252      17.845507    
    578000   0.96144183     17.117951      17.663656    
    579000   0.96574688     17.672082      17.503674    
    580000   1.0255543      17.71455       17.522479    
    581000   0.99090534     17.832973      17.407238    
    582000   0.98961632     17.960591      17.342938    
    583000   1.0121669      16.664946      17.280386    
    584000   0.98811802     17.607674      17.233447    
    585000   0.98998542     17.79853       17.102177    
    586000   0.9936404      17.333738      17.032355    
    587000   1.0076333      17.302461      16.975323    
    588000   0.98401425     17.724564      16.633176    
    589000   0.9955509      18.051812      16.518278    
    590000   1.0015067      16.881361      16.391954    
    591000   0.99973247     17.473373      16.295146    
    592000   1.0217105      18.01251       15.790632    
    593000   1.0558479      18.068537      15.427404    
    594000   0.99467413     17.001752      15.392655    
    595000   0.97886868     17.27107       15.421986    
    596000   1.0327999      18.158468      15.332658    
    597000   0.98655798     17.353171      15.1571      
    598000   0.99263692     17.903834      15.305078    
    599000   0.9654528      17.46615       15.104742    
    600000   0.96058759     17.325745      15.019193    
    601000   1.0111855      17.768973      14.732489    
    602000   0.99910987     17.203368      14.419284    
    603000   1.0375641      17.700992      14.159165    
    604000   0.92426298     17.49667       13.914224    
    605000   0.95290635     18.252127      13.690563    
    606000   0.9663876      17.340944      13.37509     
    607000   0.97317105     17.748392      13.031895    
    608000   0.99164557     18.01197       12.576205    
    609000   1.0055323      17.18524       12.364305    
    610000   0.96375231     17.378127      12.054623    
    611000   1.0745587      17.783292      11.795835    
    612000   0.99621225     17.878581      11.445557    
    613000   0.98469779     17.482303      11.110296    
    614000   0.94712799     18.273806      10.809273    
    615000   1.0211738      18.318102      10.497219    
    616000   1.0123667      17.521363      10.441806    
    617000   0.9227065      17.493976      10.321717    
    618000   0.9812459      17.46948       9.9769718    
    619000   0.97883546     16.844837      9.7669065    
    620000   0.99872553     17.369056      9.4443645    
    621000   0.98978909     17.798462      9.1965191    
    622000   1.0283284      17.710262      9.0840407    
    623000   1.0111706      17.409928      8.9275932    
    624000   0.94418227     16.932642      8.9629262    
    625000   0.98445607     17.772487      8.5063684    
    626000   1.0145805      17.471356      8.2528187    
    627000   1.0106869      17.817228      8.1650196    
    628000   0.97867636     16.548614      8.2194957    
    629000   0.98392598     16.852646      8.2795256    
    630000   0.96688083     17.742522      8.069437     
    631000   0.99818226     17.3712        8.1160174    
    632000   1.0546077      16.888812      7.8473464    
    633000   1.0390179      17.082559      7.6629119    
    634000   1.0077311      17.486055      7.5669063    
    635000   1.007323       17.531341      7.3502403    
    636000   1.0683094      17.251058      7.2874872    
    637000   1.0443443      17.504107      7.0867593    
    638000   1.0208854      16.66787       7.0118096    
    639000   0.96736463     17.487048      7.1136945    
Fix halt condition for fix-id 3 met on step 640000 with value 6.957044758117118 (src/fix_halt.cpp:237)
    640000   1.0291388      17.43331       6.9570448    
Loop time of 1228.67 on 2 procs for 540000 steps with 700 atoms

Performance: 379726.275 tau/day, 439.498 timesteps/s
110.1% CPU use with 1 MPI tasks x 2 OpenMP threads

MPI task timing breakdown:
Section |  min time  |  avg time  |  max time  |%varavg| %total
---------------------------------------------------------------
Pair    | 81.506     | 81.506     | 81.506     |   0.0 |  6.63
Bond    | 11.346     | 11.346     | 11.346     |   0.0 |  0.92
Neigh   | 1111.3     | 1111.3     | 1111.3     |   0.0 | 90.45
Comm    | 0.2417     | 0.2417     | 0.2417     |   0.0 |  0.02
Output  | 1.3746     | 1.3746     | 1.3746     |   0.0 |  0.11
Modify  | 20.748     | 20.748     | 20.748     |   0.0 |  1.69
Other   |            | 2.113      |            |       |  0.17

Nlocal:            700 ave         700 max         700 min
Histogram: 1 0 0 0 0 0 0 0 0 0
Nghost:              0 ave           0 max           0 min
Histogram: 1 0 0 0 0 0 0 0 0 0
Neighs:         113307 ave      113307 max      113307 min
Histogram: 1 0 0 0 0 0 0 0 0 0

Total # of neighbors = 113307
Ave neighs/atom = 161.86714
Ave special neighs/atom = 1.9971429
Neighbor list builds = 5126
Dangerous builds = 0

# This simulation is done
# Move onto the next one
clear
  using 2 OpenMP thread(s) per MPI task
package omp 0
using multi-threaded neighbor list subroutines
next f
jump SELF

###
# Reference paper:
# K. Kremer and G. S. Grest
# Dynamics of entangled linear polymer melts: A molecular-dynamics simulation
# J Chem Phys 92, 5057 (1990)

##################################
# MIHIR: for branched polymers
# LJ minimum first to expand and explore, then collapse
###

###
# Looping through the various tshaped polymers to simulate,
# define variables to switch through
variable f index bb66nuc1bl33bn3d30tot100 bb133nuc1bl66bn3d30tot200 bb200nuc1bl100bn3d30tot300 bb266nuc1bl133bn3d30tot400 bb333nuc1bl166bn3d30tot500 bb400nuc1bl200bn3d30tot600 bb466nuc1bl233bn3d30tot700 bb533nuc1bl266bn3d30tot800 bb600nuc1bl300bn3d30tot900 bb666nuc1bl333bn3d30tot1000 bb733nuc1bl366bn3d30tot1100 bb800nuc1bl400bn3d30tot1200
###


###
# Box and units  (use LJ units and periodic boundaries)
###

units lj
log tshaped/logs3/$f.log
log tshaped/logs3/bb533nuc1bl266bn3d30tot800.log
