#atom_style bond #no stiffness
atom_style angle #with stiffness

boundary        p p p
###
# Pair interactions require lists of neighbours to be calculated
###

#neighbor 0.3 bin
neighbor 4 bin

neigh_modify every 1 delay 1 check yes
atom_modify sort 0 0
### Generate RESTART file, SPECIAL format, not a .txt file ###
### Useful if simulation crashes ###

restart 1000000 tshaped/restarts3/$f.restart
restart 1000000 tshaped/restarts3/bb800nuc1bl400bn3d30tot1200.restart
#############################



### READ "start" data file ###

read_data tshaped/$f.dat
read_data tshaped/bb800nuc1bl400bn3d30tot1200.dat
Reading data file ...
  orthogonal box = (-1000 -1000 -1000) to (1000 1000 1000)
  1 by 1 by 1 MPI processor grid
  reading atoms ...
  1201 atoms
  scanning bonds ...
  2 = max bonds/atom
  scanning angles ...
  3 = max angles/atom
  reading bonds ...
  1200 bonds
  reading angles ...
  1200 angles
Finding 1-2 1-3 1-4 neighbors ...
  special bond factors lj:    0        0        0       
  special bond factors coul:  0        0        0       
     3 = max # of 1-2 neighbors
     3 = max # of 1-3 neighbors
     6 = max # of 1-4 neighbors
     9 = max # of special neighbors
  special bonds CPU = 0.001 seconds
  read_data CPU = 0.101 seconds

######################

### READ "REstart" data file ###

######################



###
# Define groups (atom type 1 is group 'all')
###
group all type 1
1201 atoms in group all


###
# Dump configs - "simple dumpings"
###

###
# Dump configs + box coords
###

dump   1   all   custom   1000  tshaped/trjs3/$f.lammpstrj  id  x y z  ix iy iz
dump   1   all   custom   1000  tshaped/trjs3/bb800nuc1bl400bn3d30tot1200.lammpstrj  id  x y z  ix iy iz
dump_modify   1   format line "%d %.5f %.5f %.5f %d %d %d"

########################################################################


###################################################################
# Stiffness term
#
# E = K * (1+cos(theta)), K>0
#
angle_style   cosine
#change this coefficient to change stiffness (e.g. 1,5,10)
angle_coeff   1 1.0
###################################################################

###################################################################
# Pair interaction between non-bonded atoms
#
#  Lennard-Jones 12-6 potential with cutoff:
#  potential E=4epsilon[ (sigma/r)^12 - (sigma/r)^6]  for r<r_cut
#
#  1.12246 = 2^(1/6) is the minimum of the potential


pair_style      lj/cut 1.12246152962189
#pair_style      lj/cut 3

#
#  pair_modify shift yes adds a constant to the potential such

#  that E(r_cut)=0. Forces remains unchanged.
#

pair_modify     shift yes

#
#  pair_coeff for lj/cut, specify 4:
#    * atom type interacting with
#    * atom type
#    * epsilon (energy units)
#    * sigma (distance units)
#

pair_coeff      1 1 1.0 1.0
###################################################################

###################################################################
# Pair interaction between non-bonded atoms
#
#  soft potential, for PUSHING apart overlapping atoms
#  potential E=A*(1 + cos(pi*r/r_c))
#
#  1.12246 = 2^(1/6) is the cut-off r_c

#pair_style     soft 1.12246152962189

#
#  pair_coeff for soft, specify 3:
#    * atom type interacting with
#    * atom type
#    * A
#
#

#pair_coeff      1 1 100.0
###################################################################

###################################################################
# Pair interaction between bonded atoms
#
# Fene potential + Lennard Jones 12-6:

#
#  E= - 0.5 K R0^2 ln[ 1- (r/R0)^2]
#     + 4epsilon[ (sigma/r)^12 - (sigma/r)^6] + epsilon
#

bond_style   fene


#
# For style fene, specify:
#   * bond type
#   * K (energy/distance^2)
#   * R0 (distance)
#   * epsilon (energy)  (LJ component)
#   * sigma (distance)  (LJ component)
#


special_bonds fene #<=== I M P O R T A N T (new command)
Finding 1-2 1-3 1-4 neighbors ...
  special bond factors lj:    0        1        1       
  special bond factors coul:  0        1        1       
     3 = max # of 1-2 neighbors
     9 = max # of special neighbors
  special bonds CPU = 0.000 seconds

bond_coeff   1   30   2   1.0   1.0


###################################################

###################################################################
# Pair interaction between bonded atoms
#
# Harmonic potential:
#
#  E= K * (R-R0)^2
#

#bond_style   harmonic

#
# For style harmonic, specify:
#   * bond type
#   * K (energy/distance^2)
#   * R0 (distance)
#

#bond_coeff   1   60.0   1.0
#bond_coeff   2   harmonic 0.1   1.0

###################################################
compute 1 all gyration
variable rog equal c_1
#compute 2 all coord/atom cutoff 1.1

#dump 2 all custom 10000 contact_number.dump id c_2


###
# Set up fixes
###
thermo_style   custom   step  temp enthalpy c_1
fix 1 all nve   ###NVE ensemble

fix 2 all   langevin   1.0 1.0 1.0  158102   ###Langevin integrator Tstart Tstop 1/friction rndseed


##### Sample thermodynamic info  (temperature, energy, pressure, etc.) #####
thermo 1000









############################################################################

###
# set timestep of integrator

timestep 0.01

###
# run integration for a number of steps
###
#run 0
#variable r equal c_1
#if "$r < 63.1" then "quit 1"

# lj potential minimum, cause molecule to explore
run 100000
Generated 0 of 0 mixed pair_coeff terms from geometric mixing rule
Last active /omp style is angle_style cosine/omp
Neighbor list info ...
  update: every = 1 steps, delay = 1 steps, check = yes
  max neighbors/atom: 2000, page size: 100000
  master list distance cutoff = 5.1224615
  ghost atom cutoff = 5.1224615
  binsize = 2.5612308, bins = 781 781 781
  1 neighbor lists, perpetual/occasional/extra = 1 0 0
  (1) pair lj/cut/omp, perpetual
      attributes: half, newton on, omp
      pair build: half/bin/newton/omp
      stencil: half/bin/3d
      bin: standard
WARNING: Communication cutoff 5.12246152962189 is shorter than a bond length based estimate of 5.455. This may lead to errors. (src/comm.cpp:723)
Per MPI rank memory allocation (min/avg/max) = 1860 | 1860 | 1860 Mbytes
   Step          Temp         Enthalpy         c_1      
         0   0              13.383339      200.28121    
      1000   0.97577333     18.7077        200.07592    
      2000   0.99793894     18.869441      199.7389     
      3000   1.0118781      19.153409      199.32346    
      4000   0.97517363     18.421817      199.07027    
      5000   0.98752258     19.005253      198.97904    
      6000   1.0015175      19.018385      198.88341    
      7000   0.9814223      18.96652       198.47717    
      8000   0.98462335     18.609274      198.22097    
      9000   1.0287977      18.748134      197.87711    
     10000   0.97978069     18.614581      197.60963    
     11000   1.0223585      18.646987      197.3329     
     12000   0.96030228     18.939529      196.95866    
     13000   0.97787063     18.997123      196.66714    
     14000   0.98458707     19.409456      196.47019    
     15000   0.97018801     18.636753      196.28161    
     16000   1.0502091      19.251414      196.11259    
     17000   0.98832925     18.986665      195.90467    
     18000   0.9790422      18.953106      195.89319    
     19000   1.0105786      18.947374      195.6999     
     20000   0.97410403     19.332772      195.5743     
     21000   1.0047525      19.142479      195.42243    
     22000   1.0126228      18.789032      195.00246    
     23000   1.043169       19.285937      194.89806    
     24000   1.018649       18.84949       194.63669    
     25000   1.0180657      18.939182      194.31064    
     26000   0.98231708     18.976194      193.93536    
     27000   1.0530249      19.430864      193.49407    
     28000   1.0039285      19.031556      193.02933    
     29000   1.0452228      19.179098      192.85951    
     30000   0.96537956     18.941558      192.84276    
     31000   1.0239622      19.367537      192.64972    
     32000   0.99128653     19.09593       192.62463    
     33000   1.0087907      19.259954      192.5065     
     34000   1.0194291      19.549153      192.35526    
     35000   0.99055374     19.115409      192.24472    
     36000   0.99778999     19.301765      192.19194    
     37000   1.0268464      19.352184      192.05442    
     38000   1.0098265      19.195476      191.89655    
     39000   1.0074641      19.342592      191.91852    
     40000   1.0014684      18.823265      191.8918     
     41000   1.0036659      19.237172      191.82988    
     42000   0.99377109     19.207455      191.57816    
     43000   1.0109887      19.215992      191.52873    
     44000   1.015741       18.994602      191.42995    
     45000   0.99508814     19.131727      191.20729    
     46000   1.0056176      19.241034      191.19721    
     47000   0.96799694     19.277697      191.03179    
     48000   0.97537095     19.11386       190.57011    
     49000   0.97454741     19.247001      190.45129    
     50000   1.0341333      19.240887      190.3117     
     51000   0.99571776     19.3052        190.17049    
     52000   1.0066409      19.438774      190.03965    
     53000   1.0345821      18.935593      189.8729     
     54000   1.02529        19.327311      189.44541    
     55000   1.030505       19.472262      189.18858    
     56000   1.0290098      19.070231      189.11219    
     57000   1.0024902      19.455384      188.91865    
     58000   0.99279337     18.958749      188.66247    
     59000   1.0098687      19.695875      188.51479    
     60000   1.0137343      19.075401      188.43602    
     61000   1.0283046      19.893559      188.21287    
     62000   1.0168261      19.264069      187.89389    
     63000   1.0002341      19.249815      187.52329    
     64000   0.98749485     19.491558      187.1774     
     65000   1.0091115      19.421393      187.13022    
     66000   1.000751       19.776787      186.83197    
     67000   0.9880227      19.515526      186.73746    
     68000   0.96709406     19.750215      186.58778    
     69000   0.98299075     19.262614      186.62123    
     70000   0.99611306     19.560557      186.41122    
     71000   0.97273222     19.505163      186.17264    
     72000   1.015501       19.465057      186.14155    
     73000   0.98426182     19.383179      185.98773    
     74000   0.98893968     19.373608      185.71691    
     75000   1.0325833      19.213145      185.35612    
     76000   0.98130538     19.151181      185.15325    
     77000   0.98076203     20.117908      185.12193    
     78000   1.0154561      19.342591      185.07356    
     79000   1.0194578      19.676093      185.06606    
     80000   0.99136556     19.348621      184.87465    
     81000   0.99256579     19.265925      184.74164    
     82000   0.9809983      19.533468      184.6559     
     83000   1.033989       19.629186      184.49807    
     84000   1.0333547      19.243346      184.31258    
     85000   0.99365535     19.490667      184.23078    
     86000   1.0273778      19.618892      184.2022     
     87000   0.99124615     19.515307      184.16541    
     88000   0.99901106     19.715176      183.94975    
     89000   0.99426781     19.594537      183.70432    
     90000   0.98844987     19.410285      183.72426    
     91000   1.037215       19.803379      183.55441    
     92000   0.94456674     19.280682      183.3582     
     93000   0.99276265     19.526927      183.12573    
     94000   1.013545       19.816523      182.93832    
     95000   1.0200792      19.691245      182.70881    
     96000   0.98776981     19.809621      182.51627    
     97000   0.97441822     19.534954      182.39776    
     98000   1.0129739      19.531956      181.99833    
     99000   1.0360008      19.184231      181.85531    
    100000   0.97160205     19.027359      181.89678    
Loop time of 346.874 on 2 procs for 100000 steps with 1201 atoms

Performance: 249081.939 tau/day, 288.289 timesteps/s
103.0% CPU use with 1 MPI tasks x 2 OpenMP threads

MPI task timing breakdown:
Section |  min time  |  avg time  |  max time  |%varavg| %total
---------------------------------------------------------------
Pair    | 0.98795    | 0.98795    | 0.98795    |   0.0 |  0.28
Bond    | 2.226      | 2.226      | 2.226      |   0.0 |  0.64
Neigh   | 337.9      | 337.9      | 337.9      |   0.0 | 97.41
Comm    | 0.032832   | 0.032832   | 0.032832   |   0.0 |  0.01
Output  | 0.28768    | 0.28768    | 0.28768    |   0.0 |  0.08
Modify  | 5.0963     | 5.0963     | 5.0963     |   0.0 |  1.47
Other   |            | 0.3451     |            |       |  0.10

Nlocal:           1201 ave        1201 max        1201 min
Histogram: 1 0 0 0 0 0 0 0 0 0
Nghost:              0 ave           0 max           0 min
Histogram: 1 0 0 0 0 0 0 0 0 0
Neighs:           6096 ave        6096 max        6096 min
Histogram: 1 0 0 0 0 0 0 0 0 0

Total # of neighbors = 6096
Ave neighs/atom = 5.0757702
Ave special neighs/atom = 1.9983347
Neighbor list builds = 1099
Dangerous builds = 0

# Replace lj potential, now collapse
pair_style      lj/cut 3

# Cutoff simul when gyration under 5
# Variable created with equal requires v_ + 'name'
fix 3 all halt 1000 v_rog < 7

run 5000000
Generated 0 of 0 mixed pair_coeff terms from geometric mixing rule
Last active /omp style is angle_style cosine/omp
Per MPI rank memory allocation (min/avg/max) = 1860 | 1860 | 1860 Mbytes
   Step          Temp         Enthalpy         c_1      
    100000   0.97160205     18.559911      181.89678    
    101000   1.0311669      19.564909      181.65931    
    102000   0.99651731     19.129813      181.36133    
    103000   0.96631287     19.412807      181.19252    
    104000   1.0003571      19.389449      181.17773    
    105000   1.0172839      19.520788      181.20385    
    106000   0.99689017     19.394844      181.03597    
    107000   1.0126893      19.439524      181.04372    
    108000   1.0385875      19.035149      180.79659    
    109000   1.0293315      18.726006      180.55613    
    110000   0.97019858     19.142429      180.32772    
    111000   0.97506909     18.900981      180.20212    
    112000   0.97751432     19.114048      180.00442    
    113000   0.97695604     19.01947       179.86997    
    114000   1.0194995      18.960842      179.70595    
    115000   0.98321171     19.450092      179.60158    
    116000   1.0174303      18.969378      179.50611    
    117000   0.98346479     19.406745      179.26642    
    118000   0.99354199     19.064202      179.14412    
    119000   0.97542861     19.175594      179.11742    
    120000   0.96940841     19.305344      178.8932     
    121000   0.99578164     19.325665      178.70007    
    122000   0.98121517     19.339411      178.63942    
    123000   1.0283878      19.422526      178.51566    
    124000   1.0128909      19.684153      178.22222    
    125000   1.0163555      19.212893      177.86614    
    126000   1.0263161      19.012927      177.83996    
    127000   1.0292861      19.284516      177.81901    
    128000   0.96603152     18.821838      177.57668    
    129000   0.98691384     18.978603      177.3476     
    130000   0.9544131      19.063951      176.89188    
    131000   0.99502648     19.216628      176.57733    
    132000   0.99325567     19.679778      176.33926    
    133000   1.0229821      19.370038      176.14048    
    134000   1.0437859      19.020204      175.85439    
    135000   0.96287912     19.655196      175.62491    
    136000   0.98802238     19.5748        175.37486    
    137000   0.99852652     19.335467      175.2712     
    138000   1.0020323      19.299002      174.96462    
    139000   0.9873979      18.833617      174.64797    
    140000   1.0094498      19.313578      174.59348    
    141000   0.9456962      18.958951      174.47448    
    142000   0.99504479     19.175735      174.36228    
    143000   1.0290578      19.427269      174.3533     
    144000   1.034744       19.053134      174.30389    
    145000   0.95995294     19.525355      174.26272    
    146000   0.99123807     18.677328      174.01657    
    147000   1.0264363      19.707967      173.75664    
    148000   0.99820021     20.147783      173.43863    
    149000   1.0236636      19.10879       173.19765    
    150000   0.98610198     19.173358      172.88635    
    151000   1.0417069      19.541383      172.66201    
    152000   0.99767763     18.746735      172.47034    
    153000   1.0081292      18.82311       172.2287     
    154000   1.0245445      19.180679      171.98504    
    155000   0.97453133     18.72658       171.7061     
    156000   0.97198959     19.285764      171.7862     
    157000   1.0447658      19.699859      171.62934    
    158000   0.98076848     19.218932      171.48034    
    159000   0.98640548     19.310201      171.15478    
    160000   0.99824692     19.273473      170.99968    
    161000   1.0133217      19.407653      170.95646    
    162000   1.025262       19.38125       170.83166    
    163000   0.99834884     19.395517      170.79634    
    164000   1.0602447      19.250736      170.55322    
    165000   1.0102264      18.931499      170.61969    
    166000   1.0085809      18.708562      170.42533    
    167000   0.96447594     18.852814      170.34926    
    168000   0.99006368     19.23783       170.08934    
    169000   0.99002053     18.850646      169.99781    
    170000   0.98839129     19.017047      169.86728    
    171000   0.99339229     18.835403      169.77299    
    172000   0.97948579     19.349887      169.65258    
    173000   1.0009895      19.455636      169.36316    
    174000   1.0152011      19.110068      169.1162     
    175000   0.97542821     19.3189        169.09941    
    176000   1.0271866      19.430953      168.73255    
    177000   0.99199726     18.890238      168.42503    
    178000   1.000316       18.714371      168.16351    
    179000   0.97251921     19.446273      168.11955    
    180000   0.99876975     19.069777      167.92851    
    181000   0.94962185     19.101366      167.75782    
    182000   1.0005538      19.545513      167.74923    
    183000   1.0257497      19.544166      167.54766    
    184000   1.0202564      18.931376      167.24143    
    185000   1.0017186      19.128268      167.19059    
    186000   1.0121829      19.263148      167.04573    
    187000   1.0057995      18.728268      166.97869    
    188000   1.0013545      19.27665       166.80757    
    189000   1.0118747      19.258493      166.37349    
    190000   0.99344336     19.153198      166.39103    
    191000   1.0342844      18.871503      165.93067    
    192000   0.98924619     19.248648      165.77562    
    193000   1.0340334      19.077494      165.68952    
    194000   1.0225523      18.990824      165.75404    
    195000   1.0084495      19.531205      165.64058    
    196000   0.92962904     18.97678       165.33538    
    197000   0.99771117     19.191676      165.42218    
    198000   0.99642797     18.614587      165.37538    
    199000   1.0405284      19.371909      165.33744    
    200000   1.012555       19.472268      165.07361    
    201000   0.98796641     19.057442      164.94079    
    202000   0.97722951     19.629842      164.84383    
    203000   1.0103094      18.906575      164.68724    
    204000   0.96808148     18.762801      164.83572    
    205000   1.0144832      18.605813      164.7733     
    206000   0.96889654     19.402247      164.81084    
    207000   0.99985288     18.980965      164.70541    
    208000   0.99645005     19.509139      164.41122    
    209000   0.98380718     19.047897      164.27106    
    210000   0.99708918     18.672431      164.02544    
    211000   1.0038744      19.229837      163.8108     
    212000   1.0248176      19.155073      163.35842    
    213000   1.0097491      18.842973      163.10289    
    214000   0.98498691     19.104427      163.04072    
    215000   0.97717675     19.097203      162.7582     
    216000   0.9880056      18.720517      162.85167    
    217000   0.98637916     18.744746      162.7348     
    218000   1.0310434      19.346697      162.57187    
    219000   1.0189897      19.328142      162.4454     
    220000   0.97925994     18.909461      162.28349    
    221000   0.97931477     18.732747      162.3057     
    222000   0.99850395     19.352477      162.39502    
    223000   1.013066       18.704396      162.18962    
    224000   1.0228531      19.445955      162.02211    
    225000   1.0072688      18.802834      161.98763    
    226000   1.058292       18.71053       161.82044    
    227000   1.0157639      18.786309      161.71523    
    228000   0.94552462     18.879616      161.62045    
    229000   0.99201536     19.513444      161.31378    
    230000   0.96563632     19.062891      161.22729    
    231000   0.95882403     19.107486      161.00381    
    232000   1.0361937      19.087366      160.96352    
    233000   1.0156307      19.053749      160.80908    
    234000   0.97630984     19.328627      160.52061    
    235000   0.962727       19.207612      160.47832    
    236000   0.98302223     18.805766      160.42554    
    237000   1.0286844      19.296966      160.26783    
    238000   0.98369461     18.901763      160.10446    
    239000   1.0286031      19.036176      160.00319    
    240000   0.99674704     19.18238       159.91645    
    241000   0.97015944     18.961592      159.75177    
    242000   1.0156166      19.163676      159.65789    
    243000   0.96783441     19.201697      159.63626    
    244000   1.0332358      19.502321      159.48598    
    245000   1.0204566      18.882101      159.39212    
    246000   0.99442792     19.043375      159.37328    
    247000   1.019729       19.898353      159.33267    
    248000   0.98495966     19.178004      159.24008    
    249000   1.0181648      19.600928      159.00892    
    250000   1.0007215      19.291441      158.63291    
    251000   1.0201364      19.286893      158.54898    
    252000   1.0049796      19.205149      158.43081    
    253000   1.0149741      19.161635      158.43739    
    254000   1.0321788      19.249366      158.4195     
    255000   1.011978       19.053177      158.39075    
    256000   0.96237551     18.920949      158.16273    
    257000   0.97960635     18.720198      158.13153    
    258000   0.98358234     19.156585      157.90993    
    259000   0.98213186     19.059748      157.87283    
    260000   0.98805755     19.25477       157.60295    
    261000   0.97707064     18.715708      157.43567    
    262000   0.95632561     18.603148      157.04032    
    263000   1.0198338      19.611708      156.7397     
    264000   1.0003695      18.834864      156.55819    
    265000   0.96833193     19.208265      156.54097    
    266000   1.0112653      18.942381      156.44329    
    267000   0.95416815     18.739897      156.41172    
    268000   0.95607169     19.121646      156.35471    
    269000   0.97517695     19.31506       156.0329     
    270000   1.0060596      18.898286      155.87137    
    271000   0.95623066     18.742824      155.5806     
    272000   0.96343144     19.363854      155.33602    
    273000   0.97951984     19.514949      155.22608    
    274000   1.004069       18.71537       154.93034    
    275000   0.98851463     19.21698       154.70356    
    276000   0.98892149     19.05695       154.55163    
    277000   1.0211567      18.856745      154.52759    
    278000   0.99519335     18.518787      154.28828    
    279000   0.99212255     19.200004      154.23307    
    280000   0.98780842     19.066666      154.21938    
    281000   0.9970642      18.967655      154.06659    
    282000   1.0346363      19.064115      153.97809    
    283000   0.98332337     19.13803       153.65181    
    284000   1.0097771      18.991827      153.37272    
    285000   1.0077041      19.044255      153.26209    
    286000   0.99338726     18.872581      153.01585    
    287000   0.982236       18.698534      152.91893    
    288000   1.0171777      18.863733      152.78151    
    289000   0.98896188     19.824676      152.66511    
    290000   0.99385446     18.958587      152.41036    
    291000   0.97129185     19.281538      152.26358    
    292000   1.0128794      19.045742      152.16497    
    293000   1.040777       19.341057      152.14723    
    294000   0.99387374     18.931995      152.04475    
    295000   0.99530068     19.361282      152.07022    
    296000   0.99432417     18.799081      151.8713     
    297000   1.0374875      19.137208      151.80727    
    298000   0.99280802     19.086741      151.45732    
    299000   1.0156172      18.852294      151.13636    
    300000   1.020506       18.694634      150.98193    
    301000   1.001038       19.056217      150.93616    
    302000   1.0239291      19.529561      150.90115    
    303000   1.0138425      18.865975      150.70863    
    304000   0.98814238     18.952761      150.6332     
    305000   1.0424579      19.591951      150.67516    
    306000   0.97192773     18.887945      150.65355    
    307000   1.0218558      19.362579      150.51193    
    308000   1.0035336      18.911231      150.35013    
    309000   1.0308677      19.505752      150.26338    
    310000   0.9742522      18.761511      150.09005    
    311000   0.98125139     19.090324      149.96939    
    312000   1.0054392      19.145243      149.85049    
    313000   1.0065602      18.907549      149.92192    
    314000   1.0076392      19.235417      149.89735    
    315000   0.99531985     18.917914      150.0353     
    316000   1.0283424      19.321056      149.89168    
    317000   1.0042987      18.796993      149.95475    
    318000   1.0033634      19.07808       149.75426    
    319000   1.031106       19.081007      149.4407     
    320000   0.9972668      18.995397      149.24555    
    321000   0.96285756     18.686185      149.01039    
    322000   1.0376137      19.084197      148.78679    
    323000   0.95097456     18.718328      148.65647    
    324000   1.0073209      19.097952      148.44987    
    325000   0.97502972     18.708552      148.24496    
    326000   1.0017364      18.94871       148.1118     
    327000   0.93761007     18.797766      147.90654    
    328000   0.99435775     19.011228      147.61217    
    329000   0.97855885     18.708886      147.43816    
    330000   1.0148383      19.287139      147.3627     
    331000   0.98515777     19.003083      147.2442     
    332000   1.0184366      19.345219      147.24383    
    333000   0.98393424     18.737581      146.99983    
    334000   0.94601006     18.81994       146.82695    
    335000   0.99720547     18.747628      146.59065    
    336000   0.99295543     18.468648      146.20906    
    337000   1.0177509      18.730757      146.07057    
    338000   0.99400888     19.059174      146.04843    
    339000   0.96817528     18.596145      146.05002    
    340000   0.98464081     18.706916      145.94017    
    341000   1.0212396      18.806956      145.76994    
    342000   0.95191219     18.373181      145.52045    
    343000   1.0060045      19.003533      145.31976    
    344000   1.0188332      18.708509      145.18262    
    345000   1.0134607      18.441729      144.87589    
    346000   0.96949073     18.977682      144.68697    
    347000   1.0265539      18.62805       144.61139    
    348000   0.95787488     18.58223       144.44072    
    349000   0.99080782     19.209828      144.62713    
    350000   1.0317354      18.67372       144.64319    
    351000   1.0147727      18.740816      144.41046    
    352000   0.99349943     18.999958      144.12821    
    353000   1.0446471      19.012141      143.9143     
    354000   0.99301078     19.04793       143.82709    
    355000   0.98951146     18.953909      143.74044    
    356000   1.0184655      18.724958      143.56857    
    357000   0.99653879     18.790971      143.32356    
    358000   0.97362828     19.054894      143.1995     
    359000   0.93237194     18.566811      143.42473    
    360000   0.97845191     18.842142      143.13073    
    361000   1.0115384      18.357372      142.8942     
    362000   0.99658792     19.383532      142.60486    
    363000   0.98343736     18.582562      142.36017    
    364000   0.98165967     18.526335      142.21306    
    365000   0.98484852     19.012199      142.09431    
    366000   0.97697854     18.862252      142.20279    
    367000   1.0170135      18.682042      141.90441    
    368000   0.9844976      18.771862      141.75238    
    369000   1.0114503      18.697977      141.71696    
    370000   1.0227948      18.895054      141.61439    
    371000   1.0528649      18.715151      141.63454    
    372000   1.0628367      18.972595      141.64355    
    373000   0.9865404      18.81904       141.55519    
    374000   1.0237099      18.497781      141.56218    
    375000   0.9510038      18.455344      141.4028     
    376000   0.99240741     18.973748      141.41463    
    377000   1.0423625      19.362275      141.26274    
    378000   0.98457061     19.127628      141.14613    
    379000   0.97973571     19.119765      140.8345     
    380000   0.9838393      18.597036      140.85389    
    381000   1.0118049      18.855517      140.7756     
    382000   0.99240776     19.034591      140.81588    
    383000   0.99509442     18.609954      140.74543    
    384000   0.99277395     18.612508      140.71186    
    385000   1.022633       19.100938      140.59715    
    386000   0.98913967     18.792003      140.37605    
    387000   0.96871611     18.822425      140.33925    
    388000   0.97507572     18.680694      140.30057    
    389000   1.0279913      18.739201      140.39       
    390000   1.0086027      18.185981      140.28583    
    391000   1.0289114      19.40844       140.29091    
    392000   0.96933935     19.154113      140.04173    
    393000   1.0105029      18.417858      139.88193    
    394000   0.96936429     18.737318      139.74206    
    395000   0.99973032     18.533816      139.75806    
    396000   0.99910887     18.598155      139.53553    
    397000   1.0066198      19.251967      139.25453    
    398000   0.97832324     18.759782      138.91394    
    399000   0.98788444     19.181949      138.80159    
    400000   1.0226496      19.049694      138.62192    
    401000   0.99176952     18.745298      138.65685    
    402000   0.99097401     19.108968      138.64196    
    403000   1.0154732      18.753968      138.50666    
    404000   1.0028861      18.742808      138.44169    
    405000   0.97906682     18.30438       138.08608    
    406000   0.9887093      18.90511       138.02434    
    407000   0.9993346      18.706234      138.25428    
    408000   0.99692785     18.926983      138.08883    
    409000   1.033636       18.71139       137.97152    
    410000   0.96837291     18.844026      137.84729    
    411000   0.98642285     18.803428      137.58437    
    412000   1.0446112      18.713763      137.52603    
    413000   1.0172514      18.504533      137.37604    
    414000   0.98000359     18.780642      137.22488    
    415000   1.0083606      19.184448      137.33324    
    416000   1.0353901      18.759767      137.39772    
    417000   0.9831704      18.69511       137.298      
    418000   1.0019623      18.19706       137.42448    
    419000   0.98736275     18.921761      137.27292    
    420000   1.0485435      19.082754      137.04631    
    421000   1.0487313      18.896701      136.70736    
    422000   1.0547781      19.091726      136.68661    
    423000   0.97828587     18.698731      136.58836    
    424000   0.983517       18.625901      136.49523    
    425000   0.97529601     18.923739      136.28194    
    426000   1.0247178      18.631497      136.06986    
    427000   0.99536554     18.233941      135.83603    
    428000   0.93374818     19.027731      135.85883    
    429000   0.99890156     18.97148       135.86411    
    430000   0.98879105     18.538576      135.65589    
    431000   0.98358331     18.751391      135.39156    
    432000   0.96418638     18.828486      135.35448    
    433000   0.99005227     18.804511      135.33727    
    434000   0.96906081     18.346067      135.00621    
    435000   0.99173522     18.702773      134.7509     
    436000   1.0197455      18.46759       134.81174    
    437000   1.01367        18.553683      134.50585    
    438000   0.940667       18.573679      134.45514    
    439000   1.0282836      19.323139      134.24016    
    440000   0.98736537     18.795978      133.82356    
    441000   1.0028681      18.454155      133.74636    
    442000   1.0156335      19.213146      133.80535    
    443000   0.99135304     18.708136      133.51799    
    444000   1.0092767      18.801323      133.29171    
    445000   1.0092264      19.183247      133.06939    
    446000   1.0085666      19.081651      132.92936    
    447000   0.97541092     18.639589      132.68338    
    448000   0.98086514     18.445713      132.75872    
    449000   0.99687961     18.852258      132.50356    
    450000   1.0255272      18.635356      132.39887    
    451000   1.0173868      18.409221      132.34648    
    452000   1.0023852      18.628599      132.31213    
    453000   0.98349636     18.573294      132.26455    
    454000   1.0275233      18.766166      131.98424    
    455000   0.93654237     18.754554      131.94019    
    456000   0.96990737     19.009887      131.67499    
    457000   0.99265213     18.835367      131.57205    
    458000   0.99574537     18.38856       131.35738    
    459000   1.0223124      19.434981      131.31074    
    460000   1.0190519      18.480532      131.00464    
    461000   0.97980584     18.571877      130.73352    
    462000   0.97426103     19.144196      130.80997    
    463000   1.0005049      18.940251      130.86896    
    464000   0.96552711     18.188666      130.85791    
    465000   1.0147623      18.210401      130.75148    
    466000   0.96877773     18.260272      130.704      
    467000   1.009154       18.531452      130.58143    
    468000   1.0448375      19.321717      130.53033    
    469000   1.0225758      18.856437      130.43335    
    470000   1.0172186      19.011635      130.2929     
    471000   0.99219569     18.627234      130.08218    
    472000   1.0245481      18.990394      129.91224    
    473000   1.0338138      18.405961      130.0739     
    474000   1.0345831      19.067142      129.83661    
    475000   1.0100244      18.83856       129.64732    
    476000   1.0100596      18.207374      129.68101    
    477000   0.98810243     18.980134      129.63964    
    478000   0.98244186     18.976755      129.60179    
    479000   1.0420147      18.931681      129.59861    
    480000   0.99814553     18.770392      129.55845    
    481000   1.0189815      19.090487      129.40716    
    482000   0.9924216      18.438877      129.35801    
    483000   1.0218838      18.405555      129.37067    
    484000   0.99441844     18.42286       129.24069    
    485000   1.019655       18.842271      129.33419    
    486000   1.0261345      18.818407      129.12642    
    487000   0.97328608     18.816249      128.93009    
    488000   0.98192095     18.868392      128.96734    
    489000   0.97171891     18.774941      128.90961    
    490000   0.98006772     18.243268      128.78059    
    491000   0.98505023     18.57998       128.57976    
    492000   1.021698       19.097416      128.52914    
    493000   0.95341959     18.050753      128.46631    
    494000   0.99458012     19.314808      128.45722    
    495000   1.0078327      18.561308      128.35618    
    496000   0.97604204     17.99833       128.4548     
    497000   1.0184575      18.426614      128.33491    
    498000   1.0107339      19.018235      128.30218    
    499000   0.9921079      18.876242      128.32819    
    500000   0.99500324     18.590218      128.10964    
    501000   0.99710989     18.55552       127.89633    
    502000   1.0058296      18.706206      127.80043    
    503000   1.0184739      18.937336      127.63765    
    504000   1.0186038      18.927681      127.59716    
    505000   1.0186279      19.226374      127.43071    
    506000   1.0091199      18.654102      127.33239    
    507000   0.99583253     19.01332       127.38963    
    508000   1.0352408      18.292404      127.36204    
    509000   1.0347206      18.36864       127.2897     
    510000   0.97727747     18.900179      127.15299    
    511000   1.0159013      18.281788      126.99399    
    512000   1.0019889      18.636805      127.03611    
    513000   0.98313812     18.260742      126.76804    
    514000   1.0201245      18.964207      126.73134    
    515000   1.0100037      18.834264      126.42567    
    516000   1.0043062      18.521062      126.31099    
    517000   0.99278056     18.666572      126.29541    
    518000   0.99999392     18.289135      126.49927    
    519000   0.99363895     18.278888      126.44715    
    520000   0.97769769     18.487319      126.39471    
    521000   1.0163969      18.915248      126.40776    
    522000   1.0011365      18.705039      126.38479    
    523000   0.9989507      18.463042      126.30621    
    524000   0.99063625     18.890487      126.03539    
    525000   0.96569786     18.668477      126.02175    
    526000   0.99454385     18.108747      126.02065    
    527000   0.99888794     18.676727      125.92527    
    528000   0.99297965     18.392954      125.96155    
    529000   1.0097912      18.275224      126.02769    
    530000   1.0263626      18.874081      125.90633    
    531000   0.99152047     18.702076      125.5399     
    532000   1.035385       17.932031      125.49631    
    533000   1.0008686      18.686896      125.33306    
    534000   0.99993729     18.69965       125.10709    
    535000   1.024686       18.813311      124.92482    
    536000   0.96711857     18.192259      124.78147    
    537000   0.98898692     18.672675      124.53602    
    538000   0.9923612      18.522851      124.17302    
    539000   1.0047583      18.400886      123.80102    
    540000   0.9814863      18.733358      123.62196    
    541000   1.0349063      18.608263      123.43755    
    542000   0.99606027     18.258456      123.6319     
    543000   0.97932097     18.397585      123.73842    
    544000   0.98031178     18.067239      123.55388    
    545000   0.94596179     18.674776      123.40084    
    546000   0.96309478     18.222237      123.4976     
    547000   0.99277292     18.295528      123.11182    
    548000   1.0212234      18.719712      122.79585    
    549000   1.0036217      18.515085      122.68237    
    550000   1.046371       18.712015      122.47018    
    551000   0.96861653     18.707941      122.43612    
    552000   1.0011034      18.724445      122.58631    
    553000   1.0185218      18.874549      122.41891    
    554000   1.0225572      18.476153      122.232      
    555000   1.0228418      18.851619      122.2797     
    556000   1.0344259      19.141684      122.31618    
    557000   1.0036447      19.080199      122.22961    
    558000   0.99363222     18.694073      121.95588    
    559000   0.98818757     18.242024      121.82043    
    560000   1.0202608      18.694885      121.71854    
    561000   1.0364747      18.793607      121.52522    
    562000   1.0149552      18.224588      121.46051    
    563000   0.99678781     18.712962      121.42406    
    564000   1.0494034      18.185835      121.27047    
    565000   0.96832529     18.784755      121.45627    
    566000   1.0204193      18.785314      121.5027     
    567000   1.0217993      18.617962      121.63193    
    568000   1.0087669      18.013819      121.6138     
    569000   1.061704       18.891993      121.58561    
    570000   0.98229569     18.249707      121.54551    
    571000   0.97378932     18.631002      121.54422    
    572000   0.98183953     18.566505      121.42851    
    573000   0.98384737     18.359292      121.55511    
    574000   1.0149012      18.720152      121.40954    
    575000   0.99698614     18.527659      121.17727    
    576000   1.0328694      18.372707      120.98845    
    577000   0.99960849     18.756359      121.03609    
    578000   1.0047093      18.974471      120.93912    
    579000   1.0176256      18.343261      120.84735    
    580000   1.034572       18.513703      120.55997    
    581000   1.0130875      18.176474      120.58304    
    582000   0.98380948     18.274874      120.54978    
    583000   0.98225929     18.16734       120.45905    
    584000   0.9994713      18.31038       120.22349    
    585000   0.98491939     18.542336      120.28224    
    586000   1.0496379      18.879781      120.21895    
    587000   0.97941801     18.636785      120.27266    
    588000   0.9604205      18.340829      120.23041    
    589000   0.99793593     18.440038      119.96039    
    590000   1.0072351      18.877057      119.77411    
    591000   1.0022903      18.218233      119.67177    
    592000   1.0019569      18.537369      119.35461    
    593000   1.0004895      18.36789       119.40269    
    594000   1.0055558      18.093614      119.18576    
    595000   1.0337302      18.280548      118.96212    
    596000   1.0335034      18.232668      118.83848    
    597000   1.0009566      18.545309      118.82699    
    598000   0.98321532     18.315551      118.75728    
    599000   1.0042899      17.945574      118.72487    
    600000   0.97915032     18.15265       118.61713    
    601000   1.0227577      18.848021      118.66861    
    602000   0.97215709     18.827876      118.6004     
    603000   1.0053151      18.442137      118.54205    
    604000   0.99308766     18.749629      118.18665    
    605000   0.96057268     18.539707      118.05646    
    606000   1.065554       18.35684       117.86275    
    607000   1.0006446      18.164368      117.85361    
    608000   0.9631447      18.760667      117.78594    
    609000   0.97807815     18.697533      117.52811    
    610000   1.0289393      18.835555      117.4441     
    611000   1.0274296      18.472015      117.27173    
    612000   1.037959       18.513402      117.2668     
    613000   0.99852658     17.982342      117.34947    
    614000   1.0132856      18.970362      117.26059    
    615000   1.0090008      18.839348      117.16766    
    616000   0.95756804     18.729021      116.87047    
    617000   0.96833273     18.152816      116.50174    
    618000   1.0089091      18.916146      116.35874    
    619000   1.0220826      18.572205      116.22858    
    620000   1.016963       18.654051      116.1559     
    621000   0.96428147     18.375187      116.33015    
    622000   1.0555936      17.925999      116.1549     
    623000   0.97957094     18.269546      116.09506    
    624000   1.0425734      18.150998      116.01516    
    625000   0.98615195     18.967313      116.05274    
    626000   0.99170909     18.306949      115.68599    
    627000   1.0200022      18.770406      115.78024    
    628000   0.94801915     18.865712      115.85522    
    629000   0.99768549     18.507248      115.82859    
    630000   0.99341319     18.269172      115.51076    
    631000   0.98678012     18.84631       115.41037    
    632000   0.98943015     18.82024       115.31691    
    633000   0.98274902     18.087193      115.27447    
    634000   1.0549487      18.125142      115.01128    
    635000   0.98936736     18.717443      115.03194    
    636000   0.98924033     18.583899      114.87166    
    637000   0.93484256     17.99837       115.02835    
    638000   1.0007753      18.160971      115.0042     
    639000   0.98166981     18.838736      114.77345    
    640000   0.99178892     18.649898      114.51014    
    641000   1.025493       18.328637      114.36581    
    642000   1.0030289      18.516892      114.36853    
    643000   0.98791992     18.091818      114.43037    
    644000   1.0056601      18.65576       114.44158    
    645000   0.98708823     18.445156      114.34414    
    646000   0.96527269     18.432253      114.35516    
    647000   1.0056403      18.217441      114.24708    
    648000   1.0026061      18.451071      114.18978    
    649000   1.04869        18.633693      114.10525    
    650000   1.002427       18.009947      113.93016    
    651000   1.0487204      18.48824       113.83489    
    652000   0.96033489     18.294157      113.83629    
    653000   0.99825224     18.732937      113.65614    
    654000   1.0293592      18.406408      113.61535    
    655000   0.96575327     18.439746      113.52919    
    656000   1.0025992      18.320716      113.26358    
    657000   1.0274422      18.093121      113.14401    
    658000   1.0188915      18.469551      113.21645    
    659000   0.97888329     18.00711       113.36852    
    660000   0.97854644     18.425898      113.37806    
    661000   0.98346778     18.229626      113.25996    
    662000   1.0028165      17.808625      113.16586    
    663000   0.9729425      18.178102      113.07915    
    664000   0.95384607     18.354931      112.78395    
    665000   1.0256767      18.315516      112.59602    
    666000   0.99213814     18.246165      112.284      
    667000   0.99158744     18.121861      112.07093    
    668000   0.97480206     18.498499      111.92452    
    669000   1.0080181      18.19784       111.91053    
    670000   0.9773867      18.205981      111.57887    
    671000   0.98102477     18.093457      111.491      
    672000   1.0440448      18.374286      111.20521    
    673000   0.99790696     18.077681      111.13718    
    674000   1.0019385      18.822333      111.21255    
    675000   0.97994486     18.201024      111.24665    
    676000   1.0171014      18.336424      111.32339    
    677000   1.0069377      18.450103      111.1599     
    678000   0.95582144     17.907676      111.07427    
    679000   1.0455056      18.428874      110.75181    
    680000   1.0293884      18.383147      110.59546    
    681000   1.0120332      17.94728       110.39328    
    682000   1.0521932      18.5653        110.50599    
    683000   0.99693348     18.180417      110.39737    
    684000   1.0388518      18.486601      110.36022    
    685000   1.0098811      18.086258      109.99728    
    686000   0.96277801     18.597667      109.91399    
    687000   0.97211273     17.964759      109.77438    
    688000   1.0321243      18.589974      109.79319    
    689000   1.0155801      18.366875      109.75305    
    690000   1.0032729      17.960893      109.64109    
    691000   0.98802747     17.731836      109.44512    
    692000   0.99286973     18.152085      109.4694     
    693000   0.95793064     17.715984      109.20184    
    694000   1.0198589      18.086164      109.13589    
    695000   0.96896432     17.409553      108.93192    
    696000   1.0391775      18.510247      108.72538    
    697000   0.9994533      18.203823      108.57671    
    698000   1.0230872      17.623843      108.48401    
    699000   0.94808734     18.710151      108.37343    
    700000   1.0399872      18.916125      108.25941    
    701000   1.0082297      18.441973      108.0688     
    702000   1.0228843      18.456783      107.9864     
    703000   1.0178195      18.688106      107.78953    
    704000   0.99460935     18.205012      107.63866    
    705000   0.99216145     18.870661      107.63874    
    706000   0.99978185     18.192782      107.51807    
    707000   1.0151782      18.247188      107.50663    
    708000   0.95511446     18.155314      107.35555    
    709000   0.95960776     18.222985      107.27581    
    710000   0.99945445     18.653144      107.04854    
    711000   0.98306676     18.319196      106.9481     
    712000   1.011647       17.984166      106.72033    
    713000   0.97313935     18.432303      106.65106    
    714000   1.0192476      17.861725      106.4109     
    715000   1.0019035      18.049143      106.3024     
    716000   1.0014292      18.051866      106.08113    
    717000   0.99079245     18.426844      106.15977    
    718000   1.0187414      18.378159      106.09988    
    719000   1.0398411      18.044495      106.17897    
    720000   0.95892414     18.30557       106.16309    
    721000   0.99567711     18.292156      106.00138    
    722000   1.018975       18.014812      106.01012    
    723000   0.99619325     18.190284      105.86758    
    724000   0.95715915     18.298397      105.62115    
    725000   0.95209171     18.275435      105.37186    
    726000   1.0283113      18.089771      105.23441    
    727000   0.99347978     18.114982      105.13692    
    728000   1.0055081      18.373219      105.14534    
    729000   0.98800192     18.055853      104.98058    
    730000   1.0035402      18.092062      104.97857    
    731000   0.96310958     18.322302      104.8127     
    732000   1.0119783      17.997423      104.81404    
    733000   1.0148907      17.928109      104.49116    
    734000   1.0059082      18.289224      104.30203    
    735000   1.0164402      18.190052      104.17379    
    736000   0.98253561     18.425904      104.18202    
    737000   1.0066599      17.931273      104.10619    
    738000   0.9860766      18.286519      103.7806     
    739000   1.0170719      18.606949      103.82909    
    740000   0.99955164     18.037738      103.61565    
    741000   1.0096858      18.322851      103.41788    
    742000   0.98383748     18.263421      103.42148    
    743000   1.0402197      18.470164      103.40309    
    744000   1.0008065      18.068034      103.16874    
    745000   1.0095454      18.948523      102.99768    
    746000   0.97063772     17.634728      102.76939    
    747000   0.96249991     18.424996      102.60151    
    748000   1.0083976      18.483742      102.55227    
    749000   1.0242826      18.318633      102.32114    
    750000   0.95177354     18.079591      102.25293    
    751000   0.98846238     18.470585      102.25168    
    752000   0.99522703     18.445245      102.22686    
    753000   0.99004045     18.032523      101.91169    
    754000   1.0312028      18.216365      101.88608    
    755000   1.0114495      17.712458      101.94582    
    756000   0.98585902     18.468436      101.92186    
    757000   1.0168287      18.225206      101.93408    
    758000   0.97942328     18.330881      101.86153    
    759000   0.97581885     18.174899      102.03855    
    760000   1.0520463      18.616644      101.92297    
    761000   1.0350504      18.294472      101.90351    
    762000   1.0103609      18.00727       101.76979    
    763000   0.99321988     18.21413       101.83661    
    764000   0.99306701     18.098584      101.78278    
    765000   1.0079594      18.195732      101.58473    
    766000   0.98549591     18.335419      101.67254    
    767000   0.99011953     18.115601      101.33844    
    768000   1.0517082      18.193402      101.28186    
    769000   1.024742       18.108484      101.02641    
    770000   1.0404411      17.88558       100.94284    
    771000   1.0113134      17.967804      100.87969    
    772000   1.0312346      18.415455      100.89036    
    773000   1.0084602      18.334697      100.91059    
    774000   0.99146605     18.179295      100.75641    
    775000   1.0378588      18.265985      100.62083    
    776000   1.0012722      17.802248      100.35916    
    777000   1.0045249      18.345945      100.4648     
    778000   1.0310121      18.132294      100.29777    
    779000   0.95873704     18.038436      100.13735    
    780000   0.96436102     18.32672       99.984578    
    781000   1.0247407      18.366193      99.891541    
    782000   0.97830524     17.980715      99.745209    
    783000   1.044967       18.656841      99.494244    
    784000   0.98977412     18.097691      99.360761    
    785000   1.0080391      18.466194      99.430001    
    786000   1.0110834      18.138374      99.617458    
    787000   1.0146592      18.198295      99.452258    
    788000   1.0211435      18.311396      99.210711    
    789000   0.99811391     18.458335      99.3495      
    790000   0.96505419     18.081388      99.352854    
    791000   1.0252217      18.322637      99.349756    
    792000   0.98614656     18.116007      99.151363    
    793000   1.0622232      17.999459      99.015579    
    794000   1.0142673      18.354353      98.713462    
    795000   0.9986194      18.825271      98.571786    
    796000   0.98491955     17.71392       98.555963    
    797000   1.0111013      18.195578      98.519804    
    798000   0.99897901     18.066467      98.408176    
    799000   0.98721781     18.275588      98.083014    
    800000   1.0380405      18.336902      98.075926    
    801000   0.94802983     18.377599      98.053564    
    802000   0.9864197      18.219602      98.145665    
    803000   1.0218613      19.048131      97.8702      
    804000   1.0015026      18.171061      97.903055    
    805000   0.9820399      18.250285      97.744121    
    806000   0.9836869      18.578077      97.780966    
    807000   1.048202       18.027358      97.814495    
    808000   1.0183505      18.428191      97.817482    
    809000   0.97162136     18.695963      97.843106    
    810000   0.96021659     18.293422      97.776583    
    811000   1.0630813      18.344012      97.846291    
    812000   1.0247166      18.593772      97.378512    
    813000   0.96933792     17.856384      97.487098    
    814000   1.0438267      18.321411      97.448323    
    815000   1.0189854      18.114189      97.225342    
    816000   0.96333042     17.824255      97.002907    
    817000   1.0058666      18.189226      96.762247    
    818000   1.0378717      18.824207      96.673855    
    819000   0.98715603     18.274396      96.43916     
    820000   1.0381471      18.459271      96.262131    
    821000   1.0307644      18.163923      96.026093    
    822000   0.98646124     18.374272      95.911981    
    823000   1.0272481      18.498419      95.827372    
    824000   0.99965796     18.453523      95.881424    
    825000   0.97384872     18.820913      95.683931    
    826000   0.99382241     18.112997      95.488591    
    827000   0.9913974      18.554298      95.46812     
    828000   1.0360157      18.522935      95.488751    
    829000   1.0427197      18.570855      95.41794     
    830000   1.0151191      18.30621       95.356849    
    831000   0.98540803     18.61229       95.145149    
    832000   1.0318089      18.390694      95.018923    
    833000   0.98992536     18.134458      94.952588    
    834000   0.93497905     18.161213      94.669103    
    835000   1.018676       18.091797      94.663755    
    836000   1.0083591      17.966144      94.785349    
    837000   1.000622       18.387319      94.575967    
    838000   1.0353034      18.387449      94.551464    
    839000   0.99247519     18.24953       94.57452     
    840000   1.0322156      17.944506      94.311592    
    841000   0.97013485     18.009411      94.130871    
    842000   0.9935459      17.993238      94.017216    
    843000   1.0131728      18.218611      93.91994     
    844000   1.0014195      18.362682      93.740896    
    845000   0.96394443     17.743448      93.575053    
    846000   0.9964016      18.327181      93.487676    
    847000   1.0161678      18.513078      93.486303    
    848000   1.0013529      18.11324       93.440988    
    849000   1.0583176      18.253054      93.501144    
    850000   0.9807098      18.267966      93.501554    
    851000   0.96994726     18.787585      93.57923     
    852000   0.97639182     17.970364      93.438158    
    853000   1.0303786      17.946538      93.202701    
    854000   1.0304212      18.616436      92.981732    
    855000   0.98344878     18.454577      92.852183    
    856000   1.0180235      18.096654      92.948457    
    857000   1.0002917      17.943789      92.868587    
    858000   1.0258233      18.309424      92.92579     
    859000   1.020463       17.974426      92.75323     
    860000   0.97568541     17.875043      92.844871    
    861000   1.0486569      17.765413      92.73054     
    862000   1.0092748      18.75896       92.650755    
    863000   1.0101467      18.224947      92.49067     
    864000   1.0109839      17.845468      92.356002    
    865000   1.0014063      18.405931      92.43767     
    866000   1.016023       18.555504      92.412593    
    867000   1.0150656      18.348761      92.462142    
    868000   1.0138792      17.517116      92.282492    
    869000   1.0157881      18.173219      92.280587    
    870000   1.044592       18.342874      92.233858    
    871000   1.0042115      18.245525      92.08196     
    872000   0.99131877     18.240296      92.0124      
    873000   1.019944       18.445132      92.289974    
    874000   1.0303428      18.230289      92.020514    
    875000   1.0440395      18.814082      91.876662    
    876000   1.0048844      18.198259      91.734918    
    877000   0.98581839     17.809375      91.93749     
    878000   0.96264239     17.792153      91.813623    
    879000   0.95053019     17.922936      91.62725     
    880000   1.0261403      17.824088      91.627667    
    881000   0.96316151     17.687835      91.751422    
    882000   1.0042469      18.283529      91.813976    
    883000   1.0203476      18.012741      91.41047     
    884000   1.0172302      17.729371      91.322169    
    885000   1.0159955      18.456361      91.188287    
    886000   0.98502748     17.858948      91.148218    
    887000   0.97974497     17.947063      91.102224    
    888000   1.0365756      18.132165      91.061418    
    889000   0.99999884     18.256634      90.689872    
    890000   0.99946966     18.271616      90.398718    
    891000   1.0033062      17.812813      90.1102      
    892000   1.0269342      18.305088      89.937712    
    893000   0.98992514     18.337501      89.940469    
    894000   0.99966705     17.779203      89.84117     
    895000   1.0071738      17.67082       89.712849    
    896000   1.0322056      18.235783      89.748457    
    897000   1.0008528      18.330126      89.667911    
    898000   0.98984287     17.724102      89.546684    
    899000   1.0073091      18.351603      89.366089    
    900000   0.96962339     17.849212      89.118223    
    901000   1.0136346      18.092998      88.907679    
    902000   1.0253125      18.655857      88.899027    
    903000   1.0565537      18.335568      88.893029    
    904000   0.998843       17.946471      88.894013    
    905000   0.9957877      17.886056      88.90669     
    906000   1.0116835      18.442726      88.657954    
    907000   0.98086593     18.088842      88.360745    
    908000   1.0275397      18.292344      88.544455    
    909000   1.047179       17.935323      88.267116    
    910000   1.0120427      18.424043      88.088603    
    911000   0.94741636     17.808145      88.107567    
    912000   1.0095763      18.688403      88.019836    
    913000   0.95944728     18.331494      87.992705    
    914000   1.0161227      18.287795      88.128554    
    915000   0.97573073     18.080458      88.036391    
    916000   1.0127912      18.199677      88.032224    
    917000   0.98027901     17.790961      87.985677    
    918000   0.99593975     18.077458      87.857321    
    919000   0.99114648     18.272996      87.786766    
    920000   0.99727589     18.301243      87.636708    
    921000   1.027818       17.969254      87.591169    
    922000   1.0234334      18.396977      87.379401    
    923000   0.9920558      18.21777       87.472173    
    924000   1.024041       18.070622      87.21316     
    925000   1.018734       18.074182      87.320427    
    926000   0.9496089      18.063554      87.126448    
    927000   1.0277868      18.227147      87.290769    
    928000   1.0408891      17.903288      87.150559    
    929000   0.9701887      18.173495      87.116576    
    930000   0.98874012     18.10021       87.110176    
    931000   0.98817199     18.060039      87.15489     
    932000   1.0123512      17.648921      87.002266    
    933000   0.96805979     18.305957      86.935057    
    934000   0.96670581     18.240705      86.761481    
    935000   1.0130835      18.465236      86.569181    
    936000   1.0154169      18.129671      86.486614    
    937000   1.0102502      18.168692      86.250913    
    938000   0.98273531     17.747755      86.123368    
    939000   0.9707641      17.920381      86.124516    
    940000   0.99393385     18.020631      86.088322    
    941000   1.0168191      17.630379      86.026478    
    942000   1.0112932      18.347632      86.052093    
    943000   0.99938877     17.915982      86.036037    
    944000   1.0011394      18.042193      86.00709     
    945000   0.96961085     18.06131       85.953519    
    946000   1.0070805      17.947442      85.844111    
    947000   1.0026049      18.140149      85.762718    
    948000   0.99574311     17.975029      85.535429    
    949000   1.0039122      18.098705      85.542562    
    950000   1.0063247      18.153056      85.496651    
    951000   1.0034648      18.2004        85.425142    
    952000   1.0351564      18.110884      85.164109    
    953000   1.0520154      18.324825      84.997473    
    954000   1.0495599      18.275073      84.833405    
    955000   0.97562827     18.06242       84.428214    
    956000   0.99327845     17.753757      84.447994    
    957000   0.99746103     17.536429      84.619809    
    958000   1.0056938      18.028403      84.600841    
    959000   0.98028717     18.118396      84.350117    
    960000   0.99523507     17.975062      84.350701    
    961000   0.99337        18.029871      84.324912    
    962000   1.0337188      18.344903      84.050312    
    963000   0.99483954     17.556533      83.838949    
    964000   1.0046776      18.036732      83.60959     
    965000   1.0303114      18.222251      83.532021    
    966000   1.0302567      17.519884      83.342448    
    967000   0.97058125     18.181043      83.158339    
    968000   1.0141379      17.910683      83.03938     
    969000   0.98223556     17.667048      82.828597    
    970000   0.98077972     18.387212      82.780081    
    971000   1.0218452      17.950439      82.834949    
    972000   1.0648286      18.218223      82.759277    
    973000   1.0135718      17.728131      82.652785    
    974000   0.99807492     18.124699      82.670882    
    975000   0.9881678      17.602084      82.548232    
    976000   0.96186458     18.093071      82.349792    
    977000   1.002377       17.451052      82.43963     
    978000   0.97800501     17.544117      82.216377    
    979000   1.0106917      18.174523      82.25271     
    980000   0.96862103     18.098287      82.082641    
    981000   1.0254353      17.827936      81.861291    
    982000   1.0364604      17.916549      81.973296    
    983000   1.0153953      17.86686       81.740695    
    984000   1.012596       17.81806       81.741078    
    985000   0.98906083     17.500623      81.743544    
    986000   1.0165836      18.168238      81.577373    
    987000   0.9622175      17.564737      81.582402    
    988000   1.0105762      18.261516      81.56538     
    989000   0.98193658     18.378087      81.527402    
    990000   1.0284362      18.137481      81.333743    
    991000   1.025021       18.356402      81.144403    
    992000   1.0101973      17.992738      81.054933    
    993000   1.0208835      17.763383      80.928735    
    994000   0.98308892     18.397941      80.88827     
    995000   1.0122525      18.055417      80.75221     
    996000   1.0268601      17.901844      80.804662    
    997000   0.98106832     17.52336       80.478972    
    998000   1.0268339      18.204774      80.321268    
    999000   1.00747        18.097333      80.366153    
   1000000   0.99322208     17.662652      80.47324     
   1001000   0.99259506     17.835682      80.557178    
   1002000   0.98554679     17.587165      80.379409    
   1003000   1.025908       17.485595      80.188282    
   1004000   0.98510998     17.63653       80.050179    
   1005000   0.98411062     17.995094      79.781169    
   1006000   1.0142084      17.761169      79.675799    
   1007000   0.96663833     17.879589      79.917953    
   1008000   0.97863353     17.789112      79.922252    
   1009000   1.0376001      18.393209      79.802793    
   1010000   1.0196219      18.312864      79.635882    
   1011000   0.98933533     17.878575      79.491663    
   1012000   0.99803903     18.003706      79.526992    
   1013000   1.033034       18.036091      79.261059    
   1014000   1.0136162      17.714021      79.091815    
   1015000   1.0071791      17.604462      78.94997     
   1016000   0.9791074      17.853088      78.852193    
   1017000   1.0054606      17.893983      79.110075    
   1018000   1.0122457      17.739926      79.10832     
   1019000   1.0247321      18.177704      79.156316    
   1020000   0.97706385     17.643365      78.993666    
   1021000   0.99839748     17.92584       78.949779    
   1022000   1.0207964      18.192858      78.75528     
   1023000   0.99262668     18.097929      78.985152    
   1024000   1.0343897      17.654437      78.821797    
   1025000   0.9522379      18.169516      78.947191    
   1026000   1.0354813      18.264461      78.773392    
   1027000   1.038968       18.245449      78.57541     
   1028000   0.96388601     17.620702      78.569961    
   1029000   0.99689193     17.970911      78.657435    
   1030000   1.0125136      17.748342      78.553963    
   1031000   0.98383844     17.861159      78.406948    
   1032000   1.0096546      18.322734      78.245065    
   1033000   1.0401272      17.975469      78.225873    
   1034000   1.0220723      18.197565      78.075677    
   1035000   0.94495189     17.685642      77.69872     
   1036000   1.013942       18.089354      77.51888     
   1037000   1.0417493      18.352974      77.398399    
   1038000   0.99016513     17.653892      77.23349     
   1039000   0.97813785     18.14757       77.19131     
   1040000   0.9937051      18.09935       77.362725    
   1041000   1.0158455      17.775317      77.299988    
   1042000   0.95554766     17.697418      77.278016    
   1043000   1.0110506      18.1353        77.038686    
   1044000   0.99378395     17.764207      76.779148    
   1045000   1.019949       17.958395      76.778811    
   1046000   0.99626725     18.078628      76.803523    
   1047000   0.99464466     17.96524       76.577074    
   1048000   1.0310844      18.018913      76.461673    
   1049000   0.99173449     17.423872      76.127043    
   1050000   0.99352906     18.322115      75.966964    
   1051000   0.95553809     17.652183      75.864962    
   1052000   1.0087384      18.061498      76.002846    
   1053000   1.0201864      17.881983      75.996298    
   1054000   1.0005186      17.491251      76.155792    
   1055000   0.98209077     17.549011      76.073241    
   1056000   0.98347078     18.000959      76.00269     
   1057000   0.99897732     17.814452      76.010229    
   1058000   0.99534283     17.798322      75.981964    
   1059000   1.0254946      17.40082       76.274931    
   1060000   1.0033619      18.017361      76.449037    
   1061000   1.0096112      17.971798      76.1773      
   1062000   1.0112292      18.151728      76.271294    
   1063000   1.0296749      18.019281      76.120234    
   1064000   0.94873498     17.675853      75.977103    
   1065000   1.003658       17.596265      75.930717    
   1066000   1.0202583      17.857396      75.722986    
   1067000   1.0213426      18.061482      75.673669    
   1068000   1.0302794      17.459367      75.661586    
   1069000   1.0188041      17.529233      75.793925    
   1070000   1.0340314      17.457634      75.863258    
   1071000   1.0152753      17.618482      75.503794    
   1072000   1.0183299      17.823761      75.451551    
   1073000   1.0322208      17.542322      75.340741    
   1074000   1.0236487      18.087357      75.300896    
   1075000   0.994964       17.880438      75.213782    
   1076000   0.98556464     17.184703      75.161583    
   1077000   0.99554329     17.490762      75.132016    
   1078000   1.0242007      18.251032      75.071212    
   1079000   0.99284804     17.884712      75.145352    
   1080000   1.0277016      18.232515      75.207606    
   1081000   1.0033114      17.547234      75.081448    
   1082000   0.9821936      18.031802      75.042828    
   1083000   1.0213274      17.906135      75.003758    
   1084000   0.99161639     17.662082      74.628491    
   1085000   0.98570641     17.997787      74.605947    
   1086000   0.99992542     17.800589      74.306765    
   1087000   1.0019403      17.983984      74.334343    
   1088000   1.0350141      18.100775      74.18253     
   1089000   1.0194063      18.006262      74.031817    
   1090000   0.96757712     17.475361      73.929278    
   1091000   1.0146267      17.805209      73.670886    
   1092000   0.99788975     17.154795      73.499621    
   1093000   0.99923078     17.831351      73.230176    
   1094000   1.0158957      17.98785       73.389904    
   1095000   1.0129926      17.745596      73.374299    
   1096000   1.040779       17.651504      73.14867     
   1097000   1.0351689      17.796792      73.006117    
   1098000   1.0004185      17.276007      72.864894    
   1099000   1.0010475      17.813175      72.762162    
   1100000   1.0886263      18.11863       72.602305    
   1101000   0.9976022      17.825518      72.744187    
   1102000   1.0092021      17.733847      72.664804    
   1103000   1.0068617      17.636647      72.596162    
   1104000   0.96628322     18.388866      72.640778    
   1105000   1.0081857      17.9192        72.432165    
   1106000   0.98768868     18.249554      72.542635    
   1107000   1.0378534      18.191597      72.322425    
   1108000   1.0678819      18.172982      72.231992    
   1109000   0.98711487     18.129361      72.078109    
   1110000   0.97445818     18.151395      71.942528    
   1111000   1.0262238      18.11392       71.915172    
   1112000   0.9894446      17.650046      72.072691    
   1113000   1.0108013      17.959811      72.000008    
   1114000   1.0276655      18.025431      71.829939    
   1115000   1.015237       17.640315      71.768675    
   1116000   0.99867764     17.857239      71.515761    
   1117000   0.96920491     18.138773      71.333569    
   1118000   1.0036281      17.697857      71.182052    
   1119000   1.0124312      17.938552      71.080191    
   1120000   0.98397939     18.441726      70.984855    
   1121000   0.9612069      17.737207      70.826951    
   1122000   1.0045512      17.659123      70.752056    
   1123000   1.023792       18.101399      70.762958    
   1124000   0.98138566     17.795774      70.779602    
   1125000   0.95940818     17.742478      70.875324    
   1126000   0.98162785     17.764937      70.999466    
   1127000   1.0065784      17.593041      70.923083    
   1128000   1.0119464      18.192565      70.690985    
   1129000   1.0000745      17.794314      70.59397     
   1130000   1.0086779      17.742144      70.510086    
   1131000   0.99262695     17.470251      70.461926    
   1132000   1.0170587      17.984212      70.427004    
   1133000   1.0059092      17.840809      70.567808    
   1134000   0.96751258     18.109557      70.442384    
   1135000   0.98973822     17.754583      70.411122    
   1136000   1.0124829      17.69626       70.389764    
   1137000   0.98230242     17.635644      70.431402    
   1138000   0.98994948     17.594211      70.336681    
   1139000   1.0180527      17.363472      70.1725      
   1140000   1.0028709      18.37208       70.158145    
   1141000   0.99578382     17.431168      69.998427    
   1142000   0.9995703      17.851844      69.87746     
   1143000   0.99780699     17.451677      69.69394     
   1144000   0.99882059     17.564492      69.60192     
   1145000   0.96074929     18.17901       69.333364    
   1146000   0.96922542     18.410874      68.882158    
   1147000   1.0084938      17.73969       68.658527    
   1148000   1.0102705      17.980513      68.705034    
   1149000   1.0535215      17.699723      68.770978    
   1150000   1.0102438      17.892544      68.504812    
   1151000   1.0519149      17.663205      68.484324    
   1152000   1.0294786      18.569575      68.184415    
   1153000   1.0327954      17.758128      67.90627     
   1154000   1.002541       17.933365      67.964492    
   1155000   1.0134374      17.779956      67.947134    
   1156000   1.0099441      18.035685      67.825255    
   1157000   0.99603677     17.4863        67.808869    
   1158000   1.0397133      18.57629       67.641421    
   1159000   1.0044706      18.236647      67.67511     
   1160000   1.0326241      18.11521       67.641436    
   1161000   0.95050488     17.621272      67.545819    
   1162000   0.97737485     17.829411      67.417851    
   1163000   0.95614963     18.440287      67.341437    
   1164000   1.0331484      17.310536      67.109932    
   1165000   0.96972641     18.233197      66.904336    
   1166000   1.0091232      18.120045      67.093628    
   1167000   0.97793139     17.443193      66.912003    
   1168000   1.0407242      18.107738      66.885123    
   1169000   0.99739053     18.027692      66.818315    
   1170000   1.0313381      17.926858      66.516876    
   1171000   1.0154851      17.874756      66.55744     
   1172000   0.98018881     18.126255      66.47601     
   1173000   0.9864192      18.342655      66.374112    
   1174000   0.99209293     17.60128       66.439832    
   1175000   1.036848       17.45826       66.313498    
   1176000   1.0243637      17.321863      66.318127    
   1177000   0.99873955     17.500843      66.325658    
   1178000   1.0138935      17.98114       66.454449    
   1179000   1.0145001      18.347413      66.423126    
   1180000   0.98900382     17.664736      66.485612    
   1181000   1.0058665      17.869036      66.370875    
   1182000   0.95969538     18.152295      66.182873    
   1183000   0.98673246     17.644546      66.227398    
   1184000   1.032764       17.79828       66.329453    
   1185000   0.98194413     17.849342      66.194183    
   1186000   0.94921593     18.000698      66.149046    
   1187000   0.99246244     17.602868      66.041927    
   1188000   0.9921099      18.540354      65.975378    
   1189000   1.0368026      17.859529      65.93973     
   1190000   1.038356       17.781583      65.960474    
   1191000   0.98949743     17.26521       65.874818    
   1192000   1.0076044      17.700096      65.734158    
   1193000   1.013368       17.907956      65.810196    
   1194000   1.0286306      18.172023      65.864868    
   1195000   0.98498274     17.607815      65.86659     
   1196000   1.0219858      17.94266       65.705156    
   1197000   1.0165151      18.215365      65.61608     
   1198000   0.99389637     17.755662      65.417497    
   1199000   0.96365987     17.611829      65.453866    
   1200000   0.99534902     17.11977       65.315287    
   1201000   0.96781072     17.746534      65.186207    
   1202000   0.99646407     17.901412      65.127039    
   1203000   1.0156233      17.705631      64.956704    
   1204000   1.0255991      17.394681      64.807741    
   1205000   0.97387691     17.32733       64.986708    
   1206000   0.99818928     17.77205       64.981478    
   1207000   0.99529255     18.198677      64.855184    
   1208000   0.97026638     17.148525      64.829237    
   1209000   1.0155822      18.256517      64.703802    
   1210000   0.99162519     17.310474      64.432867    
   1211000   1.0173428      18.025188      64.330407    
   1212000   1.0052244      17.551337      64.097246    
   1213000   0.99083025     17.463998      64.218155    
   1214000   0.97745762     18.110833      64.140751    
   1215000   0.96789848     17.820507      64.112044    
   1216000   0.95575771     17.479255      63.917141    
   1217000   1.0002102      18.141986      63.744408    
   1218000   1.0053369      17.888238      63.647316    
   1219000   0.9909135      18.119163      63.65392     
   1220000   1.0083428      18.150534      63.447481    
   1221000   1.0111525      17.912147      63.310263    
   1222000   0.99015711     17.798518      63.200173    
   1223000   0.95670883     17.517949      63.307722    
   1224000   1.0332527      17.801456      63.228514    
   1225000   0.99962536     17.965136      63.220829    
   1226000   1.0082037      18.181498      62.95872     
   1227000   0.99149629     17.725775      62.972554    
   1228000   1.022701       17.855832      62.786493    
   1229000   0.97783941     17.734208      62.638963    
   1230000   1.0140216      18.001027      62.494195    
   1231000   0.96532761     17.746146      62.294001    
   1232000   1.0376231      17.472444      62.163407    
   1233000   1.045411       18.096428      61.835426    
   1234000   0.99214126     17.799777      61.667783    
   1235000   1.0376262      18.111758      61.498547    
   1236000   0.99221645     17.791296      61.32068     
   1237000   1.0015887      17.94041       61.203494    
   1238000   0.98477943     16.793032      61.026355    
   1239000   0.98240876     17.833553      60.908944    
   1240000   0.98956248     17.911792      60.591152    
   1241000   0.98272672     17.611349      60.450629    
   1242000   1.0134756      17.910095      60.258701    
   1243000   0.98590527     17.57175       60.186205    
   1244000   1.0124593      17.722449      60.202461    
   1245000   1.0066185      18.331912      60.134979    
   1246000   0.97344085     17.588501      60.05735     
   1247000   0.97528529     17.789331      60.115772    
   1248000   1.0148952      18.148008      60.101045    
   1249000   0.99366604     17.62157       59.994799    
   1250000   0.97797061     17.445192      59.759896    
   1251000   1.0300025      18.237507      59.692301    
   1252000   1.0158401      17.957454      59.512051    
   1253000   0.99592895     17.926056      59.566847    
   1254000   1.0362895      17.973156      59.522077    
   1255000   0.98782602     17.813139      59.808578    
   1256000   0.9767663      17.577032      59.672245    
   1257000   1.0052247      17.803901      59.54531     
   1258000   0.99617296     17.536089      59.382439    
   1259000   0.97638932     17.145264      59.04535     
   1260000   1.0222451      18.14266       58.858408    
   1261000   1.0306809      17.691956      58.829165    
   1262000   0.9968887      17.748548      58.630406    
   1263000   1.0096965      17.583274      58.631592    
   1264000   1.0073402      17.770117      58.305905    
   1265000   1.0078412      17.60029       58.069609    
   1266000   0.97886468     17.817426      57.794896    
   1267000   1.0181158      18.180832      57.882414    
   1268000   0.98261538     17.90597       57.777307    
   1269000   1.0103224      17.557286      57.811074    
   1270000   0.9908768      17.817939      57.775377    
   1271000   1.0167916      17.723589      57.7345      
   1272000   1.0105896      17.637187      57.591937    
   1273000   0.99204099     17.467841      57.428678    
   1274000   0.98300974     18.320867      57.253468    
   1275000   0.98926946     17.659827      57.234385    
   1276000   0.99751218     17.264736      57.256387    
   1277000   0.99786138     17.320255      57.293759    
   1278000   0.97350423     17.520788      57.330506    
   1279000   0.98912867     17.179537      57.344869    
   1280000   1.0183892      17.70823       57.326517    
   1281000   1.0022585      17.827287      57.173718    
   1282000   0.96602847     17.20277       57.062878    
   1283000   0.99464867     17.966793      56.985586    
   1284000   1.0174672      17.527694      56.66299     
   1285000   0.99545344     17.933895      56.443828    
   1286000   0.99858492     18.299418      56.452148    
   1287000   0.95807449     17.256981      56.299799    
   1288000   0.98609868     17.889867      55.886917    
   1289000   0.97615603     17.891329      55.724111    
   1290000   1.0162794      17.888038      55.780325    
   1291000   0.96162152     17.599389      55.752346    
   1292000   1.0370979      17.443416      55.730019    
   1293000   0.99588221     17.683934      55.588828    
   1294000   0.97031588     17.49665       55.703614    
   1295000   0.99336956     18.116259      55.634526    
   1296000   0.9978123      17.700455      55.509122    
   1297000   0.99876644     17.787985      55.442322    
   1298000   0.97510894     17.781716      55.332601    
   1299000   1.0024513      17.679934      55.103618    
   1300000   0.9936883      18.104694      54.760188    
   1301000   1.0016786      17.611215      54.573019    
   1302000   1.0221556      17.634812      54.819575    
   1303000   0.978171       17.290119      54.8857      
   1304000   0.98409868     17.616818      54.680931    
   1305000   1.0321791      17.869989      54.603021    
   1306000   0.99291956     17.516694      54.481976    
   1307000   0.99916831     17.617947      54.39483     
   1308000   1.0042431      17.863471      54.087847    
   1309000   1.0489571      17.988836      53.994296    
   1310000   0.98033345     17.718826      53.948448    
   1311000   0.97804893     17.314871      54.127394    
   1312000   0.97237269     17.287637      54.063366    
   1313000   1.0265189      17.756086      54.215246    
   1314000   0.93288902     17.582501      54.082396    
   1315000   1.0052179      17.67295       54.154119    
   1316000   1.033276       17.499247      53.940506    
   1317000   0.98339704     17.45104       53.854927    
   1318000   0.96625795     17.489402      53.77914     
   1319000   1.037349       17.863937      53.663624    
   1320000   1.0059602      17.374597      53.327103    
   1321000   0.97769307     17.406686      53.174265    
   1322000   0.97590849     17.295889      53.167777    
   1323000   0.99947717     18.089386      53.077929    
   1324000   0.99870415     17.972012      52.833416    
   1325000   0.97485429     17.808803      52.792048    
   1326000   1.0167798      18.306087      52.631924    
   1327000   0.98807066     17.822166      52.583443    
   1328000   0.96100555     17.376257      52.458212    
   1329000   1.0155119      17.066304      52.432211    
   1330000   1.0152271      17.993921      52.331547    
   1331000   0.97808436     17.895612      52.295985    
   1332000   0.95504258     17.457286      52.19165     
   1333000   0.97997027     17.410203      52.000075    
   1334000   1.0346446      18.066614      52.010224    
   1335000   0.96310502     17.658878      52.176217    
   1336000   1.0419278      17.490825      52.046837    
   1337000   1.0101667      17.781362      51.852433    
   1338000   0.99008204     17.719903      51.752843    
   1339000   1.0454316      17.732608      51.445769    
   1340000   0.97013555     17.366164      51.255208    
   1341000   0.96611739     17.204202      51.312508    
   1342000   0.98561708     17.557243      51.250076    
   1343000   0.98218333     16.84185       51.237596    
   1344000   1.0556511      17.084668      51.227647    
   1345000   1.0210218      17.178269      51.284212    
   1346000   1.0168513      17.72527       50.977125    
   1347000   1.0270618      17.874391      50.903625    
   1348000   0.99089521     17.605267      50.996982    
   1349000   0.99230831     17.341309      51.033373    
   1350000   1.025021       18.238829      50.961331    
   1351000   1.0337578      17.893971      50.862576    
   1352000   0.96857375     16.90741       50.891269    
   1353000   0.97494737     17.164332      51.100045    
   1354000   1.0101951      17.531522      50.885102    
   1355000   1.0102091      17.832984      50.814267    
   1356000   0.99705081     18.510559      50.829171    
   1357000   0.98428595     17.675993      50.62469     
   1358000   1.0194687      17.805456      50.745837    
   1359000   1.018378       17.344799      50.877712    
   1360000   0.99593841     17.393249      50.708834    
   1361000   0.99935224     17.803067      50.547239    
   1362000   0.99066399     17.922514      50.355355    
   1363000   0.99531918     17.810572      50.226119    
   1364000   1.0013123      17.920136      50.174851    
   1365000   0.9664422      17.140853      50.226476    
   1366000   1.0212045      17.267141      50.132583    
   1367000   1.0239351      17.625481      50.15477     
   1368000   0.97861967     17.710795      50.180492    
   1369000   1.0200263      17.292117      50.223401    
   1370000   1.0186094      17.80467       50.107581    
   1371000   1.0020393      17.254203      50.195121    
   1372000   1.0042408      17.956972      50.152213    
   1373000   1.0323137      17.815615      50.128134    
   1374000   0.96130585     17.07132       50.030722    
   1375000   1.0129629      17.399428      50.104811    
   1376000   0.93606815     17.419231      50.094902    
   1377000   0.99812608     17.301178      49.882857    
   1378000   1.0247406      17.714795      49.819371    
   1379000   1.0126983      17.947078      49.847749    
   1380000   1.0272718      18.014929      49.674552    
   1381000   1.0010699      18.061528      49.740024    
   1382000   0.97834898     18.164445      49.8035      
   1383000   1.0111103      17.531762      49.579609    
   1384000   1.0162574      18.150314      49.621522    
   1385000   1.0107604      18.430027      49.532235    
   1386000   0.99538451     17.363521      49.384734    
   1387000   1.0132763      17.743979      49.291036    
   1388000   0.95316961     17.817798      49.226045    
   1389000   1.0415665      17.166665      49.085758    
   1390000   1.0175559      17.959623      49.023753    
   1391000   0.99708629     17.590324      48.97024     
   1392000   1.0058482      17.53964       48.688485    
   1393000   1.0327175      18.226692      48.587557    
   1394000   1.0023615      17.501697      48.490299    
   1395000   0.99347184     17.148444      48.32722     
   1396000   0.95131654     17.507462      48.437681    
   1397000   1.0171377      17.500867      48.462602    
   1398000   1.0169722      18.213286      48.36061     
   1399000   1.0078317      17.30899       48.193168    
   1400000   0.99215401     17.609207      48.084561    
   1401000   1.0111225      17.31943       48.10442     
   1402000   1.0341565      17.948501      48.140069    
   1403000   0.99678992     17.468885      48.152848    
   1404000   0.98865917     17.526982      48.202843    
   1405000   1.0174174      17.62031       47.991141    
   1406000   0.96393482     17.426995      47.721758    
   1407000   0.96483208     17.600897      47.628652    
   1408000   1.0523235      18.003081      47.454881    
   1409000   0.99893118     17.315262      47.339834    
   1410000   1.0482932      17.95853       47.241661    
   1411000   0.99495921     17.597362      47.09256     
   1412000   0.9992313      18.014043      47.047299    
   1413000   0.9832653      17.76787       47.181664    
   1414000   1.0312576      17.788462      47.219478    
   1415000   0.99404283     17.556678      47.130819    
   1416000   1.0415673      17.787332      47.145133    
   1417000   0.99431262     17.355838      47.080442    
   1418000   1.0585526      17.916448      46.993462    
   1419000   1.0181605      17.606178      46.851127    
   1420000   0.98800917     17.423019      46.771087    
   1421000   0.98249008     16.854718      46.56132     
   1422000   1.0277951      17.699793      46.466187    
   1423000   0.99195394     17.517407      46.36467     
   1424000   1.0562905      17.533168      46.292418    
   1425000   0.98940545     17.475586      46.218644    
   1426000   0.95917238     17.368978      45.998584    
   1427000   1.0013468      17.423403      46.121806    
   1428000   0.97199157     18.055915      46.017686    
   1429000   1.0365491      17.75319       45.965323    
   1430000   1.0336814      17.841243      45.973961    
   1431000   0.99848893     17.38429       46.073744    
   1432000   1.0115261      17.305988      46.299031    
   1433000   1.0304476      17.728782      46.303142    
   1434000   0.9682426      17.789794      46.414596    
   1435000   0.99245069     17.407043      46.308511    
   1436000   1.0014377      17.855548      46.06175     
   1437000   0.98736073     17.236461      45.922557    
   1438000   0.99204487     17.381239      45.797721    
   1439000   1.0348452      18.159854      45.351003    
   1440000   1.0128096      17.297021      45.298489    
   1441000   1.0114425      17.870565      45.259451    
   1442000   0.97335255     17.111316      45.132204    
   1443000   0.9876542      17.571364      45.157892    
   1444000   1.0271585      18.391146      45.133723    
   1445000   0.99289244     17.708706      45.04254     
   1446000   0.9792501      17.030536      44.873547    
   1447000   1.0200983      17.456597      44.600993    
   1448000   0.98718402     17.071966      44.450672    
   1449000   1.0145794      17.629793      44.502653    
   1450000   0.98431012     17.937827      44.400561    
   1451000   1.0195946      17.313995      44.333995    
   1452000   1.0087558      17.915764      44.124165    
   1453000   0.9938575      17.512172      44.089601    
   1454000   1.0196157      18.363222      43.832114    
   1455000   1.0169274      17.430764      43.671447    
   1456000   0.99666789     17.944799      43.427274    
   1457000   1.0251496      17.577587      43.395836    
   1458000   1.0223148      17.885665      43.402625    
   1459000   0.96071688     17.46274       43.297412    
   1460000   1.0254682      17.045446      43.218427    
   1461000   0.99552953     17.729589      43.126993    
   1462000   0.98673551     17.327659      42.866438    
   1463000   0.98950678     17.715588      42.911664    
   1464000   1.0242288      17.60442       42.712247    
   1465000   0.98152161     17.759932      42.674463    
   1466000   0.99184076     17.480764      42.571868    
   1467000   1.0090899      17.465545      42.263165    
   1468000   1.0231919      17.822165      42.044469    
   1469000   1.0106817      17.616174      41.843236    
   1470000   1.0337208      17.258477      41.583626    
   1471000   1.0313961      17.442108      41.70103     
   1472000   0.99956109     17.861394      41.758148    
   1473000   0.9915642      17.789468      41.549801    
   1474000   0.97813698     18.12533       41.58909     
   1475000   1.0580699      17.753528      41.703037    
   1476000   0.96420472     17.354699      41.693027    
   1477000   1.0474293      17.552407      41.445911    
   1478000   0.99323888     17.070022      41.37109     
   1479000   0.99657905     17.503135      41.365755    
   1480000   1.0570101      18.106493      41.076358    
   1481000   1.0093231      17.583001      41.081719    
   1482000   1.025545       17.269431      40.850777    
   1483000   1.0364386      17.58941       40.630288    
   1484000   1.0189849      17.852463      40.415878    
   1485000   0.99122649     17.634493      40.23617     
   1486000   1.0105133      18.124658      40.143226    
   1487000   0.99371116     17.146849      40.099458    
   1488000   1.031513       17.673807      39.945031    
   1489000   1.0190397      17.689282      39.853823    
   1490000   0.99593505     18.021471      39.980616    
   1491000   0.99511105     17.508958      39.916503    
   1492000   0.99994402     17.805289      40.067668    
   1493000   0.98132506     17.421196      39.831513    
   1494000   0.98484885     17.938091      39.763663    
   1495000   1.0267718      17.674923      39.769922    
   1496000   1.0085279      17.763267      39.730312    
   1497000   0.97700279     17.308097      39.57345     
   1498000   0.97787487     17.693817      39.438884    
   1499000   1.0282682      17.559777      39.364345    
   1500000   0.97315362     17.433698      39.455449    
   1501000   1.0151881      17.574351      39.344291    
   1502000   1.0093096      18.0309        39.045879    
   1503000   0.97099788     17.05387       38.925072    
   1504000   1.0073696      17.690049      38.942594    
   1505000   1.0325073      17.947067      38.818682    
   1506000   1.0369698      17.399429      38.742148    
   1507000   0.97749499     17.315283      38.713875    
   1508000   1.0195374      17.75496       38.603427    
   1509000   0.99262859     17.565395      38.508963    
   1510000   1.0032966      17.360428      38.341815    
   1511000   1.0253495      17.35163       38.154535    
   1512000   0.98990701     17.281009      37.897592    
   1513000   1.0291679      17.93341       37.927249    
   1514000   0.97869229     17.256615      37.87376     
   1515000   0.99079063     17.652632      37.718806    
   1516000   1.033661       17.230295      37.851849    
   1517000   1.0118239      17.645884      37.879854    
   1518000   0.99304374     18.016084      37.800536    
   1519000   0.92614267     17.570212      37.733826    
   1520000   1.0254636      16.860712      37.502907    
   1521000   0.97463945     17.640476      37.601437    
   1522000   1.0291634      17.69513       37.751441    
   1523000   0.94014843     16.879669      37.667421    
   1524000   1.0251886      17.07624       37.675518    
   1525000   0.98488609     17.441843      37.672264    
   1526000   0.9922719      17.581441      37.718657    
   1527000   0.95511335     16.921982      37.514023    
   1528000   0.99059487     17.489405      37.663837    
   1529000   0.9994226      17.806032      37.426385    
   1530000   1.0436232      17.796643      37.040498    
   1531000   1.0135733      17.752959      36.849662    
   1532000   1.0132023      17.170316      36.891105    
   1533000   1.024284       18.274491      36.878108    
   1534000   0.97294205     17.639893      36.800189    
   1535000   0.97404435     17.54672       36.572539    
   1536000   0.99301324     17.090138      36.295567    
   1537000   1.0157314      17.388101      36.303273    
   1538000   0.99978019     17.14105       36.25502     
   1539000   0.98988257     17.253031      36.267778    
   1540000   0.98434239     17.130236      36.078574    
   1541000   1.0036263      17.40375       35.839139    
   1542000   1.0171029      17.385052      35.692737    
   1543000   0.95834304     17.308225      35.626572    
   1544000   1.0020693      17.309044      35.563952    
   1545000   0.99971157     17.387719      35.43423     
   1546000   1.0100649      17.538854      35.412432    
   1547000   1.0020939      17.350392      35.308543    
   1548000   0.99674004     17.460186      35.262361    
   1549000   1.022927       17.648845      35.14718     
   1550000   0.97875282     18.044912      34.875821    
   1551000   0.99166696     17.466949      34.977955    
   1552000   0.98240695     17.39371       34.64763     
   1553000   0.96351648     17.632611      34.751369    
   1554000   0.99124214     17.891498      34.529774    
   1555000   1.0150316      17.66295       34.290317    
   1556000   1.0032026      17.191203      34.12206     
   1557000   0.96202046     18.17679       33.76388     
   1558000   1.0019667      17.294101      33.640158    
   1559000   1.0144321      17.332731      33.4609      
   1560000   0.98079281     16.96102       33.330617    
   1561000   1.095559       17.921202      33.283712    
   1562000   0.98813097     17.584224      33.191898    
   1563000   1.0180877      17.906797      33.026046    
   1564000   0.98085603     17.53719       32.961393    
   1565000   0.98866732     17.535541      32.906062    
   1566000   0.99806111     17.316142      32.787519    
   1567000   0.98027199     17.191215      32.652291    
   1568000   0.97882904     17.344817      32.532497    
   1569000   0.98734352     17.283369      32.433373    
   1570000   1.0475644      17.739003      32.418217    
   1571000   0.99800886     17.802822      32.356804    
   1572000   1.0243147      17.950413      32.14492     
   1573000   0.98421178     17.873347      32.134038    
   1574000   1.0017952      18.035455      31.736347    
   1575000   1.0009402      17.625695      31.801771    
   1576000   0.99601972     17.360687      31.9247      
   1577000   0.9953508      17.472287      31.868333    
   1578000   1.0029795      17.276854      31.881895    
   1579000   0.99161696     17.148385      31.89959     
   1580000   0.98423236     17.390741      31.77977     
   1581000   1.0290811      17.136761      31.64578     
   1582000   0.99147898     17.265571      31.627135    
   1583000   0.98472482     17.07667       31.372648    
   1584000   1.0043159      17.318737      31.290324    
   1585000   0.97422839     16.992648      31.260883    
   1586000   1.0228298      17.361401      31.236575    
   1587000   1.0239474      17.557563      31.149933    
   1588000   0.95564491     17.240127      31.153426    
   1589000   1.0055599      17.625785      31.099709    
   1590000   0.99197211     17.536619      31.066018    
   1591000   1.0253854      17.850208      30.904949    
   1592000   1.0209774      17.118664      30.728618    
   1593000   0.97366616     17.165149      30.692872    
   1594000   0.99456218     17.178333      30.50786     
   1595000   0.97918517     17.363374      30.313004    
   1596000   0.96906993     16.997993      30.197805    
   1597000   0.99550812     17.374112      29.862782    
   1598000   1.0115852      16.987892      29.860763    
   1599000   1.0223732      17.588195      29.758099    
   1600000   0.98247207     17.285171      29.52091     
   1601000   0.98784639     17.292401      29.499003    
   1602000   0.99141247     17.078449      29.397268    
   1603000   0.99035774     17.149386      29.128078    
   1604000   1.0238337      17.388294      29.292517    
   1605000   0.98704213     17.102334      29.18979     
   1606000   1.0106187      17.842708      29.015899    
   1607000   1.0329369      17.681889      28.882769    
   1608000   1.0335662      17.091266      28.922471    
   1609000   1.0682486      17.953446      28.892334    
   1610000   1.0457136      17.46792       28.71669     
   1611000   0.99125084     16.683495      28.588539    
   1612000   1.0322929      17.682685      28.476118    
   1613000   1.0088549      17.847167      28.483386    
   1614000   1.064977       17.4374        28.31079     
   1615000   0.96566666     17.658266      28.402423    
   1616000   1.0179989      17.521341      28.475407    
   1617000   0.99688281     17.339452      28.622192    
   1618000   0.98767861     17.195561      28.805211    
   1619000   0.99496191     17.277193      28.776705    
   1620000   1.0272378      17.988886      28.555507    
   1621000   0.9799313      17.229353      28.540948    
   1622000   1.004398       17.249931      28.300416    
   1623000   1.0141183      17.22223       28.041651    
   1624000   0.99211955     17.475096      27.875935    
   1625000   1.0239164      17.557905      27.88614     
   1626000   0.98827962     17.465801      27.784766    
   1627000   0.99758955     17.333242      27.614317    
   1628000   1.0211176      17.421964      27.472064    
   1629000   1.0127823      17.609576      27.238449    
   1630000   0.96385623     17.420649      26.98228     
   1631000   0.96519928     17.421916      26.956072    
   1632000   0.98608475     16.446648      26.897459    
   1633000   1.0144084      17.450848      26.84528     
   1634000   1.0626432      17.723504      26.753489    
   1635000   0.98860967     17.58844       26.589632    
   1636000   0.97286988     17.39986       26.35686     
   1637000   0.9908054      17.38328       26.369707    
   1638000   1.0244469      17.072716      26.344696    
   1639000   0.98926707     16.746603      26.225352    
   1640000   1.0320281      17.257105      26.194297    
   1641000   1.0184982      17.670665      25.862537    
   1642000   0.98888224     17.084719      25.579907    
   1643000   0.96925671     17.689257      25.370502    
   1644000   1.0025739      17.238839      25.101814    
   1645000   0.99122831     17.319534      25.129261    
   1646000   1.0051799      17.409458      24.855036    
   1647000   0.96060513     17.199056      24.606745    
   1648000   1.0108198      17.14485       24.721154    
   1649000   1.0561844      17.319596      24.625709    
   1650000   0.98107023     17.057375      24.642351    
   1651000   1.0167591      17.280804      24.605358    
   1652000   0.99841891     17.433578      24.569888    
   1653000   1.0186288      16.920344      24.171987    
   1654000   1.0180983      16.551555      23.879466    
   1655000   0.95544385     16.744436      23.739755    
   1656000   0.97998587     17.217431      23.859172    
   1657000   1.0190659      17.915149      23.783553    
   1658000   0.97965844     17.368592      23.762829    
   1659000   0.98675233     17.637515      23.656079    
   1660000   1.0056203      17.528905      23.618374    
   1661000   1.005108       17.639963      23.800814    
   1662000   0.95117506     16.850916      23.84965     
   1663000   0.95886782     17.630397      23.622394    
   1664000   0.97807548     17.38266       23.434041    
   1665000   0.99764173     18.110266      23.296928    
   1666000   1.0115213      17.217633      23.422658    
   1667000   1.0005713      17.224017      23.15774     
   1668000   0.98836136     17.210037      23.306307    
   1669000   0.98189471     17.664955      23.198755    
   1670000   1.0395376      17.381834      23.269124    
   1671000   0.9914044      16.979501      23.161592    
   1672000   1.0274296      17.908853      23.052813    
   1673000   1.0083472      17.82452       22.918277    
   1674000   0.98323023     17.126907      22.813119    
   1675000   0.96467133     16.530157      22.75939     
   1676000   0.97321266     17.200782      22.833987    
   1677000   0.99781696     17.119439      22.709107    
   1678000   0.9782418      17.483403      22.624672    
   1679000   0.97574865     18.218301      22.476221    
   1680000   0.98432483     17.419774      22.32925     
   1681000   1.0604533      17.170349      22.071485    
   1682000   0.9916745      16.721427      21.696424    
   1683000   1.0045704      16.758176      21.805554    
   1684000   0.97579105     17.220256      21.448778    
   1685000   1.0573464      17.488678      21.310893    
   1686000   0.9680374      17.260757      21.403858    
   1687000   1.0214379      17.281136      21.301415    
   1688000   1.0164525      17.817307      21.278513    
   1689000   0.98831121     17.399114      21.348562    
   1690000   0.9692808      16.896546      21.215352    
   1691000   0.96531915     17.07655       21.156689    
   1692000   1.0426116      17.366244      21.223864    
   1693000   0.96806562     16.812722      20.984582    
   1694000   0.99906022     17.222336      20.750542    
   1695000   0.96609804     17.24879       20.663667    
   1696000   1.0652662      18.042923      20.673501    
   1697000   0.97327839     16.97975       20.487244    
   1698000   1.0039483      17.513813      20.303379    
   1699000   1.0211496      17.104538      20.210956    
   1700000   0.99327548     16.821844      20.251447    
   1701000   1.0216064      18.086526      20.002582    
   1702000   1.0063027      17.067232      19.885303    
   1703000   1.0136136      16.856707      19.819286    
   1704000   1.0227571      17.71089       19.715376    
   1705000   0.98379212     17.522514      19.795829    
   1706000   1.0563555      17.209721      19.711409    
   1707000   1.0132343      17.72184       19.669883    
   1708000   0.99875474     17.057487      19.375944    
   1709000   0.99555312     16.691316      19.128238    
   1710000   0.97870019     17.741441      18.965378    
   1711000   1.0219255      17.436391      18.720078    
   1712000   0.9616458      16.694041      18.699818    
   1713000   1.0275549      17.34934       18.538326    
   1714000   0.98282243     17.27865       18.505458    
   1715000   1.0167995      16.875859      18.566538    
   1716000   1.0507148      17.499009      18.569979    
   1717000   1.0242575      17.614943      18.655723    
   1718000   0.99372152     17.133684      18.808824    
   1719000   1.0067879      17.435528      18.747179    
   1720000   1.0078352      17.106472      18.645327    
   1721000   0.96659479     17.661005      18.4815      
   1722000   1.0008019      17.029109      18.684052    
   1723000   1.0012095      17.214301      18.47621     
   1724000   0.99694372     17.199648      18.486421    
   1725000   1.0194579      16.900813      18.323838    
   1726000   0.96079492     16.785227      18.222495    
   1727000   1.0369148      17.464378      18.072568    
   1728000   0.93220323     17.129333      18.214223    
   1729000   1.0066221      17.551591      18.284557    
   1730000   0.96646337     17.170018      18.278236    
   1731000   1.0083173      17.151803      18.33444     
   1732000   1.0108972      17.278381      18.292335    
   1733000   1.0006462      17.320921      18.169233    
   1734000   0.99797847     17.336461      18.142219    
   1735000   1.0394257      17.272326      17.970961    
   1736000   1.0104508      17.335022      18.08131     
   1737000   0.9933426      17.588543      18.23184     
   1738000   1.0302004      17.277766      18.233808    
   1739000   1.0246433      17.236206      18.197714    
   1740000   1.0260981      17.090684      17.848449    
   1741000   1.0322223      17.449717      17.802782    
   1742000   1.0029914      16.618719      17.777574    
   1743000   1.0202659      17.224336      17.664992    
   1744000   0.97405764     17.67171       17.490544    
   1745000   1.0015087      16.814705      17.194064    
   1746000   1.0122186      17.665437      17.120215    
   1747000   0.98739871     17.244943      17.058373    
   1748000   0.98860076     16.745561      16.904361    
   1749000   0.99363226     17.176641      16.675996    
   1750000   1.0352836      17.142277      16.568682    
   1751000   1.0260183      17.24316       16.366397    
   1752000   1.0140238      17.624542      16.561091    
   1753000   1.0139548      17.260245      16.406083    
   1754000   1.048          17.057408      16.154752    
   1755000   0.99486528     17.241356      16.03297     
   1756000   0.9829782      17.270464      15.877111    
   1757000   0.96526355     16.536366      15.639684    
   1758000   1.002592       17.615968      15.721626    
   1759000   1.0408097      16.80978       15.55623     
   1760000   0.98973853     17.20666       15.482401    
   1761000   0.99836917     16.96765       15.585918    
   1762000   1.0154414      16.993062      15.502262    
   1763000   1.0201324      17.419049      15.271608    
   1764000   0.99256826     17.401426      15.002675    
   1765000   1.0270383      16.792547      14.811227    
   1766000   0.99293698     16.857829      14.773389    
   1767000   1.017161       17.694009      14.755199    
   1768000   0.94565665     16.692112      14.604858    
   1769000   0.9784407      17.133876      14.743044    
   1770000   1.0025167      17.947491      14.598723    
   1771000   1.0174255      17.103962      14.64011     
   1772000   1.0004911      17.444349      14.617839    
   1773000   0.99228783     17.252425      14.441741    
   1774000   1.011045       17.35571       14.206311    
   1775000   0.98349886     17.030503      14.075937    
   1776000   1.0024028      17.01643       14.251544    
   1777000   1.0132172      17.04743       14.231036    
   1778000   1.0337642      16.758437      14.106682    
   1779000   1.022902       17.034086      14.003904    
   1780000   1.0021627      16.705587      13.890033    
   1781000   0.98520194     17.072349      13.625464    
   1782000   1.0160896      17.340725      13.639883    
   1783000   1.0309361      16.54068       13.62963     
   1784000   1.0010477      17.491318      13.709288    
   1785000   0.9769438      17.348859      13.585947    
   1786000   1.0247168      18.051606      13.647863    
   1787000   0.9990581      17.527832      13.544885    
   1788000   0.97654937     17.054013      13.376292    
   1789000   1.0123156      17.044872      13.239809    
   1790000   0.98401934     16.867089      13.073485    
   1791000   1.0100214      17.217048      13.08947     
   1792000   1.0255013      16.94997       13.026925    
   1793000   0.9912886      17.099118      12.787952    
   1794000   1.0457806      17.363995      12.980472    
   1795000   0.99540796     17.482821      12.733728    
   1796000   1.0238701      17.334304      12.52276     
   1797000   0.96210132     17.182857      12.475438    
   1798000   0.98695126     17.348763      12.342354    
   1799000   1.0167158      17.62623       12.394008    
   1800000   0.97742676     17.192448      12.200681    
   1801000   0.98907119     17.052592      12.117722    
   1802000   1.0162119      17.390252      11.832952    
   1803000   0.96651622     17.273148      11.920825    
   1804000   0.9807373      16.995568      11.799985    
   1805000   1.0218271      17.536655      11.789238    
   1806000   0.96436108     17.492996      11.958464    
   1807000   0.9628901      17.091572      11.943631    
   1808000   1.0163582      17.344342      11.924604    
   1809000   0.95428041     16.822735      11.931704    
   1810000   1.0176294      17.281567      11.925033    
   1811000   0.99127892     16.780456      11.959909    
   1812000   1.0279384      17.438751      12.012446    
   1813000   1.0580878      17.357934      12.176395    
   1814000   1.0224398      17.388079      12.018123    
   1815000   0.99670986     17.222821      11.9404      
   1816000   1.0333871      17.447637      11.803549    
   1817000   1.0118853      16.989108      11.723201    
   1818000   1.0534377      17.291323      11.52702     
   1819000   0.99276641     17.410933      11.588265    
   1820000   1.0158081      16.972411      11.561262    
   1821000   1.009966       17.551884      11.741389    
   1822000   1.0054364      17.364058      11.692376    
   1823000   1.0114716      17.125287      11.528224    
   1824000   1.0091218      17.739431      11.39989     
   1825000   0.9874805      16.575082      11.421593    
   1826000   0.97900025     17.440436      11.437294    
   1827000   0.99650818     17.389375      11.457511    
   1828000   0.94731188     17.165749      11.416077    
   1829000   1.0049195      16.617433      11.394181    
   1830000   1.0493967      17.263891      11.385647    
   1831000   0.9838822      17.11602       11.261062    
   1832000   1.0396061      16.993044      11.030732    
   1833000   1.0073004      17.504051      11.102131    
   1834000   0.9790198      16.816743      10.965489    
   1835000   1.0019925      16.719486      10.933914    
   1836000   1.0158359      17.025764      10.794332    
   1837000   1.0200574      17.063805      10.828663    
   1838000   0.98332087     16.9888        10.661361    
   1839000   1.0022814      17.057413      10.700973    
   1840000   0.97455298     17.305661      10.605529    
   1841000   0.99997778     17.737344      10.433421    
   1842000   1.0182512      16.987978      10.353801    
   1843000   0.99306555     17.218503      10.327028    
   1844000   0.97755851     17.013796      10.518774    
   1845000   0.99759031     16.84176       10.428539    
   1846000   0.97941433     16.959146      10.392627    
   1847000   0.97987238     17.320007      10.247821    
   1848000   0.96757164     17.531409      10.083411    
   1849000   0.95475437     16.578956      10.121284    
   1850000   0.98906023     17.013751      10.135735    
   1851000   0.97367038     17.049256      9.9569756    
   1852000   0.99275206     16.752353      9.9557542    
   1853000   0.99402605     16.913532      9.9116608    
   1854000   0.96045156     16.634711      9.8546893    
   1855000   0.98096935     17.671448      9.8298615    
   1856000   0.95780129     17.090187      9.7677766    
   1857000   0.96518733     16.30057       9.5825874    
   1858000   1.0080741      17.184984      9.3778354    
   1859000   1.021556       16.970476      9.4277451    
   1860000   1.000668       16.77266       9.4097922    
   1861000   1.0233071      17.111258      9.3560447    
   1862000   1.0414764      17.458373      9.4792916    
   1863000   1.0202085      16.51571       9.3160962    
   1864000   1.0204582      17.249588      9.3358159    
   1865000   1.033054       17.034768      9.4247073    
   1866000   1.0067262      16.487184      9.5351719    
   1867000   1.0124972      16.916614      9.419893     
   1868000   1.0109619      17.145824      9.2057231    
   1869000   1.0031398      17.120271      9.1430918    
   1870000   0.99847052     17.660595      9.1227053    
   1871000   0.99793054     16.576337      9.089592     
   1872000   0.99180541     16.793352      8.9485353    
   1873000   1.0012713      17.488187      8.9469019    
   1874000   1.0233045      16.521422      8.8140221    
   1875000   1.0363855      17.368721      8.7989395    
   1876000   1.0009376      17.278397      8.6533587    
   1877000   1.0006013      17.12402       8.664797     
   1878000   0.94269698     17.055026      8.6118988    
   1879000   1.0395397      16.705833      8.4971921    
   1880000   1.0221336      16.549809      8.5479499    
   1881000   1.0139466      17.226579      8.4679447    
   1882000   1.0012951      16.862625      8.5223571    
   1883000   1.0267091      17.001701      8.5365391    
   1884000   1.0243691      17.661506      8.3937365    
   1885000   1.0140538      17.171817      8.4424656    
   1886000   1.0282114      17.249435      8.5174785    
   1887000   0.99455273     16.86136       8.4824913    
   1888000   0.9554954      17.093492      8.4597064    
   1889000   1.0228674      17.296287      8.2468533    
   1890000   1.018188       17.041575      8.1474241    
   1891000   0.97901131     17.16114       8.1087596    
   1892000   0.99166561     16.834548      7.8782363    
   1893000   0.99576922     17.354538      7.7308216    
   1894000   0.98722344     16.493113      7.6739288    
   1895000   1.0282745      16.852511      7.3562541    
   1896000   0.95750422     17.069334      7.0869324    
Fix halt condition for fix-id 3 met on step 1897000 with value 6.925738238676706 (src/fix_halt.cpp:237)
   1897000   0.98724064     17.762545      6.9257382    
Loop time of 3110.12 on 2 procs for 1797000 steps with 1201 atoms

Performance: 499212.094 tau/day, 577.792 timesteps/s
123.3% CPU use with 1 MPI tasks x 2 OpenMP threads

MPI task timing breakdown:
Section |  min time  |  avg time  |  max time  |%varavg| %total
---------------------------------------------------------------
Pair    | 539.13     | 539.13     | 539.13     |   0.0 | 17.33
Bond    | 45.265     | 45.265     | 45.265     |   0.0 |  1.46
Neigh   | 2411       | 2411       | 2411       |   0.0 | 77.52
Comm    | 0.74846    | 0.74846    | 0.74846    |   0.0 |  0.02
Output  | 5.5231     | 5.5231     | 5.5231     |   0.0 |  0.18
Modify  | 99.837     | 99.837     | 99.837     |   0.0 |  3.21
Other   |            | 8.643      |            |       |  0.28

Nlocal:           1201 ave        1201 max        1201 min
Histogram: 1 0 0 0 0 0 0 0 0 0
Nghost:              0 ave           0 max           0 min
Histogram: 1 0 0 0 0 0 0 0 0 0
Neighs:         285881 ave      285881 max      285881 min
Histogram: 1 0 0 0 0 0 0 0 0 0

Total # of neighbors = 285881
Ave neighs/atom = 238.0358
Ave special neighs/atom = 1.9983347
Neighbor list builds = 17684
Dangerous builds = 0

# This simulation is done
# Move onto the next one
clear
  using 2 OpenMP thread(s) per MPI task
package omp 0
using multi-threaded neighbor list subroutines
next f
jump SELF

Total wall time: 2:12:16
