#atom_style bond #no stiffness
atom_style angle #with stiffness

boundary        p p p
###
# Pair interactions require lists of neighbours to be calculated
###

#neighbor 0.3 bin
neighbor 4 bin

neigh_modify every 1 delay 1 check yes
atom_modify sort 0 0
### Generate RESTART file, SPECIAL format, not a .txt file ###
### Useful if simulation crashes ###

restart 1000000 plusshaped/restarts/$f.restart
restart 1000000 plusshaped/restarts/bb301nuc1bl150bn4d30tot600.restart
#############################



### READ "start" data file ###

read_data plusshaped/$f.dat
read_data plusshaped/bb301nuc1bl150bn4d30tot600.dat
Reading data file ...
  orthogonal box = (-1000 -1000 -1000) to (1000 1000 1000)
  1 by 1 by 1 MPI processor grid
  reading atoms ...
  601 atoms
  scanning bonds ...
  3 = max bonds/atom
  scanning angles ...
  6 = max angles/atom
  reading bonds ...
  600 bonds
  reading angles ...
  602 angles
Finding 1-2 1-3 1-4 neighbors ...
  special bond factors lj:    0        0        0       
  special bond factors coul:  0        0        0       
     4 = max # of 1-2 neighbors
     4 = max # of 1-3 neighbors
     8 = max # of 1-4 neighbors
    12 = max # of special neighbors
  special bonds CPU = 0.002 seconds
  read_data CPU = 0.082 seconds

######################

### READ "REstart" data file ###

######################



###
# Define groups (atom type 1 is group 'all')
###
group all type 1
601 atoms in group all


###
# Dump configs - "simple dumpings"
###

###
# Dump configs + box coords
###

dump   1   all   custom   1000  plusshaped/trjs/$f.lammpstrj  id  x y z  ix iy iz
dump   1   all   custom   1000  plusshaped/trjs/bb301nuc1bl150bn4d30tot600.lammpstrj  id  x y z  ix iy iz
dump_modify   1   format line "%d %.5f %.5f %.5f %d %d %d"

########################################################################


###################################################################
# Stiffness term
#
# E = K * (1+cos(theta)), K>0
#
angle_style   cosine
#change this coefficient to change stiffness (e.g. 1,5,10)
angle_coeff   1 1.0
###################################################################

###################################################################
# Pair interaction between non-bonded atoms
#
#  Lennard-Jones 12-6 potential with cutoff:
#  potential E=4epsilon[ (sigma/r)^12 - (sigma/r)^6]  for r<r_cut
#
#  1.12246 = 2^(1/6) is the minimum of the potential


pair_style      lj/cut 1.12246152962189
#pair_style      lj/cut 3

#
#  pair_modify shift yes adds a constant to the potential such

#  that E(r_cut)=0. Forces remains unchanged.
#

pair_modify     shift yes

#
#  pair_coeff for lj/cut, specify 4:
#    * atom type interacting with
#    * atom type
#    * epsilon (energy units)
#    * sigma (distance units)
#

pair_coeff      1 1 1.0 1.0
###################################################################

###################################################################
# Pair interaction between non-bonded atoms
#
#  soft potential, for PUSHING apart overlapping atoms
#  potential E=A*(1 + cos(pi*r/r_c))
#
#  1.12246 = 2^(1/6) is the cut-off r_c

#pair_style     soft 1.12246152962189

#
#  pair_coeff for soft, specify 3:
#    * atom type interacting with
#    * atom type
#    * A
#
#

#pair_coeff      1 1 100.0
###################################################################

###################################################################
# Pair interaction between bonded atoms
#
# Fene potential + Lennard Jones 12-6:

#
#  E= - 0.5 K R0^2 ln[ 1- (r/R0)^2]
#     + 4epsilon[ (sigma/r)^12 - (sigma/r)^6] + epsilon
#

bond_style   fene


#
# For style fene, specify:
#   * bond type
#   * K (energy/distance^2)
#   * R0 (distance)
#   * epsilon (energy)  (LJ component)
#   * sigma (distance)  (LJ component)
#


special_bonds fene #<=== I M P O R T A N T (new command)
Finding 1-2 1-3 1-4 neighbors ...
  special bond factors lj:    0        1        1       
  special bond factors coul:  0        1        1       
     4 = max # of 1-2 neighbors
    12 = max # of special neighbors
  special bonds CPU = 0.000 seconds

bond_coeff   1   30   2   1.0   1.0


###################################################

###################################################################
# Pair interaction between bonded atoms
#
# Harmonic potential:
#
#  E= K * (R-R0)^2
#

#bond_style   harmonic

#
# For style harmonic, specify:
#   * bond type
#   * K (energy/distance^2)
#   * R0 (distance)
#

#bond_coeff   1   60.0   1.0
#bond_coeff   2   harmonic 0.1   1.0

###################################################
compute 1 all gyration
variable rog equal c_1
#compute 2 all coord/atom cutoff 1.1

#dump 2 all custom 10000 contact_number.dump id c_2


###
# Set up fixes
###
thermo_style   custom   step  temp enthalpy c_1
fix 1 all nve   ###NVE ensemble

fix 2 all   langevin   1.0 1.0 1.0  100103   ###Langevin integrator Tstart Tstop 1/friction rndseed


##### Sample thermodynamic info  (temperature, energy, pressure, etc.) #####
thermo 1000









############################################################################

###
# set timestep of integrator

timestep 0.01

###
# run integration for a number of steps
###
#run 0
#variable r equal c_1
#if "$r < 63.1" then "quit 1"

# lj potential minimum, cause molecule to explore
run 100000
Generated 0 of 0 mixed pair_coeff terms from geometric mixing rule
Neighbor list info ...
  update: every = 1 steps, delay = 1 steps, check = yes
  max neighbors/atom: 2000, page size: 100000
  master list distance cutoff = 5.1224615
  ghost atom cutoff = 5.1224615
  binsize = 2.5612308, bins = 781 781 781
  1 neighbor lists, perpetual/occasional/extra = 1 0 0
  (1) pair lj/cut, perpetual
      attributes: half, newton on
      pair build: half/bin/newton
      stencil: half/bin/3d
      bin: standard
WARNING: Communication cutoff 5.12246152962189 is shorter than a bond length based estimate of 5.455. This may lead to errors. (src/comm.cpp:723)
Per MPI rank memory allocation (min/avg/max) = 1861 | 1861 | 1861 Mbytes
   Step          Temp         Enthalpy         c_1      
         0   0              13.283195      78.97946     
      1000   1.0530601      17.957154      78.13594     
      2000   1.0415162      18.487618      77.201107    
      3000   1.06202        18.561196      76.418552    
      4000   1.0100058      18.634747      75.464833    
      5000   1.0250884      18.861882      74.94991     
      6000   1.0685603      18.661318      74.157868    
      7000   0.94829576     18.768853      73.834947    
      8000   0.96944936     19.140398      73.716333    
      9000   0.99827543     19.061518      73.32207     
     10000   0.97777972     18.945172      72.824891    
     11000   0.95501938     19.018277      72.362441    
     12000   1.0277724      19.270701      71.693364    
     13000   0.99019995     19.556716      71.250415    
     14000   0.99853389     19.276145      70.921192    
     15000   0.97710031     18.536492      70.379675    
     16000   0.92999049     19.863082      70.062316    
     17000   0.95659686     19.321536      69.780813    
     18000   1.0130384      19.504878      69.49057     
     19000   0.97574136     19.952667      68.850702    
     20000   1.0494786      19.095411      68.357629    
     21000   1.024987       19.319221      67.99473     
     22000   1.0195244      19.670262      67.632605    
     23000   1.040918       20.038772      67.172783    
     24000   0.96922384     19.570317      66.993807    
     25000   0.99747886     19.786191      66.585407    
     26000   1.065399       20.412265      66.223365    
     27000   0.92425101     19.411586      65.928284    
     28000   1.0540801      19.595512      65.543217    
     29000   0.99434122     19.811035      65.107158    
     30000   0.96690571     20.202597      64.566885    
     31000   1.0285408      19.096372      63.858336    
     32000   0.9484562      19.841052      63.256692    
     33000   0.98002357     19.969869      62.813944    
     34000   0.98628139     19.960915      62.581296    
     35000   0.95801369     19.855558      62.292719    
     36000   1.0070898      20.730676      62.029426    
     37000   0.99452764     19.937951      62.275258    
     38000   0.96213077     19.743533      62.087       
     39000   1.0331286      20.189312      61.851112    
     40000   0.98251944     19.859325      61.566544    
     41000   0.97868694     20.387896      61.435999    
     42000   0.95907399     20.248708      61.274442    
     43000   1.0415415      20.324009      61.291733    
     44000   0.95225517     20.040444      61.197121    
     45000   1.0111675      20.149297      61.163995    
     46000   0.95349125     19.543146      61.134951    
     47000   0.98707515     20.41612       61.06798     
     48000   0.98410556     19.751128      61.201001    
     49000   1.0131196      19.993067      61.11245     
     50000   0.98452296     19.754849      60.911816    
     51000   1.0275946      20.271812      60.903164    
     52000   1.0001148      20.195295      60.741006    
     53000   1.0015148      20.056644      60.411383    
     54000   1.0023313      20.048681      60.237506    
     55000   1.0277474      19.85414       60.140695    
     56000   0.97806189     19.76139       60.159803    
     57000   0.97426168     19.660904      59.804968    
     58000   1.0291387      19.765465      59.531129    
     59000   1.0112704      19.552315      59.276678    
     60000   0.96463161     20.58325       59.058801    
     61000   0.97487759     20.175491      58.994418    
     62000   0.99157198     20.426246      58.792568    
     63000   0.98034885     19.872327      58.594348    
     64000   0.96326457     19.829999      58.310178    
     65000   0.9647555      19.523105      57.909558    
     66000   0.97732513     20.306906      57.924338    
     67000   1.0068323      19.932191      57.581366    
     68000   0.97872483     19.477103      57.627148    
     69000   0.98397081     20.42296       57.830904    
     70000   1.0204905      20.369871      57.778688    
     71000   1.0130031      19.918177      57.804505    
     72000   1.0107848      19.85432       57.712406    
     73000   1.0130052      20.225899      57.517967    
     74000   1.0175747      20.113953      57.491209    
     75000   0.96474158     19.126861      57.578724    
     76000   0.99254699     19.99617       57.054481    
     77000   0.99636682     19.843128      57.021434    
     78000   1.0661983      20.491384      56.635923    
     79000   0.96433617     19.919336      56.673261    
     80000   1.0109444      20.579837      56.328919    
     81000   1.0165333      20.239148      56.148966    
     82000   1.0418108      20.456137      56.334443    
     83000   0.94998444     20.177698      56.173006    
     84000   1.0344617      20.609639      55.945887    
     85000   0.99558977     20.10258       55.560846    
     86000   1.0026334      20.873035      55.271066    
     87000   0.97515811     19.787528      55.333869    
     88000   0.95544397     20.291277      55.216722    
     89000   1.0166811      20.747686      55.199541    
     90000   1.0015619      20.320349      54.837423    
     91000   1.033618       20.679211      54.415836    
     92000   1.0399082      20.352099      53.945301    
     93000   0.97833104     19.81457       53.923678    
     94000   0.95141997     20.827573      53.959917    
     95000   0.9920582      19.6767        54.036344    
     96000   0.98346675     19.58483       53.801859    
     97000   1.0492454      20.204487      53.613638    
     98000   1.0457025      21.037093      53.887722    
     99000   0.98276343     20.16465       54.040356    
    100000   1.0014796      20.395723      54.136934    
Loop time of 847.795 on 1 procs for 100000 steps with 601 atoms

Performance: 101911.453 tau/day, 117.953 timesteps/s
100.0% CPU use with 1 MPI tasks x 1 OpenMP threads

MPI task timing breakdown:
Section |  min time  |  avg time  |  max time  |%varavg| %total
---------------------------------------------------------------
Pair    | 1.4017     | 1.4017     | 1.4017     |   0.0 |  0.17
Bond    | 3.0713     | 3.0713     | 3.0713     |   0.0 |  0.36
Neigh   | 839.34     | 839.34     | 839.34     |   0.0 | 99.00
Comm    | 0.037326   | 0.037326   | 0.037326   |   0.0 |  0.00
Output  | 0.32704    | 0.32704    | 0.32704    |   0.0 |  0.04
Modify  | 3.3096     | 3.3096     | 3.3096     |   0.0 |  0.39
Other   |            | 0.3064     |            |       |  0.04

Nlocal:            601 ave         601 max         601 min
Histogram: 1 0 0 0 0 0 0 0 0 0
Nghost:              0 ave           0 max           0 min
Histogram: 1 0 0 0 0 0 0 0 0 0
Neighs:           3897 ave        3897 max        3897 min
Histogram: 1 0 0 0 0 0 0 0 0 0

Total # of neighbors = 3897
Ave neighs/atom = 6.484193
Ave special neighs/atom = 1.9966722
Neighbor list builds = 1085
Dangerous builds = 0

# Replace lj potential, now collapse
pair_style      lj/cut 3

# Cutoff simul when gyration under 5
# Variable created with equal requires v_ + 'name'
fix 3 all halt 1000 v_rog < 5

run 5000000
Generated 0 of 0 mixed pair_coeff terms from geometric mixing rule
Per MPI rank memory allocation (min/avg/max) = 1861 | 1861 | 1861 Mbytes
   Step          Temp         Enthalpy         c_1      
    100000   1.0014796      19.696016      54.136934    
    101000   1.0322189      19.467382      53.90387     
    102000   0.98589195     19.443816      53.714081    
    103000   0.98276577     19.104732      53.521705    
    104000   1.020484       19.634866      53.224624    
    105000   1.0159965      18.933799      52.948122    
    106000   1.0058204      18.85622       52.422882    
    107000   0.92980823     18.570321      52.117674    
    108000   0.99716763     19.756192      52.090333    
    109000   0.99775459     19.284592      51.704885    
    110000   1.0149289      19.541577      51.674981    
    111000   0.98975742     19.194138      51.409963    
    112000   1.0470699      19.646274      51.065978    
    113000   0.98566057     19.275833      50.541362    
    114000   0.99533496     19.373952      50.143989    
    115000   1.1100802      19.506709      50.192479    
    116000   0.99104277     19.51613       50.018506    
    117000   0.98889524     19.388817      49.893279    
    118000   1.0166581      19.27035       49.494875    
    119000   1.0146255      18.746524      49.145127    
    120000   1.0392985      18.968103      48.828705    
    121000   0.93598791     19.09694       48.492747    
    122000   1.0446818      19.265209      48.143334    
    123000   0.96580316     18.551745      47.861913    
    124000   1.0346157      18.945601      47.481064    
    125000   0.99186014     18.715686      46.899978    
    126000   0.96981896     19.260586      46.810652    
    127000   0.97121585     18.880177      46.606984    
    128000   1.0961487      19.391506      46.55879     
    129000   1.0308902      18.846016      46.486141    
    130000   0.93037144     18.955529      46.220856    
    131000   1.0582593      19.063867      45.875072    
    132000   1.0180218      18.696742      45.726064    
    133000   1.0043804      19.051583      45.52165     
    134000   0.98752169     18.974983      45.093828    
    135000   1.0260379      18.993095      44.821793    
    136000   0.98049357     18.819549      44.736154    
    137000   0.98376464     18.732662      44.430064    
    138000   0.99740111     18.584666      44.421842    
    139000   0.97097262     19.12071       44.226366    
    140000   0.96681413     18.718529      43.904605    
    141000   1.0294165      18.831226      43.663722    
    142000   1.0403438      18.484428      43.255826    
    143000   0.98197966     18.617964      43.28917     
    144000   1.0260021      18.742515      43.130068    
    145000   0.98440661     19.460037      42.844186    
    146000   0.98975536     18.58387       42.705179    
    147000   0.96743801     19.368557      42.496914    
    148000   0.96617553     18.309417      42.380488    
    149000   1.0123656      18.460746      42.184081    
    150000   0.9820626      19.056382      42.04572     
    151000   1.0170703      18.437616      41.716516    
    152000   0.96101109     17.544348      41.542791    
    153000   1.0609489      18.956466      41.266228    
    154000   1.0372042      19.559445      41.037939    
    155000   0.9986966      18.081689      40.602894    
    156000   1.0362995      18.508894      40.348796    
    157000   0.97921864     18.653605      40.237519    
    158000   0.99896423     18.189714      39.97562     
    159000   1.0726694      18.766188      39.883298    
    160000   0.96095958     18.858684      39.682747    
    161000   0.99727218     18.714316      39.383967    
    162000   1.0495674      18.935331      39.153524    
    163000   0.88718259     17.995472      38.695184    
    164000   0.98396134     18.200149      38.39698     
    165000   0.97532463     18.41631       38.241018    
    166000   1.0375353      18.177013      38.166449    
    167000   0.96730452     18.38629       37.964261    
    168000   1.0284082      19.158907      37.665638    
    169000   1.0096791      19.075357      37.384877    
    170000   0.9818512      18.729347      37.196795    
    171000   0.97629665     18.372177      36.921234    
    172000   1.0261713      18.273546      36.926243    
    173000   1.0088916      18.249937      36.919566    
    174000   0.99852531     18.172509      36.848509    
    175000   1.0094096      17.814252      36.805443    
    176000   1.0088183      18.209339      36.834024    
    177000   1.0103558      18.21907       36.691444    
    178000   0.98836041     18.141122      36.49401     
    179000   1.0145111      18.698413      36.365289    
    180000   0.96176933     18.315772      36.179186    
    181000   0.97304108     18.698133      36.011752    
    182000   0.97132719     18.350286      35.812468    
    183000   0.92392297     18.365418      35.655411    
    184000   0.97290854     17.7782        35.746367    
    185000   0.97343857     18.332706      35.615648    
    186000   1.0270072      18.292188      35.661011    
    187000   0.99522789     18.632088      35.557409    
    188000   0.99024644     18.025804      35.539288    
    189000   0.98738895     18.507355      36.029172    
    190000   0.98169573     18.631873      35.725715    
    191000   1.0144558      18.274043      35.745168    
    192000   0.93599794     19.023567      35.68043     
    193000   0.92338673     18.577861      35.294773    
    194000   1.0170312      18.32743       34.970727    
    195000   0.99875492     18.582432      34.793773    
    196000   1.021082       17.638116      34.763863    
    197000   1.0492421      18.143179      34.669331    
    198000   0.95900897     18.45296       34.406213    
    199000   0.95913575     18.945666      33.906013    
    200000   0.98166502     18.970187      33.868531    
    201000   1.0714811      18.754113      33.693367    
    202000   1.0192732      19.117869      33.315348    
    203000   1.0435894      19.004638      33.328006    
    204000   1.034095       18.237214      33.014237    
    205000   0.99524122     18.16259       32.920209    
    206000   0.98889608     18.884628      32.716954    
    207000   1.0108619      18.518692      32.809156    
    208000   0.97002131     17.805337      32.860721    
    209000   0.96811814     18.146454      32.802186    
    210000   0.90083495     17.968857      32.397855    
    211000   1.0306771      17.975235      32.086077    
    212000   0.96483523     18.719184      31.769555    
    213000   1.0153834      18.758183      31.655183    
    214000   0.99560335     18.703845      31.440266    
    215000   0.98092919     18.433712      31.194054    
    216000   0.99036933     18.025951      31.149229    
    217000   1.0111041      18.207832      31.256263    
    218000   0.97600091     18.186429      31.19444     
    219000   1.0105878      18.206267      30.977868    
    220000   1.0297471      18.265905      31.041534    
    221000   0.96659093     17.903997      30.897372    
    222000   1.0255661      18.321875      30.39977     
    223000   1.0379922      18.167167      29.625501    
    224000   1.0011729      17.573661      29.225289    
    225000   1.0385503      18.738238      28.929333    
    226000   1.0266977      18.003929      28.972961    
    227000   0.99736653     17.820182      28.772154    
    228000   1.0161849      19.056956      28.525342    
    229000   0.9563374      18.343295      28.415476    
    230000   0.9632129      17.634593      28.33944     
    231000   0.96467004     18.180129      28.128455    
    232000   1.0296232      18.304453      27.987846    
    233000   0.99712847     17.853346      27.902636    
    234000   1.0040239      18.155145      27.460081    
    235000   1.0724483      18.548997      27.295985    
    236000   1.0313772      18.138228      26.969885    
    237000   1.0190556      17.799948      26.734694    
    238000   0.9690208      17.987546      26.270993    
    239000   1.0208856      17.901192      26.112451    
    240000   0.93167713     18.401652      26.245173    
    241000   1.0198245      17.130881      26.209274    
    242000   0.98213004     17.834956      26.108803    
    243000   0.97294475     17.930903      26.123242    
    244000   1.0106796      18.670946      26.069073    
    245000   0.95422777     17.20279       26.109932    
    246000   1.0326136      18.896463      25.961184    
    247000   0.99691752     18.454197      25.628246    
    248000   1.0168899      18.619295      25.129072    
    249000   1.0294118      17.883089      24.880553    
    250000   0.99295805     17.779015      24.410189    
    251000   1.010565       17.600546      24.213758    
    252000   0.97845738     18.508856      23.902737    
    253000   1.0322989      17.882456      23.576956    
    254000   1.0426804      17.967533      23.494193    
    255000   1.0408203      17.579645      23.419736    
    256000   1.0199763      18.373147      23.329378    
    257000   1.024436       18.129974      23.093829    
    258000   1.0218914      17.795453      22.745946    
    259000   1.0211017      17.602108      22.365272    
    260000   1.0306844      18.534446      22.294507    
    261000   1.0397184      18.401462      21.856967    
    262000   0.96753119     17.14108       21.740478    
    263000   0.97638535     17.652429      21.469269    
    264000   0.95215424     16.892788      21.333478    
    265000   0.96356736     17.835908      21.091264    
    266000   1.0358162      17.528123      21.098817    
    267000   1.0537232      18.049849      20.844363    
    268000   1.0588181      18.417754      20.856392    
    269000   1.0143723      19.144158      20.794668    
    270000   1.0338097      17.810083      20.911707    
    271000   0.99196355     17.779273      20.870923    
    272000   0.96504216     17.950035      20.788189    
    273000   0.94521306     17.556499      20.387276    
    274000   0.96917051     17.350547      19.897967    
    275000   1.0128419      17.440273      19.589987    
    276000   1.0273633      18.409976      19.677548    
    277000   0.96739596     18.277249      19.873705    
    278000   1.0017058      18.389583      19.660575    
    279000   0.98143907     17.957047      19.663608    
    280000   1.0098354      16.934305      19.294743    
    281000   0.9910528      17.61096       19.221622    
    282000   0.9741536      18.20057       18.806265    
    283000   1.0166984      17.59266       18.907941    
    284000   1.0594197      18.028564      18.712884    
    285000   0.97607373     17.243302      18.710999    
    286000   1.0432475      18.24628       18.356037    
    287000   0.94631434     17.520851      18.295402    
    288000   1.0327794      16.777991      18.141401    
    289000   1.0651441      17.785681      17.856034    
    290000   1.0729184      17.983535      17.84699     
    291000   0.98199196     17.948186      17.501257    
    292000   1.0578784      18.633579      17.361572    
    293000   1.0354865      17.676823      17.384448    
    294000   1.0038349      18.069914      17.237748    
    295000   0.99975869     17.823504      17.001888    
    296000   1.0071805      17.769638      16.783804    
    297000   1.0123653      18.459144      16.604367    
    298000   1.0469223      17.912897      16.659524    
    299000   0.9783875      17.40193       16.489757    
    300000   0.98420245     17.246662      15.992349    
    301000   0.95691695     17.152419      15.835537    
    302000   0.98294808     18.068948      15.793705    
    303000   0.99698885     17.42653       15.527024    
    304000   1.0021738      17.290265      15.49887     
    305000   1.0041086      17.784918      15.240516    
    306000   1.0225305      17.212354      14.888866    
    307000   0.94877127     17.715232      14.697847    
    308000   1.0067781      16.824102      14.449175    
    309000   0.97003098     16.873701      13.882538    
    310000   1.0525062      17.186628      13.75068     
    311000   1.038965       17.464854      13.443307    
    312000   0.97128055     17.491257      13.364788    
    313000   1.0563145      17.427966      12.839471    
    314000   1.0088521      17.900777      12.601219    
    315000   1.0472707      17.287423      12.177454    
    316000   0.9712731      18.358155      11.730031    
    317000   1.0454994      17.66077       11.553176    
    318000   1.0050001      17.499772      11.716437    
    319000   0.95217906     17.021548      11.468477    
    320000   1.0436612      18.072215      11.257212    
    321000   0.98344703     17.726908      10.99296     
    322000   0.95758732     16.899192      11.145246    
    323000   1.0085035      17.401979      10.91716     
    324000   1.0563525      16.992875      10.624494    
    325000   1.0440275      17.744331      10.489716    
    326000   1.0344075      17.8721        10.141901    
    327000   1.0640859      17.692143      10.031598    
    328000   0.95604418     17.260828      9.788575     
    329000   1.0521426      17.869557      9.4841427    
    330000   1.0017121      17.385669      9.4231669    
    331000   1.0823625      17.147054      9.3418765    
    332000   1.0721079      17.412447      9.3639459    
    333000   1.0554967      17.246264      9.2805353    
    334000   1.0689543      17.147233      9.1879921    
    335000   0.99130815     17.199324      8.8577404    
    336000   0.94635456     16.75122       8.4247701    
    337000   1.0182481      17.104241      8.2374855    
    338000   1.008517       17.032637      8.117612     
    339000   1.0069798      17.111823      7.9596686    
    340000   0.94331369     17.305635      7.8209588    
    341000   1.0321612      17.245837      7.5960215    
    342000   0.99546297     16.846349      7.5094077    
    343000   1.0080314      17.086093      7.1501021    
    344000   1.0256603      16.751753      6.7432091    
    345000   1.0530252      17.571868      6.8542774    
    346000   0.95598806     16.763094      6.7467313    
    347000   0.99082315     17.717764      6.297096     
    348000   0.93449899     17.74318       6.1518687    
    349000   1.0561782      17.423332      6.1776314    
    350000   1.0227282      16.762024      5.9838063    
    351000   1.0557813      17.704499      5.7948712    
    352000   0.9762094      17.595008      5.8950237    
    353000   1.0064837      17.428949      5.8427048    
    354000   1.0410324      16.823827      5.6970606    
    355000   1.0086939      17.549498      5.5519061    
    356000   1.0066259      16.947273      5.5045959    
    357000   1.0285748      17.015492      5.3762919    
    358000   0.97354062     18.324241      5.0108749    
Fix halt condition for fix-id 3 met on step 359000 with value 4.920851087888962 (src/fix_halt.cpp:237)
    359000   0.95268188     17.171164      4.9208511    
Loop time of 490.008 on 1 procs for 259000 steps with 601 atoms

Performance: 456678.679 tau/day, 528.563 timesteps/s
100.0% CPU use with 1 MPI tasks x 1 OpenMP threads

MPI task timing breakdown:
Section |  min time  |  avg time  |  max time  |%varavg| %total
---------------------------------------------------------------
Pair    | 71.154     | 71.154     | 71.154     |   0.0 | 14.52
Bond    | 7.5841     | 7.5841     | 7.5841     |   0.0 |  1.55
Neigh   | 401.39     | 401.39     | 401.39     |   0.0 | 81.92
Comm    | 0.11441    | 0.11441    | 0.11441    |   0.0 |  0.02
Output  | 0.57135    | 0.57135    | 0.57135    |   0.0 |  0.12
Modify  | 8.2258     | 8.2258     | 8.2258     |   0.0 |  1.68
Other   |            | 0.967      |            |       |  0.20

Nlocal:            601 ave         601 max         601 min
Histogram: 1 0 0 0 0 0 0 0 0 0
Nghost:              0 ave           0 max           0 min
Histogram: 1 0 0 0 0 0 0 0 0 0
Neighs:         110592 ave      110592 max      110592 min
Histogram: 1 0 0 0 0 0 0 0 0 0

Total # of neighbors = 110592
Ave neighs/atom = 184.01331
Ave special neighs/atom = 1.9966722
Neighbor list builds = 2266
Dangerous builds = 0

# This simulation is done
# Move onto the next one
clear
OMP_NUM_THREADS environment is not set. Defaulting to 1 thread. (src/comm.cpp:98)
  using 1 OpenMP thread(s) per MPI task
next f
jump SELF

###
# Reference paper:
# K. Kremer and G. S. Grest
# Dynamics of entangled linear polymer melts: A molecular-dynamics simulation
# J Chem Phys 92, 5057 (1990)

##################################
# MIHIR: for branched polymers
# LJ minimum first to expand and explore, then collapse
###

###
# Looping through the various plusshaped polymers to simulate,
# define variables to switch through
variable f index bb51nuc1bl25bn4d30tot100 bb101nuc1bl50bn4d30tot200 bb151nuc1bl75bn4d30tot300 bb201nuc1bl100bn4d30tot400 bb251nuc1bl125bn4d30tot500 bb301nuc1bl150bn4d30tot600 bb351nuc1bl175bn4d30tot700 bb401nuc1bl200bn4d30tot800 bb451nuc1bl225bn4d30tot900 bb501nuc1bl250bn4d30tot1000 bb551nuc1bl275bn4d30tot1100 bb601nuc1bl300bn4d30tot1200
###


###
# Box and units  (use LJ units and periodic boundaries)
###

units lj
log plusshaped/logs/$f.log
log plusshaped/logs/bb351nuc1bl175bn4d30tot700.log
