#atom_style bond #no stiffness
atom_style angle #with stiffness

boundary        p p p
###
# Pair interactions require lists of neighbours to be calculated
###

#neighbor 0.3 bin
neighbor 4 bin

neigh_modify every 1 delay 1 check yes
atom_modify sort 0 0
### Generate RESTART file, SPECIAL format, not a .txt file ###
### Useful if simulation crashes ###

restart 1000000 plusshaped/restarts/$f.restart
restart 1000000 plusshaped/restarts/bb351nuc1bl175bn4d30tot700.restart
#############################



### READ "start" data file ###

read_data plusshaped/$f.dat
read_data plusshaped/bb351nuc1bl175bn4d30tot700.dat
Reading data file ...
  orthogonal box = (-1000 -1000 -1000) to (1000 1000 1000)
  1 by 1 by 1 MPI processor grid
  reading atoms ...
  701 atoms
  scanning bonds ...
  3 = max bonds/atom
  scanning angles ...
  6 = max angles/atom
  reading bonds ...
  700 bonds
  reading angles ...
  702 angles
Finding 1-2 1-3 1-4 neighbors ...
  special bond factors lj:    0        0        0       
  special bond factors coul:  0        0        0       
     4 = max # of 1-2 neighbors
     4 = max # of 1-3 neighbors
     8 = max # of 1-4 neighbors
    12 = max # of special neighbors
  special bonds CPU = 0.001 seconds
  read_data CPU = 0.076 seconds

######################

### READ "REstart" data file ###

######################



###
# Define groups (atom type 1 is group 'all')
###
group all type 1
701 atoms in group all


###
# Dump configs - "simple dumpings"
###

###
# Dump configs + box coords
###

dump   1   all   custom   1000  plusshaped/trjs/$f.lammpstrj  id  x y z  ix iy iz
dump   1   all   custom   1000  plusshaped/trjs/bb351nuc1bl175bn4d30tot700.lammpstrj  id  x y z  ix iy iz
dump_modify   1   format line "%d %.5f %.5f %.5f %d %d %d"

########################################################################


###################################################################
# Stiffness term
#
# E = K * (1+cos(theta)), K>0
#
angle_style   cosine
#change this coefficient to change stiffness (e.g. 1,5,10)
angle_coeff   1 1.0
###################################################################

###################################################################
# Pair interaction between non-bonded atoms
#
#  Lennard-Jones 12-6 potential with cutoff:
#  potential E=4epsilon[ (sigma/r)^12 - (sigma/r)^6]  for r<r_cut
#
#  1.12246 = 2^(1/6) is the minimum of the potential


pair_style      lj/cut 1.12246152962189
#pair_style      lj/cut 3

#
#  pair_modify shift yes adds a constant to the potential such

#  that E(r_cut)=0. Forces remains unchanged.
#

pair_modify     shift yes

#
#  pair_coeff for lj/cut, specify 4:
#    * atom type interacting with
#    * atom type
#    * epsilon (energy units)
#    * sigma (distance units)
#

pair_coeff      1 1 1.0 1.0
###################################################################

###################################################################
# Pair interaction between non-bonded atoms
#
#  soft potential, for PUSHING apart overlapping atoms
#  potential E=A*(1 + cos(pi*r/r_c))
#
#  1.12246 = 2^(1/6) is the cut-off r_c

#pair_style     soft 1.12246152962189

#
#  pair_coeff for soft, specify 3:
#    * atom type interacting with
#    * atom type
#    * A
#
#

#pair_coeff      1 1 100.0
###################################################################

###################################################################
# Pair interaction between bonded atoms
#
# Fene potential + Lennard Jones 12-6:

#
#  E= - 0.5 K R0^2 ln[ 1- (r/R0)^2]
#     + 4epsilon[ (sigma/r)^12 - (sigma/r)^6] + epsilon
#

bond_style   fene


#
# For style fene, specify:
#   * bond type
#   * K (energy/distance^2)
#   * R0 (distance)
#   * epsilon (energy)  (LJ component)
#   * sigma (distance)  (LJ component)
#


special_bonds fene #<=== I M P O R T A N T (new command)
Finding 1-2 1-3 1-4 neighbors ...
  special bond factors lj:    0        1        1       
  special bond factors coul:  0        1        1       
     4 = max # of 1-2 neighbors
    12 = max # of special neighbors
  special bonds CPU = 0.000 seconds

bond_coeff   1   30   2   1.0   1.0


###################################################

###################################################################
# Pair interaction between bonded atoms
#
# Harmonic potential:
#
#  E= K * (R-R0)^2
#

#bond_style   harmonic

#
# For style harmonic, specify:
#   * bond type
#   * K (energy/distance^2)
#   * R0 (distance)
#

#bond_coeff   1   60.0   1.0
#bond_coeff   2   harmonic 0.1   1.0

###################################################
compute 1 all gyration
variable rog equal c_1
#compute 2 all coord/atom cutoff 1.1

#dump 2 all custom 10000 contact_number.dump id c_2


###
# Set up fixes
###
thermo_style   custom   step  temp enthalpy c_1
fix 1 all nve   ###NVE ensemble

fix 2 all   langevin   1.0 1.0 1.0  100103   ###Langevin integrator Tstart Tstop 1/friction rndseed


##### Sample thermodynamic info  (temperature, energy, pressure, etc.) #####
thermo 1000









############################################################################

###
# set timestep of integrator

timestep 0.01

###
# run integration for a number of steps
###
#run 0
#variable r equal c_1
#if "$r < 63.1" then "quit 1"

# lj potential minimum, cause molecule to explore
run 100000
Generated 0 of 0 mixed pair_coeff terms from geometric mixing rule
Neighbor list info ...
  update: every = 1 steps, delay = 1 steps, check = yes
  max neighbors/atom: 2000, page size: 100000
  master list distance cutoff = 5.1224615
  ghost atom cutoff = 5.1224615
  binsize = 2.5612308, bins = 781 781 781
  1 neighbor lists, perpetual/occasional/extra = 1 0 0
  (1) pair lj/cut, perpetual
      attributes: half, newton on
      pair build: half/bin/newton
      stencil: half/bin/3d
      bin: standard
WARNING: Communication cutoff 5.12246152962189 is shorter than a bond length based estimate of 5.455. This may lead to errors. (src/comm.cpp:723)
Per MPI rank memory allocation (min/avg/max) = 1861 | 1861 | 1861 Mbytes
   Step          Temp         Enthalpy         c_1      
         0   0              13.196122      92.093179    
      1000   1.0200561      17.866261      91.310367    
      2000   1.0037161      17.965957      90.633118    
      3000   0.98101027     18.716126      89.880708    
      4000   0.96046243     17.836357      89.081113    
      5000   1.0088429      18.517345      88.290669    
      6000   0.99370183     18.267695      87.616609    
      7000   1.0202423      18.689151      86.907317    
      8000   1.0115134      18.875712      86.309789    
      9000   0.94122926     18.860417      85.864557    
     10000   1.0043321      19.366608      85.274212    
     11000   0.98420094     19.516689      84.835023    
     12000   0.96483442     19.357474      84.363068    
     13000   0.94910983     19.506346      83.949745    
     14000   1.0246048      18.820297      83.706867    
     15000   0.96964789     19.511817      83.273889    
     16000   0.97331081     19.407013      83.016329    
     17000   0.96167105     19.163868      82.584513    
     18000   0.97376661     19.037132      82.553867    
     19000   0.98283182     19.176304      82.33962     
     20000   1.0122845      19.156442      82.042923    
     21000   1.0072404      19.656442      81.772464    
     22000   0.9775925      19.476103      81.493749    
     23000   1.0455344      19.487284      81.017835    
     24000   0.99359532     19.630359      80.707648    
     25000   0.99994201     19.199754      80.287673    
     26000   1.0074002      19.514409      80.039314    
     27000   0.99785425     20.034717      79.785911    
     28000   1.0006893      19.594822      79.503999    
     29000   0.94268679     19.723237      79.237406    
     30000   0.97863427     19.364381      79.136285    
     31000   0.99673842     19.157677      78.554543    
     32000   0.98056548     19.659401      78.048617    
     33000   0.99046956     19.428118      77.576307    
     34000   0.95280704     19.89031       77.497859    
     35000   1.0114154      20.007052      77.236908    
     36000   1.0281316      19.930726      76.853808    
     37000   1.0268231      19.689312      76.974505    
     38000   0.98061042     19.661059      76.52235     
     39000   1.0042416      19.772963      76.128068    
     40000   0.95206066     20.143274      75.870485    
     41000   1.0089724      19.919056      75.37696     
     42000   0.97469005     19.526204      75.132764    
     43000   0.99927504     20.31181       74.710394    
     44000   1.0240605      19.2166        74.4946      
     45000   1.0251442      19.931474      74.274542    
     46000   0.96094486     20.046191      74.298976    
     47000   1.0195649      19.864854      73.856244    
     48000   1.0226157      20.302912      73.66709     
     49000   1.0701928      20.490415      73.519099    
     50000   1.0249287      20.169173      73.588259    
     51000   0.96928352     20.111636      73.524336    
     52000   0.96751424     19.855009      73.474625    
     53000   1.0067522      20.113482      73.236246    
     54000   1.0016656      19.494035      73.054344    
     55000   1.0816618      20.490053      72.677284    
     56000   0.97864735     20.112212      72.580881    
     57000   0.9648915      19.845487      72.438236    
     58000   0.96163607     20.443957      72.241704    
     59000   1.0061123      19.885695      72.065717    
     60000   0.97487173     19.618357      71.998346    
     61000   1.0523051      20.125536      71.739876    
     62000   1.0128006      20.219524      71.890211    
     63000   0.98269379     19.878458      71.695059    
     64000   1.0006949      19.897857      71.55264     
     65000   0.98781998     20.41273       71.372353    
     66000   0.97873189     20.321612      71.357559    
     67000   1.0095491      19.857315      71.086741    
     68000   1.0548686      19.881042      70.852288    
     69000   0.93538131     19.523307      70.480744    
     70000   1.080789       20.422655      70.366893    
     71000   0.99391991     20.13121       70.401952    
     72000   1.0656791      20.328357      70.312833    
     73000   1.0137483      20.108243      69.942748    
     74000   1.0161609      20.128947      69.850587    
     75000   1.0137788      20.584129      69.803516    
     76000   0.98289556     20.344173      69.549835    
     77000   0.98386964     20.064003      69.448974    
     78000   1.0112921      19.864042      69.169761    
     79000   0.95070258     20.125621      69.221369    
     80000   0.98543919     19.733178      69.245802    
     81000   0.99329504     19.867385      69.01059     
     82000   1.0225834      20.006158      68.865348    
     83000   0.94076544     20.037451      68.572305    
     84000   0.97111189     20.538616      68.492363    
     85000   1.0030703      20.15548       68.400355    
     86000   0.98990246     20.520242      68.501965    
     87000   0.95002121     20.039451      68.152383    
     88000   0.97866025     19.955046      68.062051    
     89000   1.013909       20.137618      67.832436    
     90000   1.0189721      19.452236      67.637355    
     91000   1.0365416      20.226874      67.432647    
     92000   0.97516689     19.916508      67.204311    
     93000   0.99504677     20.395493      66.836902    
     94000   0.99289753     20.368961      66.705276    
     95000   1.0185459      19.909185      66.686372    
     96000   0.99946197     20.737791      66.43131     
     97000   0.96607805     20.184526      66.663162    
     98000   1.0077287      20.484788      66.419513    
     99000   1.0250323      20.517495      66.220181    
    100000   0.98121853     19.838813      66.184305    
Loop time of 446.306 on 1 procs for 100000 steps with 701 atoms

Performance: 193588.989 tau/day, 224.061 timesteps/s
100.0% CPU use with 1 MPI tasks x 1 OpenMP threads

MPI task timing breakdown:
Section |  min time  |  avg time  |  max time  |%varavg| %total
---------------------------------------------------------------
Pair    | 1.4523     | 1.4523     | 1.4523     |   0.0 |  0.33
Bond    | 3.2033     | 3.2033     | 3.2033     |   0.0 |  0.72
Neigh   | 437.44     | 437.44     | 437.44     |   0.0 | 98.01
Comm    | 0.036496   | 0.036496   | 0.036496   |   0.0 |  0.01
Output  | 0.23308    | 0.23308    | 0.23308    |   0.0 |  0.05
Modify  | 3.6366     | 3.6366     | 3.6366     |   0.0 |  0.81
Other   |            | 0.3073     |            |       |  0.07

Nlocal:            701 ave         701 max         701 min
Histogram: 1 0 0 0 0 0 0 0 0 0
Nghost:              0 ave           0 max           0 min
Histogram: 1 0 0 0 0 0 0 0 0 0
Neighs:           4388 ave        4388 max        4388 min
Histogram: 1 0 0 0 0 0 0 0 0 0

Total # of neighbors = 4388
Ave neighs/atom = 6.2596291
Ave special neighs/atom = 1.9971469
Neighbor list builds = 1088
Dangerous builds = 0

# Replace lj potential, now collapse
pair_style      lj/cut 3

# Cutoff simul when gyration under 5
# Variable created with equal requires v_ + 'name'
fix 3 all halt 1000 v_rog < 5

run 5000000
Generated 0 of 0 mixed pair_coeff terms from geometric mixing rule
Per MPI rank memory allocation (min/avg/max) = 1861 | 1861 | 1861 Mbytes
   Step          Temp         Enthalpy         c_1      
    100000   0.98121853     19.167472      66.184305    
    101000   1.0010257      19.595134      65.946194    
    102000   0.96814158     19.035287      65.541042    
    103000   1.0494116      19.417693      65.118393    
    104000   1.0212787      19.684155      64.873622    
    105000   1.0495338      19.369654      64.438299    
    106000   1.0211123      19.379717      64.25913     
    107000   1.0379792      19.569421      63.965228    
    108000   0.97050358     19.782009      63.90676     
    109000   1.0055635      19.857959      63.980761    
    110000   1.0553426      20.290371      63.726195    
    111000   0.98451043     19.531992      63.659054    
    112000   1.0159547      19.720476      63.321006    
    113000   1.0246852      19.053097      63.152828    
    114000   1.0001047      19.063426      62.797179    
    115000   1.002738       19.885916      62.508954    
    116000   1.0002471      19.213075      62.319314    
    117000   0.99522201     19.497805      62.138423    
    118000   1.0006647      19.413093      61.98623     
    119000   0.95575551     19.13142       62.125518    
    120000   1.0285907      19.311466      61.869101    
    121000   0.99787435     19.713517      61.579601    
    122000   0.98790147     19.37671       61.580609    
    123000   0.97954426     19.068696      61.163948    
    124000   0.92990231     18.641915      60.853285    
    125000   1.0194387      19.370301      60.438128    
    126000   1.040719       20.135255      60.188293    
    127000   1.0241554      19.093478      59.993503    
    128000   1.0402211      19.8007        59.886955    
    129000   1.0180491      18.819977      59.691831    
    130000   1.0049884      19.36617       59.725452    
    131000   1.0406071      19.365736      59.721227    
    132000   1.0129578      18.527575      59.275429    
    133000   1.0391653      19.491158      58.982388    
    134000   1.0209358      19.142097      58.684461    
    135000   0.99596572     18.376777      58.644161    
    136000   0.937919       18.741985      58.65999     
    137000   1.0163901      18.96787       58.487656    
    138000   1.0094758      19.097476      58.25553     
    139000   1.0033571      18.591335      58.279737    
    140000   1.0046632      19.001121      57.906527    
    141000   1.0117364      19.486583      57.507039    
    142000   0.93246064     19.902751      57.26081     
    143000   0.9698649      19.213652      57.064756    
    144000   1.0286122      19.199163      57.044383    
    145000   1.0187219      18.979768      56.961941    
    146000   1.0065458      18.239894      56.735776    
    147000   0.94071584     18.834522      56.540714    
    148000   1.0019656      19.227708      56.421683    
    149000   1.0168118      19.323774      56.292909    
    150000   0.99425537     19.237469      56.012302    
    151000   1.0061721      18.980767      56.014406    
    152000   1.0350446      19.066938      55.980164    
    153000   1.000804       18.624543      55.35316     
    154000   1.0225624      19.112022      55.059603    
    155000   0.97907266     19.408136      54.951505    
    156000   1.0129751      19.181158      54.992395    
    157000   1.0047781      19.473395      54.933819    
    158000   1.0175733      18.494005      54.983788    
    159000   0.99449647     19.045913      54.594474    
    160000   0.98591421     18.769933      54.326679    
    161000   1.0462188      19.104897      54.211842    
    162000   1.0020899      18.876487      54.331342    
    163000   1.0528766      18.501979      54.344554    
    164000   0.95140985     19.157502      54.392016    
    165000   1.0081161      19.346919      54.151829    
    166000   0.98274327     19.006986      53.766704    
    167000   0.95464578     18.162937      53.517523    
    168000   1.0552418      18.801362      53.503294    
    169000   0.993441       18.542422      53.435831    
    170000   1.02623        18.990776      53.238088    
    171000   0.97193379     18.740909      53.004301    
    172000   0.99388584     18.759379      52.686035    
    173000   0.96495363     19.266453      52.524951    
    174000   1.0054035      18.077522      52.467042    
    175000   1.0612182      18.721834      52.135231    
    176000   1.0354498      18.910279      52.086646    
    177000   0.94911598     19.350898      51.712479    
    178000   1.0274784      18.882222      51.649075    
    179000   1.0173808      18.322281      51.605506    
    180000   0.97928588     19.138733      51.711047    
    181000   0.99686141     18.734047      51.484541    
    182000   0.98242679     18.79211       51.143312    
    183000   1.0044714      19.222517      50.905022    
    184000   1.0032813      18.492324      50.688403    
    185000   0.95928644     18.735913      50.523871    
    186000   0.98212556     19.463897      50.23577     
    187000   1.0699567      19.305763      49.862784    
    188000   1.0069482      19.088384      49.611314    
    189000   1.0314002      18.218555      49.292799    
    190000   1.0015252      17.928119      49.218467    
    191000   1.0104128      18.374828      49.034194    
    192000   1.0780369      19.232055      48.514975    
    193000   0.99317281     18.513903      48.294862    
    194000   0.98063747     19.097039      48.182858    
    195000   1.0386359      18.668226      47.96326     
    196000   0.98953356     18.592856      47.622432    
    197000   0.98804378     18.541673      47.5633      
    198000   0.9864812      19.004829      47.255218    
    199000   0.96803097     18.499508      47.070862    
    200000   1.0270408      19.160118      46.865067    
    201000   1.0119338      18.642684      46.609158    
    202000   1.0185033      18.572846      46.336958    
    203000   0.96508262     18.254355      46.120959    
    204000   1.0077293      18.343755      46.139218    
    205000   1.0577944      18.426179      46.200751    
    206000   0.99971373     19.127427      45.943116    
    207000   0.99083207     19.338675      46.054142    
    208000   1.0150014      18.779141      45.979405    
    209000   0.95678911     18.680748      45.751899    
    210000   0.99014546     18.331072      45.726583    
    211000   1.0263565      18.078617      45.252483    
    212000   1.0102339      18.19897       45.12245     
    213000   0.96398644     18.441708      44.991776    
    214000   0.96732296     18.836812      44.714818    
    215000   1.0198724      19.4297        44.376998    
    216000   0.98460789     18.45064       44.272733    
    217000   0.98532529     18.082099      44.344884    
    218000   0.99211559     18.225239      44.138329    
    219000   0.9808928      18.364184      43.919148    
    220000   1.0493991      18.694828      43.747509    
    221000   1.0253402      18.844191      43.294182    
    222000   1.0097212      19.212217      43.304986    
    223000   1.0409907      18.623954      42.876662    
    224000   1.0410124      18.157835      42.636686    
    225000   0.99884098     18.350257      42.37745     
    226000   1.0018882      18.437454      42.189526    
    227000   1.0062374      18.806626      42.182573    
    228000   0.99870376     18.00579       41.905194    
    229000   1.0358317      19.080978      41.671639    
    230000   0.96515243     18.317609      41.484864    
    231000   0.98005486     18.14322       41.312757    
    232000   0.90862504     17.989009      41.152331    
    233000   1.0605011      18.750829      41.074453    
    234000   1.0477308      18.898991      41.046403    
    235000   1.0541284      18.849913      41.176199    
    236000   1.0170944      17.941719      41.215585    
    237000   0.94095877     18.247026      40.980284    
    238000   1.0056665      18.087294      40.666033    
    239000   1.0109128      18.691957      40.509101    
    240000   0.95804864     18.929098      40.094216    
    241000   0.97587805     18.435301      39.468149    
    242000   1.0154829      18.124715      39.270105    
    243000   1.0118244      18.422729      39.072861    
    244000   1.0041722      18.64287       39.029684    
    245000   0.96797493     18.738179      39.044237    
    246000   0.96694392     18.270111      38.739483    
    247000   1.0642422      18.445586      38.401844    
    248000   0.9597702      17.850807      38.262531    
    249000   1.0538322      18.405869      38.368048    
    250000   1.0335291      18.035327      38.012211    
    251000   1.018442       18.628249      37.832256    
    252000   0.97253202     17.810504      37.534338    
    253000   0.95673272     17.901661      36.960617    
    254000   1.0689052      19.115594      36.627719    
    255000   0.99589278     18.692114      36.338605    
    256000   1.0257898      18.503342      36.143738    
    257000   1.0125933      17.792327      35.77151     
    258000   1.0021467      17.820504      35.179454    
    259000   0.95693769     18.316728      35.014182    
    260000   1.0375796      18.742274      35.058446    
    261000   0.93913209     18.170623      34.923364    
    262000   1.0199842      18.476352      34.669828    
    263000   0.9516892      18.034402      34.318928    
    264000   0.97411311     17.897122      34.162643    
    265000   1.0268042      18.736038      34.084527    
    266000   0.93459112     18.103793      34.328041    
    267000   1.0464925      17.627475      34.274533    
    268000   0.97975376     18.356104      33.92439     
    269000   1.0169984      18.416143      33.704106    
    270000   0.99832876     17.906131      33.6421      
    271000   0.96489682     18.207439      33.530869    
    272000   1.019171       18.011525      33.416545    
    273000   0.96924136     17.708059      32.997686    
    274000   0.95537028     18.122241      32.74036     
    275000   0.96842648     18.035504      32.843277    
    276000   0.96005154     18.036078      32.550576    
    277000   0.98833304     17.568876      32.442232    
    278000   1.0225176      18.071158      32.734322    
    279000   1.011168       18.266084      32.389627    
    280000   1.0259827      17.922032      32.18123     
    281000   1.0059241      18.608863      32.239712    
    282000   0.97551927     18.1393        31.915768    
    283000   1.0293051      18.293506      31.611008    
    284000   1.0101058      18.428918      31.532163    
    285000   1.0183239      18.158568      31.140088    
    286000   0.97375813     17.575809      30.829368    
    287000   0.93459181     17.8595        30.621319    
    288000   0.92227865     17.958669      30.63305     
    289000   0.94626581     17.940225      30.554317    
    290000   1.0246708      18.412363      30.500447    
    291000   0.94378839     18.319844      30.526492    
    292000   0.96869417     18.327847      30.616338    
    293000   1.0341139      18.3051        30.28875     
    294000   1.0185735      18.514984      30.292114    
    295000   1.0021196      18.591686      30.118492    
    296000   0.97144139     18.490985      30.228537    
    297000   0.99318548     17.991867      29.934566    
    298000   1.0078598      18.726999      29.619945    
    299000   0.98019535     17.995328      29.356831    
    300000   1.0304631      18.175366      29.302397    
    301000   1.0149723      18.201626      29.193031    
    302000   1.0021552      18.5293        29.086601    
    303000   1.0333429      18.238604      28.802085    
    304000   1.017519       17.881487      28.813669    
    305000   0.93783004     18.445602      28.71887     
    306000   0.98855505     18.367732      28.627251    
    307000   0.954835       17.932845      28.4937      
    308000   0.99309694     18.387092      28.383054    
    309000   0.92666269     18.300357      28.33333     
    310000   0.9986857      17.87493       27.905744    
    311000   1.0100653      17.692956      27.678494    
    312000   0.98155243     17.176703      27.765401    
    313000   0.98313907     18.557514      27.947791    
    314000   1.0425958      18.318581      27.861809    
    315000   0.98340974     18.109524      27.640013    
    316000   1.0103908      17.764612      27.203419    
    317000   0.97543904     17.594061      26.980023    
    318000   1.0080348      18.495322      26.57007     
    319000   1.0284956      18.008646      26.648051    
    320000   0.9770264      18.036719      26.708874    
    321000   0.95308844     17.814543      26.270736    
    322000   1.0136075      18.212083      26.171009    
    323000   1.00998        17.805241      26.201192    
    324000   1.017783       18.026312      26.354502    
    325000   0.96995271     18.360995      26.173598    
    326000   0.95905827     18.058227      26.050808    
    327000   0.99199707     17.98299       25.992267    
    328000   1.0044283      17.592379      25.885453    
    329000   0.97071769     18.13558       25.853883    
    330000   1.0194337      17.240966      25.773601    
    331000   0.9605308      17.517811      25.316345    
    332000   1.0236611      18.531011      25.127379    
    333000   0.96266843     18.43392       24.933958    
    334000   1.0230331      18.267501      24.622085    
    335000   1.0005087      18.600567      24.612543    
    336000   0.98465511     18.368356      24.667432    
    337000   0.97065378     17.867757      24.694359    
    338000   0.97006599     16.971224      24.847723    
    339000   0.99642128     17.91791       24.747134    
    340000   0.96540556     17.406391      24.5005      
    341000   1.0242588      18.089978      24.049887    
    342000   0.94920231     17.487308      23.821991    
    343000   1.005215       17.959762      23.836668    
    344000   1.0483652      18.364992      23.725534    
    345000   0.96106179     18.176754      23.610472    
    346000   1.0083014      18.030228      23.277888    
    347000   1.0457589      17.521761      23.299365    
    348000   1.0190046      18.435719      23.084806    
    349000   0.96348492     17.535785      22.822363    
    350000   0.96136903     18.063645      22.621948    
    351000   0.9293146      18.026822      22.483606    
    352000   0.96318828     18.108951      22.297049    
    353000   0.9839309      17.598272      22.281639    
    354000   0.98295822     17.955057      22.162627    
    355000   1.0162177      18.202088      22.221958    
    356000   0.97849052     17.788733      21.813094    
    357000   0.97407118     17.926864      21.576472    
    358000   1.0272778      17.84915       21.433769    
    359000   0.98502353     17.469031      21.445701    
    360000   0.99439883     17.555691      21.229943    
    361000   1.0453864      18.282318      21.360827    
    362000   0.97381117     17.983903      21.073738    
    363000   1.0169263      17.86168       21.143421    
    364000   0.94076267     17.221916      21.201283    
    365000   0.99048245     17.785122      21.127428    
    366000   0.97389368     18.104976      20.878892    
    367000   1.0108219      17.908929      20.943174    
    368000   0.99945461     17.803458      20.845816    
    369000   1.0044072      17.703646      20.755769    
    370000   1.0173188      18.050207      20.712293    
    371000   0.93301501     17.952084      20.557631    
    372000   0.98576131     17.661678      20.470977    
    373000   1.0151854      17.683275      20.292223    
    374000   0.99974679     18.596949      19.811562    
    375000   0.99473308     17.566881      19.563913    
    376000   1.0018235      17.405341      19.487012    
    377000   1.0076163      18.325115      19.137098    
    378000   1.0575652      17.806721      18.859466    
    379000   0.99607475     17.755273      18.51606     
    380000   0.94893459     18.148129      18.108974    
    381000   1.0005959      17.587851      18.321106    
    382000   0.99186123     18.101559      17.883216    
    383000   1.0019125      17.507657      17.654986    
    384000   0.95793363     17.432564      17.507524    
    385000   0.99349339     17.953249      17.578687    
    386000   0.98828829     17.936145      17.313317    
    387000   1.0091802      17.291945      17.0832      
    388000   0.98598847     18.070775      16.842116    
    389000   1.0739187      17.474779      16.552832    
    390000   0.9890389      17.715013      16.129277    
    391000   1.0214569      17.622304      15.908577    
    392000   1.0933176      17.917984      15.807695    
    393000   0.98150963     17.666956      15.550744    
    394000   1.0270322      17.88907       15.681375    
    395000   1.0135823      17.904088      15.431714    
    396000   1.0124374      17.870404      15.207366    
    397000   1.0035582      18.214371      15.002795    
    398000   1.0493286      18.161597      15.254458    
    399000   1.0681941      17.112609      15.214817    
    400000   1.0004599      18.270009      14.984114    
    401000   0.97755063     16.677989      14.987905    
    402000   0.96278303     18.295696      14.706873    
    403000   1.0149646      17.631093      14.424495    
    404000   1.0115592      17.627669      14.085178    
    405000   0.95384638     18.161944      13.853654    
    406000   0.9856865      17.98174       13.708069    
    407000   1.0469061      17.673215      13.71867     
    408000   1.0080632      17.330923      13.344794    
    409000   1.0334355      17.991396      13.322161    
    410000   0.89173153     17.541093      13.132563    
    411000   0.92273904     17.675652      12.769547    
    412000   1.0434153      18.363388      12.643404    
    413000   0.95203631     17.522135      12.399067    
    414000   1.00374        17.761286      12.372392    
    415000   1.0558457      17.036673      12.005022    
    416000   1.0386323      18.035501      12.019833    
    417000   0.99701685     17.760894      12.098609    
    418000   1.0140676      17.87252       11.865784    
    419000   0.96488721     16.786409      11.643147    
    420000   1.0309883      17.094081      11.483782    
    421000   0.9862803      16.974666      11.28595     
    422000   0.93122        17.151137      11.014764    
    423000   0.96735628     16.934179      10.9796      
    424000   1.0737657      16.96929       10.884158    
    425000   1.0099464      17.513083      10.534605    
    426000   0.97972935     17.601603      10.503782    
    427000   0.99732367     17.808124      10.43523     
    428000   1.0087307      16.639348      10.554664    
    429000   1.0443831      17.634415      10.641711    
    430000   1.0196878      17.67428       10.438084    
    431000   0.97943166     17.085819      10.303964    
    432000   0.9810801      16.924916      10.096796    
    433000   1.0135663      16.320994      10.144721    
    434000   0.9732017      16.909205      10.085942    
    435000   0.99921388     17.480649      9.9388837    
    436000   1.0138591      17.360215      9.807602     
    437000   1.0129525      17.140523      9.6139273    
    438000   1.0059333      17.500983      9.542593     
    439000   1.002692       17.211534      9.4782308    
    440000   0.9736042      17.356572      9.3000264    
    441000   1.0095109      17.571615      9.1531828    
    442000   0.98840617     17.203117      8.7554908    
    443000   0.97588556     16.580941      8.5932514    
    444000   0.97369016     16.624864      8.5110244    
    445000   0.94193271     17.05128       8.4516586    
    446000   1.0647798      17.713174      8.4968431    
    447000   0.97740534     17.498523      8.3543777    
    448000   1.0284958      17.160011      8.2999038    
    449000   1.0470475      16.667445      8.2151094    
    450000   1.0353691      17.288937      8.1707956    
    451000   1.0009884      16.856565      8.0236077    
    452000   1.0634846      16.707328      7.8299182    
    453000   0.97898411     16.693728      8.0504278    
    454000   0.98770028     17.072527      8.0211389    
    455000   1.0096983      16.758499      8.1379985    
    456000   1.0004154      17.094773      7.8131784    
    457000   1.0454916      17.165715      7.7409387    
    458000   0.95812051     17.076021      7.7662962    
    459000   1.0297798      17.842877      7.8662225    
    460000   1.0075495      16.691004      7.9483272    
    461000   1.0022799      17.32001       7.7943242    
    462000   1.0249586      17.739646      7.7800665    
    463000   1.0116768      16.786197      7.5169687    
    464000   1.033092       17.326139      7.4103869    
    465000   1.0355642      17.268205      7.206629     
    466000   0.9882842      16.978846      7.2839293    
    467000   1.0119863      16.900898      7.3235413    
    468000   0.92962633     16.914072      7.0699017    
    469000   0.98937158     16.214614      6.9005613    
    470000   1.0275721      17.173187      6.8965924    
    471000   1.0155346      16.724921      6.6105549    
    472000   1.0080486      17.88897       6.4484977    
    473000   1.0266623      17.433873      6.4630035    
    474000   1.0034287      17.556468      6.4579236    
    475000   1.0475025      17.577389      6.2487611    
    476000   0.99676751     17.28829       6.3741712    
    477000   0.96916657     17.41546       6.4644614    
    478000   1.0404721      17.264152      6.2759802    
    479000   0.97683486     17.641557      6.1482274    
    480000   0.98058384     17.201324      6.1380119    
    481000   0.98350562     16.708853      5.9732769    
    482000   1.0064109      16.721728      5.7467362    
    483000   1.0252162      17.636644      5.6514782    
    484000   0.98280811     17.355085      5.3174292    
    485000   1.0369215      16.787459      5.0953899    
Fix halt condition for fix-id 3 met on step 486000 with value 4.9555253740504845 (src/fix_halt.cpp:237)
    486000   0.99320839     18.059565      4.9555254    
Loop time of 653.774 on 1 procs for 386000 steps with 701 atoms

Performance: 510121.518 tau/day, 590.418 timesteps/s
99.9% CPU use with 1 MPI tasks x 1 OpenMP threads

MPI task timing breakdown:
Section |  min time  |  avg time  |  max time  |%varavg| %total
---------------------------------------------------------------
Pair    | 116.31     | 116.31     | 116.31     |   0.0 | 17.79
Bond    | 11.675     | 11.675     | 11.675     |   0.0 |  1.79
Neigh   | 510.14     | 510.14     | 510.14     |   0.0 | 78.03
Comm    | 0.1525     | 0.1525     | 0.1525     |   0.0 |  0.02
Output  | 0.83215    | 0.83215    | 0.83215    |   0.0 |  0.13
Modify  | 13.392     | 13.392     | 13.392     |   0.0 |  2.05
Other   |            | 1.27       |            |       |  0.19

Nlocal:            701 ave         701 max         701 min
Histogram: 1 0 0 0 0 0 0 0 0 0
Nghost:              0 ave           0 max           0 min
Histogram: 1 0 0 0 0 0 0 0 0 0
Neighs:         145568 ave      145568 max      145568 min
Histogram: 1 0 0 0 0 0 0 0 0 0

Total # of neighbors = 145568
Ave neighs/atom = 207.65763
Ave special neighs/atom = 1.9971469
Neighbor list builds = 3475
Dangerous builds = 0

# This simulation is done
# Move onto the next one
clear
OMP_NUM_THREADS environment is not set. Defaulting to 1 thread. (src/comm.cpp:98)
  using 1 OpenMP thread(s) per MPI task
next f
jump SELF

###
# Reference paper:
# K. Kremer and G. S. Grest
# Dynamics of entangled linear polymer melts: A molecular-dynamics simulation
# J Chem Phys 92, 5057 (1990)

##################################
# MIHIR: for branched polymers
# LJ minimum first to expand and explore, then collapse
###

###
# Looping through the various plusshaped polymers to simulate,
# define variables to switch through
variable f index bb51nuc1bl25bn4d30tot100 bb101nuc1bl50bn4d30tot200 bb151nuc1bl75bn4d30tot300 bb201nuc1bl100bn4d30tot400 bb251nuc1bl125bn4d30tot500 bb301nuc1bl150bn4d30tot600 bb351nuc1bl175bn4d30tot700 bb401nuc1bl200bn4d30tot800 bb451nuc1bl225bn4d30tot900 bb501nuc1bl250bn4d30tot1000 bb551nuc1bl275bn4d30tot1100 bb601nuc1bl300bn4d30tot1200
###


###
# Box and units  (use LJ units and periodic boundaries)
###

units lj
log plusshaped/logs/$f.log
log plusshaped/logs/bb401nuc1bl200bn4d30tot800.log
