#atom_style bond #no stiffness
atom_style angle #with stiffness

boundary        p p p
###
# Pair interactions require lists of neighbours to be calculated
###

#neighbor 0.3 bin
neighbor 4 bin

neigh_modify every 1 delay 1 check yes
atom_modify sort 0 0
### Generate RESTART file, SPECIAL format, not a .txt file ###
### Useful if simulation crashes ###

restart 1000000 plusshaped/restarts/$f.restart
restart 1000000 plusshaped/restarts/bb401nuc1bl200bn4d30tot800.restart
#############################



### READ "start" data file ###

read_data plusshaped/$f.dat
read_data plusshaped/bb401nuc1bl200bn4d30tot800.dat
Reading data file ...
  orthogonal box = (-1000 -1000 -1000) to (1000 1000 1000)
  1 by 1 by 1 MPI processor grid
  reading atoms ...
  801 atoms
  scanning bonds ...
  3 = max bonds/atom
  scanning angles ...
  6 = max angles/atom
  reading bonds ...
  800 bonds
  reading angles ...
  802 angles
Finding 1-2 1-3 1-4 neighbors ...
  special bond factors lj:    0        0        0       
  special bond factors coul:  0        0        0       
     4 = max # of 1-2 neighbors
     4 = max # of 1-3 neighbors
     8 = max # of 1-4 neighbors
    12 = max # of special neighbors
  special bonds CPU = 0.001 seconds
  read_data CPU = 0.077 seconds

######################

### READ "REstart" data file ###

######################



###
# Define groups (atom type 1 is group 'all')
###
group all type 1
801 atoms in group all


###
# Dump configs - "simple dumpings"
###

###
# Dump configs + box coords
###

dump   1   all   custom   1000  plusshaped/trjs/$f.lammpstrj  id  x y z  ix iy iz
dump   1   all   custom   1000  plusshaped/trjs/bb401nuc1bl200bn4d30tot800.lammpstrj  id  x y z  ix iy iz
dump_modify   1   format line "%d %.5f %.5f %.5f %d %d %d"

########################################################################


###################################################################
# Stiffness term
#
# E = K * (1+cos(theta)), K>0
#
angle_style   cosine
#change this coefficient to change stiffness (e.g. 1,5,10)
angle_coeff   1 1.0
###################################################################

###################################################################
# Pair interaction between non-bonded atoms
#
#  Lennard-Jones 12-6 potential with cutoff:
#  potential E=4epsilon[ (sigma/r)^12 - (sigma/r)^6]  for r<r_cut
#
#  1.12246 = 2^(1/6) is the minimum of the potential


pair_style      lj/cut 1.12246152962189
#pair_style      lj/cut 3

#
#  pair_modify shift yes adds a constant to the potential such

#  that E(r_cut)=0. Forces remains unchanged.
#

pair_modify     shift yes

#
#  pair_coeff for lj/cut, specify 4:
#    * atom type interacting with
#    * atom type
#    * epsilon (energy units)
#    * sigma (distance units)
#

pair_coeff      1 1 1.0 1.0
###################################################################

###################################################################
# Pair interaction between non-bonded atoms
#
#  soft potential, for PUSHING apart overlapping atoms
#  potential E=A*(1 + cos(pi*r/r_c))
#
#  1.12246 = 2^(1/6) is the cut-off r_c

#pair_style     soft 1.12246152962189

#
#  pair_coeff for soft, specify 3:
#    * atom type interacting with
#    * atom type
#    * A
#
#

#pair_coeff      1 1 100.0
###################################################################

###################################################################
# Pair interaction between bonded atoms
#
# Fene potential + Lennard Jones 12-6:

#
#  E= - 0.5 K R0^2 ln[ 1- (r/R0)^2]
#     + 4epsilon[ (sigma/r)^12 - (sigma/r)^6] + epsilon
#

bond_style   fene


#
# For style fene, specify:
#   * bond type
#   * K (energy/distance^2)
#   * R0 (distance)
#   * epsilon (energy)  (LJ component)
#   * sigma (distance)  (LJ component)
#


special_bonds fene #<=== I M P O R T A N T (new command)
Finding 1-2 1-3 1-4 neighbors ...
  special bond factors lj:    0        1        1       
  special bond factors coul:  0        1        1       
     4 = max # of 1-2 neighbors
    12 = max # of special neighbors
  special bonds CPU = 0.000 seconds

bond_coeff   1   30   2   1.0   1.0


###################################################

###################################################################
# Pair interaction between bonded atoms
#
# Harmonic potential:
#
#  E= K * (R-R0)^2
#

#bond_style   harmonic

#
# For style harmonic, specify:
#   * bond type
#   * K (energy/distance^2)
#   * R0 (distance)
#

#bond_coeff   1   60.0   1.0
#bond_coeff   2   harmonic 0.1   1.0

###################################################
compute 1 all gyration
variable rog equal c_1
#compute 2 all coord/atom cutoff 1.1

#dump 2 all custom 10000 contact_number.dump id c_2


###
# Set up fixes
###
thermo_style   custom   step  temp enthalpy c_1
fix 1 all nve   ###NVE ensemble

fix 2 all   langevin   1.0 1.0 1.0  100103   ###Langevin integrator Tstart Tstop 1/friction rndseed


##### Sample thermodynamic info  (temperature, energy, pressure, etc.) #####
thermo 1000









############################################################################

###
# set timestep of integrator

timestep 0.01

###
# run integration for a number of steps
###
#run 0
#variable r equal c_1
#if "$r < 63.1" then "quit 1"

# lj potential minimum, cause molecule to explore
run 100000
Generated 0 of 0 mixed pair_coeff terms from geometric mixing rule
Neighbor list info ...
  update: every = 1 steps, delay = 1 steps, check = yes
  max neighbors/atom: 2000, page size: 100000
  master list distance cutoff = 5.1224615
  ghost atom cutoff = 5.1224615
  binsize = 2.5612308, bins = 781 781 781
  1 neighbor lists, perpetual/occasional/extra = 1 0 0
  (1) pair lj/cut, perpetual
      attributes: half, newton on
      pair build: half/bin/newton
      stencil: half/bin/3d
      bin: standard
WARNING: Communication cutoff 5.12246152962189 is shorter than a bond length based estimate of 5.455. This may lead to errors. (src/comm.cpp:723)
Per MPI rank memory allocation (min/avg/max) = 1861 | 1861 | 1861 Mbytes
   Step          Temp         Enthalpy         c_1      
         0   0              13.182906      105.18155    
      1000   0.9413207      17.89017       104.45483    
      2000   0.98850618     17.794634      103.61616    
      3000   1.0041067      18.111031      102.93748    
      4000   0.97480363     17.987999      102.31946    
      5000   1.0299021      18.450949      101.58539    
      6000   1.0095452      18.634569      100.80376    
      7000   1.0052661      19.124827      100.04321    
      8000   1.019452       18.587872      99.680622    
      9000   0.99141257     18.491726      99.025519    
     10000   1.0137015      18.962241      98.649409    
     11000   1.03698        19.244372      98.136186    
     12000   0.97642091     19.162179      97.86923     
     13000   1.0134157      18.883619      97.273046    
     14000   1.0260719      19.283663      97.108467    
     15000   0.98383286     19.129165      96.515857    
     16000   1.0016672      18.700117      96.207556    
     17000   0.99997828     19.262497      95.88247     
     18000   0.95495475     19.033765      95.646019    
     19000   0.96872508     19.683167      95.364579    
     20000   1.0570886      19.468799      94.975766    
     21000   0.94950703     19.390172      94.633695    
     22000   1.0081696      18.845275      94.459464    
     23000   1.0188956      19.450483      93.964777    
     24000   1.0603334      19.929197      93.502805    
     25000   0.97830385     19.857047      93.20721     
     26000   1.0128404      19.666735      92.817225    
     27000   0.99763314     19.81035       92.512207    
     28000   0.99575657     18.921708      92.270333    
     29000   1.0012702      19.430136      91.971187    
     30000   1.0577483      19.883777      91.815357    
     31000   1.053847       19.030376      91.592498    
     32000   1.0018518      19.536303      91.099381    
     33000   1.0243919      19.839714      91.102049    
     34000   1.0072416      19.570164      90.833212    
     35000   1.0169368      19.476851      90.343714    
     36000   0.98923903     20.112173      89.807926    
     37000   1.0076541      19.365213      89.437302    
     38000   1.0165658      19.608026      89.162691    
     39000   1.0054039      19.179223      88.781378    
     40000   1.0345802      19.822815      88.611197    
     41000   1.0156444      19.979037      88.349097    
     42000   0.98780173     19.795638      88.121586    
     43000   1.027198       19.316851      87.999575    
     44000   0.98846551     19.675057      87.493133    
     45000   1.0330519      19.618878      87.024634    
     46000   0.98444194     19.706586      86.684009    
     47000   1.0054677      19.774863      86.65414     
     48000   1.0651695      19.621339      86.408085    
     49000   1.0164259      19.580181      86.004736    
     50000   0.93672078     20.385412      85.755068    
     51000   1.0479904      19.51135       85.628064    
     52000   0.97973329     19.619237      85.416549    
     53000   0.96457554     20.084049      85.230502    
     54000   0.98543433     20.128885      85.185741    
     55000   0.98284544     19.965744      85.075968    
     56000   1.0567879      20.223965      84.877636    
     57000   1.0163385      20.141967      84.636521    
     58000   0.9947421      20.082665      84.562532    
     59000   0.99900587     19.659307      84.216612    
     60000   0.97251914     19.23869       83.894893    
     61000   1.0187758      19.950707      83.670069    
     62000   0.96909328     20.304878      83.519239    
     63000   1.0214629      20.050716      83.365068    
     64000   1.0324248      20.502211      83.163263    
     65000   1.0863511      20.117153      83.156046    
     66000   0.98987934     20.654194      83.071076    
     67000   0.99023576     20.106465      82.778475    
     68000   0.99396926     19.649598      82.836939    
     69000   0.96959534     20.312468      82.576636    
     70000   0.98884375     19.678639      82.214176    
     71000   0.97129856     19.662146      82.377877    
     72000   0.97828368     19.722681      82.267521    
     73000   1.0042605      20.117318      82.168779    
     74000   0.97551641     19.887298      82.010503    
     75000   0.99321981     20.117376      81.835302    
     76000   1.0003886      20.182374      81.705269    
     77000   0.98786163     19.518075      81.405913    
     78000   1.0067111      20.309328      81.228045    
     79000   1.0036216      20.144029      80.968065    
     80000   0.97850528     19.783309      80.846428    
     81000   0.98264984     19.238051      80.990546    
     82000   0.97415721     20.238666      80.856323    
     83000   1.0180763      20.061232      80.783685    
     84000   0.95934387     19.417765      80.284895    
     85000   1.0394327      20.165495      80.144152    
     86000   0.94777192     19.622157      79.978453    
     87000   1.0464261      20.234011      79.775958    
     88000   1.0053772      20.186964      79.668352    
     89000   1.0523067      20.10772       79.504338    
     90000   0.98321993     20.119219      79.312633    
     91000   1.0021472      19.762622      78.981514    
     92000   0.95664062     19.921123      78.676296    
     93000   0.98197432     20.101977      78.536515    
     94000   0.96773642     19.593135      78.279093    
     95000   0.96841112     19.69018       78.247023    
     96000   1.0279899      20.075302      77.875249    
     97000   1.0224121      20.248248      77.629941    
     98000   0.91834427     19.868164      77.481255    
     99000   0.95754614     20.023746      77.317685    
    100000   1.0260373      20.05506       77.209292    
Loop time of 454.207 on 1 procs for 100000 steps with 801 atoms

Performance: 190221.736 tau/day, 220.164 timesteps/s
100.0% CPU use with 1 MPI tasks x 1 OpenMP threads

MPI task timing breakdown:
Section |  min time  |  avg time  |  max time  |%varavg| %total
---------------------------------------------------------------
Pair    | 1.5655     | 1.5655     | 1.5655     |   0.0 |  0.34
Bond    | 3.4667     | 3.4667     | 3.4667     |   0.0 |  0.76
Neigh   | 444.76     | 444.76     | 444.76     |   0.0 | 97.92
Comm    | 0.036922   | 0.036922   | 0.036922   |   0.0 |  0.01
Output  | 0.25541    | 0.25541    | 0.25541    |   0.0 |  0.06
Modify  | 3.7878     | 3.7878     | 3.7878     |   0.0 |  0.83
Other   |            | 0.3391     |            |       |  0.07

Nlocal:            801 ave         801 max         801 min
Histogram: 1 0 0 0 0 0 0 0 0 0
Nghost:              0 ave           0 max           0 min
Histogram: 1 0 0 0 0 0 0 0 0 0
Neighs:           4666 ave        4666 max        4666 min
Histogram: 1 0 0 0 0 0 0 0 0 0

Total # of neighbors = 4666
Ave neighs/atom = 5.8252185
Ave special neighs/atom = 1.9975031
Neighbor list builds = 1102
Dangerous builds = 0

# Replace lj potential, now collapse
pair_style      lj/cut 3

# Cutoff simul when gyration under 5
# Variable created with equal requires v_ + 'name'
fix 3 all halt 1000 v_rog < 5

run 5000000
Generated 0 of 0 mixed pair_coeff terms from geometric mixing rule
Per MPI rank memory allocation (min/avg/max) = 1861 | 1861 | 1861 Mbytes
   Step          Temp         Enthalpy         c_1      
    100000   1.0260373      19.411987      77.209292    
    101000   0.97435549     19.671681      76.837651    
    102000   0.98645682     19.197859      76.576817    
    103000   1.0457526      19.147646      76.065135    
    104000   0.9946734      19.373631      75.938903    
    105000   0.94277534     19.427299      75.865386    
    106000   1.0215407      19.50346       75.767637    
    107000   0.96712996     19.35671       75.467599    
    108000   1.0460092      19.268199      75.20837     
    109000   1.0240494      19.406579      74.923181    
    110000   0.989341       19.094668      74.478069    
    111000   0.97141035     18.678273      74.205591    
    112000   0.94747775     19.155385      74.110798    
    113000   0.97618325     19.275854      73.99517     
    114000   1.037776       20.784988      73.795776    
    115000   1.0139018      19.353801      73.60818     
    116000   1.0128845      19.719643      73.564466    
    117000   1.0289488      19.519088      73.366097    
    118000   0.97589411     18.6919        73.218204    
    119000   1.0177337      19.524228      73.137026    
    120000   1.0334696      19.164748      73.175575    
    121000   1.0250667      19.35526       72.940518    
    122000   0.97086024     19.122561      72.579903    
    123000   1.0071149      19.566066      72.340857    
    124000   1.0677425      19.496547      72.253562    
    125000   1.0240225      18.956115      71.999997    
    126000   1.0754685      19.939555      71.763666    
    127000   1.0291136      19.394822      71.620272    
    128000   0.99590559     19.093519      71.205267    
    129000   0.98165282     19.302383      71.14805     
    130000   0.99170711     19.014587      70.738162    
    131000   0.98405301     19.108575      70.495779    
    132000   1.0457174      19.69957       70.314312    
    133000   1.0132593      19.221299      70.001184    
    134000   1.0015813      19.631563      69.362759    
    135000   0.99052726     18.306613      68.893494    
    136000   1.0466392      19.139983      68.735387    
    137000   1.0025431      19.350929      68.716024    
    138000   0.96082511     19.025047      68.48561     
    139000   1.0128024      18.867056      68.355079    
    140000   0.99280543     19.532449      68.232618    
    141000   0.9984165      19.129794      68.153823    
    142000   0.96374383     19.357024      68.041444    
    143000   0.97838219     19.356678      67.903828    
    144000   1.0071956      19.443524      67.718671    
    145000   1.0420293      19.325214      67.781482    
    146000   1.0441924      18.716205      67.505234    
    147000   0.97484613     18.999218      67.438178    
    148000   1.0320178      18.392123      67.416364    
    149000   0.98766173     19.869875      67.240828    
    150000   0.99225021     18.39002       67.071403    
    151000   0.96909438     18.994575      66.970496    
    152000   0.97355354     19.217036      66.704436    
    153000   0.95989886     19.158466      66.663091    
    154000   1.0293511      19.452365      66.631044    
    155000   0.9592002      18.956732      66.457948    
    156000   1.0261786      19.258115      66.246691    
    157000   0.99651766     19.237672      65.776595    
    158000   1.0176468      18.961005      65.709533    
    159000   0.9637617      19.257684      65.641395    
    160000   1.014412       19.09033       65.411692    
    161000   1.0201579      19.147033      65.134977    
    162000   0.97272823     18.939829      64.875995    
    163000   1.0550901      18.817058      64.688272    
    164000   0.99523575     19.3997        64.622996    
    165000   1.0010446      19.25099       64.603186    
    166000   0.97727445     18.364175      64.527187    
    167000   0.96455922     18.511339      64.518879    
    168000   0.96527815     18.385781      64.235117    
    169000   0.96951636     18.77446       64.100986    
    170000   0.97807687     18.797758      64.170346    
    171000   0.98822545     19.131084      63.794071    
    172000   1.0552048      19.02404       63.199507    
    173000   0.97759264     19.302753      62.979709    
    174000   0.94852526     18.930025      62.735134    
    175000   1.0325739      18.866123      62.421033    
    176000   1.010101       18.664274      61.962946    
    177000   1.0287562      19.059121      61.697538    
    178000   1.0485093      18.528279      61.415345    
    179000   1.0247411      18.709473      61.244751    
    180000   0.99089595     19.037262      61.473944    
    181000   1.0190992      18.937109      61.208423    
    182000   1.0374061      18.79726       60.808247    
    183000   0.96773089     18.243074      60.415934    
    184000   0.99557915     18.7902        60.116668    
    185000   0.99231634     18.767724      59.933003    
    186000   0.99545498     18.305559      59.506076    
    187000   0.99991696     18.692191      59.629677    
    188000   0.9764988      18.762189      59.598051    
    189000   0.99233787     18.558091      59.283585    
    190000   1.0579827      18.647011      59.109682    
    191000   0.98189506     18.440337      58.980989    
    192000   1.037725       19.212946      58.769117    
    193000   1.039244       19.066726      58.667953    
    194000   1.0396695      19.464641      58.594597    
    195000   0.98075212     18.889199      58.27945     
    196000   0.95587852     18.795446      58.154209    
    197000   0.99113308     18.98196       57.860395    
    198000   0.98621756     19.386763      57.67628     
    199000   0.99790993     18.62345       57.485238    
    200000   0.94743563     18.635476      57.203032    
    201000   1.0409732      18.576757      56.91456     
    202000   1.0116597      19.282515      56.662967    
    203000   1.0003593      18.499472      56.704884    
    204000   0.97755189     18.640017      56.482526    
    205000   0.9258022      18.640045      56.440434    
    206000   1.0607924      18.860091      56.376518    
    207000   0.96183073     18.219255      56.240186    
    208000   0.99357122     18.195546      55.806402    
    209000   1.0146935      19.218707      55.557913    
    210000   0.97273978     18.167024      55.336517    
    211000   1.0044578      18.328503      55.226157    
    212000   1.0126079      19.078836      54.959542    
    213000   0.99494105     18.720412      54.966422    
    214000   1.0389596      18.888598      54.73959     
    215000   1.0259598      18.746772      54.497612    
    216000   1.0409567      18.496005      54.363234    
    217000   0.97570385     18.490219      53.929274    
    218000   1.0189993      19.461766      53.657171    
    219000   0.9595493      19.05233       53.359312    
    220000   1.0154383      18.456868      53.309921    
    221000   1.0488462      18.947629      53.101727    
    222000   0.98225886     18.196797      52.960581    
    223000   0.96907122     18.511152      52.720439    
    224000   0.96077204     18.667966      52.850957    
    225000   0.93853277     18.404107      52.557424    
    226000   1.0237639      18.911277      52.277032    
    227000   1.0340757      18.505791      52.229114    
    228000   0.99020791     18.588346      51.808264    
    229000   0.9560635      19.075952      51.468465    
    230000   0.96713944     18.061585      51.179877    
    231000   1.0214588      18.674818      51.125171    
    232000   0.99984265     18.470167      51.039434    
    233000   1.041167       18.699865      50.923462    
    234000   0.96548259     18.638131      50.875749    
    235000   1.022959       18.276793      50.741594    
    236000   0.98730742     18.752116      50.506758    
    237000   1.0049325      18.538298      50.197498    
    238000   0.9623669      18.298826      49.907822    
    239000   0.98980143     18.152021      49.745077    
    240000   0.96175463     18.164239      49.637268    
    241000   0.95992612     18.348743      49.275024    
    242000   1.0142751      18.814207      49.09012     
    243000   1.0317009      19.179969      48.962703    
    244000   1.0031197      18.776777      48.726403    
    245000   0.97251932     18.550675      48.816832    
    246000   0.99824639     18.995526      48.732263    
    247000   0.94988829     19.132309      48.576456    
    248000   1.0309531      19.348188      48.366956    
    249000   1.0023686      18.527744      48.343797    
    250000   0.9833856      19.184889      48.102704    
    251000   0.99970718     18.373817      47.792774    
    252000   1.0329953      18.328936      47.72029     
    253000   1.0341451      18.930216      47.546804    
    254000   1.0231627      18.326656      47.308821    
    255000   0.96662529     18.608067      46.959186    
    256000   1.0151104      18.091547      46.829669    
    257000   0.95626491     17.940629      46.603047    
    258000   0.98724038     18.703176      46.471672    
    259000   1.0110875      18.789962      46.321653    
    260000   0.94232403     18.095868      46.351498    
    261000   0.9806436      18.173366      45.883791    
    262000   0.95988798     18.444528      45.758073    
    263000   0.96747874     18.283817      45.668196    
    264000   1.0387657      18.839314      45.45506     
    265000   0.9902488      18.087774      45.498101    
    266000   1.0093174      18.036371      45.329354    
    267000   0.93685851     17.962005      45.007827    
    268000   1.0059944      18.146695      44.792471    
    269000   1.028937       17.92323       44.87902     
    270000   0.94802861     18.204408      44.666001    
    271000   1.0164543      18.066293      44.638091    
    272000   0.92890952     18.197145      44.70956     
    273000   1.0039895      18.561071      44.449932    
    274000   1.0075609      18.561221      44.382465    
    275000   1.006854       18.166666      44.470673    
    276000   1.0417335      18.279497      44.382727    
    277000   0.99270978     18.780622      43.98473     
    278000   1.0081932      17.720094      43.511983    
    279000   1.0324698      18.215627      43.446084    
    280000   0.94691294     17.984517      43.515528    
    281000   1.0275919      18.098995      43.559022    
    282000   1.0087481      18.736887      43.229011    
    283000   1.0235087      18.002173      43.200336    
    284000   0.94965629     18.752247      43.101861    
    285000   0.93539167     18.036471      43.099521    
    286000   1.0098725      18.049715      42.998672    
    287000   1.0022471      18.644277      43.016439    
    288000   1.0039752      18.08856       42.901441    
    289000   1.0197962      18.651164      42.747893    
    290000   1.0094141      18.270981      42.585761    
    291000   0.9942185      17.876156      42.297512    
    292000   1.0021476      18.034169      42.304869    
    293000   0.99105308     18.491328      42.414834    
    294000   1.0143195      18.282854      42.096722    
    295000   1.0216644      18.152174      41.74753     
    296000   0.97395163     17.790331      41.672598    
    297000   1.0126791      17.973127      41.527793    
    298000   1.0221018      18.376211      41.414237    
    299000   1.041899       17.564373      41.530827    
    300000   1.0223154      18.339012      41.482205    
    301000   0.97166054     18.08122       41.326461    
    302000   1.0142555      18.259132      41.150763    
    303000   0.95752951     18.397274      41.046969    
    304000   0.99928471     18.228468      40.788618    
    305000   0.99875262     18.248381      40.624532    
    306000   0.98671751     17.8788        40.568673    
    307000   0.97308966     18.209824      40.468143    
    308000   0.96807799     19.141906      40.461418    
    309000   1.016568       18.248127      40.361604    
    310000   1.0435706      18.66029       39.803564    
    311000   1.0151316      17.753949      39.651691    
    312000   1.0292819      17.967675      39.512602    
    313000   0.99941117     18.528658      39.303571    
    314000   1.0321613      18.453341      39.352609    
    315000   1.0334802      18.185871      39.225751    
    316000   0.93874704     18.053008      39.058995    
    317000   1.0075006      17.793709      39.125457    
    318000   0.97093402     17.923385      38.830388    
    319000   0.96134543     18.293351      38.63343     
    320000   1.0136553      18.07536       38.488619    
    321000   1.0109906      17.915203      38.394846    
    322000   0.99888719     17.997622      38.408359    
    323000   1.0188581      18.733258      38.194215    
    324000   1.0066748      17.945214      38.078469    
    325000   1.0245408      18.462155      37.980661    
    326000   1.0178217      18.957458      37.68392     
    327000   0.98551216     18.36915       37.484153    
    328000   0.97307199     18.00141       37.427034    
    329000   1.0549016      18.569827      37.282491    
    330000   1.0087998      18.161496      37.084879    
    331000   0.98775442     18.495492      37.027632    
    332000   1.0082897      18.064642      36.736945    
    333000   1.0085169      17.907034      36.653676    
    334000   0.97946795     18.677857      36.516584    
    335000   1.0200464      18.596499      36.212431    
    336000   1.0212082      18.255411      36.267685    
    337000   1.0146459      18.505756      36.077345    
    338000   0.99924496     18.016669      35.610714    
    339000   1.0268434      18.993075      35.375074    
    340000   1.0111187      18.429251      35.186701    
    341000   1.0075837      16.868008      34.813796    
    342000   0.98178116     17.891601      34.772702    
    343000   0.97685941     17.923586      34.709155    
    344000   1.0326237      17.807528      34.54949     
    345000   1.0008802      18.552757      34.227733    
    346000   1.0521913      18.182468      33.988796    
    347000   0.98957717     17.416941      33.88703     
    348000   0.99928928     18.070295      33.79057     
    349000   1.010773       17.727916      33.404565    
    350000   1.0173323      18.133161      33.08006     
    351000   0.97370392     18.482375      32.959761    
    352000   1.0375246      17.744591      32.734499    
    353000   1.0783265      19.07874       32.516118    
    354000   0.99121648     18.150273      32.535095    
    355000   0.97743949     17.567754      32.365658    
    356000   0.97885564     17.954662      32.163637    
    357000   1.006445       18.415245      32.205387    
    358000   1.0177399      18.098223      31.957858    
    359000   1.0218991      18.145231      31.552851    
    360000   1.0024835      18.152197      31.308252    
    361000   1.0147309      18.244306      30.770619    
    362000   0.97339152     18.084238      30.400614    
    363000   0.94603549     18.289671      30.253299    
    364000   1.0299003      18.670373      30.369687    
    365000   1.008006       17.468813      30.092567    
    366000   0.9672932      18.17753       29.960454    
    367000   0.99891627     17.627118      29.818714    
    368000   1.013072       18.202233      29.862883    
    369000   1.0303301      17.915371      29.626372    
    370000   0.98964991     17.954849      29.494719    
    371000   1.0050739      18.248953      29.335109    
    372000   1.0243551      17.732228      29.268535    
    373000   0.97918749     17.573154      29.015346    
    374000   0.9753101      17.679658      28.653315    
    375000   1.0168118      18.158361      28.465284    
    376000   1.0138951      18.139321      27.961983    
    377000   0.98165121     18.048905      27.764568    
    378000   1.0015824      17.504154      27.629713    
    379000   0.97967185     17.914275      27.552181    
    380000   1.0375438      18.005151      27.354172    
    381000   0.99570645     18.191874      27.386591    
    382000   1.0061939      17.70249       27.430113    
    383000   1.0392138      18.133581      27.132407    
    384000   0.97942739     17.829005      27.189822    
    385000   0.98881105     17.546381      27.256947    
    386000   0.99588295     17.94276       27.118866    
    387000   0.97906696     17.420255      26.846403    
    388000   0.98077647     17.653016      26.944756    
    389000   1.0386865      18.554175      26.719389    
    390000   1.0007104      17.920913      26.467435    
    391000   1.0203284      18.194082      26.010855    
    392000   0.97802757     17.803609      25.916173    
    393000   1.0432439      18.195206      25.777776    
    394000   1.0249757      17.794436      25.63859     
    395000   1.0149841      18.157046      25.583782    
    396000   0.95503556     17.630073      25.515114    
    397000   1.0082864      18.235919      25.208213    
    398000   1.0544183      18.514787      24.964986    
    399000   0.95754422     17.324219      24.796169    
    400000   1.0140235      18.042842      24.531921    
    401000   1.0247736      18.501845      24.319652    
    402000   0.95275126     18.173723      24.2206      
    403000   1.0177127      17.418095      24.193973    
    404000   1.0194469      17.697383      24.078157    
    405000   1.0088475      17.708213      24.114438    
    406000   1.0351578      18.115784      23.795662    
    407000   1.0043206      18.04466       23.593703    
    408000   1.0166155      18.063149      23.452452    
    409000   0.97644394     17.517747      23.313181    
    410000   1.0694134      18.069524      23.383396    
    411000   0.9887065      18.57555       23.534963    
    412000   1.0619847      18.584811      23.37448     
    413000   1.0226391      18.300595      23.216044    
    414000   0.98615873     17.306712      23.216214    
    415000   1.0389742      17.791594      23.044997    
    416000   0.98477033     18.35736       22.726379    
    417000   1.0230078      17.738642      22.516691    
    418000   1.0355092      17.646267      22.328207    
    419000   1.0250428      17.284808      22.291994    
    420000   0.98132271     17.58241       22.090912    
    421000   0.95500505     17.578011      22.145729    
    422000   1.0132024      17.72471       22.085441    
    423000   1.006908       17.399984      22.007241    
    424000   1.0005877      17.47082       21.874768    
    425000   1.0337867      17.884647      21.904672    
    426000   0.98727538     18.368575      21.882472    
    427000   1.0324105      17.203059      21.762003    
    428000   1.0205151      18.382585      21.643058    
    429000   1.0275238      17.955545      21.216532    
    430000   1.0494076      17.857359      20.712099    
    431000   0.96254359     17.816482      20.482568    
    432000   0.98240387     17.511896      20.013746    
    433000   1.0606286      17.737826      19.843839    
    434000   1.0320483      17.616418      19.576891    
    435000   1.0239324      18.020836      19.398112    
    436000   0.9980356      17.753092      19.404762    
    437000   0.96149929     17.407085      19.212312    
    438000   1.0134277      18.026119      19.002085    
    439000   0.9942789      17.89899       18.747439    
    440000   0.96369622     17.553084      18.826843    
    441000   1.0174001      17.891477      18.585517    
    442000   0.99122085     17.848787      18.38599     
    443000   1.0018666      17.636355      17.945141    
    444000   1.0184519      17.398921      18.115464    
    445000   1.0632132      18.267071      18.047724    
    446000   1.0279363      18.228749      17.762483    
    447000   1.0174491      17.967383      17.659226    
    448000   1.0194515      18.113211      17.524069    
    449000   0.97564242     17.048427      17.544676    
    450000   1.0222771      17.877243      17.51145     
    451000   1.0010741      18.069908      17.33893     
    452000   1.0189218      17.637417      17.396335    
    453000   0.96428372     17.928801      17.092822    
    454000   1.0258841      17.651672      16.867157    
    455000   1.0275922      17.767049      16.589353    
    456000   0.99609347     17.636214      16.357666    
    457000   0.98117826     17.391731      16.524998    
    458000   0.96150815     17.489118      16.719731    
    459000   0.94583398     17.103862      16.761602    
    460000   0.96033457     17.842317      16.58921     
    461000   1.0452708      17.45663       16.455447    
    462000   0.95485836     17.662337      16.473662    
    463000   1.0526753      17.174134      16.469073    
    464000   0.97397132     16.976705      16.453692    
    465000   1.0027331      17.412967      16.203329    
    466000   1.0456171      17.524879      16.161083    
    467000   0.97728284     17.798671      16.102282    
    468000   0.98577613     17.752795      15.950652    
    469000   0.99304589     17.218605      15.993207    
    470000   0.99510403     17.247128      15.652346    
    471000   0.96218457     17.153173      15.510662    
    472000   1.0032981      17.884921      15.570288    
    473000   0.98666862     17.660553      15.44573     
    474000   0.97700322     17.510237      15.167011    
    475000   1.0166342      17.607273      14.913355    
    476000   1.0223847      17.385029      15.021252    
    477000   0.94153695     17.108787      14.61455     
    478000   0.96786188     17.722056      14.420449    
    479000   0.99212872     16.762807      14.351817    
    480000   0.99535709     17.289182      14.34844     
    481000   0.98403547     17.750612      14.144507    
    482000   0.99191703     17.512621      14.009258    
    483000   1.0224167      17.619753      13.596158    
    484000   1.0288138      18.096933      13.445324    
    485000   0.98981002     17.499446      13.30492     
    486000   0.994726       17.600671      13.167453    
    487000   1.0081631      17.583026      13.104978    
    488000   1.0115383      17.240454      12.594295    
    489000   0.98566845     17.721402      12.488433    
    490000   0.99341079     16.908803      12.619268    
    491000   1.0582135      17.816762      12.534433    
    492000   1.0135439      17.667636      12.407303    
    493000   1.0209782      16.980625      12.53818     
    494000   0.97952418     17.719069      12.474355    
    495000   0.98542563     17.664013      12.454017    
    496000   1.0339718      17.760537      12.455064    
    497000   1.033117       17.841379      12.16216     
    498000   0.99160545     17.753181      12.157959    
    499000   1.0084684      17.729183      11.858278    
    500000   1.0421994      17.81303       11.87176     
    501000   1.0162345      16.714973      11.663058    
    502000   1.0200305      17.385172      11.687829    
    503000   0.99300451     17.596726      11.521938    
    504000   1.0506902      18.392477      11.407902    
    505000   0.9880915      16.935038      11.294761    
    506000   1.0513527      17.667691      11.238586    
    507000   0.95899027     17.938268      10.977539    
    508000   0.97585603     18.082181      10.929812    
    509000   0.98549782     17.777102      10.811575    
    510000   1.0502629      17.227369      10.86168     
    511000   0.9646016      18.160986      10.664695    
    512000   1.0159712      17.626358      10.329438    
    513000   1.0009991      17.388007      10.243273    
    514000   0.99448391     17.514867      10.091625    
    515000   1.0000728      17.402752      10.043522    
    516000   0.99793279     18.529123      9.9985438    
    517000   0.97442763     17.277744      9.6778763    
    518000   1.0827211      17.737002      9.6449717    
    519000   0.98954846     17.310398      9.6188471    
    520000   1.0129894      17.421667      9.5515629    
    521000   1.0342821      17.720731      9.3909027    
    522000   1.0296307      17.603236      9.0650084    
    523000   1.000966       16.495283      9.0468787    
    524000   1.003803       17.70993       9.0201596    
    525000   1.0558869      17.391705      8.8968524    
    526000   1.0266624      17.336093      8.7912874    
    527000   0.98814673     17.386512      8.615807     
    528000   0.98890112     17.3596        8.370953     
    529000   1.0106119      17.423         8.3575857    
    530000   1.0433682      17.586214      8.0373144    
    531000   1.0008185      16.827318      7.987573     
    532000   1.0143736      17.333137      7.8231422    
    533000   0.98639348     17.079323      7.7387976    
    534000   1.0182504      16.661072      7.4879701    
    535000   1.0247189      17.565204      7.1591508    
    536000   0.99795016     16.572452      7.11125      
    537000   1.039301       16.539675      6.8323737    
    538000   0.9861644      17.090983      6.6093562    
    539000   0.98027688     17.204674      6.295974     
    540000   0.99862658     17.41609       6.0651182    
    541000   0.98664757     16.980084      5.8431269    
    542000   1.0023261      17.267494      5.6673381    
    543000   1.0082661      17.754062      5.503549     
    544000   1.0310064      17.006311      5.3285887    
    545000   0.96456703     16.507795      5.1781652    
    546000   1.0434162      15.992826      5.0385197    
Fix halt condition for fix-id 3 met on step 547000 with value 4.998350015125323 (src/fix_halt.cpp:237)
    547000   0.93991526     16.867182      4.99835      
Loop time of 960.266 on 1 procs for 447000 steps with 801 atoms

Performance: 402188.726 tau/day, 465.496 timesteps/s
100.0% CPU use with 1 MPI tasks x 1 OpenMP threads

MPI task timing breakdown:
Section |  min time  |  avg time  |  max time  |%varavg| %total
---------------------------------------------------------------
Pair    | 157.84     | 157.84     | 157.84     |   0.0 | 16.44
Bond    | 17.605     | 17.605     | 17.605     |   0.0 |  1.83
Neigh   | 762.07     | 762.07     | 762.07     |   0.0 | 79.36
Comm    | 0.24733    | 0.24733    | 0.24733    |   0.0 |  0.03
Output  | 1.2114     | 1.2114     | 1.2114     |   0.0 |  0.13
Modify  | 19.004     | 19.004     | 19.004     |   0.0 |  1.98
Other   |            | 2.285      |            |       |  0.24

Nlocal:            801 ave         801 max         801 min
Histogram: 1 0 0 0 0 0 0 0 0 0
Nghost:              0 ave           0 max           0 min
Histogram: 1 0 0 0 0 0 0 0 0 0
Neighs:         184932 ave      184932 max      184932 min
Histogram: 1 0 0 0 0 0 0 0 0 0

Total # of neighbors = 184932
Ave neighs/atom = 230.8764
Ave special neighs/atom = 1.9975031
Neighbor list builds = 4239
Dangerous builds = 0

# This simulation is done
# Move onto the next one
clear
OMP_NUM_THREADS environment is not set. Defaulting to 1 thread. (src/comm.cpp:98)
  using 1 OpenMP thread(s) per MPI task
next f
jump SELF

###
# Reference paper:
# K. Kremer and G. S. Grest
# Dynamics of entangled linear polymer melts: A molecular-dynamics simulation
# J Chem Phys 92, 5057 (1990)

##################################
# MIHIR: for branched polymers
# LJ minimum first to expand and explore, then collapse
###

###
# Looping through the various plusshaped polymers to simulate,
# define variables to switch through
variable f index bb51nuc1bl25bn4d30tot100 bb101nuc1bl50bn4d30tot200 bb151nuc1bl75bn4d30tot300 bb201nuc1bl100bn4d30tot400 bb251nuc1bl125bn4d30tot500 bb301nuc1bl150bn4d30tot600 bb351nuc1bl175bn4d30tot700 bb401nuc1bl200bn4d30tot800 bb451nuc1bl225bn4d30tot900 bb501nuc1bl250bn4d30tot1000 bb551nuc1bl275bn4d30tot1100 bb601nuc1bl300bn4d30tot1200
###


###
# Box and units  (use LJ units and periodic boundaries)
###

units lj
log plusshaped/logs/$f.log
log plusshaped/logs/bb451nuc1bl225bn4d30tot900.log
