#atom_style bond #no stiffness
atom_style angle #with stiffness

boundary        p p p
###
# Pair interactions require lists of neighbours to be calculated
###

#neighbor 0.3 bin
neighbor 4 bin

neigh_modify every 1 delay 1 check yes
atom_modify sort 0 0
### Generate RESTART file, SPECIAL format, not a .txt file ###
### Useful if simulation crashes ###

restart 1000000 plusshaped/restarts/$f.restart
restart 1000000 plusshaped/restarts/bb451nuc1bl225bn4d30tot900.restart
#############################



### READ "start" data file ###

read_data plusshaped/$f.dat
read_data plusshaped/bb451nuc1bl225bn4d30tot900.dat
Reading data file ...
  orthogonal box = (-1000 -1000 -1000) to (1000 1000 1000)
  1 by 1 by 1 MPI processor grid
  reading atoms ...
  901 atoms
  scanning bonds ...
  3 = max bonds/atom
  scanning angles ...
  6 = max angles/atom
  reading bonds ...
  900 bonds
  reading angles ...
  902 angles
Finding 1-2 1-3 1-4 neighbors ...
  special bond factors lj:    0        0        0       
  special bond factors coul:  0        0        0       
     4 = max # of 1-2 neighbors
     4 = max # of 1-3 neighbors
     8 = max # of 1-4 neighbors
    12 = max # of special neighbors
  special bonds CPU = 0.003 seconds
  read_data CPU = 0.121 seconds

######################

### READ "REstart" data file ###

######################



###
# Define groups (atom type 1 is group 'all')
###
group all type 1
901 atoms in group all


###
# Dump configs - "simple dumpings"
###

###
# Dump configs + box coords
###

dump   1   all   custom   1000  plusshaped/trjs/$f.lammpstrj  id  x y z  ix iy iz
dump   1   all   custom   1000  plusshaped/trjs/bb451nuc1bl225bn4d30tot900.lammpstrj  id  x y z  ix iy iz
dump_modify   1   format line "%d %.5f %.5f %.5f %d %d %d"

########################################################################


###################################################################
# Stiffness term
#
# E = K * (1+cos(theta)), K>0
#
angle_style   cosine
#change this coefficient to change stiffness (e.g. 1,5,10)
angle_coeff   1 1.0
###################################################################

###################################################################
# Pair interaction between non-bonded atoms
#
#  Lennard-Jones 12-6 potential with cutoff:
#  potential E=4epsilon[ (sigma/r)^12 - (sigma/r)^6]  for r<r_cut
#
#  1.12246 = 2^(1/6) is the minimum of the potential


pair_style      lj/cut 1.12246152962189
#pair_style      lj/cut 3

#
#  pair_modify shift yes adds a constant to the potential such

#  that E(r_cut)=0. Forces remains unchanged.
#

pair_modify     shift yes

#
#  pair_coeff for lj/cut, specify 4:
#    * atom type interacting with
#    * atom type
#    * epsilon (energy units)
#    * sigma (distance units)
#

pair_coeff      1 1 1.0 1.0
###################################################################

###################################################################
# Pair interaction between non-bonded atoms
#
#  soft potential, for PUSHING apart overlapping atoms
#  potential E=A*(1 + cos(pi*r/r_c))
#
#  1.12246 = 2^(1/6) is the cut-off r_c

#pair_style     soft 1.12246152962189

#
#  pair_coeff for soft, specify 3:
#    * atom type interacting with
#    * atom type
#    * A
#
#

#pair_coeff      1 1 100.0
###################################################################

###################################################################
# Pair interaction between bonded atoms
#
# Fene potential + Lennard Jones 12-6:

#
#  E= - 0.5 K R0^2 ln[ 1- (r/R0)^2]
#     + 4epsilon[ (sigma/r)^12 - (sigma/r)^6] + epsilon
#

bond_style   fene


#
# For style fene, specify:
#   * bond type
#   * K (energy/distance^2)
#   * R0 (distance)
#   * epsilon (energy)  (LJ component)
#   * sigma (distance)  (LJ component)
#


special_bonds fene #<=== I M P O R T A N T (new command)
Finding 1-2 1-3 1-4 neighbors ...
  special bond factors lj:    0        1        1       
  special bond factors coul:  0        1        1       
     4 = max # of 1-2 neighbors
    12 = max # of special neighbors
  special bonds CPU = 0.001 seconds

bond_coeff   1   30   2   1.0   1.0


###################################################

###################################################################
# Pair interaction between bonded atoms
#
# Harmonic potential:
#
#  E= K * (R-R0)^2
#

#bond_style   harmonic

#
# For style harmonic, specify:
#   * bond type
#   * K (energy/distance^2)
#   * R0 (distance)
#

#bond_coeff   1   60.0   1.0
#bond_coeff   2   harmonic 0.1   1.0

###################################################
compute 1 all gyration
variable rog equal c_1
#compute 2 all coord/atom cutoff 1.1

#dump 2 all custom 10000 contact_number.dump id c_2


###
# Set up fixes
###
thermo_style   custom   step  temp enthalpy c_1
fix 1 all nve   ###NVE ensemble

fix 2 all   langevin   1.0 1.0 1.0  100103   ###Langevin integrator Tstart Tstop 1/friction rndseed


##### Sample thermodynamic info  (temperature, energy, pressure, etc.) #####
thermo 1000









############################################################################

###
# set timestep of integrator

timestep 0.01

###
# run integration for a number of steps
###
#run 0
#variable r equal c_1
#if "$r < 63.1" then "quit 1"

# lj potential minimum, cause molecule to explore
run 100000
Generated 0 of 0 mixed pair_coeff terms from geometric mixing rule
Neighbor list info ...
  update: every = 1 steps, delay = 1 steps, check = yes
  max neighbors/atom: 2000, page size: 100000
  master list distance cutoff = 5.1224615
  ghost atom cutoff = 5.1224615
  binsize = 2.5612308, bins = 781 781 781
  1 neighbor lists, perpetual/occasional/extra = 1 0 0
  (1) pair lj/cut, perpetual
      attributes: half, newton on
      pair build: half/bin/newton
      stencil: half/bin/3d
      bin: standard
WARNING: Communication cutoff 5.12246152962189 is shorter than a bond length based estimate of 5.455. This may lead to errors. (src/comm.cpp:723)
Per MPI rank memory allocation (min/avg/max) = 1861 | 1861 | 1861 Mbytes
   Step          Temp         Enthalpy         c_1      
         0   0              13.314344      118.29536    
      1000   1.0126527      17.540665      117.82029    
      2000   1.0314916      17.619566      117.16799    
      3000   1.0117653      18.265023      116.29709    
      4000   0.99429938     17.907765      115.64095    
      5000   0.94019043     18.53128       115.03896    
      6000   1.0222776      18.419773      114.53727    
      7000   1.0300232      19.019935      114.22148    
      8000   1.0323519      18.507663      113.66187    
      9000   1.0136096      18.496257      113.18591    
     10000   0.98328954     19.078418      112.51922    
     11000   0.99053964     18.796199      112.42049    
     12000   1.0226844      18.692173      111.82027    
     13000   1.0024576      18.989652      111.35469    
     14000   1.0354004      19.212977      110.83195    
     15000   1.0200174      19.501025      110.36483    
     16000   1.030308       19.281153      110.07874    
     17000   0.96926801     18.808806      109.59881    
     18000   1.0028985      19.191758      109.15845    
     19000   1.0283479      19.078733      108.68332    
     20000   0.98944415     18.391849      108.38474    
     21000   1.0312419      19.315898      107.9791     
     22000   0.98163412     19.826306      107.30656    
     23000   1.0062306      19.566685      106.82703    
     24000   0.97410717     19.215947      106.49169    
     25000   0.99530198     19.171309      105.98765    
     26000   0.98174038     19.330025      105.45639    
     27000   1.0145543      20.051611      105.1233     
     28000   0.99233827     18.88498       104.93406    
     29000   1.0318405      19.416655      104.59974    
     30000   1.0135528      19.381627      104.27612    
     31000   1.0286096      19.308769      104.05568    
     32000   0.9931323      19.47297       103.80431    
     33000   1.0490972      19.896688      103.41649    
     34000   1.0439522      19.811346      103.0052     
     35000   1.0493041      19.373581      102.68463    
     36000   1.0475443      19.770099      102.27464    
     37000   1.0009518      19.55916       101.89462    
     38000   0.98702433     19.432312      101.66136    
     39000   1.0119078      19.603513      101.34299    
     40000   1.0253619      19.767136      100.93365    
     41000   0.99352031     19.399357      100.88964    
     42000   1.0027713      19.586861      100.84634    
     43000   1.0360711      19.667876      100.39364    
     44000   0.99773965     20.258708      100.19595    
     45000   1.0060685      19.420339      99.8203      
     46000   0.98992617     19.653479      99.662642    
     47000   0.99488811     19.693998      99.593702    
     48000   1.0018015      20.097426      99.337067    
     49000   1.0592791      19.944358      98.911365    
     50000   1.032451       19.681863      98.746768    
     51000   1.0460572      19.964699      98.572514    
     52000   1.0275941      19.449006      98.234028    
     53000   0.99721987     19.872287      98.093266    
     54000   1.0270873      19.216359      97.771693    
     55000   1.0291835      19.356542      97.820405    
     56000   0.98474846     19.762954      97.603551    
     57000   0.98715904     19.88904       97.304269    
     58000   0.98619492     20.119133      97.077855    
     59000   1.0135251      20.36923       96.859242    
     60000   1.011069       19.342703      96.607298    
     61000   1.0112988      19.856881      96.379019    
     62000   0.96564806     20.175646      96.039145    
     63000   1.0117758      19.705184      95.817011    
     64000   1.0092519      19.572886      95.760711    
     65000   0.97203739     20.51865       95.461481    
     66000   0.98271173     20.183544      95.175176    
     67000   1.0006322      19.650601      94.932743    
     68000   0.98261678     20.064046      94.798384    
     69000   1.0510257      20.677194      94.628737    
     70000   1.0202636      20.176697      94.432057    
     71000   1.0080436      20.093482      94.234682    
     72000   0.96714695     20.216231      94.112114    
     73000   1.0050081      19.945312      94.11512     
     74000   0.97431449     19.290101      94.251679    
     75000   1.0096193      20.068763      94.315718    
     76000   0.98690294     19.900874      94.195033    
     77000   1.0148425      19.393297      94.056903    
     78000   0.95848851     20.268073      93.946001    
     79000   1.0178962      20.362874      93.451243    
     80000   0.94474997     19.944147      93.403275    
     81000   1.021928       19.666814      93.238129    
     82000   0.98174896     19.673748      93.023183    
     83000   1.0027797      19.949035      93.006187    
     84000   1.0123762      20.23292       93.067087    
     85000   0.96697616     19.773207      92.794968    
     86000   1.0287069      20.00693       92.480374    
     87000   1.0490391      19.80584       92.475265    
     88000   1.0190045      20.467294      92.303857    
     89000   1.0384985      19.946496      92.174239    
     90000   1.0201066      20.38908       92.084863    
     91000   0.96399608     19.972905      91.964024    
     92000   1.0049964      19.998821      91.838288    
     93000   0.99654235     19.842429      91.503799    
     94000   1.0275511      20.581338      91.352945    
     95000   1.0163276      20.391985      91.44759     
     96000   0.96897695     20.234292      91.384497    
     97000   1.0308985      20.285176      91.214048    
     98000   0.97562904     20.029748      90.978333    
     99000   0.98976249     20.648785      90.969334    
    100000   0.98480172     20.267485      90.971702    
Loop time of 426.851 on 1 procs for 100000 steps with 901 atoms

Performance: 202412.624 tau/day, 234.274 timesteps/s
100.0% CPU use with 1 MPI tasks x 1 OpenMP threads

MPI task timing breakdown:
Section |  min time  |  avg time  |  max time  |%varavg| %total
---------------------------------------------------------------
Pair    | 1.8967     | 1.8967     | 1.8967     |   0.0 |  0.44
Bond    | 4.2464     | 4.2464     | 4.2464     |   0.0 |  0.99
Neigh   | 415.23     | 415.23     | 415.23     |   0.0 | 97.28
Comm    | 0.041204   | 0.041204   | 0.041204   |   0.0 |  0.01
Output  | 0.27634    | 0.27634    | 0.27634    |   0.0 |  0.06
Modify  | 4.7723     | 4.7723     | 4.7723     |   0.0 |  1.12
Other   |            | 0.3928     |            |       |  0.09

Nlocal:            901 ave         901 max         901 min
Histogram: 1 0 0 0 0 0 0 0 0 0
Nghost:              0 ave           0 max           0 min
Histogram: 1 0 0 0 0 0 0 0 0 0
Neighs:           5137 ave        5137 max        5137 min
Histogram: 1 0 0 0 0 0 0 0 0 0

Total # of neighbors = 5137
Ave neighs/atom = 5.7014428
Ave special neighs/atom = 1.9977802
Neighbor list builds = 1109
Dangerous builds = 0

# Replace lj potential, now collapse
pair_style      lj/cut 3

# Cutoff simul when gyration under 5
# Variable created with equal requires v_ + 'name'
fix 3 all halt 1000 v_rog < 5

run 5000000
Generated 0 of 0 mixed pair_coeff terms from geometric mixing rule
Per MPI rank memory allocation (min/avg/max) = 1861 | 1861 | 1861 Mbytes
   Step          Temp         Enthalpy         c_1      
    100000   0.98480172     19.654335      90.971702    
    101000   0.97996805     19.751544      90.680681    
    102000   1.0094559      19.995459      90.603837    
    103000   1.0385273      18.954471      90.349717    
    104000   1.0096129      19.513318      90.262801    
    105000   0.9973842      19.507545      90.038953    
    106000   0.99774053     19.535309      89.861693    
    107000   1.0137191      19.198795      89.53129     
    108000   0.99361653     19.244872      89.145967    
    109000   0.98555637     19.500813      88.774632    
    110000   1.0237042      19.200209      88.472915    
    111000   0.98315224     19.014504      88.43728     
    112000   0.97625878     19.226568      88.26666     
    113000   0.99239995     18.975652      88.034952    
    114000   0.95942064     19.069156      87.978563    
    115000   0.99929953     19.608378      87.575827    
    116000   0.99609006     19.443313      87.439975    
    117000   1.0011431      19.349545      86.999651    
    118000   1.0040943      19.393411      86.953611    
    119000   1.0350275      19.608099      86.904088    
    120000   1.0140535      18.815118      86.701914    
    121000   1.0030576      19.558774      86.718232    
    122000   1.0052166      19.455435      86.615134    
    123000   1.0028833      19.12118       86.260862    
    124000   1.0089986      19.620442      86.044197    
    125000   0.96185321     19.099674      85.643843    
    126000   1.0327968      19.429327      85.527183    
    127000   1.0035559      19.035126      85.240077    
    128000   1.0281705      19.314524      84.919439    
    129000   1.0396857      19.64285       84.533923    
    130000   1.0254198      19.512047      84.486924    
    131000   0.97594299     19.231503      84.377089    
    132000   0.99225394     18.955385      84.119831    
    133000   0.95105039     18.759587      83.921445    
    134000   1.04834        19.433302      83.53637     
    135000   0.97383279     19.596874      83.207872    
    136000   0.97467105     19.450327      82.938684    
    137000   1.0383894      18.810468      82.696891    
    138000   1.0141871      19.507944      82.226732    
    139000   0.96064556     19.51063       81.991951    
    140000   0.9882963      19.436346      81.681844    
    141000   0.97757939     19.062769      81.276608    
    142000   0.98604183     19.394871      81.334347    
    143000   0.99801239     18.892578      81.311206    
    144000   0.92850846     19.278525      81.206782    
    145000   0.98929759     19.203703      81.072361    
    146000   0.9929611      19.314645      80.924237    
    147000   1.0325946      19.703246      80.745728    
    148000   1.0170327      19.351247      80.65368     
    149000   1.0055198      19.476289      80.298503    
    150000   1.0121114      19.130165      79.921251    
    151000   1.0025702      19.270877      80.050015    
    152000   0.94056492     18.75809       80.036765    
    153000   0.9766392      19.319247      79.813526    
    154000   1.0238938      19.081511      79.535548    
    155000   1.0004327      19.423315      79.262682    
    156000   0.94888123     19.484793      78.949886    
    157000   0.98776802     19.492054      78.736255    
    158000   0.98794883     19.037641      78.388994    
    159000   1.0002124      18.49723       78.183066    
    160000   0.98098455     19.409614      78.146077    
    161000   1.0323757      18.851901      78.131824    
    162000   0.96529452     19.180985      77.898187    
    163000   1.028113       18.839562      77.735462    
    164000   1.0297451      19.05353       77.59883     
    165000   1.0592926      19.101021      77.348155    
    166000   0.99220375     18.969659      77.16333     
    167000   0.9812065      18.505453      76.910606    
    168000   1.008354       19.496695      76.736347    
    169000   0.98710216     18.560314      76.657353    
    170000   1.0101279      19.513378      76.43814     
    171000   0.97249894     19.686969      76.269443    
    172000   1.0168791      18.859183      76.203035    
    173000   1.0117937      19.04021       75.84397     
    174000   0.9957262      19.18297       75.722262    
    175000   1.0165535      19.22549       75.694697    
    176000   1.0151062      19.225551      75.267926    
    177000   1.0473174      19.326236      75.110183    
    178000   1.0035342      19.211081      75.032516    
    179000   1.0323929      19.349933      74.963497    
    180000   0.97738059     19.104888      74.941725    
    181000   1.0117909      19.012835      74.962107    
    182000   0.99966769     19.038373      74.828535    
    183000   1.0395659      19.167361      74.870054    
    184000   1.0151945      19.287238      74.660442    
    185000   0.98517984     19.00182       74.709636    
    186000   1.0088929      19.102779      74.566307    
    187000   1.017933       19.322261      74.532244    
    188000   0.99907461     19.039328      74.213028    
    189000   1.0036577      18.707182      74.044906    
    190000   1.0667835      18.778621      73.944442    
    191000   1.0580227      19.547377      73.914268    
    192000   1.0279082      18.943072      73.817701    
    193000   0.98113132     19.057517      73.661946    
    194000   1.0426698      19.164925      73.503121    
    195000   1.0125092      18.849804      73.412129    
    196000   1.0283211      19.199031      73.377969    
    197000   1.0223881      18.708521      73.362343    
    198000   1.0437114      18.937022      72.966465    
    199000   1.0096987      19.104245      72.729767    
    200000   1.009865       18.486702      72.720612    
    201000   1.0186921      19.357212      72.690911    
    202000   1.0085259      18.651237      72.496368    
    203000   1.0071963      19.590351      72.475233    
    204000   0.99642733     18.134197      72.498       
    205000   0.99438788     18.865089      72.201254    
    206000   1.0183854      18.563003      71.922896    
    207000   0.97270084     18.924441      71.846011    
    208000   1.0192095      18.596266      71.502416    
    209000   1.0086439      18.952108      71.208939    
    210000   1.008181       18.642417      71.02451     
    211000   0.98005835     18.534432      70.73681     
    212000   0.98822182     19.658699      70.61312     
    213000   0.98781734     18.79401       70.425135    
    214000   1.030353       18.390626      70.387303    
    215000   0.99193471     19.392314      70.223213    
    216000   1.0201955      18.879086      70.125796    
    217000   1.0075221      18.696933      69.772917    
    218000   1.0115566      18.638193      69.660752    
    219000   1.0259596      18.754046      69.467316    
    220000   0.99274195     18.770408      69.556559    
    221000   1.0096435      18.879517      69.203336    
    222000   0.94317375     18.706197      68.832124    
    223000   1.0028183      18.980811      68.765585    
    224000   0.96997172     18.757519      68.616561    
    225000   1.0202474      18.706631      68.540038    
    226000   0.9753522      18.562593      68.69745     
    227000   1.0507158      19.015238      68.568657    
    228000   0.97237242     18.731306      68.508841    
    229000   0.95377222     18.794823      68.398988    
    230000   1.0324364      19.195446      68.228158    
    231000   1.0040949      18.691822      68.037136    
    232000   1.0203809      18.831018      67.773592    
    233000   0.98236284     18.994935      67.574852    
    234000   0.99827713     18.920334      67.554739    
    235000   0.98830638     18.650685      67.4278      
    236000   0.99793832     18.596435      67.297974    
    237000   1.009045       18.638616      66.916572    
    238000   1.011927       19.286144      66.664906    
    239000   1.0207704      18.826232      66.446442    
    240000   0.98979912     18.545913      66.204698    
    241000   0.94263512     19.112689      66.305988    
    242000   1.0232355      18.539812      66.038352    
    243000   1.0437205      18.799639      65.764636    
    244000   1.0241039      18.908184      65.614148    
    245000   0.98426343     18.87637       65.512507    
    246000   0.99190525     18.337509      65.246725    
    247000   0.99822295     18.998936      64.993163    
    248000   0.96642137     18.427141      64.72802     
    249000   0.98519093     18.581876      64.464501    
    250000   1.0453773      20.171478      64.346671    
    251000   1.0205999      19.259711      64.241025    
    252000   0.95414201     19.015384      63.93859     
    253000   0.96275192     18.657582      63.954993    
    254000   1.0295245      17.951552      63.820303    
    255000   0.97325146     19.165236      63.451275    
    256000   1.0120923      19.11365       63.468984    
    257000   1.0044323      18.495249      63.430866    
    258000   0.96938226     18.599774      63.223755    
    259000   0.99074725     18.611345      63.055005    
    260000   1.001446       19.0067        62.951447    
    261000   0.9768076      18.753365      62.643889    
    262000   1.0132922      18.899455      62.50356     
    263000   0.9865217      18.366131      62.136866    
    264000   1.0222944      18.42417       62.1424      
    265000   1.0189515      18.748166      62.085792    
    266000   1.0188795      18.705758      61.921741    
    267000   0.96586515     18.975693      61.912085    
    268000   0.97376256     19.001788      61.804115    
    269000   1.0029439      18.659107      61.735161    
    270000   0.98887717     18.388909      61.756562    
    271000   1.0366197      18.591344      61.487572    
    272000   0.99126083     18.173426      61.58119     
    273000   0.95709574     18.888452      61.398031    
    274000   1.0091024      18.586886      61.372949    
    275000   1.005321       18.516027      61.302256    
    276000   1.0302043      18.200882      61.314488    
    277000   1.0259607      18.839623      61.011742    
    278000   1.0238803      18.452207      60.921802    
    279000   1.0146641      18.597125      60.874568    
    280000   0.97706754     18.874809      60.863457    
    281000   1.0194988      17.81216       60.764057    
    282000   1.0421957      18.741374      60.702944    
    283000   1.0270519      18.421584      60.407146    
    284000   0.99298551     19.027247      60.407728    
    285000   1.0127788      18.20516       60.267057    
    286000   1.0041694      18.586292      60.232442    
    287000   0.97260609     18.351132      60.231299    
    288000   0.99214679     18.528013      60.136707    
    289000   1.0204818      18.241761      60.055073    
    290000   0.98907469     18.635718      59.962211    
    291000   1.001792       18.615262      59.585919    
    292000   1.0642127      18.392703      59.439072    
    293000   0.99945109     18.521214      59.335847    
    294000   0.93571117     18.299196      59.243082    
    295000   0.96575561     18.222927      59.103687    
    296000   1.0152086      18.776484      58.999874    
    297000   1.0396864      18.342126      58.790797    
    298000   0.97406322     18.129482      58.460178    
    299000   0.9552523      18.745624      58.353807    
    300000   0.97456563     18.739862      58.372768    
    301000   1.0157712      18.78918       58.022327    
    302000   1.011425       18.823293      57.87175     
    303000   1.020705       18.853319      57.759607    
    304000   1.0178532      18.724964      57.777525    
    305000   0.99719086     18.26686       57.535831    
    306000   1.0028256      18.862497      57.299889    
    307000   1.0045666      18.349436      57.01906     
    308000   0.96611951     18.040577      57.076522    
    309000   1.0725092      17.813989      57.028609    
    310000   1.0135853      18.543132      56.781979    
    311000   0.96724127     18.527185      56.750476    
    312000   0.9914506      18.28078       56.900913    
    313000   0.92386264     18.153428      57.033484    
    314000   0.98180119     18.254554      56.908201    
    315000   1.0003702      18.623117      56.924399    
    316000   0.98099928     18.279476      56.914639    
    317000   1.0298276      18.159845      56.415493    
    318000   0.97728659     19.088195      56.348778    
    319000   0.99490906     18.008518      56.210795    
    320000   0.97945585     18.041549      55.916722    
    321000   0.93902524     18.441928      55.663749    
    322000   1.0010352      19.022054      55.61134     
    323000   1.0380533      18.754563      55.411453    
    324000   1.0555658      18.121976      55.11321     
    325000   1.0399083      18.714487      55.264125    
    326000   1.0123623      18.477126      55.063291    
    327000   1.0476274      18.377892      54.930554    
    328000   1.016323       18.162383      54.596573    
    329000   1.0589178      18.466828      54.545813    
    330000   0.98437621     18.893426      54.436151    
    331000   1.0037523      18.932027      54.385093    
    332000   0.99590225     18.456296      54.1083      
    333000   1.0012001      18.767278      53.911418    
    334000   1.0437766      18.799711      53.768493    
    335000   0.98467398     18.768582      53.68198     
    336000   1.040146       18.209843      53.584385    
    337000   0.99173036     18.287657      53.659353    
    338000   0.99439122     18.642596      53.879825    
    339000   1.0144229      18.507574      53.868466    
    340000   1.0067546      18.536826      53.900378    
    341000   1.0035852      17.955483      53.737848    
    342000   1.0188402      18.528419      53.671558    
    343000   1.0466133      18.256747      53.662849    
    344000   1.0487105      18.370234      53.55851     
    345000   1.0089055      18.80586       53.626157    
    346000   1.039298       18.360963      53.626353    
    347000   0.95272459     18.256344      53.557855    
    348000   0.99389956     18.620537      53.623674    
    349000   1.002289       18.043112      53.352787    
    350000   1.0232405      18.845885      52.765393    
    351000   1.0274826      17.989907      52.680361    
    352000   1.0254722      18.439666      52.423141    
    353000   0.99053827     18.093259      52.379985    
    354000   1.0059564      19.00496       52.000928    
    355000   0.9508876      18.497044      51.879666    
    356000   1.0092492      18.228136      51.878973    
    357000   1.0030198      18.593918      51.832502    
    358000   0.95665439     17.668164      51.566259    
    359000   0.94914502     18.097219      51.338076    
    360000   0.98406757     18.72995       51.326994    
    361000   0.98349113     18.178901      51.250589    
    362000   0.99815434     18.575937      51.100773    
    363000   1.0236602      18.104116      50.993378    
    364000   1.0047298      18.816657      50.80151     
    365000   0.99068084     18.235407      50.43985     
    366000   1.0231074      18.378554      50.215802    
    367000   0.98933344     18.460845      49.999481    
    368000   0.99250908     18.266411      49.780873    
    369000   1.0055315      18.053158      49.500936    
    370000   1.0408645      18.30971       49.461151    
    371000   1.0125132      17.722976      49.410492    
    372000   0.95025217     17.921045      49.33187     
    373000   1.0551902      18.88606       49.285456    
    374000   0.95210602     17.655339      49.228133    
    375000   0.98691537     17.848578      48.988922    
    376000   1.0241492      18.405649      48.901012    
    377000   1.0161125      18.585541      48.785645    
    378000   0.99114455     18.065001      48.685825    
    379000   0.98475488     17.753246      48.37089     
    380000   1.0000544      18.641217      48.224262    
    381000   0.98277509     18.166569      48.176566    
    382000   1.0193089      18.055163      48.060789    
    383000   0.97700898     18.699064      47.723692    
    384000   1.0377625      18.780065      47.556015    
    385000   0.9970692      17.896238      47.28786     
    386000   1.0340401      18.636917      47.022624    
    387000   0.94746511     17.752706      46.999898    
    388000   1.0222197      18.12952       46.76477     
    389000   0.95888668     17.647082      46.70017     
    390000   1.0100507      19.065912      46.587695    
    391000   1.0174483      18.397738      46.5039      
    392000   0.98158157     18.302712      46.272324    
    393000   0.98471785     18.096962      46.199433    
    394000   0.97593864     17.844052      45.976414    
    395000   0.9949508      18.721494      45.799437    
    396000   1.014099       17.917999      45.68606     
    397000   0.99017701     17.473874      45.567741    
    398000   1.0271284      17.629278      45.328671    
    399000   1.035736       18.75618       45.065791    
    400000   1.0306542      17.89707       44.901242    
    401000   1.0305875      17.979346      44.669442    
    402000   1.0042361      17.684335      44.555784    
    403000   0.97924614     18.046085      44.316037    
    404000   0.98133198     18.201707      44.311256    
    405000   0.98952423     18.270541      44.089184    
    406000   1.0069143      17.64788       44.172497    
    407000   1.0225461      18.875729      44.213439    
    408000   1.0234684      18.021911      43.85276     
    409000   0.95424889     18.274644      43.791189    
    410000   1.0056317      18.053721      43.518242    
    411000   0.96719432     17.876259      43.217546    
    412000   1.0131113      17.721858      43.09859     
    413000   1.0048733      17.728389      42.925843    
    414000   0.97668319     18.412449      42.887078    
    415000   1.0200984      17.679498      42.511529    
    416000   1.019405       17.887196      42.80108     
    417000   1.0156154      18.475499      42.743054    
    418000   0.98115446     18.065098      42.505034    
    419000   1.0589221      17.78185       42.146613    
    420000   0.95676278     18.17264       41.820537    
    421000   1.0630515      18.718066      41.608759    
    422000   0.95453481     18.372604      41.424188    
    423000   1.0201392      18.104273      41.347349    
    424000   1.0246578      18.210898      41.515949    
    425000   0.95666992     18.508405      41.303594    
    426000   0.96244907     19.101544      41.120548    
    427000   1.0023973      17.860352      40.880053    
    428000   1.0061288      18.204596      40.962974    
    429000   1.0113955      18.36035       40.884942    
    430000   0.97800022     17.788279      40.795791    
    431000   1.0163225      17.553845      40.976403    
    432000   0.98671811     18.238523      40.895313    
    433000   0.99823853     17.760318      40.67774     
    434000   0.98020252     18.237169      40.459486    
    435000   0.97215232     17.786624      40.249949    
    436000   1.0140347      17.372903      40.25987     
    437000   1.0227912      17.66089       40.24486     
    438000   0.94612743     18.053097      40.41381     
    439000   1.0246937      18.104447      40.242721    
    440000   1.0088909      17.771183      39.803736    
    441000   1.0184095      18.215006      39.682606    
    442000   0.97563203     17.75109       39.286131    
    443000   1.0566056      18.131049      39.259305    
    444000   0.97607142     17.971833      39.173479    
    445000   0.99641647     17.506174      38.944206    
    446000   1.018465       17.958908      38.645709    
    447000   1.0335807      18.635029      38.504967    
    448000   1.0162629      18.235078      38.342228    
    449000   1.0342989      17.872084      37.956395    
    450000   1.017682       18.289173      37.681386    
    451000   0.99160377     17.910694      37.557915    
    452000   0.99437099     17.693471      37.538878    
    453000   1.0417153      17.881003      37.95836     
    454000   0.9539581      17.639586      37.839614    
    455000   0.98493086     17.530924      37.431937    
    456000   1.0212467      18.429301      37.402221    
    457000   1.0100887      17.933316      37.328004    
    458000   1.0245539      17.390267      37.086034    
    459000   1.0243307      17.522555      36.701533    
    460000   1.0019847      17.711219      36.534759    
    461000   1.0223722      18.097668      36.517596    
    462000   0.98590946     18.210898      36.525273    
    463000   1.000954       18.051579      36.61726     
    464000   0.99903462     17.936947      36.257787    
    465000   0.97822934     18.326706      35.981261    
    466000   0.99404704     17.557039      35.799398    
    467000   0.98212406     17.821414      35.713925    
    468000   1.0346609      18.110261      35.597456    
    469000   0.98081632     17.723753      35.708527    
    470000   1.0600257      18.560998      35.563645    
    471000   1.0035224      17.895646      35.253116    
    472000   0.98109305     17.917978      35.039021    
    473000   0.96176423     17.716822      35.080605    
    474000   0.96246009     17.490399      35.052252    
    475000   0.95233113     17.950391      34.869505    
    476000   0.91410139     18.101631      34.702993    
    477000   1.0019861      18.238691      34.580332    
    478000   1.026697       18.224965      34.495961    
    479000   0.97784217     17.448857      34.456685    
    480000   1.0337947      18.375227      34.589624    
    481000   0.99111943     18.447984      34.356356    
    482000   0.98795369     18.214341      33.873267    
    483000   1.0648647      17.657792      33.733013    
    484000   0.99064902     17.224265      33.493583    
    485000   0.94476055     17.731322      33.303454    
    486000   0.97103003     18.164872      33.221681    
    487000   1.0385733      18.587171      33.101791    
    488000   0.98450826     17.586356      33.12676     
    489000   0.99002721     18.066957      33.126347    
    490000   1.003778       17.831015      33.13073     
    491000   1.0253227      18.160187      32.964229    
    492000   1.0179119      17.930044      32.818047    
    493000   1.0297522      17.585789      32.714325    
    494000   1.003717       17.802865      32.457042    
    495000   0.93707116     18.396287      32.213861    
    496000   0.94857827     18.24353       31.987226    
    497000   1.0254134      17.708427      31.658122    
    498000   1.0081957      17.762171      31.579773    
    499000   0.95857852     17.875812      31.327583    
    500000   0.9910786      18.302926      31.319635    
    501000   0.96541173     18.03422       31.259192    
    502000   1.0050304      18.007965      31.253643    
    503000   1.0019135      18.280565      31.352427    
    504000   0.95465409     18.00796       31.408686    
    505000   0.99708666     17.956285      31.033158    
    506000   1.0087592      18.201697      31.064615    
    507000   1.0238245      18.066506      30.97019     
    508000   1.0043975      17.312868      30.913436    
    509000   1.0249377      17.923496      30.90854     
    510000   1.0247666      17.688025      30.928256    
    511000   0.9935882      17.893595      31.06957     
    512000   0.95620256     18.03007       31.04961     
    513000   0.95486606     17.387344      31.136848    
    514000   0.9491375      18.111177      31.069087    
    515000   0.98605351     17.395807      31.044455    
    516000   0.9953511      18.664347      31.015716    
    517000   0.96804837     17.581048      30.939793    
    518000   1.0457923      18.204578      30.987973    
    519000   0.9870549      18.073441      30.924281    
    520000   1.0065123      17.717782      30.865236    
    521000   1.0148988      17.342871      30.810868    
    522000   1.0589883      18.00447       30.59922     
    523000   1.0055354      17.823647      30.22013     
    524000   0.99310342     17.92869       29.938683    
    525000   1.0050268      17.432471      29.941601    
    526000   1.0276351      17.353706      29.988733    
    527000   0.99285848     17.684548      29.85358     
    528000   1.0620073      18.223754      29.687863    
    529000   1.0498282      17.996012      29.642661    
    530000   0.99837635     17.624541      29.516996    
    531000   1.0477781      17.93793       29.335373    
    532000   1.0187118      17.214068      28.975489    
    533000   0.97380562     17.769628      28.843243    
    534000   0.95426873     17.58358       28.697665    
    535000   0.97259037     17.504403      28.500763    
    536000   0.99462396     17.545108      28.202896    
    537000   1.0148453      17.748552      28.057836    
    538000   0.9957258      18.49213       27.913246    
    539000   1.0233775      17.815244      27.761507    
    540000   1.0049333      18.361416      27.53215     
    541000   1.0243672      18.024552      27.493227    
    542000   0.99863674     17.229408      27.432407    
    543000   0.96337269     17.985455      27.363681    
    544000   1.0276842      18.114383      27.23784     
    545000   0.97414545     18.184388      27.154607    
    546000   0.96820872     17.812482      26.98712     
    547000   0.98137671     17.905763      26.778695    
    548000   0.97641454     17.952319      26.619496    
    549000   1.0262944      18.146828      26.475149    
    550000   1.0226052      17.200134      26.017643    
    551000   1.002505       17.475923      26.015247    
    552000   1.0283088      17.650335      25.822769    
    553000   0.96327132     17.726719      25.730924    
    554000   1.057327       18.017218      25.776137    
    555000   1.0283028      18.272101      25.902553    
    556000   0.9784833      17.388896      25.43396     
    557000   0.98372471     17.69361       25.316155    
    558000   1.0442392      18.227225      25.140627    
    559000   0.97991282     17.575497      25.071668    
    560000   0.9587869      17.538265      25.055089    
    561000   0.97477327     17.976147      24.934863    
    562000   1.011474       18.007669      24.829804    
    563000   1.0286199      18.147931      24.573068    
    564000   0.94328095     17.444323      24.432142    
    565000   1.0494578      17.957111      24.297735    
    566000   0.99667171     17.715522      24.079452    
    567000   1.038748       17.94771       23.907441    
    568000   0.97647233     18.081064      23.776523    
    569000   1.0181122      18.027158      23.88926     
    570000   0.958391       17.654382      23.830116    
    571000   0.99542209     17.792603      23.869694    
    572000   0.98565553     17.676188      23.821893    
    573000   1.0027153      17.70444       23.61608     
    574000   1.0214809      17.735381      23.494988    
    575000   0.98774757     17.957188      23.331471    
    576000   0.99206559     17.904498      23.253886    
    577000   1.0414534      17.698431      23.011472    
    578000   0.98473114     17.346053      23.026645    
    579000   1.0320566      17.375197      22.761399    
    580000   1.0323565      17.912532      22.574318    
    581000   1.0378598      18.097921      22.327437    
    582000   0.98050025     18.082305      22.240886    
    583000   0.98562945     18.007546      22.029285    
    584000   0.99344493     17.239075      21.805294    
    585000   0.94346089     17.897626      21.550818    
    586000   0.95742179     17.117444      21.505424    
    587000   1.0058169      17.967907      21.511219    
    588000   1.0036244      18.003875      21.592584    
    589000   1.0111416      17.829758      21.386003    
    590000   1.0000837      17.371771      21.157617    
    591000   1.0193243      18.173753      20.996155    
    592000   1.0082497      17.975345      20.730392    
    593000   1.0037316      17.506656      20.726209    
    594000   0.98894635     17.618644      20.632161    
    595000   0.97208962     17.685482      20.556171    
    596000   1.0065581      18.145168      20.37417     
    597000   0.99661805     17.90201       20.24758     
    598000   0.98817738     17.767009      20.00059     
    599000   1.0055614      17.653095      19.908711    
    600000   0.9928054      18.085756      19.652023    
    601000   1.0173812      17.270832      19.424895    
    602000   0.99295276     17.223472      19.224918    
    603000   1.0017759      17.833067      19.173475    
    604000   1.0439596      17.832432      19.251268    
    605000   0.98083166     18.054209      18.986017    
    606000   1.0120609      17.474326      18.687606    
    607000   0.99022845     17.810141      18.55709     
    608000   1.022859       17.247638      18.472387    
    609000   0.93998132     17.23319       18.322305    
    610000   0.97108007     16.795058      17.980268    
    611000   1.0239961      17.862617      17.791139    
    612000   1.0375804      16.755703      17.642492    
    613000   1.0026939      17.373303      17.406646    
    614000   0.98202092     17.815507      17.287427    
    615000   0.988613       17.595721      17.244254    
    616000   0.96174458     17.425162      16.996397    
    617000   0.99377144     17.369051      16.593756    
    618000   0.98334199     16.593831      16.372401    
    619000   0.99568803     17.665736      16.110573    
    620000   0.99158604     17.522863      16.032034    
    621000   1.0307615      17.124119      15.889377    
    622000   0.99987952     17.262902      15.734199    
    623000   1.0089247      17.230642      15.722877    
    624000   1.0019821      17.63135       15.604019    
    625000   1.00769        17.611112      15.452214    
    626000   0.97763156     18.022284      15.500827    
    627000   0.98811173     17.559551      15.696948    
    628000   1.00388        17.208632      15.538804    
    629000   1.053438       17.645444      15.713889    
    630000   0.9582887      17.600801      15.547733    
    631000   1.0026874      17.393509      15.419954    
    632000   0.99281031     17.693729      15.455896    
    633000   1.006977       17.5703        15.323109    
    634000   0.96286753     16.448428      15.264014    
    635000   1.0080502      17.599195      15.093461    
    636000   1.0193156      17.511579      15.111875    
    637000   0.99797019     16.939845      15.005171    
    638000   1.0151527      17.567557      14.926622    
    639000   0.99575764     17.250909      14.721499    
    640000   1.0254917      17.672193      14.609541    
    641000   0.99580998     17.622432      14.400427    
    642000   1.0112094      17.728354      14.444743    
    643000   1.046162       17.159187      14.084786    
    644000   0.96523724     17.022062      14.236686    
    645000   1.0604875      17.738667      13.794365    
    646000   0.98594273     16.906664      13.836062    
    647000   0.95072965     17.449055      13.512791    
    648000   1.008705       17.463131      13.382531    
    649000   0.99845953     16.432148      13.192476    
    650000   1.0198041      17.242538      13.190567    
    651000   0.99052603     16.998372      13.025332    
    652000   0.98896451     16.71829       13.119142    
    653000   0.99606081     17.163965      13.134227    
    654000   1.0046477      17.383421      13.046942    
    655000   0.97466513     16.690247      13.098007    
    656000   1.0305481      17.516312      13.003802    
    657000   0.98300098     17.255584      12.91039     
    658000   0.99731385     17.035696      12.786849    
    659000   0.97183054     16.914856      12.850429    
    660000   0.98981534     16.953902      13.041762    
    661000   1.0170502      17.586989      13.240294    
    662000   1.0159265      17.36348       13.290629    
    663000   0.96091688     16.953355      13.238231    
    664000   1.0109485      17.281133      13.262211    
    665000   0.99679        16.543943      13.011465    
    666000   0.94823689     16.902443      12.916988    
    667000   1.0479426      16.509071      12.690127    
    668000   1.0082287      17.004019      12.27213     
    669000   1.0141528      17.461436      11.953518    
    670000   1.0083584      17.152666      12.117538    
    671000   0.95268283     17.507246      11.907967    
    672000   1.0314146      17.739155      11.734123    
    673000   1.0182427      17.545293      11.86202     
    674000   1.0436918      16.877355      11.711258    
    675000   1.0266915      17.441514      11.46114     
    676000   1.0062526      16.745376      11.147604    
    677000   0.98921126     17.176724      11.173794    
    678000   1.0163426      17.219726      11.091317    
    679000   0.96990212     16.712655      10.915815    
    680000   0.97687256     16.792903      10.946407    
    681000   1.0139025      17.19301       10.673196    
    682000   1.032476       17.331349      10.618939    
    683000   1.0228964      17.118534      10.877494    
    684000   0.97634211     17.446554      10.838055    
    685000   0.99102782     16.608652      10.749521    
    686000   1.0175485      17.432159      10.636857    
    687000   1.0395444      17.018013      10.6164      
    688000   1.0384703      17.344538      10.62348     
    689000   0.99290546     17.173513      10.605169    
    690000   0.98381363     17.184785      10.542964    
    691000   1.0067271      16.87124       10.680814    
    692000   0.99512522     16.941514      10.628309    
    693000   1.0229608      17.483504      10.541969    
    694000   0.97199726     17.372996      10.500744    
    695000   0.96138208     17.510639      10.53989     
    696000   0.98296283     17.164792      10.43893     
    697000   1.0273624      17.281736      10.408739    
    698000   0.96844263     16.942316      10.537877    
    699000   0.98288791     17.323671      10.568374    
    700000   0.99380158     16.640129      10.742871    
    701000   0.99048231     17.045925      10.763467    
    702000   0.97145524     17.215436      10.90317     
    703000   0.96669773     16.619329      10.808145    
    704000   1.0039314      17.362091      10.924108    
    705000   0.99507264     17.006751      10.802547    
    706000   0.98802902     16.660317      10.769633    
    707000   1.0008675      17.373628      10.507282    
    708000   1.01399        17.127027      10.674904    
    709000   0.97261157     16.588836      10.726052    
    710000   1.0052354      16.45472       10.678451    
    711000   0.98599311     17.387927      10.444534    
    712000   1.0161844      17.500954      10.440454    
    713000   1.0149123      16.924166      10.461422    
    714000   1.0278446      17.258117      10.256718    
    715000   0.97982387     16.47321       10.254004    
    716000   0.95850044     17.369257      10.176727    
    717000   1.0345273      17.005445      10.130604    
    718000   0.99227676     17.207175      10.070212    
    719000   1.0056193      16.859864      9.9221433    
    720000   1.0279321      17.342324      10.027149    
    721000   0.99447722     16.819999      9.9538514    
    722000   0.96904278     17.149799      9.841744     
    723000   1.0000211      17.061974      9.6954345    
    724000   1.0150619      17.0886        9.7021002    
    725000   0.99660251     16.957461      9.6334701    
    726000   0.9846522      16.768622      9.5517842    
    727000   0.98864823     17.128952      9.4126358    
    728000   1.0341061      16.823423      9.42929      
    729000   1.0577943      17.29059       9.4550907    
    730000   0.98513669     17.35829       9.3492368    
    731000   0.99924426     16.918767      9.395742     
    732000   1.0525959      17.160988      9.6019493    
    733000   0.97222132     16.90196       9.5442161    
    734000   0.98171621     17.614761      9.433483     
    735000   1.0173327      17.626287      9.4945704    
    736000   1.0073318      16.99771       9.3489344    
    737000   1.0119306      17.201831      9.3357596    
    738000   0.98217125     16.654915      9.4623345    
    739000   1.0242396      16.775199      9.2884888    
    740000   1.0111908      17.351279      9.3291232    
    741000   1.0031723      17.153609      9.2399651    
    742000   1.0130489      16.375325      9.0147289    
    743000   1.0280105      17.0646        8.8520966    
    744000   1.0320184      16.975354      8.8371979    
    745000   0.99478733     17.016876      8.6616063    
    746000   0.97257984     17.568628      8.4349586    
    747000   1.0273243      17.339435      8.4378038    
    748000   0.95385544     17.462733      8.4444112    
    749000   1.0350351      17.03113       8.4818156    
    750000   1.0295553      17.362142      8.4628098    
    751000   1.0031894      17.068896      8.321843     
    752000   0.99062379     16.364324      8.1036439    
    753000   1.0169722      17.165776      7.9727782    
    754000   1.0427061      17.164851      7.9236654    
    755000   0.9881312      17.03342       7.976231     
    756000   0.96246851     16.94234       7.9506857    
    757000   0.98572349     17.274986      7.9960559    
    758000   0.99507779     16.959401      8.1079769    
    759000   1.0336367      17.018022      8.0976451    
    760000   1.0589267      17.287875      8.0078392    
    761000   0.99260521     16.804602      8.1630654    
    762000   0.97182142     16.390065      8.0401718    
    763000   1.019706       17.34478       7.9548425    
    764000   0.99376619     17.442771      7.7775319    
    765000   0.96287644     16.620155      7.5927547    
    766000   1.0250262      17.578578      7.6582694    
    767000   0.99835946     16.746135      7.6148285    
    768000   1.0249445      16.539053      7.5196589    
    769000   0.98075642     16.867663      7.3033466    
    770000   1.0054066      17.20318       7.3582818    
    771000   0.99060137     15.99529       7.1339791    
    772000   1.0153874      16.783458      6.9638482    
    773000   0.97213442     17.265268      7.0314581    
    774000   1.0247038      16.9662        6.9756601    
    775000   0.98720947     17.332911      6.9969611    
    776000   0.97412865     17.152404      6.9966557    
    777000   1.0421175      16.948432      6.9255326    
    778000   0.96502982     16.553141      6.9898343    
    779000   1.0028474      16.980225      6.9409916    
    780000   1.0520377      17.386556      7.0715499    
    781000   1.0318661      17.398251      6.9731956    
    782000   0.97581047     16.266377      7.048972     
    783000   1.0058582      16.984037      6.97055      
    784000   1.0011792      16.489699      6.7994706    
    785000   0.9736338      17.158834      6.7759388    
    786000   0.98164585     17.19525       6.4928074    
    787000   1.0130841      16.637141      6.3286108    
    788000   1.0014716      17.435905      6.0086032    
    789000   1.0041447      17.42826       5.7784343    
    790000   0.98927588     16.474974      5.6903479    
    791000   1.0115622      17.271847      5.475041     
    792000   1.0153063      17.131279      5.4026526    
    793000   1.0457612      17.337223      5.3398       
    794000   0.98538629     17.272789      5.2127628    
    795000   1.0178059      16.783009      5.0679823    
    796000   1.0307136      16.618358      5.0447598    
    797000   1.0320945      17.213656      5.026359     
Fix halt condition for fix-id 3 met on step 798000 with value 4.962540766335013 (src/fix_halt.cpp:237)
    798000   0.99522528     16.791221      4.9625408    
Loop time of 1349.81 on 1 procs for 698000 steps with 901 atoms

Performance: 446783.607 tau/day, 517.111 timesteps/s
100.0% CPU use with 1 MPI tasks x 1 OpenMP threads

MPI task timing breakdown:
Section |  min time  |  avg time  |  max time  |%varavg| %total
---------------------------------------------------------------
Pair    | 321.83     | 321.83     | 321.83     |   0.0 | 23.84
Bond    | 28.368     | 28.368     | 28.368     |   0.0 |  2.10
Neigh   | 962.03     | 962.03     | 962.03     |   0.0 | 71.27
Comm    | 0.34515    | 0.34515    | 0.34515    |   0.0 |  0.03
Output  | 1.7623     | 1.7623     | 1.7623     |   0.0 |  0.13
Modify  | 32.158     | 32.158     | 32.158     |   0.0 |  2.38
Other   |            | 3.31       |            |       |  0.25

Nlocal:            901 ave         901 max         901 min
Histogram: 1 0 0 0 0 0 0 0 0 0
Nghost:              0 ave           0 max           0 min
Histogram: 1 0 0 0 0 0 0 0 0 0
Neighs:         231848 ave      231848 max      231848 min
Histogram: 1 0 0 0 0 0 0 0 0 0

Total # of neighbors = 231848
Ave neighs/atom = 257.32297
Ave special neighs/atom = 1.9977802
Neighbor list builds = 6428
Dangerous builds = 0

# This simulation is done
# Move onto the next one
clear
OMP_NUM_THREADS environment is not set. Defaulting to 1 thread. (src/comm.cpp:98)
  using 1 OpenMP thread(s) per MPI task
next f
jump SELF

###
# Reference paper:
# K. Kremer and G. S. Grest
# Dynamics of entangled linear polymer melts: A molecular-dynamics simulation
# J Chem Phys 92, 5057 (1990)

##################################
# MIHIR: for branched polymers
# LJ minimum first to expand and explore, then collapse
###

###
# Looping through the various plusshaped polymers to simulate,
# define variables to switch through
variable f index bb51nuc1bl25bn4d30tot100 bb101nuc1bl50bn4d30tot200 bb151nuc1bl75bn4d30tot300 bb201nuc1bl100bn4d30tot400 bb251nuc1bl125bn4d30tot500 bb301nuc1bl150bn4d30tot600 bb351nuc1bl175bn4d30tot700 bb401nuc1bl200bn4d30tot800 bb451nuc1bl225bn4d30tot900 bb501nuc1bl250bn4d30tot1000 bb551nuc1bl275bn4d30tot1100 bb601nuc1bl300bn4d30tot1200
###


###
# Box and units  (use LJ units and periodic boundaries)
###

units lj
log plusshaped/logs/$f.log
log plusshaped/logs/bb501nuc1bl250bn4d30tot1000.log
