#atom_style bond #no stiffness
atom_style angle #with stiffness

boundary        p p p
###
# Pair interactions require lists of neighbours to be calculated
###

#neighbor 0.3 bin
neighbor 4 bin

neigh_modify every 1 delay 1 check yes
atom_modify sort 0 0
### Generate RESTART file, SPECIAL format, not a .txt file ###
### Useful if simulation crashes ###

restart 1000000 plusshaped/restarts/$f.restart
restart 1000000 plusshaped/restarts/bb551nuc1bl275bn4d30tot1100.restart
#############################



### READ "start" data file ###

read_data plusshaped/$f.dat
read_data plusshaped/bb551nuc1bl275bn4d30tot1100.dat
Reading data file ...
  orthogonal box = (-1000 -1000 -1000) to (1000 1000 1000)
  1 by 1 by 1 MPI processor grid
  reading atoms ...
  1101 atoms
  scanning bonds ...
  3 = max bonds/atom
  scanning angles ...
  6 = max angles/atom
  reading bonds ...
  1100 bonds
  reading angles ...
  1102 angles
Finding 1-2 1-3 1-4 neighbors ...
  special bond factors lj:    0        0        0       
  special bond factors coul:  0        0        0       
     4 = max # of 1-2 neighbors
     4 = max # of 1-3 neighbors
     8 = max # of 1-4 neighbors
    12 = max # of special neighbors
  special bonds CPU = 0.001 seconds
  read_data CPU = 0.088 seconds

######################

### READ "REstart" data file ###

######################



###
# Define groups (atom type 1 is group 'all')
###
group all type 1
1101 atoms in group all


###
# Dump configs - "simple dumpings"
###

###
# Dump configs + box coords
###

dump   1   all   custom   1000  plusshaped/trjs/$f.lammpstrj  id  x y z  ix iy iz
dump   1   all   custom   1000  plusshaped/trjs/bb551nuc1bl275bn4d30tot1100.lammpstrj  id  x y z  ix iy iz
dump_modify   1   format line "%d %.5f %.5f %.5f %d %d %d"

########################################################################


###################################################################
# Stiffness term
#
# E = K * (1+cos(theta)), K>0
#
angle_style   cosine
#change this coefficient to change stiffness (e.g. 1,5,10)
angle_coeff   1 1.0
###################################################################

###################################################################
# Pair interaction between non-bonded atoms
#
#  Lennard-Jones 12-6 potential with cutoff:
#  potential E=4epsilon[ (sigma/r)^12 - (sigma/r)^6]  for r<r_cut
#
#  1.12246 = 2^(1/6) is the minimum of the potential


pair_style      lj/cut 1.12246152962189
#pair_style      lj/cut 3

#
#  pair_modify shift yes adds a constant to the potential such

#  that E(r_cut)=0. Forces remains unchanged.
#

pair_modify     shift yes

#
#  pair_coeff for lj/cut, specify 4:
#    * atom type interacting with
#    * atom type
#    * epsilon (energy units)
#    * sigma (distance units)
#

pair_coeff      1 1 1.0 1.0
###################################################################

###################################################################
# Pair interaction between non-bonded atoms
#
#  soft potential, for PUSHING apart overlapping atoms
#  potential E=A*(1 + cos(pi*r/r_c))
#
#  1.12246 = 2^(1/6) is the cut-off r_c

#pair_style     soft 1.12246152962189

#
#  pair_coeff for soft, specify 3:
#    * atom type interacting with
#    * atom type
#    * A
#
#

#pair_coeff      1 1 100.0
###################################################################

###################################################################
# Pair interaction between bonded atoms
#
# Fene potential + Lennard Jones 12-6:

#
#  E= - 0.5 K R0^2 ln[ 1- (r/R0)^2]
#     + 4epsilon[ (sigma/r)^12 - (sigma/r)^6] + epsilon
#

bond_style   fene


#
# For style fene, specify:
#   * bond type
#   * K (energy/distance^2)
#   * R0 (distance)
#   * epsilon (energy)  (LJ component)
#   * sigma (distance)  (LJ component)
#


special_bonds fene #<=== I M P O R T A N T (new command)
Finding 1-2 1-3 1-4 neighbors ...
  special bond factors lj:    0        1        1       
  special bond factors coul:  0        1        1       
     4 = max # of 1-2 neighbors
    12 = max # of special neighbors
  special bonds CPU = 0.000 seconds

bond_coeff   1   30   2   1.0   1.0


###################################################

###################################################################
# Pair interaction between bonded atoms
#
# Harmonic potential:
#
#  E= K * (R-R0)^2
#

#bond_style   harmonic

#
# For style harmonic, specify:
#   * bond type
#   * K (energy/distance^2)
#   * R0 (distance)
#

#bond_coeff   1   60.0   1.0
#bond_coeff   2   harmonic 0.1   1.0

###################################################
compute 1 all gyration
variable rog equal c_1
#compute 2 all coord/atom cutoff 1.1

#dump 2 all custom 10000 contact_number.dump id c_2


###
# Set up fixes
###
thermo_style   custom   step  temp enthalpy c_1
fix 1 all nve   ###NVE ensemble

fix 2 all   langevin   1.0 1.0 1.0  100103   ###Langevin integrator Tstart Tstop 1/friction rndseed


##### Sample thermodynamic info  (temperature, energy, pressure, etc.) #####
thermo 1000









############################################################################

###
# set timestep of integrator

timestep 0.01

###
# run integration for a number of steps
###
#run 0
#variable r equal c_1
#if "$r < 63.1" then "quit 1"

# lj potential minimum, cause molecule to explore
run 100000
Generated 0 of 0 mixed pair_coeff terms from geometric mixing rule
Neighbor list info ...
  update: every = 1 steps, delay = 1 steps, check = yes
  max neighbors/atom: 2000, page size: 100000
  master list distance cutoff = 5.1224615
  ghost atom cutoff = 5.1224615
  binsize = 2.5612308, bins = 781 781 781
  1 neighbor lists, perpetual/occasional/extra = 1 0 0
  (1) pair lj/cut, perpetual
      attributes: half, newton on
      pair build: half/bin/newton
      stencil: half/bin/3d
      bin: standard
WARNING: Communication cutoff 5.12246152962189 is shorter than a bond length based estimate of 5.455. This may lead to errors. (src/comm.cpp:723)
Per MPI rank memory allocation (min/avg/max) = 1861 | 1861 | 1861 Mbytes
   Step          Temp         Enthalpy         c_1      
         0   0              13.163119      144.49757    
      1000   1.0145132      17.786727      143.97886    
      2000   0.99836794     17.608004      143.22926    
      3000   1.0235091      17.907617      142.63459    
      4000   0.99682594     17.677086      142.21538    
      5000   1.0011913      18.214703      141.55481    
      6000   1.0060168      18.430027      141.2198     
      7000   1.0356648      18.625709      140.68619    
      8000   0.97849594     18.299122      140.3003     
      9000   0.98196343     18.443194      140.11479    
     10000   0.98094348     18.285011      139.67281    
     11000   0.96803329     18.956552      139.4255     
     12000   0.9762882      18.602234      138.94997    
     13000   0.96981731     18.723767      138.43629    
     14000   0.98846404     18.328457      138.09354    
     15000   1.0032407      18.721118      137.69761    
     16000   1.0073354      18.107123      137.39007    
     17000   1.0089068      18.335691      137.00236    
     18000   0.99719584     19.23747       136.65564    
     19000   1.0244375      19.223628      136.39414    
     20000   1.016532       19.053926      136.10393    
     21000   1.0107284      18.951302      135.72554    
     22000   1.0078731      18.727295      135.42299    
     23000   1.0089019      19.597254      135.20813    
     24000   1.0417615      19.289394      135.0888     
     25000   1.0267035      19.267829      134.60719    
     26000   0.97206295     19.15497       134.31565    
     27000   1.0031014      19.0279        133.9372     
     28000   1.0094337      19.042057      133.58257    
     29000   1.0038474      19.137993      133.12977    
     30000   1.0122386      18.823361      132.95133    
     31000   0.97714976     19.373273      132.84099    
     32000   1.0272179      19.451521      132.6538     
     33000   1.0165089      19.403847      132.44759    
     34000   1.0076822      19.385341      132.11223    
     35000   1.0225661      19.48621       131.75026    
     36000   1.0292705      19.036802      131.48213    
     37000   1.0626874      19.839761      131.03378    
     38000   1.0518076      18.885573      130.84833    
     39000   0.94645975     19.295286      130.76469    
     40000   0.96448629     19.091085      130.51472    
     41000   1.0237901      19.380102      130.39925    
     42000   1.0300479      19.491965      130.07771    
     43000   0.99614675     19.241482      130.08354    
     44000   1.0207268      19.532211      129.78336    
     45000   1.0046509      19.583129      129.43571    
     46000   0.98127566     19.364542      129.22314    
     47000   1.0231232      19.903851      128.98575    
     48000   0.98480032     19.561562      128.71471    
     49000   1.0191947      19.319963      128.72278    
     50000   1.0076018      19.544459      128.47096    
     51000   1.0315505      19.599654      128.30532    
     52000   0.95402324     19.228514      128.14199    
     53000   1.0383003      19.517119      127.99287    
     54000   1.0222327      19.505222      127.57525    
     55000   0.98366192     19.217478      127.45949    
     56000   0.99959108     20.07425       127.27496    
     57000   0.99486934     19.425989      127.1481     
     58000   0.97796367     19.598032      127.22573    
     59000   1.0372148      19.526949      127.03492    
     60000   1.0105292      19.857222      126.82179    
     61000   1.0229761      19.631513      126.53767    
     62000   0.99326579     19.387446      126.05005    
     63000   1.0197955      19.469828      125.62696    
     64000   0.93715879     19.255667      125.33945    
     65000   0.99953424     19.595728      125.26342    
     66000   1.0149372      19.665058      125.01625    
     67000   0.96768976     19.368468      124.87095    
     68000   0.99561436     19.665111      124.70763    
     69000   1.0389915      19.613435      124.413      
     70000   1.0351058      19.782289      124.17316    
     71000   1.0062307      19.412286      123.8961     
     72000   0.95756634     19.817289      123.56038    
     73000   1.0130051      19.675468      123.61724    
     74000   1.0147163      20.204214      123.53777    
     75000   1.0077011      19.576069      123.23816    
     76000   0.99716854     19.563412      123.30082    
     77000   1.0115112      19.174905      123.27943    
     78000   1.0091362      19.768659      123.18879    
     79000   1.0083114      19.694698      123.0804     
     80000   1.0266216      19.599205      122.92203    
     81000   1.0078353      19.776723      122.79155    
     82000   1.0227511      19.657615      122.49598    
     83000   0.94171617     19.846833      122.21766    
     84000   1.0345167      19.78986       122.13283    
     85000   1.0415786      19.790209      121.9743     
     86000   0.9928667      19.531058      121.69695    
     87000   0.96566013     19.782519      121.60542    
     88000   0.99258113     20.310464      121.60905    
     89000   0.9913422      19.963382      121.28977    
     90000   1.0161264      20.099895      120.93367    
     91000   1.0225221      19.558856      120.7278     
     92000   1.0376193      19.655388      120.46616    
     93000   0.99978692     19.494412      120.30375    
     94000   1.0013829      19.1123        120.29559    
     95000   0.98370146     19.246754      120.1286     
     96000   1.0199569      20.031069      120.05657    
     97000   1.0472273      19.349939      119.99849    
     98000   1.0145515      19.756         119.90869    
     99000   0.99065037     20.074756      119.79666    
    100000   1.0341816      20.321865      119.6273     
Loop time of 341.794 on 1 procs for 100000 steps with 1101 atoms

Performance: 252783.872 tau/day, 292.574 timesteps/s
100.0% CPU use with 1 MPI tasks x 1 OpenMP threads

MPI task timing breakdown:
Section |  min time  |  avg time  |  max time  |%varavg| %total
---------------------------------------------------------------
Pair    | 2.1765     | 2.1765     | 2.1765     |   0.0 |  0.64
Bond    | 4.9222     | 4.9222     | 4.9222     |   0.0 |  1.44
Neigh   | 328.47     | 328.47     | 328.47     |   0.0 | 96.10
Comm    | 0.039584   | 0.039584   | 0.039584   |   0.0 |  0.01
Output  | 0.28316    | 0.28316    | 0.28316    |   0.0 |  0.08
Modify  | 5.4879     | 5.4879     | 5.4879     |   0.0 |  1.61
Other   |            | 0.4188     |            |       |  0.12

Nlocal:           1101 ave        1101 max        1101 min
Histogram: 1 0 0 0 0 0 0 0 0 0
Nghost:              0 ave           0 max           0 min
Histogram: 1 0 0 0 0 0 0 0 0 0
Neighs:           6313 ave        6313 max        6313 min
Histogram: 1 0 0 0 0 0 0 0 0 0

Total # of neighbors = 6313
Ave neighs/atom = 5.7338783
Ave special neighs/atom = 1.9981835
Neighbor list builds = 1098
Dangerous builds = 0

# Replace lj potential, now collapse
pair_style      lj/cut 3

# Cutoff simul when gyration under 5
# Variable created with equal requires v_ + 'name'
fix 3 all halt 1000 v_rog < 5

run 5000000
Generated 0 of 0 mixed pair_coeff terms from geometric mixing rule
Per MPI rank memory allocation (min/avg/max) = 1861 | 1861 | 1861 Mbytes
   Step          Temp         Enthalpy         c_1      
    100000   1.0341816      19.75481       119.6273     
    101000   1.0205416      19.519178      119.35597    
    102000   0.95370635     18.993647      119.28623    
    103000   0.99787926     19.015207      119.26482    
    104000   0.98640361     18.912227      119.07913    
    105000   0.94025086     18.773566      118.90749    
    106000   1.0232648      18.877077      118.51509    
    107000   1.0316899      19.334203      118.21854    
    108000   1.0323481      19.139963      118.01095    
    109000   1.0343518      19.472764      118.01997    
    110000   0.99395499     19.122161      117.75895    
    111000   0.97701266     19.163479      117.43922    
    112000   0.98436058     19.093829      117.1481     
    113000   1.0272911      19.166647      116.82098    
    114000   1.0098049      19.129445      116.71627    
    115000   1.0442844      19.021593      116.46733    
    116000   0.99987398     18.928499      116.23684    
    117000   0.99485674     19.476973      115.98422    
    118000   1.0124675      18.996877      115.60972    
    119000   0.97902047     18.808323      115.44821    
    120000   1.0115086      19.610225      115.17126    
    121000   1.0354393      19.099193      115.15067    
    122000   0.99244159     18.71656       115.00989    
    123000   1.055081       18.823342      114.88129    
    124000   1.0237687      18.715646      114.69714    
    125000   1.0363003      19.473092      114.42257    
    126000   0.99502216     19.281925      114.17879    
    127000   0.99019019     18.899174      113.89342    
    128000   0.99131589     19.289871      113.5884     
    129000   1.0011638      18.917222      113.48043    
    130000   0.97754143     19.142839      113.28801    
    131000   0.97489888     19.023061      113.25862    
    132000   1.0095331      19.072369      112.76094    
    133000   0.98407806     19.147832      112.77357    
    134000   0.9612701      18.995995      112.45916    
    135000   0.98350428     18.94067       112.30334    
    136000   0.9710458      19.378622      112.16758    
    137000   1.0001398      19.004858      112.16425    
    138000   0.96288674     19.458154      112.00682    
    139000   0.99352257     19.149968      111.70117    
    140000   1.0098063      18.961507      111.7044     
    141000   1.0168864      19.330762      111.54402    
    142000   1.002074       19.085736      111.36051    
    143000   1.0261194      19.102475      111.34093    
    144000   0.99918357     18.955312      110.97893    
    145000   1.0161446      18.882495      110.64349    
    146000   0.99871885     19.237392      110.33369    
    147000   1.0280164      19.426324      110.20787    
    148000   0.99053946     18.787256      110.0196     
    149000   0.98786902     18.85854       109.92792    
    150000   1.0404192      19.146079      110.04815    
    151000   0.97606965     19.227406      110.10421    
    152000   0.98114591     19.145818      109.94239    
    153000   0.98776954     19.551727      109.66345    
    154000   0.99588015     19.160641      109.2496     
    155000   0.97156563     19.227697      109.12982    
    156000   0.97534225     18.994341      108.94302    
    157000   1.0053031      19.345355      108.78147    
    158000   0.98816697     19.439454      108.42814    
    159000   0.9923352      19.137812      108.28481    
    160000   1.0126652      19.173591      108.08637    
    161000   0.9564333      19.10322       107.92103    
    162000   0.96882633     19.169737      107.74696    
    163000   0.99493621     19.504714      107.50278    
    164000   1.0141642      19.188929      107.38647    
    165000   0.98194738     18.81759       107.28378    
    166000   0.97651542     18.932426      107.06662    
    167000   1.032902       18.791423      106.93437    
    168000   1.0378964      19.089782      106.68016    
    169000   0.96962582     18.826778      106.59533    
    170000   1.0060359      18.92866       106.2483     
    171000   1.0703944      19.339798      106.06525    
    172000   1.0155278      19.309127      105.89344    
    173000   1.0257874      19.20425       105.59307    
    174000   1.0564757      19.673434      105.45651    
    175000   0.99602294     19.279346      105.20932    
    176000   0.99187983     18.783234      105.0622     
    177000   1.0082241      19.061907      105.09651    
    178000   0.99648026     19.399597      104.84113    
    179000   0.99529526     19.375865      104.62863    
    180000   1.0029092      19.666231      104.31871    
    181000   1.0485604      19.261418      103.90476    
    182000   0.94635049     18.795191      103.73327    
    183000   1.0250974      19.429729      103.59067    
    184000   1.0158298      18.789727      103.56933    
    185000   1.0069004      19.294582      103.35493    
    186000   1.0315457      18.950725      103.13057    
    187000   0.96757173     19.135687      102.61882    
    188000   1.0132435      18.998688      102.21411    
    189000   0.98191396     19.072819      101.99847    
    190000   1.0467997      19.132859      101.802      
    191000   0.96616965     18.697386      101.66931    
    192000   0.98794178     19.154335      101.9599     
    193000   1.0306408      18.954668      101.76919    
    194000   1.0057112      18.837798      101.67615    
    195000   1.0152025      18.677537      101.32933    
    196000   1.0582797      19.317724      101.07316    
    197000   0.98520006     18.477039      100.76269    
    198000   1.0009375      18.554455      100.8196     
    199000   1.0195715      18.354578      100.81798    
    200000   0.98332698     19.017184      100.77324    
    201000   0.97102131     19.093454      100.6261     
    202000   1.0241467      18.600138      100.37389    
    203000   1.043546       18.662266      100.08525    
    204000   1.0041221      18.547033      99.957452    
    205000   0.98836924     19.072558      99.738735    
    206000   1.0102146      19.30576       99.708363    
    207000   1.0249405      18.851761      99.522985    
    208000   1.0076514      18.616319      99.413017    
    209000   0.99686094     18.939467      99.35337     
    210000   0.99802382     19.123126      99.310162    
    211000   1.0235735      18.504664      99.227057    
    212000   0.98605321     18.382458      99.109318    
    213000   1.0029402      19.131553      98.998428    
    214000   1.0358022      19.040352      98.764218    
    215000   0.98546756     18.948284      98.613053    
    216000   0.97227081     18.824056      98.495429    
    217000   1.0033826      19.071271      98.336726    
    218000   1.0264722      18.672657      98.206523    
    219000   1.0223417      19.350471      97.932872    
    220000   1.0042036      18.722448      97.654311    
    221000   1.0261506      18.536199      97.641769    
    222000   0.99368922     18.53035       97.576676    
    223000   0.97334869     18.531939      97.602859    
    224000   0.97240003     19.172969      97.480341    
    225000   0.97356314     18.477992      97.391228    
    226000   0.99938786     19.278846      97.235197    
    227000   0.9743623      18.905005      96.988534    
    228000   0.97783094     18.819995      96.911771    
    229000   1.0280806      18.914293      96.742864    
    230000   0.98148098     18.801411      96.519782    
    231000   0.98031216     19.506649      96.372956    
    232000   0.97428646     18.506491      96.202875    
    233000   0.99244498     18.999212      96.125773    
    234000   1.0251978      18.732484      95.923215    
    235000   1.0157157      19.143541      95.417823    
    236000   0.98354717     18.948854      95.253484    
    237000   1.0507315      19.026182      95.042009    
    238000   0.9772663      18.879125      94.689887    
    239000   0.9643686      18.741603      94.257388    
    240000   1.0488702      19.300528      94.2499      
    241000   1.0335195      19.077915      94.085787    
    242000   1.0269056      19.383698      94.089543    
    243000   1.0260848      19.20943       93.844895    
    244000   0.97673647     18.761992      94.031649    
    245000   1.0300776      19.123137      93.734746    
    246000   0.96106116     18.074984      93.788614    
    247000   0.93897627     18.45851       93.950032    
    248000   1.0159883      18.991826      93.934603    
    249000   1.0627707      18.886796      93.710312    
    250000   0.99036525     18.985166      93.439149    
    251000   0.98683095     18.351721      93.229465    
    252000   0.99860565     18.795406      93.122939    
    253000   0.99141422     18.589029      92.977047    
    254000   1.0304097      18.943091      92.839058    
    255000   1.0101368      18.520296      92.592954    
    256000   1.0511814      19.140182      92.49526     
    257000   0.99102068     18.342557      92.136665    
    258000   0.95154822     18.729811      92.008656    
    259000   1.0067563      18.79542       91.790952    
    260000   0.9755227      18.143851      91.560157    
    261000   0.92483037     18.75024       91.425234    
    262000   1.013391       18.863622      91.283952    
    263000   0.97648696     18.417562      90.963098    
    264000   0.96012727     17.943807      90.661671    
    265000   1.0290955      18.527038      90.522937    
    266000   0.99786248     18.71589       90.591882    
    267000   1.003015       19.013571      90.258414    
    268000   0.98079441     18.60676       90.057412    
    269000   1.05102        18.957843      90.088345    
    270000   1.0163372      18.78932       89.920643    
    271000   1.024265       18.647999      89.491425    
    272000   1.0326819      18.795426      89.279991    
    273000   0.9823634      18.660733      89.06566     
    274000   0.95930205     18.319623      88.782785    
    275000   1.0158567      18.446634      88.618232    
    276000   1.0037512      18.908203      88.487452    
    277000   0.99526557     18.655598      88.376598    
    278000   0.99818602     18.989663      88.126955    
    279000   1.0415835      18.216054      87.832424    
    280000   0.9972282      18.942544      87.723099    
    281000   0.98761863     18.53778       87.714476    
    282000   0.9997301      19.128212      87.555183    
    283000   1.0146635      18.912368      87.542024    
    284000   0.97249976     19.238449      87.583312    
    285000   0.98833166     18.74608       87.704232    
    286000   1.0250586      18.506842      87.589425    
    287000   1.0265999      18.588692      87.491991    
    288000   1.0070845      18.356657      87.524675    
    289000   0.97000275     18.687848      87.444407    
    290000   1.0088717      18.792968      87.179304    
    291000   1.0025186      19.047051      87.003855    
    292000   0.97899145     18.594688      86.929932    
    293000   0.99184922     18.032414      86.695652    
    294000   0.97800624     18.904598      86.641218    
    295000   1.0088205      18.82495       86.632513    
    296000   0.97569554     18.769593      86.656054    
    297000   0.96971709     18.478058      86.374914    
    298000   1.0214605      18.877823      86.130601    
    299000   1.0019132      18.391209      86.008954    
    300000   1.0428351      18.919802      85.933956    
    301000   1.0129518      18.610782      85.838522    
    302000   0.98361314     18.546816      85.830203    
    303000   1.0086936      18.890242      85.799619    
    304000   0.9910543      18.698441      85.694619    
    305000   0.99903324     18.177202      85.425603    
    306000   1.036857       18.907588      85.285954    
    307000   0.94753562     18.635043      85.278801    
    308000   0.97644536     18.302913      85.10567     
    309000   1.0293309      19.289992      84.710798    
    310000   0.99595927     18.728542      84.360836    
    311000   1.0205774      18.782025      84.359734    
    312000   0.9903645      17.85685       84.090716    
    313000   0.99410557     18.763244      83.828707    
    314000   0.98619762     19.111584      83.689125    
    315000   0.96355536     18.512685      83.785763    
    316000   0.98168905     18.453576      83.745045    
    317000   1.0102743      18.396694      83.462811    
    318000   1.0134943      18.938322      83.523925    
    319000   0.9956782      18.646834      83.351017    
    320000   0.99755864     18.742046      83.225264    
    321000   0.99645798     18.377695      82.959145    
    322000   1.0254311      18.258799      82.768083    
    323000   1.0078975      18.982449      82.404926    
    324000   0.95394099     18.433899      82.252549    
    325000   1.0220226      18.714891      82.446841    
    326000   1.0064023      18.696097      82.328652    
    327000   0.98945156     18.819119      81.934191    
    328000   1.0222552      18.872553      81.766982    
    329000   0.98637596     19.084985      81.473036    
    330000   0.98718636     18.52995       81.06472     
    331000   1.0016932      18.19767       80.906643    
    332000   1.0300722      18.293662      81.058482    
    333000   1.0067175      18.52294       80.939005    
    334000   1.010163       18.605828      80.768278    
    335000   1.0075985      18.834839      80.573392    
    336000   1.016157       18.90925       80.555286    
    337000   1.0108215      18.921937      80.476553    
    338000   0.98914773     18.785876      80.332471    
    339000   0.99912708     18.722024      80.330074    
    340000   1.0213546      18.452516      79.984781    
    341000   0.98234181     18.500347      80.040042    
    342000   1.0068835      18.956416      79.844836    
    343000   0.98812199     18.567321      79.850053    
    344000   0.94905912     19.014284      79.901954    
    345000   0.96876173     18.463851      79.616907    
    346000   1.0391232      18.819706      79.199614    
    347000   1.0099536      18.659047      79.148578    
    348000   1.0161423      18.54019       78.956998    
    349000   0.98956602     18.384822      78.818438    
    350000   1.0527713      18.930684      78.788088    
    351000   0.97879396     18.889577      78.583075    
    352000   0.98953573     18.752959      78.572964    
    353000   0.9998453      18.570014      78.437721    
    354000   0.98420262     18.369645      78.499811    
    355000   1.00372        18.869688      78.438631    
    356000   0.97684356     18.302457      78.380356    
    357000   0.98499422     18.128984      78.119746    
    358000   0.95576459     18.327752      77.94973     
    359000   0.99437656     19.250305      77.99867     
    360000   0.97914719     18.369581      77.912317    
    361000   0.95914002     18.315368      77.704934    
    362000   1.0321671      18.528191      77.435441    
    363000   1.0174754      18.50531       77.301603    
    364000   1.0117101      18.493188      77.185805    
    365000   0.94198405     17.934429      77.108583    
    366000   1.017723       18.981957      76.804785    
    367000   0.99395644     18.537         76.70932     
    368000   0.99427009     18.049987      76.752664    
    369000   0.98844919     19.257236      76.715262    
    370000   0.96717026     17.883867      76.676843    
    371000   1.0049938      18.953021      76.40801     
    372000   1.0132995      18.754358      76.280587    
    373000   1.0031004      18.045241      76.003387    
    374000   1.0369295      18.495752      75.977336    
    375000   1.0150583      18.5344        75.887671    
    376000   0.99145514     18.035477      75.696882    
    377000   0.98603369     18.303567      75.59927     
    378000   1.0160127      18.24633       75.476365    
    379000   0.9933321      18.944107      75.396879    
    380000   0.98195648     18.337158      75.373198    
    381000   1.0122682      19.107044      75.266788    
    382000   0.99370517     17.662174      75.264258    
    383000   0.96360632     18.293636      75.150666    
    384000   0.97662953     18.631669      75.052915    
    385000   0.97497184     18.217043      74.784964    
    386000   1.0030807      18.455495      74.490005    
    387000   1.039142       18.576534      74.119675    
    388000   0.99218431     18.561695      73.630902    
    389000   0.99864461     18.33193       73.587676    
    390000   0.99897025     18.333484      73.253471    
    391000   1.0010584      18.828285      72.978771    
    392000   1.009519       18.066962      72.890148    
    393000   0.97465365     18.839351      72.634769    
    394000   1.0371038      17.94355       72.523735    
    395000   0.98666984     18.11001       72.390187    
    396000   1.0319435      18.538557      72.534241    
    397000   1.0092766      18.248133      72.638593    
    398000   0.99799582     18.348038      72.554486    
    399000   1.0561559      18.994743      72.61879     
    400000   0.97494858     17.937338      72.453755    
    401000   0.98996689     18.401154      72.505848    
    402000   1.0262145      18.349226      72.041308    
    403000   1.0055215      18.352439      71.9788      
    404000   1.0395219      18.062156      71.833197    
    405000   1.0056198      17.922264      71.822314    
    406000   0.99833609     18.398964      71.619363    
    407000   1.0130134      18.698129      71.502409    
    408000   0.97966471     18.836884      71.436881    
    409000   1.0473348      18.087098      71.505447    
    410000   0.987462       18.351298      71.319955    
    411000   0.95097856     17.752062      71.280285    
    412000   1.0350694      17.949259      71.184812    
    413000   1.0381877      18.726005      70.933359    
    414000   0.97493932     18.320772      70.568759    
    415000   1.0130115      18.196534      70.603534    
    416000   1.0203629      18.607655      70.215961    
    417000   1.0237098      18.391007      70.156196    
    418000   0.99640343     18.286986      69.823952    
    419000   1.0012834      18.472936      69.90594     
    420000   1.0044332      18.312323      69.92781     
    421000   1.0103498      18.076392      69.781377    
    422000   0.9843733      18.121714      69.876126    
    423000   0.99552615     18.131006      69.459128    
    424000   0.98969146     18.503334      69.464591    
    425000   0.99715238     17.970043      69.321381    
    426000   1.0166835      18.812878      69.1964      
    427000   0.95391279     18.402189      68.978803    
    428000   1.0326473      18.509322      68.952187    
    429000   1.0156887      18.624824      68.836782    
    430000   0.98582128     18.336244      68.479166    
    431000   1.0203397      18.479955      68.190151    
    432000   1.0300334      18.235942      68.03967     
    433000   0.97935616     18.401229      67.920225    
    434000   0.99802979     17.947027      68.084341    
    435000   0.98928076     18.126548      68.090541    
    436000   0.97646925     18.114371      67.865315    
    437000   0.98752306     18.438246      67.585521    
    438000   0.99412834     18.335021      67.347832    
    439000   0.96844184     18.084794      67.225236    
    440000   1.0032822      18.343294      67.260732    
    441000   1.0332569      18.340735      67.113766    
    442000   1.0071722      18.870099      67.071865    
    443000   0.99658821     18.399859      67.250246    
    444000   0.97588636     18.142717      67.225606    
    445000   1.0357519      18.416181      67.032856    
    446000   1.0312865      18.32778       66.778091    
    447000   1.0138268      18.269048      66.975221    
    448000   0.98468952     17.974488      67.032432    
    449000   0.99749089     17.563591      67.078849    
    450000   1.0070911      18.187528      66.707353    
    451000   1.0273323      18.074472      66.635414    
    452000   1.0127725      18.339806      66.403379    
    453000   1.0035517      18.312226      66.384029    
    454000   0.97159711     17.645852      66.349742    
    455000   0.97774399     18.171711      66.086847    
    456000   1.0401235      18.292123      66.122473    
    457000   0.99409418     18.412813      65.931766    
    458000   1.0125783      18.081856      65.893095    
    459000   1.0141958      18.399409      65.96972     
    460000   1.042229       18.175256      65.89102     
    461000   1.0215011      18.496282      65.890058    
    462000   1.0251938      18.768668      65.580486    
    463000   0.96995832     18.115247      65.521886    
    464000   0.97340549     18.136734      65.331792    
    465000   1.0073375      18.349683      65.088147    
    466000   0.99050894     17.854476      65.041362    
    467000   1.0021325      17.968807      64.818357    
    468000   1.0288649      18.477014      64.644722    
    469000   1.0440897      18.264622      64.546354    
    470000   0.93381555     17.530067      64.424298    
    471000   1.015955       18.218543      64.266276    
    472000   0.99256438     18.131052      64.231624    
    473000   1.0373993      18.804816      64.102268    
    474000   0.96864987     18.245218      63.855413    
    475000   1.0090844      18.451962      63.455335    
    476000   0.98922915     18.059611      63.534173    
    477000   0.99931581     17.659882      63.460676    
    478000   0.99133159     18.400722      63.349872    
    479000   0.99633461     17.999709      63.237463    
    480000   0.99302156     18.399923      63.139266    
    481000   1.0087476      17.971525      63.057972    
    482000   0.96861644     18.413127      63.097194    
    483000   0.99794568     18.136947      63.179897    
    484000   1.0050439      18.235503      63.153838    
    485000   1.0011944      18.027432      63.095344    
    486000   0.98409877     17.915621      63.131633    
    487000   1.0031506      18.104873      63.032761    
    488000   0.95927067     18.092785      62.916706    
    489000   1.0511592      18.037987      62.914307    
    490000   0.99476796     18.314487      62.8638      
    491000   0.95803888     18.044452      62.531018    
    492000   1.0089185      18.105658      62.319046    
    493000   0.9894532      18.109439      62.302958    
    494000   1.0337665      18.263995      62.185959    
    495000   1.0193692      18.056256      62.239554    
    496000   1.0318602      18.453053      62.306869    
    497000   0.98697889     18.415721      62.219548    
    498000   0.9747456      18.159815      62.224416    
    499000   1.0637284      18.297291      62.163847    
    500000   0.96520103     17.728926      61.896356    
    501000   1.0248496      17.879716      61.712539    
    502000   0.98240916     18.282537      61.665415    
    503000   1.0134035      18.6089        61.419585    
    504000   1.0290028      18.297011      61.102616    
    505000   1.0258786      17.784727      61.013713    
    506000   1.017306       17.668356      60.958235    
    507000   1.0719491      17.902218      60.6836      
    508000   0.98124637     18.094451      60.641263    
    509000   0.99652892     18.531209      60.348212    
    510000   1.0021832      18.402556      60.146676    
    511000   0.98792847     18.136583      59.983741    
    512000   1.0333782      18.317292      60.002257    
    513000   0.99297804     18.051792      59.677889    
    514000   1.0412469      17.930745      59.58019     
    515000   1.0488154      18.339245      59.298423    
    516000   0.99813831     17.699591      59.14197     
    517000   1.0158562      18.40456       59.071689    
    518000   0.94435141     17.647798      59.046252    
    519000   0.95133013     18.090046      58.740696    
    520000   1.0050148      18.187377      58.716101    
    521000   1.0296396      18.611043      58.582467    
    522000   1.008969       17.837347      58.59361     
    523000   0.96749445     17.615303      58.519779    
    524000   1.0042443      18.143086      58.440078    
    525000   0.97725298     17.990865      58.406034    
    526000   1.0206949      17.962384      58.338429    
    527000   0.94809191     17.540274      58.361273    
    528000   1.0479143      17.666248      58.291939    
    529000   1.0221737      18.266326      58.216712    
    530000   0.97644116     18.129464      58.103315    
    531000   0.98831576     17.959616      58.06883     
    532000   1.0365418      18.516302      57.751305    
    533000   1.0144877      17.915207      57.789413    
    534000   1.0326423      18.399708      57.511367    
    535000   1.0179302      18.283086      57.250294    
    536000   0.99243465     17.474937      56.963237    
    537000   0.99084621     17.993542      57.082711    
    538000   1.0169845      17.9905        57.051639    
    539000   0.97778087     17.783245      56.796424    
    540000   1.0084391      17.78206       56.681256    
    541000   0.98727676     18.395506      56.609747    
    542000   0.97744639     18.568453      56.612564    
    543000   1.0219158      18.474937      56.640713    
    544000   0.97369256     17.709602      56.657985    
    545000   0.9990494      18.109167      56.618123    
    546000   0.98665891     17.745931      56.65476     
    547000   1.0613711      18.240057      56.500156    
    548000   1.0182262      18.338007      56.544956    
    549000   0.98663984     18.465599      56.474638    
    550000   0.96336938     17.872023      56.677652    
    551000   1.0291191      18.07423       56.826335    
    552000   1.0048811      17.666297      56.643385    
    553000   1.0349738      18.097466      56.662083    
    554000   0.99679271     18.091508      56.308468    
    555000   0.97643882     18.099043      56.140853    
    556000   0.9868973      17.558033      56.101372    
    557000   1.0571392      17.868578      55.919475    
    558000   0.97469489     17.727391      55.860182    
    559000   0.99352992     17.673252      55.882775    
    560000   1.008367       18.28919       55.828569    
    561000   1.0152357      18.86834       55.786099    
    562000   1.0157531      18.231285      55.542602    
    563000   0.96916894     17.776975      55.51427     
    564000   1.0192886      18.007113      55.298274    
    565000   0.95490828     18.133562      55.214585    
    566000   0.99077737     17.993355      55.07899     
    567000   1.0050014      17.583931      54.710711    
    568000   0.97833625     17.953068      54.767398    
    569000   0.98130538     17.832863      54.545787    
    570000   1.0140268      17.896827      54.551538    
    571000   1.0074099      18.906864      54.409394    
    572000   1.0078098      17.706635      54.199221    
    573000   1.0050977      18.852958      54.180425    
    574000   0.99828604     18.072775      54.109242    
    575000   0.99991022     18.313051      53.963826    
    576000   1.04202        18.019531      53.833726    
    577000   0.99581595     18.054208      53.814862    
    578000   0.98599175     17.946361      53.433728    
    579000   1.0051911      18.337146      53.488317    
    580000   1.0052032      18.286151      53.471098    
    581000   1.0464531      18.268898      53.285335    
    582000   1.0142317      17.921375      53.187396    
    583000   0.9932324      17.747234      53.060293    
    584000   1.0000536      17.49706       52.944192    
    585000   0.96676637     18.14074       52.911023    
    586000   0.95053158     17.643238      52.889704    
    587000   0.99543942     17.924741      52.74956     
    588000   0.9406605      17.246944      52.55794     
    589000   0.99969878     18.00284       52.434924    
    590000   0.98018915     17.986819      51.9819      
    591000   1.0376936      17.825343      51.984478    
    592000   1.0098171      18.148171      51.729219    
    593000   0.98800591     18.026838      51.519631    
    594000   1.0111694      17.65746       51.306932    
    595000   0.98903933     17.814919      51.052606    
    596000   0.96882351     18.125561      50.754106    
    597000   0.98542669     17.965451      50.578988    
    598000   0.970871       17.922808      50.577399    
    599000   0.99062295     18.268401      50.367807    
    600000   0.98504985     17.806535      50.26684     
    601000   1.0625592      17.997974      50.209547    
    602000   0.96339063     17.416294      50.039256    
    603000   0.99263525     18.463054      50.055665    
    604000   0.95165379     18.499019      49.975141    
    605000   0.99534306     18.00213       49.994201    
    606000   0.94914105     17.797525      49.991233    
    607000   0.99485025     17.83243       49.856279    
    608000   0.99534084     17.360802      49.764945    
    609000   1.0364053      17.803467      49.807812    
    610000   1.0132401      18.433219      49.590593    
    611000   1.0495301      17.47571       49.589332    
    612000   1.0238489      18.110381      49.619491    
    613000   1.0541399      17.850282      49.411601    
    614000   1.0298007      17.765516      48.969053    
    615000   0.96083535     18.160825      48.921395    
    616000   0.97589594     17.565793      48.819012    
    617000   0.9844306      17.714605      48.774432    
    618000   0.90659        17.620333      48.610073    
    619000   0.98493979     17.790635      48.50014     
    620000   0.98294632     17.333693      48.409999    
    621000   1.0004434      17.686749      48.367595    
    622000   0.99441839     17.880198      47.919763    
    623000   1.0174244      17.812077      47.81987     
    624000   1.0164377      18.348833      47.55436     
    625000   1.0242793      17.387446      47.547859    
    626000   1.0190924      17.371453      47.386344    
    627000   1.0225204      17.527638      47.403243    
    628000   1.0146023      18.280393      47.31621     
    629000   0.99659584     17.268187      47.161463    
    630000   1.0323879      18.231902      46.726952    
    631000   0.99190667     17.830621      46.496564    
    632000   0.98792848     17.660747      46.519941    
    633000   1.0111986      17.324742      46.624814    
    634000   0.99063194     17.911934      46.37707     
    635000   0.98235417     18.092003      46.336617    
    636000   0.97410398     17.697555      46.212148    
    637000   0.99561538     18.025674      46.149047    
    638000   1.016128       17.352631      46.223147    
    639000   1.0078554      17.331592      45.968958    
    640000   0.99791026     17.091957      45.948333    
    641000   0.99265076     17.827244      45.756159    
    642000   0.99010106     17.652478      45.662883    
    643000   0.98146224     17.698631      45.340629    
    644000   0.99732324     17.717347      45.285719    
    645000   1.0488139      18.028031      45.158041    
    646000   0.98657825     17.679478      44.95133     
    647000   1.0066636      18.035077      44.844654    
    648000   1.035802       17.714284      44.906063    
    649000   0.95832002     17.740207      44.714301    
    650000   0.96264137     17.089384      44.554136    
    651000   1.0064765      17.660763      44.665466    
    652000   1.0180109      17.662791      44.574349    
    653000   1.0140595      17.970877      44.387384    
    654000   0.9881896      17.90077       44.171466    
    655000   1.0171827      17.519305      44.516038    
    656000   1.0194229      17.945077      44.373093    
    657000   1.0106067      18.414607      44.323241    
    658000   1.0213288      18.276308      44.084817    
    659000   0.9733673      17.399065      44.250017    
    660000   0.99966597     18.264706      44.241551    
    661000   0.96945361     18.170474      44.077152    
    662000   1.0432688      17.611717      43.659242    
    663000   0.987938       17.9979        43.46552     
    664000   1.0067442      17.681807      43.478871    
    665000   0.98726085     17.947191      43.302667    
    666000   1.0140732      17.27038       43.177499    
    667000   0.94538954     17.291971      43.071892    
    668000   0.99111169     17.633412      43.095246    
    669000   0.98763677     18.652638      43.274512    
    670000   1.0193848      17.411307      43.219897    
    671000   1.0095201      18.023905      43.010572    
    672000   1.042934       17.480828      42.765689    
    673000   1.009011       18.05604       42.592104    
    674000   1.0043282      17.771279      42.456847    
    675000   1.0200623      18.256618      42.342763    
    676000   0.99636018     17.685966      42.324974    
    677000   1.0082893      18.159686      42.281358    
    678000   0.99004169     17.712962      42.05711     
    679000   0.93895119     17.278897      41.979733    
    680000   1.0187919      17.689874      41.951358    
    681000   1.0043064      17.467317      41.687158    
    682000   1.0052513      18.185426      41.504709    
    683000   0.97526345     17.528055      41.537368    
    684000   1.0213435      17.743434      41.625839    
    685000   0.99847237     17.658179      41.371405    
    686000   0.99268964     17.709382      41.37031     
    687000   0.9817325      18.070969      41.391631    
    688000   1.0280982      17.632581      41.426623    
    689000   0.98911948     17.630446      41.534503    
    690000   0.98819182     17.656033      41.468619    
    691000   1.0142222      17.454864      41.540154    
    692000   0.98751358     17.652279      41.646464    
    693000   1.0349654      18.122358      41.500347    
    694000   0.97022722     17.163471      41.408584    
    695000   1.0036365      17.713589      41.030136    
    696000   1.0390447      17.944792      41.095302    
    697000   1.0407199      18.093107      40.962376    
    698000   1.0332046      17.795135      40.883798    
    699000   1.0076616      17.434513      40.649782    
    700000   1.0097607      17.920906      40.433461    
    701000   0.98472243     18.151926      40.529745    
    702000   0.97035994     17.54038       40.403994    
    703000   0.98031308     17.363617      40.149307    
    704000   0.95475989     18.403801      40.052757    
    705000   1.0244071      18.009168      39.77685     
    706000   0.99212125     17.313054      39.829146    
    707000   1.0190615      17.91356       39.665313    
    708000   0.99404836     17.365905      39.449025    
    709000   1.0246363      17.853998      39.395919    
    710000   0.98686294     18.293923      39.387079    
    711000   0.99220799     17.812489      39.382039    
    712000   0.95145114     17.135372      39.259846    
    713000   1.0160315      18.079531      39.033379    
    714000   1.0250724      17.818186      38.796807    
    715000   1.025954       17.780734      38.437372    
    716000   1.0229741      17.852348      38.455379    
    717000   0.9956292      17.814322      38.218156    
    718000   1.0129344      17.566946      38.198188    
    719000   1.0085805      17.973655      38.24393     
    720000   1.0059478      17.35791       38.112941    
    721000   0.98801709     17.404582      38.118101    
    722000   1.0368936      17.263775      38.062304    
    723000   0.98389074     17.756342      37.913841    
    724000   1.0042641      17.88666       37.838554    
    725000   0.97191366     17.197076      37.631837    
    726000   1.0023281      17.96518       37.737753    
    727000   0.99053188     18.098491      37.879951    
    728000   0.98512846     17.614536      38.009058    
    729000   0.98792182     17.639669      37.930226    
    730000   0.99776523     17.453194      37.804512    
    731000   0.96772554     17.318604      37.616097    
    732000   0.9672         17.666741      37.446896    
    733000   1.0419541      18.302094      37.172923    
    734000   1.0112816      17.618507      37.174255    
    735000   0.99473746     17.546163      37.039035    
    736000   0.9963294      17.565826      36.969729    
    737000   1.0477675      17.678121      36.96578     
    738000   1.0111349      17.507387      36.932938    
    739000   1.0027616      18.251388      36.606176    
    740000   1.0065872      17.788511      36.581002    
    741000   1.0068226      17.670907      36.383077    
    742000   1.0152798      17.714763      36.254302    
    743000   0.99653897     17.744417      36.041643    
    744000   1.0360586      17.027713      35.771282    
    745000   0.97222025     17.667237      35.878849    
    746000   1.0263168      17.21107       35.826433    
    747000   1.0331034      17.722171      35.775948    
    748000   1.0145682      17.778824      35.639518    
    749000   0.99736881     17.66245       35.518111    
    750000   0.99835777     17.733253      35.055455    
    751000   1.0184925      17.794128      35.120152    
    752000   1.0411076      17.30607       35.059052    
    753000   0.95450338     17.250436      34.86477     
    754000   1.012611       17.647488      34.681821    
    755000   1.0144023      17.818983      34.685604    
    756000   0.99903527     17.631109      34.448898    
    757000   1.0235534      18.237588      34.211946    
    758000   1.0528768      17.815124      34.114421    
    759000   0.98684108     17.31435       33.951316    
    760000   1.0055785      17.351589      33.764911    
    761000   0.99143426     18.005937      33.736389    
    762000   1.032406       17.57661       33.726655    
    763000   1.0496312      17.231218      33.671575    
    764000   0.97784164     17.800592      33.545801    
    765000   1.0245696      17.805087      33.445754    
    766000   1.0168509      17.907602      33.39467     
    767000   1.0015163      17.480865      33.28498     
    768000   0.97540081     17.214958      33.158665    
    769000   1.0337878      17.569722      32.970722    
    770000   1.0126301      17.650992      32.76561     
    771000   0.9904969      17.797023      32.466834    
    772000   0.96602848     17.404329      32.561696    
    773000   0.99505124     17.618495      32.363237    
    774000   0.99018897     17.697259      31.947059    
    775000   0.99003764     17.935761      31.651708    
    776000   0.99218569     17.825772      31.372261    
    777000   0.98769924     17.195486      31.367307    
    778000   1.0220745      17.533665      31.088341    
    779000   1.016557       17.068488      30.822673    
    780000   1.0285623      17.036215      30.653594    
    781000   1.0213987      17.557017      30.606858    
    782000   0.97704256     17.540744      30.327381    
    783000   1.0112344      16.879562      30.303882    
    784000   0.99219367     16.850194      30.295142    
    785000   1.05263        17.675067      30.205071    
    786000   0.97287991     17.639823      30.042915    
    787000   1.011356       17.507821      30.010174    
    788000   1.0108063      18.190406      30.03028     
    789000   0.99621852     17.337116      30.075604    
    790000   1.0157482      17.6744        29.92721     
    791000   0.97669984     17.903794      29.934186    
    792000   0.95539618     17.40664       29.806494    
    793000   1.0610934      17.738262      29.630379    
    794000   1.0157528      17.873551      29.532655    
    795000   0.99744684     17.683985      29.440375    
    796000   1.0045785      16.990781      29.501932    
    797000   1.0643014      17.840339      29.327637    
    798000   1.0398414      17.110272      29.336253    
    799000   0.97520138     17.556432      29.327879    
    800000   0.95130633     17.340043      29.174665    
    801000   0.99328239     17.391551      28.956395    
    802000   1.0015465      17.845766      28.722451    
    803000   0.9802519      17.246408      28.614979    
    804000   0.99277586     17.784792      28.454769    
    805000   0.99480963     17.992754      28.446198    
    806000   0.99924275     16.980301      28.333519    
    807000   1.0335476      17.001185      28.139249    
    808000   0.97450269     17.790322      28.024788    
    809000   1.0314077      18.194001      28.045802    
    810000   0.99924308     17.321377      27.781503    
    811000   1.0473552      17.408042      27.783885    
    812000   1.0093872      17.659164      27.551754    
    813000   0.97648495     18.02855       27.531172    
    814000   1.053711       17.541181      27.299004    
    815000   0.99181393     17.060609      27.307278    
    816000   0.9639665      17.638216      27.174625    
    817000   0.98586002     17.740652      27.016251    
    818000   1.0066524      17.480503      26.997285    
    819000   1.0094612      17.46831       26.952455    
    820000   0.99722586     17.476515      26.785352    
    821000   1.0468659      17.651158      26.570416    
    822000   1.0363697      17.640658      26.53999     
    823000   1.0088778      17.595515      26.427264    
    824000   0.9914122      17.932014      26.293087    
    825000   1.0287887      17.433138      25.973581    
    826000   1.0058766      17.897318      25.9177      
    827000   1.0107093      17.297232      25.874819    
    828000   0.95374396     17.510223      25.891633    
    829000   1.0227477      17.999708      25.84507     
    830000   0.9814384      17.861507      25.83569     
    831000   1.0025885      17.536939      25.722611    
    832000   0.99483502     17.10008       25.663603    
    833000   0.99566839     17.046341      25.457355    
    834000   0.98863688     17.529518      25.223689    
    835000   0.96120509     17.723993      25.268543    
    836000   1.0169665      17.340852      25.147546    
    837000   1.0190377      17.520052      25.047917    
    838000   0.98074478     17.292056      24.925083    
    839000   1.0021393      17.114146      24.73675     
    840000   1.0195179      17.654323      24.592032    
    841000   0.98138641     17.463331      24.399426    
    842000   1.0280651      17.28247       24.07534     
    843000   1.0377908      17.098634      23.837392    
    844000   0.98717805     17.906555      23.716703    
    845000   0.93706414     17.454971      23.577142    
    846000   1.0256004      17.294131      23.719384    
    847000   0.99041893     17.943337      23.603475    
    848000   0.99198583     17.438668      23.533229    
    849000   1.0212271      17.860197      23.441184    
    850000   1.0043648      17.274658      23.113807    
    851000   1.01269        17.865868      23.012865    
    852000   0.98946296     17.612287      22.724473    
    853000   0.97653792     17.189312      22.821921    
    854000   1.0055396      17.610736      22.590802    
    855000   0.98671068     17.613478      22.585445    
    856000   0.98107857     17.67336       22.440814    
    857000   0.99794316     17.657021      22.28827     
    858000   1.000123       17.130125      22.482999    
    859000   0.99235328     16.99177       22.53033     
    860000   1.0204386      17.396361      22.626279    
    861000   1.0527268      17.766404      22.544699    
    862000   0.9872793      17.289236      22.590259    
    863000   0.95508569     17.799608      22.294479    
    864000   1.0269077      17.195919      22.34466     
    865000   0.99137304     17.294534      22.304837    
    866000   0.98996989     16.532669      22.168338    
    867000   1.0259289      17.567283      22.021127    
    868000   1.034799       17.431387      21.724877    
    869000   1.0066943      17.390736      21.587723    
    870000   0.95460487     17.316014      21.432658    
    871000   1.0376948      17.585158      21.53602     
    872000   0.97444994     17.433448      21.242854    
    873000   1.0119178      18.153549      21.254976    
    874000   1.0107777      17.344903      21.097534    
    875000   0.98507258     17.282009      20.931797    
    876000   1.0238263      17.34875       20.93132     
    877000   1.0285387      17.452433      20.948761    
    878000   1.0011193      16.917545      21.058565    
    879000   1.0221543      17.774038      20.859019    
    880000   1.0179622      17.425577      20.804869    
    881000   1.0295846      18.051704      20.733573    
    882000   1.0087634      17.049708      20.846526    
    883000   1.0130782      17.715818      20.7629      
    884000   1.0114539      17.427304      20.675981    
    885000   1.0337437      17.405497      20.643096    
    886000   1.0071905      17.490666      20.338187    
    887000   0.99756252     17.725213      20.253313    
    888000   1.0016096      17.588707      20.254331    
    889000   1.0025436      16.954355      19.966925    
    890000   0.98922917     17.213699      20.044247    
    891000   0.95047218     17.00557       20.12474     
    892000   0.98253694     16.983512      20.000268    
    893000   0.98375006     17.222755      19.631205    
    894000   0.97920184     17.206444      19.655464    
    895000   1.0123514      17.146372      19.480874    
    896000   0.98764595     17.468868      19.467105    
    897000   1.005392       16.976644      19.459858    
    898000   1.0151708      17.583602      19.171057    
    899000   1.0032132      17.775806      19.023195    
    900000   1.0173707      16.65975       18.821404    
    901000   1.0119753      17.474999      18.78968     
    902000   0.95474123     17.300369      18.712616    
    903000   1.0533493      17.103777      18.781223    
    904000   0.98557115     17.791626      18.56257     
    905000   1.0180007      17.304991      18.238342    
    906000   1.0070276      17.008181      18.156357    
    907000   1.0207791      17.319913      18.257403    
    908000   1.0145566      18.086454      18.143993    
    909000   1.0139469      17.366307      17.955556    
    910000   0.97116967     17.594495      17.929132    
    911000   0.98146525     17.89456       17.708955    
    912000   1.0158485      17.445853      17.425308    
    913000   1.0469147      17.335253      17.305688    
    914000   1.0203682      17.804786      17.226973    
    915000   0.95652167     17.706937      17.41379     
    916000   0.98056705     16.878239      17.333732    
    917000   0.99854316     17.607796      17.236406    
    918000   1.0089491      17.137622      17.142991    
    919000   0.98580983     17.955034      17.122531    
    920000   1.0163219      17.365806      16.979871    
    921000   1.0322359      18.072319      16.867987    
    922000   1.0067482      17.472236      16.718538    
    923000   1.054641       17.736434      16.452469    
    924000   1.0024964      17.161857      16.244368    
    925000   0.95250478     17.571352      16.238334    
    926000   1.0191142      17.996617      16.251074    
    927000   1.0014825      16.985029      16.285199    
    928000   1.0012856      17.516287      16.228124    
    929000   0.98436876     17.397512      16.237098    
    930000   0.97916132     16.981548      16.026548    
    931000   0.98656079     17.513727      15.851847    
    932000   1.0058328      17.520917      15.750494    
    933000   1.0633459      17.729176      15.81234     
    934000   1.061038       16.52971       15.564961    
    935000   1.040518       17.243329      15.29589     
    936000   0.99046415     17.301902      15.137639    
    937000   0.99535501     16.913494      15.110949    
    938000   0.9958993      16.995027      15.195989    
    939000   1.0013573      17.003093      15.112424    
    940000   0.99119144     17.26834       15.119486    
    941000   1.0475572      16.750923      15.214845    
    942000   1.0293903      17.329246      15.159391    
    943000   1.0000329      17.161907      15.071051    
    944000   0.96286231     16.800713      14.835331    
    945000   0.99909391     17.126644      14.608789    
    946000   0.99468832     16.586037      14.466271    
    947000   1.0128879      17.684502      14.361656    
    948000   0.95993948     17.18474       14.153239    
    949000   0.96421075     17.690492      13.942849    
    950000   1.0005745      17.233988      13.796507    
    951000   1.0007595      17.569835      13.579105    
    952000   1.0347302      17.516825      13.492126    
    953000   0.9762585      17.432414      13.193233    
    954000   0.99424917     16.910059      12.858655    
    955000   0.99659409     17.814046      12.67477     
    956000   1.0267411      17.255749      12.685133    
    957000   1.0009572      17.061444      12.605598    
    958000   1.0081286      16.772328      12.641623    
    959000   0.97644825     17.640801      12.476931    
    960000   1.0055651      17.058285      12.283059    
    961000   1.0230519      17.047449      12.09856     
    962000   1.0383855      17.986586      11.896256    
    963000   0.97139355     17.111523      11.812375    
    964000   1.0154844      17.13295       11.698419    
    965000   1.052429       17.058052      11.695604    
    966000   1.0010645      16.506179      11.726726    
    967000   0.95382257     16.611451      11.591592    
    968000   1.0045926      17.307839      11.592352    
    969000   1.033229       16.870457      11.555795    
    970000   0.99662834     16.805441      11.531303    
    971000   0.97792582     16.766874      11.499643    
    972000   1.0252543      17.07814       11.237933    
    973000   1.0020238      17.271574      11.114595    
    974000   0.99227196     17.256707      11.0502      
    975000   0.94949324     16.630751      11.033935    
    976000   1.0025038      17.266695      11.008257    
    977000   0.9997215      17.027423      11.035403    
    978000   1.0017716      17.446088      11.065185    
    979000   0.99254863     16.520235      10.895653    
    980000   0.98821432     17.088644      10.758856    
    981000   1.0061898      17.026038      10.804597    
    982000   1.0887511      17.082807      10.777813    
    983000   0.98738367     16.909238      10.751608    
    984000   0.96226732     17.154608      10.796509    
    985000   1.0032191      17.154382      10.765876    
    986000   0.98952559     16.526434      10.688877    
    987000   1.0220024      16.257034      10.654166    
    988000   0.94776352     16.41341       10.573071    
    989000   0.9955082      16.93337       10.599765    
    990000   0.96656514     16.717528      10.606199    
    991000   1.0278319      16.937654      10.588605    
    992000   1.0023779      17.271255      10.858627    
    993000   0.97910011     16.936257      10.695664    
    994000   0.99593314     17.270289      10.583859    
    995000   1.0077008      17.771878      10.473846    
    996000   1.0211643      16.981393      10.353075    
    997000   0.97749622     16.564768      10.284843    
    998000   1.0119346      16.353866      10.199792    
    999000   1.0000261      16.81928       10.161       
   1000000   0.99756707     16.988317      10.017298    
   1001000   1.0346262      17.477878      9.9812033    
   1002000   1.0067088      16.794729      10.096381    
   1003000   0.97909921     17.016249      10.025433    
   1004000   0.99985593     17.404911      9.9767847    
   1005000   1.0141875      16.973374      9.8869137    
   1006000   0.99703755     17.426814      9.8467488    
   1007000   0.99452719     16.773144      9.6959476    
   1008000   0.99629155     16.935625      9.5549136    
   1009000   0.98321691     17.339272      9.5814768    
   1010000   1.016465       17.051575      9.6047222    
   1011000   0.98958651     16.958609      9.6499453    
   1012000   1.0362429      17.22261       9.6648841    
   1013000   0.99997734     17.376736      9.562034     
   1014000   0.96013733     16.097609      9.4122082    
   1015000   0.99885013     17.02866       9.2694685    
   1016000   0.99948724     17.113032      9.3435023    
   1017000   1.0018259      17.232199      9.3602819    
   1018000   0.95559364     16.056708      9.3597332    
   1019000   0.9875926      17.092919      9.3039639    
   1020000   0.9808612      16.860881      9.3158878    
   1021000   1.0454793      17.358151      9.3725223    
   1022000   1.0116416      17.125364      9.329036     
   1023000   0.97786876     17.364605      9.2486478    
   1024000   1.0324468      16.415455      9.2649275    
   1025000   0.95388506     17.251362      9.2468879    
   1026000   0.99916471     16.603489      9.2812694    
   1027000   0.9494746      16.988169      9.2125168    
   1028000   0.99875854     17.550603      9.15187      
   1029000   1.0011206      17.472576      8.8335197    
   1030000   1.0097327      17.118586      8.6244884    
   1031000   1.0241101      17.152054      8.5841128    
   1032000   1.0126928      17.10335       8.6303315    
   1033000   0.99999282     16.996637      8.5724208    
   1034000   0.95308691     16.761721      8.6464435    
   1035000   0.98627561     17.278022      8.568502     
   1036000   1.028897       16.892127      8.5521093    
   1037000   1.0272996      16.906376      8.5760386    
   1038000   1.002936       16.739404      8.6471096    
   1039000   1.0073373      17.150957      8.519935     
   1040000   0.98288985     17.234685      8.1419554    
   1041000   1.0000828      16.484892      8.177276     
   1042000   0.98602983     16.69688       8.2539044    
   1043000   0.98820433     16.874941      8.1837145    
   1044000   1.0255467      17.138379      8.0792588    
   1045000   1.0167101      17.409198      7.9855474    
   1046000   1.0195341      17.20319       7.9224137    
   1047000   1.0365492      17.173254      7.951908     
   1048000   1.039552       16.958267      7.8822564    
   1049000   1.0082457      16.979764      7.8345611    
   1050000   1.0030859      16.69873       7.8740651    
   1051000   0.99802873     17.140061      7.8313468    
   1052000   1.0326968      17.097362      7.6808399    
   1053000   1.0064171      17.029202      7.5820979    
   1054000   1.0277859      17.067086      7.4676929    
   1055000   0.99551067     17.020709      7.392379     
   1056000   0.95524768     17.028492      7.2279651    
   1057000   1.0019082      17.456581      7.1573821    
   1058000   0.98625763     17.057986      7.2891485    
   1059000   1.0090363      16.945351      7.1805518    
   1060000   0.99289599     16.631705      7.0823847    
   1061000   1.0129067      16.959085      7.1056077    
   1062000   0.9714615      17.231105      6.7778924    
   1063000   0.99247162     16.872576      6.6026427    
   1064000   0.98075224     16.859586      6.3983231    
   1065000   1.0217507      16.96856       6.1014129    
   1066000   1.0020067      17.280017      6.0003412    
   1067000   0.99831216     16.422537      5.8218629    
   1068000   1.0303422      16.486075      5.7454606    
   1069000   0.97822951     17.428116      5.5833115    
   1070000   0.98765343     16.560363      5.4832353    
   1071000   0.98101427     16.583442      5.4468526    
   1072000   0.99779299     16.544883      5.4436617    
   1073000   0.97560153     16.730334      5.3676861    
   1074000   0.96378787     16.459266      5.3630945    
   1075000   1.0139584      16.940418      5.3289639    
   1076000   0.99430046     16.831856      5.3046787    
   1077000   1.0056885      16.621669      5.3441715    
   1078000   0.95861659     16.169986      5.2683207    
   1079000   1.0396458      17.03405       5.2905776    
   1080000   1.0107231      16.860339      5.2625178    
   1081000   1.0353328      16.658989      5.2389717    
   1082000   0.98488893     16.358934      5.3039369    
   1083000   0.96401181     16.818144      5.246062     
   1084000   1.0082425      16.371936      5.2721173    
   1085000   1.0166913      16.895126      5.2586027    
   1086000   1.0091883      16.391234      5.2903063    
   1087000   0.97310182     17.070435      5.2401955    
   1088000   1.0128854      17.03934       5.2388777    
   1089000   0.9874698      16.096499      5.2537494    
   1090000   1.0013771      16.629711      5.2675298    
   1091000   1.0081543      16.164072      5.2669907    
   1092000   1.0193772      16.98309       5.2976608    
   1093000   0.95574608     16.508042      5.2672687    
   1094000   1.0355927      16.666044      5.2382706    
   1095000   0.99081483     17.193141      5.2232832    
   1096000   1.0344186      16.943828      5.2666999    
   1097000   0.98683697     16.433288      5.2739031    
   1098000   1.0335537      16.953047      5.2765398    
   1099000   1.0338452      16.336605      5.2641338    
   1100000   0.98644939     17.121747      5.2844718    
   1101000   0.97283938     16.667623      5.2608343    
   1102000   0.97051903     17.10005       5.246188     
   1103000   0.95178822     16.911387      5.2596411    
   1104000   0.96556217     16.821048      5.2200618    
   1105000   1.028621       16.687393      5.2757683    
   1106000   1.0043412      16.521809      5.2882261    
   1107000   1.0173691      16.113568      5.3032137    
   1108000   1.0020978      16.373235      5.2757445    
   1109000   0.98775425     16.595249      5.2722602    
   1110000   1.0009959      16.254921      5.3008706    
   1111000   0.99761249     16.681213      5.268388     
   1112000   1.0123443      16.672973      5.2665068    
   1113000   0.99482935     16.99879       5.264363     
   1114000   1.046748       17.305684      5.2540938    
   1115000   1.0171707      16.821024      5.2691321    
   1116000   1.0284479      16.784771      5.2657827    
   1117000   0.998174       16.620435      5.2787087    
   1118000   1.0387413      17.435643      5.279512     
   1119000   0.96298322     16.201453      5.2546545    
   1120000   1.0022369      16.924535      5.2411508    
   1121000   1.0061094      16.218629      5.2544307    
   1122000   1.0348613      16.996438      5.2563893    
   1123000   0.97331655     16.502587      5.2465575    
   1124000   0.96405369     16.604636      5.2248122    
   1125000   1.0299634      17.453954      5.2364443    
   1126000   1.0277108      16.916814      5.2764949    
   1127000   1.0066362      16.249718      5.2197839    
   1128000   0.94262028     16.488556      5.2841575    
   1129000   1.0066243      17.000443      5.2648708    
   1130000   0.98854552     16.867438      5.2551302    
   1131000   0.9850952      16.091498      5.214259     
   1132000   1.0029818      16.677245      5.2473371    
   1133000   0.99246386     16.695341      5.2475957    
   1134000   0.99081785     16.3707        5.2825801    
   1135000   0.99257173     16.768142      5.2643699    
   1136000   0.97805482     17.044875      5.2696815    
   1137000   1.0171063      16.664977      5.2814461    
   1138000   0.94579067     16.513279      5.2187516    
   1139000   0.98556814     16.64054       5.2642351    
   1140000   0.98643481     16.784148      5.2504629    
   1141000   0.97850403     16.884249      5.2537565    
   1142000   1.0316525      16.996921      5.2782209    
   1143000   0.99730674     16.463088      5.246739     
   1144000   0.96772392     16.877545      5.2386612    
   1145000   0.97269723     16.823871      5.268512     
   1146000   0.99510314     17.210269      5.2659632    
   1147000   1.008847       16.745454      5.2582021    
   1148000   0.99391841     16.869231      5.2545512    
   1149000   1.0256214      17.183597      5.2742743    
   1150000   0.97044623     17.068962      5.2696285    
   1151000   1.0445227      17.405788      5.2865585    
   1152000   0.98279268     16.811551      5.2428745    
   1153000   1.0065221      16.68783       5.2510089    
   1154000   1.0600566      17.022438      5.2911285    
   1155000   1.0205893      16.851324      5.2930389    
   1156000   1.0735876      16.942899      5.2863159    
   1157000   0.98267698     16.990395      5.254631     
   1158000   0.99804772     17.165581      5.2524901    
   1159000   1.0273946      16.957011      5.2585904    
   1160000   1.0219551      17.046354      5.2344388    
   1161000   0.95669191     16.572295      5.249292     
   1162000   0.99341635     16.817258      5.2605263    
   1163000   0.99016726     16.580625      5.2892263    
   1164000   0.98607234     16.785164      5.2514347    
   1165000   1.0027477      16.762068      5.2730935    
   1166000   0.99630742     16.750579      5.262372     
   1167000   1.0095841      16.657718      5.2665811    
   1168000   1.0052229      16.906243      5.2920895    
   1169000   0.9974453      17.613805      5.2310855    
   1170000   0.9811596      16.906017      5.2275914    
   1171000   0.98718354     16.875847      5.2584191    
   1172000   1.0357272      16.505293      5.233567     
   1173000   1.0357576      17.342475      5.2439707    
   1174000   0.99769161     16.722912      5.2534303    
   1175000   0.98165677     16.154958      5.2568997    
   1176000   0.97784893     16.69254       5.2472103    
   1177000   0.99740976     16.860169      5.2715642    
   1178000   1.014081       16.402299      5.2672494    
   1179000   1.0016571      17.013915      5.244366     
   1180000   0.92667596     16.553166      5.2823117    
   1181000   1.0277326      16.511587      5.2978135    
   1182000   1.0013093      16.937404      5.2634138    
   1183000   1.0413842      17.006768      5.2510566    
   1184000   0.99189037     16.720889      5.2600184    
   1185000   1.0137372      17.273787      5.293984     
   1186000   1.0065936      16.762526      5.2825769    
   1187000   0.99566566     16.447479      5.2478361    
   1188000   1.01328        16.819732      5.2573955    
   1189000   1.0078837      16.791267      5.2615578    
   1190000   1.0472005      16.999114      5.3109896    
   1191000   0.99163161     16.512853      5.2747341    
   1192000   0.97922759     17.115875      5.2456173    
   1193000   1.038588       17.257416      5.2354552    
   1194000   0.95446001     16.997224      5.2054244    
   1195000   1.0150032      16.637201      5.2533428    
   1196000   1.0124527      16.841056      5.2652166    
   1197000   1.0087162      16.582219      5.2676167    
   1198000   1.0058608      16.693488      5.2711465    
   1199000   0.97041636     16.65409       5.2409511    
   1200000   0.98680826     16.872708      5.2125785    
   1201000   0.95596892     17.366807      5.2157357    
   1202000   1.0079709      16.263913      5.2525937    
   1203000   0.979469       16.907947      5.2563572    
   1204000   0.96527963     16.850161      5.2531119    
   1205000   0.98615194     16.923721      5.2986772    
   1206000   0.95219831     16.618922      5.2241314    
   1207000   1.0051114      16.474195      5.2364975    
   1208000   0.97729221     16.854336      5.2129126    
   1209000   0.99090274     16.298837      5.2610904    
   1210000   0.98383366     16.620229      5.2340565    
   1211000   1.0054699      16.487379      5.2343755    
   1212000   1.0246535      16.839749      5.216759     
   1213000   1.037507       16.717904      5.2230532    
   1214000   1.0112708      16.739984      5.231416     
   1215000   1.0043084      16.917103      5.2504036    
   1216000   1.012861       17.54132       5.2517909    
   1217000   0.98750135     16.919726      5.2420294    
   1218000   0.97690157     16.821218      5.2449231    
   1219000   0.98835187     16.531611      5.2565716    
   1220000   1.0102513      16.820754      5.2633973    
   1221000   1.0403085      16.736373      5.2636072    
   1222000   1.0411418      16.851141      5.2501839    
   1223000   0.99541324     16.439835      5.2430445    
   1224000   1.0295983      16.977838      5.2226414    
   1225000   0.98669996     16.674003      5.2385268    
   1226000   1.0094397      16.999167      5.2371436    
   1227000   0.99640607     16.394998      5.2453691    
   1228000   1.0179783      16.207512      5.241827     
   1229000   0.99834038     17.251153      5.1938409    
   1230000   1.0028331      16.996082      5.2067262    
   1231000   1.0188297      16.508065      5.236867     
   1232000   0.99387634     17.013278      5.2285765    
   1233000   0.97176437     16.963178      5.2527434    
   1234000   1.0014589      16.969179      5.2625904    
   1235000   0.98266134     16.78651       5.2622472    
   1236000   1.0025574      16.620965      5.242774     
   1237000   0.98999419     16.925797      5.2520537    
   1238000   0.95632816     16.338522      5.2653475    
   1239000   1.017269       15.974973      5.2629514    
   1240000   0.97625811     16.591613      5.2693948    
   1241000   1.0014661      16.979104      5.2773012    
   1242000   1.0154419      16.732633      5.2787538    
   1243000   0.98806589     16.21599       5.3128918    
   1244000   1.0090373      17.035619      5.2900793    
   1245000   1.0058975      16.696259      5.2457227    
   1246000   1.0053297      16.8919        5.2700875    
   1247000   0.95555064     16.498823      5.3169077    
   1248000   0.97396759     16.977271      5.2646284    
   1249000   1.0150712      16.556556      5.2610608    
   1250000   0.96588958     16.961946      5.2443733    
   1251000   1.0316352      16.566301      5.2898992    
   1252000   1.0338464      17.14928       5.2784972    
   1253000   1.026162       16.670661      5.2731506    
   1254000   0.99594995     17.000635      5.2475904    
   1255000   0.97882474     16.689898      5.2701393    
   1256000   1.0728842      17.035493      5.3008294    
   1257000   1.0172543      16.874652      5.2951156    
   1258000   0.98215564     16.632173      5.2428032    
   1259000   1.005803       17.008357      5.2178192    
   1260000   0.99305852     16.586519      5.2271061    
   1261000   0.99208977     16.642405      5.2704683    
   1262000   1.009088       16.539257      5.2349525    
   1263000   0.97301736     17.077645      5.2354331    
   1264000   0.95164365     17.058436      5.2406504    
   1265000   0.97602368     16.906718      5.2743104    
   1266000   0.9845614      16.993656      5.3076674    
   1267000   0.98107139     16.313103      5.2478023    
   1268000   1.0141435      16.09138       5.2800548    
   1269000   0.98465217     16.71745       5.2793625    
   1270000   0.9825799      16.920968      5.2824782    
   1271000   1.0117513      16.452634      5.2665017    
   1272000   1.0022477      17.13955       5.2585229    
   1273000   1.0056645      16.716762      5.2841449    
   1274000   1.0173838      16.648039      5.2346665    
   1275000   1.0192608      16.406931      5.2681511    
   1276000   0.98627406     16.75869       5.2235122    
   1277000   0.99444759     16.757468      5.2704454    
   1278000   0.98860689     17.083353      5.2797706    
   1279000   0.94445772     16.457053      5.2791586    
   1280000   0.99342602     16.296481      5.2297901    
   1281000   0.99479126     16.860897      5.2357788    
   1282000   0.99130843     16.884036      5.2397595    
   1283000   1.0222011      16.858723      5.2904253    
   1284000   0.99106705     16.489331      5.2584568    
   1285000   1.0317597      16.595529      5.2588058    
   1286000   0.99309413     16.717006      5.2359268    
   1287000   0.97879648     16.212897      5.2324523    
   1288000   1.0092985      16.883943      5.2627362    
   1289000   0.98052333     16.844769      5.2466176    
   1290000   0.98409933     16.696583      5.2824909    
   1291000   0.99166085     16.722676      5.2799546    
   1292000   1.0127642      16.412801      5.2616568    
   1293000   0.9904809      16.857855      5.2620941    
   1294000   0.9690597      16.642164      5.2523125    
   1295000   0.98059791     16.49412       5.2544212    
   1296000   0.98883803     16.487491      5.2683008    
   1297000   1.0083765      16.366913      5.2585785    
   1298000   1.0379529      16.814882      5.2449637    
   1299000   1.0320133      16.590649      5.2936868    
   1300000   0.98257046     16.261689      5.291784     
   1301000   1.0288415      16.625129      5.2613783    
   1302000   0.95723035     16.760048      5.2754497    
   1303000   0.98972646     16.433464      5.2656403    
   1304000   1.0016792      16.540926      5.2302444    
   1305000   0.97613639     16.398956      5.2865563    
   1306000   1.04476        16.524603      5.2959949    
   1307000   0.98304565     16.923025      5.317919     
   1308000   1.0155883      17.221825      5.3278878    
   1309000   0.9802386      16.738431      5.2931069    
   1310000   0.99442473     16.485903      5.3021198    
   1311000   1.0335523      17.034311      5.3070654    
   1312000   0.99616094     16.918702      5.301603     
   1313000   0.98283186     16.230054      5.2913525    
   1314000   0.98273522     16.524386      5.2614209    
   1315000   0.96903419     16.899738      5.2203036    
   1316000   1.0058546      16.509803      5.276578     
   1317000   1.0159626      16.559185      5.2768232    
   1318000   1.021947       16.552195      5.280768     
   1319000   1.0445343      17.223043      5.268028     
   1320000   0.99208678     16.811172      5.2573412    
   1321000   0.97495262     16.693919      5.2608369    
   1322000   0.98936507     16.537052      5.2809639    
   1323000   0.97425054     16.283662      5.2594614    
   1324000   1.0235798      16.919393      5.268701     
   1325000   0.95353177     16.316603      5.2981265    
   1326000   0.9985908      16.764836      5.282135     
   1327000   1.0357318      16.969309      5.2568035    
   1328000   1.0223594      16.960543      5.2334708    
   1329000   0.98898442     16.602647      5.2251415    
   1330000   0.95675021     16.820297      5.2121646    
   1331000   0.9827045      16.8007        5.2464145    
   1332000   1.027036       16.841651      5.2515161    
   1333000   0.99373385     16.305977      5.2529374    
   1334000   0.99810432     17.060388      5.2606466    
   1335000   0.98687217     16.551852      5.2300379    
   1336000   1.016751       16.931632      5.2301523    
   1337000   1.0350151      16.290472      5.2259167    
   1338000   1.0170454      17.142469      5.2901685    
   1339000   1.0353088      16.752571      5.2793422    
   1340000   1.002147       16.919873      5.3264243    
   1341000   0.99108887     16.733825      5.3034278    
   1342000   0.99650659     17.006222      5.3166238    
   1343000   0.99054727     16.358976      5.2440626    
   1344000   0.99764833     16.484691      5.2651907    
   1345000   1.0407133      16.656788      5.2466241    
   1346000   0.99750942     16.995922      5.2359122    
   1347000   1.0376326      16.62908       5.2442283    
   1348000   0.98921217     16.531887      5.254888     
   1349000   1.0112093      17.415789      5.2114637    
   1350000   0.96583811     16.967472      5.2130136    
   1351000   1.0110769      16.854829      5.1843843    
   1352000   0.98764033     16.65415       5.2631041    
   1353000   0.96459937     16.667006      5.2426367    
   1354000   0.98038081     16.616442      5.2661881    
   1355000   1.0180325      16.609216      5.2652051    
   1356000   1.0170619      17.071461      5.288901     
   1357000   1.0278055      16.608279      5.2883976    
   1358000   0.9881176      16.822618      5.3249987    
   1359000   0.99734344     16.512846      5.2959318    
   1360000   1.0147312      16.708547      5.3119689    
   1361000   0.97647387     16.875318      5.3095449    
   1362000   0.97633852     16.568075      5.2804031    
   1363000   1.0068123      17.113635      5.2782345    
   1364000   0.9895249      16.554146      5.2915431    
   1365000   0.97539743     16.607988      5.310589     
   1366000   0.98598983     17.286095      5.2889033    
   1367000   1.0603784      16.819953      5.2477876    
   1368000   0.98580921     16.166344      5.2942285    
   1369000   1.0178301      16.955697      5.2346244    
   1370000   0.98791796     16.710673      5.2596372    
   1371000   1.0116026      16.169155      5.2575252    
   1372000   1.0334266      16.610329      5.2582624    
   1373000   1.0169508      17.108899      5.2488942    
   1374000   1.0286025      16.515784      5.2180406    
   1375000   1.0166991      17.103356      5.1951705    
   1376000   0.99464551     16.819582      5.2399873    
   1377000   0.99804054     16.579371      5.2601635    
   1378000   1.037928       17.344319      5.2300968    
   1379000   1.0001182      16.870955      5.2473957    
   1380000   1.0032585      16.448151      5.2524586    
   1381000   0.99596419     17.048227      5.2171026    
   1382000   1.0418982      17.019973      5.2263414    
   1383000   0.98600809     17.182718      5.2176944    
   1384000   1.0349575      17.142873      5.2031916    
   1385000   0.99789281     16.652241      5.2397881    
   1386000   1.0023326      17.118476      5.2748205    
   1387000   1.032036       16.453503      5.2572287    
   1388000   1.0294992      16.944231      5.1896831    
   1389000   1.0044186      16.902637      5.2283333    
   1390000   0.96730059     16.81003       5.2510197    
   1391000   1.0179814      16.467951      5.2170669    
   1392000   0.97569349     17.195389      5.2140406    
   1393000   1.0033417      16.601279      5.2493963    
   1394000   0.98550686     16.62176       5.2096955    
   1395000   0.9822654      17.042683      5.2564044    
   1396000   1.0277252      16.853003      5.2461289    
   1397000   0.98414407     16.371872      5.2105466    
   1398000   1.0043555      16.202756      5.241356     
   1399000   1.0369486      16.581106      5.2181489    
   1400000   0.99966715     16.416068      5.2609558    
   1401000   0.98811883     16.42322       5.2585913    
   1402000   0.98430451     16.954741      5.2274026    
   1403000   1.0228422      17.101494      5.2440031    
   1404000   1.0126892      16.747606      5.2104764    
   1405000   1.0059998      17.289161      5.2229927    
   1406000   0.95110213     16.944568      5.2188061    
   1407000   0.97298438     17.180877      5.2243537    
   1408000   1.0149042      16.794675      5.2166578    
   1409000   0.99490581     17.132327      5.2107091    
   1410000   1.0401153      16.83725       5.2319104    
   1411000   0.99792873     16.796746      5.2412077    
   1412000   0.99018224     16.626586      5.2596345    
   1413000   1.0101909      16.3306        5.2342649    
   1414000   1.0372707      16.746086      5.2424921    
   1415000   1.0185046      16.922135      5.2297605    
   1416000   1.0193574      17.05086       5.2348165    
   1417000   0.99105749     16.651764      5.2065475    
   1418000   0.94191889     16.546506      5.2262049    
   1419000   0.95381007     16.818728      5.2026177    
   1420000   1.0198829      16.549739      5.2281625    
   1421000   1.0224046      16.692364      5.2481307    
   1422000   1.0063768      16.657977      5.2785106    
   1423000   1.0044333      17.550246      5.2584674    
   1424000   0.99264926     16.956858      5.2564252    
   1425000   1.0005314      16.368959      5.2369104    
   1426000   0.98418903     16.639215      5.2673443    
   1427000   0.98454886     16.430894      5.2266841    
   1428000   0.99186298     16.245481      5.2276       
   1429000   1.0063523      17.152098      5.225565     
   1430000   0.97023573     16.389699      5.2172244    
   1431000   1.0020563      17.430667      5.1909298    
   1432000   1.0060156      16.848952      5.2397344    
   1433000   1.0328925      16.926299      5.2669508    
   1434000   0.97273822     16.805286      5.2377268    
   1435000   1.0212055      17.67992       5.2816792    
   1436000   0.99956842     16.858359      5.2290131    
   1437000   1.0202985      17.312028      5.2919881    
   1438000   0.97976054     16.60791       5.2700315    
   1439000   0.96433652     16.800428      5.2486562    
   1440000   1.0235115      16.66704       5.2647829    
   1441000   0.98884144     16.744003      5.2567933    
   1442000   0.99696441     16.761648      5.3076783    
   1443000   0.98544409     16.362908      5.2683638    
   1444000   1.0289066      16.673086      5.2786947    
   1445000   1.0056886      16.71296       5.2373285    
   1446000   0.99499822     17.024618      5.2103549    
   1447000   1.0084207      16.573566      5.2445312    
   1448000   0.95736479     16.740629      5.259861     
   1449000   0.98504123     16.938917      5.2232401    
   1450000   0.97963313     17.255473      5.2439783    
   1451000   0.99776559     16.286529      5.2565583    
   1452000   1.0259799      16.40562       5.2368029    
   1453000   1.0141325      17.05173       5.2526043    
   1454000   1.0230975      16.95243       5.2660319    
   1455000   0.97049195     17.379983      5.2233859    
   1456000   0.99819091     16.579543      5.2329991    
   1457000   1.0541029      17.083532      5.2144047    
   1458000   0.9897275      16.733649      5.2105352    
   1459000   1.002352       16.444416      5.2286939    
   1460000   1.0301946      17.208074      5.2562348    
   1461000   0.98779212     16.520227      5.238078     
   1462000   1.0015041      17.125611      5.2219244    
   1463000   0.97564956     17.15236       5.195418     
   1464000   1.0242772      15.917626      5.2318094    
   1465000   1.0161458      17.105077      5.2548841    
   1466000   0.99823307     17.021622      5.2093226    
   1467000   0.99795861     16.694855      5.2330647    
   1468000   1.0172204      17.196223      5.240681     
   1469000   1.01793        16.693183      5.262994     
   1470000   1.0416648      17.230865      5.2571845    
   1471000   1.0184052      16.290968      5.2551648    
   1472000   1.0145275      16.339042      5.2595452    
   1473000   1.0239021      16.540155      5.3184181    
   1474000   1.0247652      17.182941      5.258148     
   1475000   1.0144396      16.593985      5.2140605    
   1476000   1.0119569      16.234059      5.271853     
   1477000   1.0099563      16.660355      5.3127062    
   1478000   1.01576        16.394913      5.2975698    
   1479000   0.98554332     16.283378      5.2777871    
   1480000   0.98758908     16.625984      5.3235741    
   1481000   0.99521103     16.491079      5.3151351    
   1482000   0.9688899      17.226943      5.2924157    
   1483000   0.9996679      17.386842      5.2884081    
   1484000   1.0283383      17.145311      5.2888204    
   1485000   0.93642608     16.28877       5.2733221    
   1486000   0.99097398     16.448106      5.3151702    
   1487000   0.94987194     16.124215      5.2880869    
   1488000   1.0235644      16.733429      5.2675814    
   1489000   1.0137415      16.570982      5.2512642    
   1490000   0.98991031     16.901175      5.2241275    
   1491000   1.0149688      16.768439      5.2226776    
   1492000   1.0465002      16.771435      5.2230742    
   1493000   0.98514216     16.614704      5.2530408    
   1494000   1.0206128      16.172898      5.2678867    
   1495000   1.0047097      16.578488      5.2527674    
   1496000   1.0101813      17.325638      5.2191474    
   1497000   0.99497652     16.136315      5.2488653    
   1498000   0.95566244     17.316143      5.264435     
   1499000   1.0359693      17.034085      5.246052     
   1500000   1.0044065      16.979913      5.2468197    
   1501000   0.99140541     16.998029      5.2184108    
   1502000   1.0155186      17.222773      5.2741292    
   1503000   0.97464255     17.195779      5.2196865    
   1504000   1.0169708      16.347744      5.2521808    
   1505000   0.98476176     16.746765      5.226904     
   1506000   0.96534903     16.834666      5.1924576    
   1507000   1.0228499      16.968454      5.1946048    
   1508000   0.97792916     17.079689      5.2397914    
   1509000   1.0300051      17.004323      5.2480908    
   1510000   0.94344893     16.919529      5.2441818    
   1511000   1.0189433      16.813956      5.248513     
   1512000   1.028353       17.059148      5.2377307    
   1513000   0.98000417     17.010024      5.2400113    
   1514000   1.0263126      16.575368      5.2392117    
   1515000   1.001878       16.506585      5.2296561    
   1516000   1.0009113      16.895585      5.2628       
   1517000   1.0137696      16.813045      5.2596901    
   1518000   1.0069462      16.731246      5.225775     
   1519000   0.96831298     16.244054      5.2682101    
   1520000   0.9872255      16.770077      5.2815806    
   1521000   1.0271186      16.476795      5.2658105    
   1522000   0.99758325     17.692229      5.2885822    
   1523000   0.98135631     16.229509      5.2691557    
   1524000   0.9692095      16.253888      5.2841634    
   1525000   1.004803       16.82247       5.2808583    
   1526000   1.0177736      16.689171      5.280305     
   1527000   0.9887664      17.24951       5.2223822    
   1528000   0.95488354     16.252323      5.2966128    
   1529000   1.0318339      16.848919      5.2688351    
   1530000   1.0143485      16.731796      5.2779942    
   1531000   1.0166195      17.120723      5.2530678    
   1532000   0.99725335     16.82425       5.2861792    
   1533000   1.0138081      17.273455      5.2605423    
   1534000   1.0222595      16.50407       5.3079138    
   1535000   0.98725289     16.289784      5.3594649    
   1536000   1.0117102      16.493068      5.3261664    
   1537000   1.0020505      16.618256      5.2838776    
   1538000   0.95800754     16.708289      5.3106226    
   1539000   1.0325111      16.448389      5.3023769    
   1540000   1.000318       16.914909      5.2995429    
   1541000   0.9935025      16.677024      5.3284488    
   1542000   1.0216615      16.490874      5.3067552    
   1543000   0.99086907     16.808844      5.2457055    
   1544000   0.95446821     17.084749      5.2663304    
   1545000   1.005304       17.043192      5.2578156    
   1546000   0.99297599     16.890275      5.2263244    
   1547000   1.0016565      16.047235      5.2549724    
   1548000   0.99197344     16.672435      5.2133014    
   1549000   1.0121172      16.497502      5.2323288    
   1550000   0.95748677     17.130049      5.2113311    
   1551000   0.99033111     16.531282      5.1980696    
   1552000   0.9638331      16.50323       5.2172322    
   1553000   1.0082582      16.624603      5.2138826    
   1554000   0.98862578     16.687759      5.2280819    
   1555000   1.0115905      16.586278      5.2591731    
   1556000   0.97869548     16.087838      5.2368353    
   1557000   1.040653       17.083534      5.2265945    
   1558000   1.0055104      16.64092       5.25766      
   1559000   0.96811418     15.985169      5.2354124    
   1560000   1.0066224      16.847134      5.210873     
   1561000   1.0153336      16.713801      5.2263369    
   1562000   0.99626997     17.214706      5.2271531    
   1563000   1.0456035      16.516231      5.27399      
   1564000   0.99850889     17.081431      5.266968     
   1565000   0.98223316     16.653125      5.2972389    
   1566000   0.9369231      16.467196      5.2326115    
   1567000   1.03132        16.732411      5.2511381    
   1568000   0.97535347     17.004945      5.267965     
   1569000   1.0146387      16.392189      5.2585657    
   1570000   1.0027277      17.122391      5.2797976    
   1571000   0.98058963     16.503895      5.2440454    
   1572000   1.0043893      16.75844       5.2170742    
   1573000   0.97136532     16.123618      5.2322019    
   1574000   1.0026881      16.924705      5.2341595    
   1575000   1.0325947      16.545593      5.2542154    
   1576000   0.9850799      16.442934      5.245457     
   1577000   1.0317768      16.937222      5.2420494    
   1578000   0.99062968     17.163185      5.2727981    
   1579000   0.99125655     17.125388      5.2278954    
   1580000   0.99054099     16.281689      5.1965745    
   1581000   1.0080114      17.047118      5.2042288    
   1582000   0.98099885     16.941819      5.2119354    
   1583000   1.0062024      17.164845      5.2171651    
   1584000   0.99259287     17.670137      5.2078798    
   1585000   0.98342619     16.620895      5.2522516    
   1586000   1.0046773      16.393943      5.2330852    
   1587000   1.0097436      16.742525      5.2373543    
   1588000   0.99418901     16.911863      5.2138796    
   1589000   1.0025147      16.726613      5.2200931    
   1590000   0.96272929     16.682004      5.2538501    
   1591000   1.0024656      16.799817      5.2688891    
   1592000   0.99139977     16.758674      5.2389813    
   1593000   0.97623841     15.997308      5.2583914    
   1594000   0.9723305      16.891438      5.2370144    
   1595000   0.96186401     16.504221      5.2900543    
   1596000   1.0061323      16.977752      5.2224162    
   1597000   1.029572       16.731195      5.2164604    
   1598000   1.0259428      17.191242      5.2109982    
   1599000   1.0059727      16.814585      5.2518211    
   1600000   0.99155254     16.367026      5.2451216    
   1601000   1.00079        16.742548      5.2278232    
   1602000   1.0016935      17.135408      5.2166866    
   1603000   1.031287       16.770409      5.2262923    
   1604000   1.0231353      16.515248      5.2590342    
   1605000   1.0564192      16.495325      5.2442415    
   1606000   1.041449       17.121156      5.2498983    
   1607000   0.97881909     17.318375      5.2490015    
   1608000   0.97876038     16.554566      5.2780876    
   1609000   1.0041326      16.513384      5.2741691    
   1610000   0.99788697     16.972491      5.23135      
   1611000   1.0217646      17.160961      5.2279154    
   1612000   1.0391872      16.861435      5.2608331    
   1613000   0.97832914     16.550961      5.2616908    
   1614000   0.96533588     16.452496      5.2825656    
   1615000   1.0017964      16.427002      5.2579975    
   1616000   1.0214749      16.749727      5.2756519    
   1617000   0.99283752     16.768732      5.2557312    
   1618000   1.039892       16.835309      5.2701177    
   1619000   1.0087645      16.893339      5.2624556    
   1620000   0.99250184     16.927134      5.2497905    
   1621000   1.011367       16.725848      5.2435103    
   1622000   1.0240645      17.698955      5.2258364    
   1623000   1.0481334      16.360742      5.2381408    
   1624000   0.96972344     16.767668      5.2532146    
   1625000   0.9703692      17.119138      5.2275015    
   1626000   1.0102894      16.68151       5.2758385    
   1627000   0.97551179     16.544078      5.2563227    
   1628000   1.0003062      17.084138      5.2391593    
   1629000   1.0159284      16.76276       5.22228      
   1630000   1.0135583      17.025166      5.2485398    
   1631000   1.0303829      16.998789      5.2228529    
   1632000   1.0501407      17.294243      5.2246152    
   1633000   0.98258214     16.452511      5.2471067    
   1634000   1.0056601      16.832629      5.2147772    
   1635000   1.0117107      16.149095      5.2718705    
   1636000   1.0199147      17.32214       5.2622594    
   1637000   0.98843444     17.0638        5.2617586    
   1638000   1.007771       16.490254      5.2755675    
   1639000   1.0634837      16.678647      5.2441727    
   1640000   1.0079822      17.219077      5.2401108    
   1641000   0.98940169     16.593672      5.2813566    
   1642000   1.0051889      16.64175       5.2662651    
   1643000   1.0032069      16.754474      5.2834762    
   1644000   1.012925       17.181345      5.2670969    
   1645000   1.0367931      16.813171      5.2948173    
   1646000   1.0235066      16.85971       5.2874867    
   1647000   1.0526086      16.905431      5.2700352    
   1648000   0.99249004     16.89988       5.2614402    
   1649000   0.98896972     17.464631      5.2069903    
   1650000   1.0006305      15.629393      5.2530231    
   1651000   1.0408353      16.840521      5.2209477    
   1652000   0.97601545     16.599353      5.2484508    
   1653000   0.99621336     16.670065      5.2366491    
   1654000   1.0108752      16.773174      5.2304675    
   1655000   1.013602       16.916251      5.2361464    
   1656000   1.0284851      16.270619      5.2372071    
   1657000   1.0101665      16.437135      5.2822666    
   1658000   0.99307057     16.489893      5.2688127    
   1659000   0.9974766      16.731335      5.2443859    
   1660000   1.0196103      17.109149      5.2387852    
   1661000   1.0015284      17.442976      5.2144349    
   1662000   1.0215017      16.748682      5.295253     
   1663000   1.0298976      16.741783      5.2539523    
   1664000   1.0077197      16.969515      5.2307197    
   1665000   1.0256737      16.753025      5.2259693    
   1666000   0.99709447     16.465183      5.2809379    
   1667000   0.97944329     16.673016      5.2489971    
   1668000   1.0023919      17.380898      5.2381078    
   1669000   1.036728       16.804257      5.2435761    
   1670000   0.99216267     16.689969      5.2596104    
   1671000   1.0024087      16.911307      5.2516356    
   1672000   1.0039471      16.656845      5.2193629    
   1673000   1.0299818      17.304751      5.2497476    
   1674000   1.0091658      16.671525      5.2258592    
   1675000   1.0194958      16.775975      5.2707269    
   1676000   0.99614755     17.371769      5.2489218    
   1677000   0.96512353     16.788606      5.2316652    
   1678000   1.0466015      17.264726      5.198652     
   1679000   1.0230525      16.623573      5.2382705    
   1680000   0.9890124      16.853903      5.2311983    
   1681000   0.98937556     16.546448      5.2575402    
   1682000   0.99256009     17.28478       5.2391439    
   1683000   0.98663359     16.609295      5.2460886    
   1684000   1.0328659      16.395376      5.2459763    
   1685000   0.9804054      16.630876      5.20592      
   1686000   1.0170554      16.889662      5.2580192    
   1687000   0.9924147      16.51059       5.2477977    
   1688000   1.0265736      16.849417      5.1925562    
   1689000   1.0026833      16.690866      5.2400068    
   1690000   0.99904322     16.81758       5.2293514    
   1691000   1.0223093      16.408803      5.2511114    
   1692000   0.99191832     17.1163        5.2101013    
   1693000   0.97359043     16.518695      5.2354396    
   1694000   0.95524987     15.966501      5.2273706    
   1695000   1.0264077      17.059871      5.1951383    
   1696000   0.98883488     16.75502       5.2236929    
   1697000   1.0303268      16.947277      5.2049632    
   1698000   0.99768126     16.603776      5.2288176    
   1699000   0.97595503     16.570564      5.1985351    
   1700000   0.99535185     16.77789       5.2227963    
   1701000   1.0286125      16.827293      5.1895323    
   1702000   0.98592201     15.993108      5.2280839    
   1703000   1.0045002      16.786833      5.2440344    
   1704000   0.99083634     17.11677       5.2275083    
   1705000   1.0269673      16.538735      5.1855059    
   1706000   0.95251638     16.850818      5.2300656    
   1707000   1.0016593      16.816545      5.2286326    
   1708000   1.0144129      16.635239      5.2302407    
   1709000   0.9897263      16.88001       5.2676229    
   1710000   0.97942311     16.525196      5.2950072    
   1711000   1.0619544      17.083683      5.2716605    
   1712000   1.0015513      16.510723      5.2852022    
   1713000   1.0546778      16.624457      5.2715731    
   1714000   0.97161105     16.800818      5.2342143    
   1715000   1.0348376      16.9561        5.2683039    
   1716000   1.0192702      17.240694      5.2891499    
   1717000   1.0142099      16.723512      5.2249793    
   1718000   0.98994711     16.579643      5.2052475    
   1719000   0.98896406     16.738676      5.2343149    
   1720000   0.99868158     16.636108      5.2419348    
   1721000   1.0075746      16.844358      5.2342762    
   1722000   1.0100123      16.554092      5.2074776    
   1723000   0.94279989     16.783496      5.2224686    
   1724000   0.97497552     17.026491      5.1991284    
   1725000   1.0147753      16.080354      5.2274717    
   1726000   1.0527368      16.96092       5.218569     
   1727000   1.0070289      16.795263      5.2491156    
   1728000   0.9775115      17.267268      5.2303975    
   1729000   1.009643       17.112352      5.2547123    
   1730000   1.0337129      17.145092      5.2382263    
   1731000   0.98395152     16.437261      5.2570968    
   1732000   1.0222525      16.486249      5.2398586    
   1733000   1.0079928      16.418452      5.2458601    
   1734000   1.0023795      16.956689      5.2315241    
   1735000   1.048776       16.908656      5.2339743    
   1736000   1.0276078      16.603361      5.2571353    
   1737000   1.0135748      16.606927      5.2468184    
   1738000   0.98714403     16.692236      5.241111     
   1739000   1.0025234      16.915445      5.2329527    
   1740000   0.95254023     16.917361      5.2479141    
   1741000   0.99040119     16.811778      5.2552681    
   1742000   1.0113983      16.689835      5.2904177    
   1743000   1.0076077      16.254888      5.2478801    
   1744000   0.97748932     16.243909      5.2374714    
   1745000   1.0091993      16.864152      5.2182101    
   1746000   1.0217245      16.5455        5.2484972    
   1747000   0.97483628     16.813203      5.2635891    
   1748000   1.011192       17.205345      5.3177206    
   1749000   0.99920755     16.308226      5.2981694    
   1750000   1.0048259      16.72814       5.2819177    
   1751000   1.0246915      16.860074      5.2402477    
   1752000   0.99079015     16.851095      5.2376657    
   1753000   0.995735       16.616854      5.2304087    
   1754000   0.99624648     16.64554       5.2553604    
   1755000   0.93806969     16.791867      5.2348263    
   1756000   1.0199482      16.534686      5.2012363    
   1757000   0.97392766     16.537898      5.2050171    
   1758000   0.99020809     16.727418      5.2426454    
   1759000   0.96668465     16.54689       5.2592841    
   1760000   0.97081912     16.247221      5.2950804    
   1761000   0.96720641     15.512847      5.2423647    
   1762000   1.0235356      17.0685        5.2177067    
   1763000   0.97863725     16.452322      5.2588998    
   1764000   0.98234852     16.834424      5.2710956    
   1765000   1.0051889      16.437436      5.2505442    
   1766000   1.0162137      16.968889      5.2629547    
   1767000   1.0411394      16.630717      5.2507949    
   1768000   1.0484114      17.357891      5.2615862    
   1769000   1.0054325      17.500027      5.2570359    
   1770000   0.95592769     16.76137       5.3077395    
   1771000   0.97886748     16.572272      5.2953302    
   1772000   0.99619768     16.376624      5.3181939    
   1773000   0.95884426     16.651931      5.2875429    
   1774000   1.0224678      16.478101      5.3166183    
   1775000   1.0106898      16.476308      5.2429812    
   1776000   1.0311187      16.821441      5.2610358    
   1777000   0.96684494     16.875975      5.2575417    
   1778000   1.0126668      17.071789      5.2816727    
   1779000   0.98254331     16.609954      5.2503702    
   1780000   1.019654       16.665817      5.2862217    
   1781000   1.0008135      16.309554      5.2597197    
   1782000   1.0266598      16.963621      5.2510378    
   1783000   0.98824358     17.205916      5.2265696    
   1784000   0.96758614     16.435396      5.2725209    
   1785000   0.98103852     16.613286      5.2417058    
   1786000   0.9797751      16.84561       5.2337644    
   1787000   0.99309004     16.617033      5.2114179    
   1788000   0.96945519     16.520911      5.2102641    
   1789000   0.95344435     16.900727      5.2353988    
   1790000   1.0369743      16.52748       5.2580984    
   1791000   1.0254806      16.793947      5.2453628    
   1792000   1.0015254      16.216328      5.2746005    
   1793000   1.0692918      16.978213      5.2356312    
   1794000   0.97548087     16.640699      5.2447901    
   1795000   1.0232109      16.009688      5.2585464    
   1796000   1.0512356      16.980988      5.234477     
   1797000   0.97135394     16.40778       5.2596945    
   1798000   0.99087661     16.736876      5.2556675    
   1799000   0.98485119     16.719422      5.2156031    
   1800000   0.98291555     16.63217       5.2410781    
   1801000   1.0233873      16.855749      5.2225815    
   1802000   1.0368717      16.832414      5.2105647    
   1803000   0.98655601     16.425105      5.2157946    
   1804000   0.97634922     16.406596      5.2426103    
   1805000   0.99082231     16.616622      5.2341565    
   1806000   0.98544415     16.666818      5.2308949    
   1807000   0.98969297     16.83583       5.2083692    
   1808000   1.0092452      16.921596      5.272603     
   1809000   0.98676263     16.572467      5.2672145    
   1810000   1.045865       16.670099      5.2703679    
   1811000   1.0178085      16.233473      5.2818644    
   1812000   0.98337133     16.653979      5.2745459    
   1813000   1.0194234      16.971597      5.2507747    
   1814000   0.99127649     16.996775      5.2343041    
   1815000   1.0101088      17.062768      5.2685816    
   1816000   0.96539791     16.778049      5.2605789    
   1817000   1.0198835      16.432732      5.2513104    
   1818000   1.0224482      16.188103      5.246574     
   1819000   1.020098       17.048968      5.2124602    
   1820000   1.0024822      16.852014      5.2392795    
   1821000   0.99856132     16.886332      5.2248517    
   1822000   0.95122514     16.930781      5.2249923    
   1823000   1.0118364      16.330706      5.2342312    
   1824000   0.98449399     16.445576      5.2263695    
   1825000   1.0490458      16.818454      5.2463017    
   1826000   0.95023908     16.380518      5.2457605    
   1827000   1.0331315      17.088496      5.2555058    
   1828000   0.97346722     16.011408      5.2640338    
   1829000   1.0000923      16.958495      5.2987827    
   1830000   1.0391638      16.294221      5.2609534    
   1831000   0.99306028     16.614854      5.236396     
   1832000   0.98553984     17.298789      5.2152887    
   1833000   1.0323906      16.050177      5.2108691    
   1834000   0.99381399     16.679345      5.2114226    
   1835000   1.0260986      17.053435      5.267082     
   1836000   1.0383986      16.871317      5.2536683    
   1837000   0.99693931     16.719521      5.2927328    
   1838000   1.0111925      16.263263      5.2697595    
   1839000   0.99299598     16.438409      5.2368782    
   1840000   1.0011744      16.751744      5.266719     
   1841000   1.0487536      16.721834      5.2815137    
   1842000   0.99582789     16.98485       5.2832051    
   1843000   1.005265       17.228249      5.2612593    
   1844000   1.009417       16.703151      5.2710729    
   1845000   0.98878013     16.515779      5.2726727    
   1846000   1.0100427      17.213954      5.2816906    
   1847000   1.028363       16.733123      5.2614039    
   1848000   1.0280435      16.394716      5.2394249    
   1849000   0.96654447     17.227794      5.2428232    
   1850000   0.99396405     16.236885      5.2354122    
   1851000   0.97424453     16.482366      5.2527471    
   1852000   0.96988196     16.433904      5.24783      
   1853000   1.0485834      17.131335      5.2445815    
   1854000   0.99485461     16.661907      5.2626373    
   1855000   0.99389087     16.787653      5.2631465    
   1856000   0.98968775     16.906431      5.250165     
   1857000   1.0373815      16.427155      5.278056     
   1858000   0.99386881     16.757531      5.2511644    
   1859000   0.99738839     16.395323      5.2283174    
   1860000   1.0114179      16.576346      5.2643788    
   1861000   0.99703312     17.232162      5.2537991    
   1862000   1.0280212      17.236565      5.2710813    
   1863000   1.028516       17.040151      5.2329385    
   1864000   1.0095617      16.830425      5.251755     
   1865000   0.97453767     16.408474      5.2300846    
   1866000   1.0029668      16.659356      5.2524598    
   1867000   0.98841369     16.835292      5.2594349    
   1868000   1.0280597      17.193919      5.2470043    
   1869000   1.0104939      17.51077       5.3171962    
   1870000   1.0105014      16.725309      5.2923177    
   1871000   0.99137182     16.789445      5.2655324    
   1872000   1.0765918      16.940851      5.2803314    
   1873000   1.0182015      16.850004      5.2392865    
   1874000   0.94214608     16.950715      5.2628743    
   1875000   1.0040946      16.581598      5.2275152    
   1876000   1.0094964      16.463037      5.2472068    
   1877000   0.99244877     17.286373      5.2693108    
   1878000   1.0099085      16.812999      5.253701     
   1879000   1.0492109      17.486539      5.2402828    
   1880000   1.0385941      17.118731      5.2347996    
   1881000   1.0162627      16.773628      5.2517239    
   1882000   0.95575434     16.901196      5.2136616    
   1883000   1.0355038      16.915486      5.2526949    
   1884000   1.0500568      16.71634       5.2466581    
   1885000   0.9872497      16.421753      5.2394622    
   1886000   0.97715554     16.603695      5.2392652    
   1887000   0.9718944      16.707274      5.2425428    
   1888000   0.96166692     16.473829      5.2251742    
   1889000   0.97027904     16.604152      5.2573118    
   1890000   1.0134437      17.081273      5.2496983    
   1891000   1.0184397      17.154988      5.2722642    
   1892000   1.0144148      16.911579      5.2375856    
   1893000   1.0411836      17.560635      5.2440461    
   1894000   1.0309492      17.422002      5.2352909    
   1895000   0.98890244     16.74018       5.2392416    
   1896000   0.98718446     16.673292      5.2723654    
   1897000   0.9780697      17.137912      5.20618      
   1898000   1.0113182      16.810422      5.2195932    
   1899000   0.96810941     16.184075      5.2449551    
   1900000   1.0038912      16.814826      5.247607     
   1901000   1.003841       16.666747      5.2459743    
   1902000   1.0029044      17.123097      5.2247356    
   1903000   1.0125982      17.035423      5.2342335    
   1904000   0.97129542     16.843687      5.2364992    
   1905000   0.95635213     16.48909       5.209921     
   1906000   1.0145069      16.720713      5.2135265    
   1907000   1.0024598      16.952313      5.264766     
   1908000   0.99225567     16.526873      5.2412438    
   1909000   0.99483345     17.120986      5.2213029    
   1910000   0.98547161     16.171482      5.2269135    
   1911000   0.97296781     16.959342      5.2572184    
   1912000   0.9646063      17.306667      5.2251354    
   1913000   1.0408992      17.119038      5.2627662    
   1914000   0.99372281     16.845923      5.2476147    
   1915000   1.0375666      17.250229      5.2011212    
   1916000   0.99982546     16.888243      5.228449     
   1917000   0.98199345     16.741196      5.2202217    
   1918000   1.0448848      16.922615      5.2359118    
   1919000   0.94392536     16.295309      5.2352789    
   1920000   0.99439534     17.117706      5.2422526    
   1921000   1.0244048      16.684738      5.2355051    
   1922000   0.99336        16.946911      5.2280983    
   1923000   0.99722381     16.314582      5.2405065    
   1924000   1.0021775      16.865424      5.2246681    
   1925000   0.9944085      17.022657      5.2149448    
   1926000   0.99078597     17.089162      5.2452242    
   1927000   1.0098199      16.833077      5.2148001    
   1928000   1.0064236      17.030849      5.2300267    
   1929000   1.0317246      17.09224       5.2347426    
   1930000   0.99630858     16.629118      5.2181806    
   1931000   0.98237181     16.368123      5.2299072    
   1932000   1.0254836      16.871596      5.2276078    
   1933000   1.0081484      16.337795      5.2139536    
   1934000   1.0056819      16.947706      5.2497804    
   1935000   0.98716055     16.852472      5.2304501    
   1936000   1.0104154      16.654318      5.2548396    
   1937000   0.96735977     17.005707      5.2290319    
   1938000   1.0193371      17.17346       5.210843     
   1939000   0.95638481     16.464883      5.2479178    
   1940000   0.98765837     16.60907       5.2392661    
   1941000   0.98858989     16.688873      5.2308977    
   1942000   0.96832385     16.566645      5.2467819    
   1943000   1.0240301      16.647939      5.2251069    
   1944000   1.0050578      17.113561      5.2602367    
   1945000   0.98058079     16.514903      5.2643277    
   1946000   1.0077705      16.495154      5.219362     
   1947000   1.0029953      16.905772      5.2257922    
   1948000   0.96370807     16.394339      5.2632313    
   1949000   1.0074921      16.720749      5.2765457    
   1950000   1.0222755      16.293349      5.2323422    
   1951000   1.0185675      16.3803        5.2934182    
   1952000   0.98187832     16.267704      5.253434     
   1953000   1.0346256      17.045593      5.2559802    
   1954000   1.0051425      16.670288      5.2300258    
   1955000   0.99774027     16.560776      5.2438727    
   1956000   0.9769356      17.033505      5.2727715    
   1957000   1.0008297      17.065293      5.2569937    
   1958000   1.0012274      16.662666      5.2410145    
   1959000   1.010386       16.328791      5.2797112    
   1960000   0.98966193     16.60436       5.2519492    
   1961000   0.99157909     16.737656      5.2637182    
   1962000   0.99659543     16.8003        5.2661568    
   1963000   1.0093844      16.714574      5.2327477    
   1964000   1.0018026      16.955709      5.2463992    
   1965000   1.0340869      16.79527       5.2474156    
   1966000   1.0325886      16.882413      5.277012     
   1967000   0.98511093     16.389969      5.2567254    
   1968000   0.97205877     17.299154      5.2179446    
   1969000   1.0074301      16.46022       5.2242716    
   1970000   1.0060804      16.919086      5.2266235    
   1971000   0.98945636     16.368038      5.2185209    
   1972000   0.99951308     17.214888      5.2586291    
   1973000   1.058238       16.846916      5.2405558    
   1974000   0.97132519     16.48949       5.2301074    
   1975000   0.98246466     16.750701      5.2382916    
   1976000   1.002702       16.679837      5.2345212    
   1977000   1.0131336      16.87989       5.2107828    
   1978000   0.98811324     16.356742      5.2182074    
   1979000   0.99220363     16.80608       5.2420106    
   1980000   0.98116473     17.407192      5.2172071    
   1981000   1.0138293      17.280936      5.2351338    
   1982000   1.0055526      16.552948      5.2302468    
   1983000   0.99689893     16.514142      5.2558224    
   1984000   1.0100942      16.973786      5.2595699    
   1985000   1.0039071      16.592681      5.2571644    
   1986000   1.0030466      17.082121      5.2728185    
   1987000   0.9868709      16.468246      5.2505786    
   1988000   1.0250681      16.831674      5.2294457    
   1989000   1.0024583      17.060456      5.2415291    
   1990000   1.0047836      16.334724      5.2665479    
   1991000   1.003229       16.492579      5.2207087    
   1992000   0.99565032     16.990355      5.2097439    
   1993000   1.0032497      17.115922      5.2476334    
   1994000   1.034403       16.700649      5.2248852    
   1995000   0.9900427      16.687068      5.2714456    
   1996000   0.98264785     16.812943      5.2637669    
   1997000   1.0020585      16.197596      5.2204164    
   1998000   0.97307578     16.473988      5.2505897    
   1999000   1.0253318      16.444753      5.2487471    
   2000000   0.99078368     16.676859      5.224054     
   2001000   0.98141599     17.265183      5.2442087    
   2002000   0.99025639     16.723586      5.213948     
   2003000   1.0077653      17.101641      5.2160254    
   2004000   0.99655632     17.387814      5.204343     
   2005000   1.0067044      16.324101      5.2430618    
   2006000   1.0141465      16.815503      5.2257455    
   2007000   1.0150631      16.375288      5.2339543    
   2008000   1.0030207      17.082669      5.215888     
   2009000   0.99675533     16.837707      5.2126156    
   2010000   1.0075495      16.915855      5.2214224    
   2011000   0.95392267     16.255511      5.2374688    
   2012000   0.98991712     17.304518      5.2474243    
   2013000   1.0328608      16.60336       5.3133849    
   2014000   0.97568658     17.026472      5.3333905    
   2015000   0.9591268      16.901226      5.2842767    
   2016000   0.99010514     16.524309      5.3178734    
   2017000   0.97614721     17.262149      5.2705624    
   2018000   1.024397       17.135535      5.2573182    
   2019000   1.0097178      16.988078      5.2389285    
   2020000   0.96033955     16.219442      5.256033     
   2021000   0.9975212      16.882052      5.2440779    
   2022000   0.95562034     16.971431      5.2204179    
   2023000   1.0150158      16.739449      5.2369673    
   2024000   1.0230946      16.822289      5.2375896    
   2025000   0.99137901     16.840766      5.2585875    
   2026000   0.98400965     16.957335      5.2698438    
   2027000   0.9954289      17.037997      5.2724565    
   2028000   1.0219847      16.859976      5.2934961    
   2029000   1.0086834      16.48199       5.2925346    
   2030000   1.0005106      16.860081      5.2678907    
   2031000   1.024354       16.852604      5.2479612    
   2032000   0.97897038     16.753591      5.2398653    
   2033000   0.99099654     17.187481      5.261299     
   2034000   0.95832599     16.639678      5.286511     
   2035000   1.0463277      16.345906      5.2380837    
   2036000   0.96038355     16.681189      5.2208222    
   2037000   0.96956111     16.782107      5.251366     
   2038000   1.0298737      17.040847      5.27998      
   2039000   0.99843164     16.835616      5.2131954    
   2040000   1.0504197      16.453054      5.2420086    
   2041000   1.0222648      16.778645      5.2225787    
   2042000   0.98954529     17.309988      5.2267045    
   2043000   0.99065082     16.678933      5.2724128    
   2044000   0.95292086     16.313878      5.2426478    
   2045000   1.0036042      16.626957      5.291367     
   2046000   1.0107522      16.496094      5.2611162    
   2047000   1.0181665      16.74781       5.2657813    
   2048000   0.98922806     17.401182      5.27458      
   2049000   1.0227941      17.013258      5.2533068    
   2050000   1.012545       16.385066      5.2413808    
   2051000   1.0322913      16.932361      5.2680155    
   2052000   1.0008375      17.207547      5.2503302    
   2053000   1.012791       16.713699      5.2285137    
   2054000   1.0132659      17.376132      5.219195     
   2055000   1.019188       17.14078       5.2358317    
   2056000   0.99590454     16.7919        5.2404463    
   2057000   0.97313475     17.10392       5.2433488    
   2058000   0.95554773     16.78185       5.222534     
   2059000   1.0150384      16.506716      5.2426334    
   2060000   1.0013908      16.604727      5.2113837    
   2061000   1.0135646      16.686259      5.2348364    
   2062000   0.96062907     16.898391      5.2477175    
   2063000   0.98648838     16.237161      5.2260804    
   2064000   0.97950376     17.118814      5.2359454    
   2065000   0.98804013     16.967855      5.2307171    
   2066000   1.020514       17.130655      5.2571863    
   2067000   0.98484012     16.990283      5.2066644    
   2068000   1.0298327      16.949195      5.2506933    
   2069000   1.04352        17.374027      5.1936995    
   2070000   0.99672733     16.624077      5.2125165    
   2071000   0.97832725     16.695262      5.2049732    
   2072000   0.98326307     16.460244      5.2031266    
   2073000   0.9897856      17.09524       5.2315544    
   2074000   0.9970871      16.869669      5.2216305    
   2075000   1.014836       16.507887      5.2710034    
   2076000   0.99374422     16.665239      5.2500181    
   2077000   0.99157309     17.11294       5.2315381    
   2078000   0.98665157     16.893481      5.2349945    
   2079000   1.040069       16.6528        5.2436258    
   2080000   1.0003558      16.543816      5.2515902    
   2081000   0.99691394     16.793605      5.2622948    
   2082000   1.0015684      16.577023      5.2502644    
   2083000   0.98000466     16.705953      5.2162845    
   2084000   1.0056884      16.519305      5.2026443    
   2085000   0.97668437     16.841944      5.2406379    
   2086000   1.0026777      16.747151      5.2213989    
   2087000   0.99854097     16.658757      5.2515793    
   2088000   1.0319423      17.14394       5.2146525    
   2089000   0.96454109     16.561442      5.2384475    
   2090000   0.98576014     16.741541      5.2131288    
   2091000   1.0256318      17.326419      5.221827     
   2092000   0.98478884     16.389519      5.2107717    
   2093000   0.96928533     17.127382      5.2050239    
   2094000   0.97696987     16.669214      5.2315747    
   2095000   1.0308846      17.420028      5.2206223    
   2096000   0.98177229     16.276759      5.2268525    
   2097000   0.98192928     16.557879      5.2324842    
   2098000   1.0176835      16.45503       5.2592532    
   2099000   0.97829241     16.844046      5.2472423    
   2100000   0.99173232     16.227763      5.260547     
   2101000   0.9662244      16.81413       5.1990899    
   2102000   0.99939818     16.21925       5.2383137    
   2103000   1.0007314      16.797181      5.2242916    
   2104000   0.99931065     16.749057      5.2604574    
   2105000   1.0104879      17.583776      5.2554592    
   2106000   0.99899431     16.961144      5.2088049    
   2107000   0.99807993     16.908814      5.2092345    
   2108000   1.0016305      16.585013      5.2603514    
   2109000   1.0228648      16.951604      5.2355417    
   2110000   0.94921787     16.484943      5.2137878    
   2111000   0.98951908     16.245801      5.2423193    
   2112000   0.99655509     17.198778      5.2217334    
   2113000   0.98067291     17.006738      5.2387885    
   2114000   0.99134068     16.746851      5.2253838    
   2115000   0.99673831     16.127963      5.2555723    
   2116000   0.99911043     16.391131      5.2688481    
   2117000   1.0115992      16.796284      5.2784583    
   2118000   0.99051332     16.390456      5.2560013    
   2119000   0.96394432     16.897408      5.2506815    
   2120000   1.0097072      16.362849      5.2681402    
   2121000   0.99275487     16.586078      5.2124006    
   2122000   1.0215274      16.433777      5.2384924    
   2123000   0.97722874     16.849674      5.1887827    
   2124000   1.0006666      16.616181      5.2275726    
   2125000   1.0108332      16.927819      5.2347229    
   2126000   0.97926974     17.211218      5.2579956    
   2127000   0.99626095     16.898485      5.26562      
   2128000   1.0193596      16.649585      5.2213443    
   2129000   1.0031085      16.437096      5.2463776    
   2130000   1.0131542      16.976218      5.2449524    
   2131000   1.0092608      16.231957      5.252056     
   2132000   0.99040525     17.022925      5.2830907    
   2133000   0.9852298      16.936739      5.236517     
   2134000   1.0052113      16.625437      5.2563343    
   2135000   1.0057628      17.012595      5.2726884    
   2136000   0.9662281      16.967964      5.2297413    
   2137000   1.0109571      16.756149      5.2484867    
   2138000   1.0383681      16.370429      5.2554121    
   2139000   0.99006641     16.955865      5.2639961    
   2140000   0.98115452     16.380208      5.2924389    
   2141000   1.0117754      16.667394      5.2833666    
   2142000   0.99290848     16.866508      5.3168453    
   2143000   1.0530841      17.016277      5.272811     
   2144000   0.96781848     16.60133       5.309869     
   2145000   0.95693024     16.349117      5.2531008    
   2146000   0.99921707     17.104887      5.2428512    
   2147000   1.0430418      16.807535      5.2215626    
   2148000   0.99892777     16.547377      5.2557826    
   2149000   0.99238502     16.901421      5.215168     
   2150000   1.0032356      17.046756      5.2233159    
   2151000   1.0185705      16.30817       5.2474372    
   2152000   0.98098504     16.479574      5.2501438    
   2153000   1.0122904      16.855118      5.225193     
   2154000   1.0095823      16.93028       5.2271585    
   2155000   0.99174099     16.316726      5.2311019    
   2156000   0.97596397     16.540757      5.2481843    
   2157000   1.0043354      16.675161      5.2442852    
   2158000   1.037839       16.537957      5.2257058    
   2159000   1.0005135      16.803333      5.242838     
   2160000   0.99777922     16.64735       5.2488568    
   2161000   1.006728       16.3131        5.2211069    
   2162000   1.0239504      16.833699      5.2246165    
   2163000   0.9800811      16.757624      5.1945829    
   2164000   0.9878484      16.628535      5.2097386    
   2165000   1.0351215      16.81737       5.2082519    
   2166000   1.0259189      17.392356      5.2345978    
   2167000   1.0151129      16.972523      5.2030103    
   2168000   1.0068298      16.277507      5.2635354    
   2169000   1.0422121      16.775966      5.2375007    
   2170000   0.96929125     16.437475      5.2209126    
   2171000   1.0398536      16.975392      5.2718       
   2172000   1.0292588      16.508701      5.2871436    
   2173000   0.96727357     16.944324      5.2192972    
   2174000   0.96847055     16.462976      5.2550026    
   2175000   0.98431087     17.044689      5.2088395    
   2176000   0.96377361     17.065696      5.1954531    
   2177000   0.97801865     16.745403      5.2998022    
   2178000   0.98277338     17.13757       5.2182846    
   2179000   0.96846799     17.144689      5.2976573    
   2180000   1.0381708      16.817995      5.2369731    
   2181000   1.0203407      16.770151      5.2380523    
   2182000   1.0013235      17.208789      5.2827204    
   2183000   0.96940756     16.115065      5.2378127    
   2184000   1.0002956      16.937822      5.2613533    
   2185000   0.976747       16.474812      5.2359199    
   2186000   0.99783834     17.362393      5.2099323    
   2187000   1.0021303      16.826643      5.2317417    
   2188000   0.98840341     16.819871      5.2521522    
   2189000   0.99459791     17.085223      5.2184177    
   2190000   0.99285651     17.447707      5.230637     
   2191000   1.0010712      17.189234      5.2288797    
   2192000   1.0505561      16.183974      5.227624     
   2193000   0.98973876     17.355749      5.2302532    
   2194000   0.98371128     16.533299      5.239229     
   2195000   1.008662       16.705486      5.2097777    
   2196000   0.9947912      16.803785      5.2124397    
   2197000   1.0145945      17.361001      5.2285065    
   2198000   0.98728269     16.835879      5.2242652    
   2199000   0.99236136     16.446983      5.2398385    
   2200000   1.0081809      16.528496      5.2690286    
   2201000   1.037831       17.026362      5.2142844    
   2202000   1.014971       16.448331      5.2307381    
   2203000   0.9797579      15.987772      5.206772     
   2204000   1.0227687      16.561067      5.2164237    
   2205000   0.97140651     16.849236      5.2718185    
   2206000   0.98466599     16.543059      5.269676     
   2207000   1.0022889      16.784069      5.2375621    
   2208000   0.97300703     16.073505      5.2426332    
   2209000   0.99322958     17.745579      5.2057229    
   2210000   1.0282298      16.899901      5.2272159    
   2211000   1.0051071      16.746608      5.1876903    
   2212000   1.0568055      17.357735      5.2212909    
   2213000   1.0780303      17.278916      5.1984429    
   2214000   1.0036268      17.285653      5.2189979    
   2215000   1.0198679      17.148357      5.2538554    
   2216000   1.004183       16.980766      5.2629905    
   2217000   0.99234055     16.532836      5.2362583    
   2218000   0.97693782     16.998261      5.2233261    
   2219000   0.99713339     16.58462       5.2620241    
   2220000   1.0104282      16.339447      5.2487847    
   2221000   1.0158134      16.712482      5.2607773    
   2222000   0.98587726     16.550806      5.2666967    
   2223000   0.95333743     16.321638      5.2464854    
   2224000   0.97163162     16.626514      5.249        
   2225000   0.97091238     16.58807       5.2450679    
   2226000   1.0246212      16.685987      5.2269774    
   2227000   1.0007801      16.564259      5.2350067    
   2228000   0.96118129     16.673699      5.2370099    
   2229000   1.0070179      16.913882      5.2189239    
   2230000   1.0196601      17.221487      5.2009981    
   2231000   0.9883451      16.988179      5.2427974    
   2232000   1.0308868      16.550645      5.2638093    
   2233000   1.0317928      16.381371      5.2393816    
   2234000   0.98322623     16.495488      5.2533072    
   2235000   1.0105886      17.157866      5.2110997    
   2236000   0.9742392      17.204454      5.2401682    
   2237000   1.038524       16.933085      5.206846     
   2238000   1.0021432      17.059808      5.2304808    
   2239000   1.0192678      16.889139      5.2153554    
   2240000   0.9998705      16.519799      5.2023269    
   2241000   1.0055859      16.787251      5.246255     
   2242000   0.94114755     16.722587      5.2872226    
   2243000   0.98140766     16.54391       5.2581369    
   2244000   1.0176681      16.759276      5.2654068    
   2245000   0.99277379     16.998098      5.2299042    
   2246000   0.97643201     16.624426      5.2383736    
   2247000   1.0306481      16.724453      5.2563901    
   2248000   1.0246966      16.73264       5.2739359    
   2249000   0.989691       16.775333      5.2814403    
   2250000   1.0682772      16.992401      5.2439988    
   2251000   0.97837701     16.81962       5.2297056    
   2252000   0.99265166     16.425162      5.2490353    
   2253000   1.0262913      17.144819      5.2165563    
   2254000   0.98677199     16.803014      5.2140073    
   2255000   0.99275793     17.181044      5.1951199    
   2256000   1.0059686      16.807346      5.2190913    
   2257000   0.99266175     17.009403      5.1987417    
   2258000   1.0095132      16.751217      5.2270911    
   2259000   1.0125948      16.951418      5.2448008    
   2260000   0.99010409     16.492376      5.2340332    
   2261000   1.0250324      16.748107      5.2455777    
   2262000   0.96597936     17.005653      5.2696033    
   2263000   0.98355529     16.526091      5.2500553    
   2264000   0.99732199     16.799244      5.2560655    
   2265000   1.0127949      16.811255      5.2498205    
   2266000   0.9978707      16.641985      5.2514907    
   2267000   0.95518848     16.492771      5.2357846    
   2268000   0.97773077     15.97705       5.259651     
   2269000   0.97176256     16.723204      5.236769     
   2270000   1.0246506      16.687271      5.256936     
   2271000   0.99351426     16.644807      5.2455296    
   2272000   0.96476319     17.157399      5.2347831    
   2273000   1.0261085      16.570055      5.2483754    
   2274000   0.97493088     16.704593      5.2390914    
   2275000   0.99104806     16.657925      5.1926401    
   2276000   0.97595243     16.572683      5.2089351    
   2277000   0.96532372     17.146452      5.2336223    
   2278000   0.99701729     17.523874      5.2317251    
   2279000   0.95901428     16.075424      5.231304     
   2280000   0.97727896     16.669041      5.2263156    
   2281000   0.98819874     16.461095      5.2440185    
   2282000   1.002014       16.880853      5.2529532    
   2283000   0.98898499     16.487445      5.2432028    
   2284000   0.98498481     17.026535      5.2361198    
   2285000   1.0218466      16.829686      5.2420158    
   2286000   1.00192        17.218141      5.2120857    
   2287000   0.97828607     16.804077      5.2243421    
   2288000   1.0047649      16.649851      5.2443244    
   2289000   0.95235672     16.74023       5.2349274    
   2290000   0.99195535     16.893257      5.2399917    
   2291000   1.0125938      16.527426      5.2403091    
   2292000   0.98226567     17.005884      5.2263697    
   2293000   0.98734059     17.056526      5.2094888    
   2294000   0.9692357      16.772244      5.2797241    
   2295000   1.0382971      16.574333      5.2271841    
   2296000   1.0425793      16.741571      5.256834     
   2297000   1.0086219      16.745036      5.2652486    
   2298000   0.96760982     16.731609      5.2405334    
   2299000   1.0147649      16.937265      5.2468099    
   2300000   0.94781737     16.551785      5.2644685    
   2301000   0.99057691     16.762272      5.2543907    
   2302000   1.0044185      16.810047      5.2301668    
   2303000   1.0183008      16.867794      5.240441     
   2304000   0.99496581     16.521202      5.2194106    
   2305000   1.0535424      16.004157      5.235587     
   2306000   0.97782542     16.701633      5.2687492    
   2307000   1.0268654      16.907425      5.2579686    
   2308000   0.9767752      16.75109       5.2884938    
   2309000   1.0003507      16.389556      5.2739486    
   2310000   1.0226856      17.019058      5.226091     
   2311000   1.0152409      17.04963       5.2283272    
   2312000   1.0026728      16.770401      5.2471674    
   2313000   0.94857137     16.681975      5.2221401    
   2314000   0.9987711      17.10625       5.2493167    
   2315000   1.0194857      16.138559      5.2755084    
   2316000   0.96002986     16.520998      5.2534496    
   2317000   1.0008071      16.550742      5.1981245    
   2318000   1.004169       17.002064      5.2457579    
   2319000   0.99294296     16.168617      5.2614586    
   2320000   0.99487632     17.496493      5.2323063    
   2321000   1.0220836      16.4621        5.2257033    
   2322000   1.020619       17.109463      5.2277761    
   2323000   1.0549377      16.723103      5.2595748    
   2324000   1.0109579      16.730902      5.2296344    
   2325000   0.99345971     16.038055      5.2189478    
   2326000   0.98311772     16.597622      5.282567     
   2327000   1.002426       16.339149      5.2273815    
   2328000   1.0483906      16.907512      5.2662334    
   2329000   0.98846296     16.274467      5.2540284    
   2330000   0.99126988     16.607503      5.2270541    
   2331000   0.98222957     16.531909      5.2797643    
   2332000   1.0012607      16.728432      5.2787243    
   2333000   0.97870601     16.407597      5.2497147    
   2334000   1.0145593      16.991094      5.2664565    
   2335000   1.0043922      16.379133      5.2707664    
   2336000   0.9949094      16.617442      5.262328     
   2337000   0.98848187     16.387416      5.248731     
   2338000   1.0531096      16.909574      5.2385842    
   2339000   0.98731816     16.408298      5.2457393    
   2340000   1.0336048      16.953173      5.2070305    
   2341000   0.98709165     16.509891      5.2496249    
   2342000   0.99589289     16.755355      5.2452255    
   2343000   0.98886201     16.283549      5.2203713    
   2344000   0.99634918     16.755897      5.2135157    
   2345000   1.0007232      16.303238      5.2289654    
   2346000   1.012061       16.780701      5.2207928    
   2347000   1.0221731      16.580304      5.2460325    
   2348000   1.0012916      16.738637      5.2191158    
   2349000   1.0029931      16.889398      5.2524327    
   2350000   0.98007676     16.676813      5.2032395    
   2351000   1.0022011      16.891098      5.2226463    
   2352000   0.98058741     16.375772      5.2322832    
   2353000   0.98902246     17.235265      5.2341915    
   2354000   1.0141126      16.923113      5.228479     
   2355000   1.0384765      16.806781      5.2461766    
   2356000   1.0070025      16.620617      5.2400351    
   2357000   0.9827527      16.817832      5.2333418    
   2358000   0.99600474     16.374206      5.26021      
   2359000   0.96315301     16.593051      5.279363     
   2360000   0.96116628     16.494648      5.2575061    
   2361000   0.99023572     16.93256       5.2367038    
   2362000   0.98668826     17.30346       5.2233226    
   2363000   0.99838504     16.045072      5.2309359    
   2364000   0.93085545     17.161434      5.1969811    
   2365000   0.96361625     16.847501      5.2335325    
   2366000   0.98709376     16.526451      5.2493917    
   2367000   0.95074594     16.810679      5.2120163    
   2368000   0.97690732     16.317719      5.2352085    
   2369000   0.97397447     16.986326      5.2545666    
   2370000   1.0366175      16.332346      5.2504406    
   2371000   0.99047203     16.190599      5.2436613    
   2372000   1.0254515      16.572122      5.2494211    
   2373000   0.94340444     16.688246      5.2391397    
   2374000   0.96093724     16.380612      5.2326915    
   2375000   0.98251438     16.968939      5.2407631    
   2376000   1.1155379      17.375443      5.2684925    
   2377000   1.0141944      16.905921      5.2505317    
   2378000   1.0093041      17.089135      5.2175619    
   2379000   0.9698528      16.838671      5.2455727    
   2380000   1.0101756      16.595591      5.2582698    
   2381000   1.0059895      16.482185      5.2526245    
   2382000   1.0291666      17.090051      5.2136471    
   2383000   0.98081205     16.744585      5.2754488    
   2384000   0.9686499      16.922989      5.2422689    
   2385000   1.0084023      16.205729      5.2381771    
   2386000   1.0214665      16.982737      5.2312711    
   2387000   1.0145359      16.312128      5.2583877    
   2388000   0.9954387      16.498733      5.2089151    
   2389000   1.0475082      17.050974      5.2560024    
   2390000   1.0031694      16.824725      5.2567413    
   2391000   1.0237196      16.845422      5.2707115    
   2392000   1.0242549      16.633192      5.241211     
   2393000   0.99065115     16.756648      5.2212616    
   2394000   0.99832356     16.954537      5.2077328    
   2395000   0.974617       16.363978      5.2251423    
   2396000   0.98273216     16.69341       5.2052848    
   2397000   1.0081702      16.655151      5.2588294    
   2398000   0.97685117     16.217382      5.2635884    
   2399000   0.99485669     16.809683      5.238178     
   2400000   1.0298624      17.575732      5.2241754    
   2401000   0.99167818     17.18419       5.1981992    
   2402000   1.0227548      16.380648      5.2136286    
   2403000   1.015583       17.123747      5.2479551    
   2404000   1.0230848      16.892574      5.2146536    
   2405000   0.97961277     16.761761      5.2371154    
   2406000   0.99347212     16.326375      5.2483266    
   2407000   0.99539838     16.395711      5.2149811    
   2408000   0.98459725     17.057886      5.2107591    
   2409000   0.99705631     16.30453       5.2350106    
   2410000   0.9760597      16.723973      5.2207385    
   2411000   0.95899357     16.421492      5.2379701    
   2412000   0.99823305     16.989774      5.2272096    
   2413000   0.9888282      16.461081      5.2168928    
   2414000   1.0362831      16.784684      5.2477465    
   2415000   1.0015874      16.476154      5.2139415    
   2416000   1.0456666      16.56814       5.2650003    
   2417000   0.95837473     16.436155      5.2685404    
   2418000   0.97411741     16.475841      5.2475497    
   2419000   0.99140802     16.806208      5.2340308    
   2420000   0.98405361     16.572996      5.2365069    
   2421000   0.98546552     16.306785      5.2722371    
   2422000   1.0048121      17.07149       5.3179548    
   2423000   0.99122017     16.826883      5.2598658    
   2424000   1.0268388      16.634016      5.2318643    
   2425000   0.99286573     17.195005      5.2609483    
   2426000   1.0018512      17.169911      5.2366462    
   2427000   1.0519865      17.090062      5.2331651    
   2428000   0.98392966     16.33427       5.2557933    
   2429000   0.95435921     16.523401      5.2168647    
   2430000   0.96452437     16.314588      5.2605813    
   2431000   0.95601871     15.834512      5.2896306    
   2432000   1.0455438      17.301972      5.2715277    
   2433000   0.98017839     16.713466      5.3170806    
   2434000   1.0309548      17.296594      5.2689756    
   2435000   1.0336134      15.527966      5.2914366    
   2436000   1.0454478      17.14753       5.2625035    
   2437000   1.0303082      17.008268      5.2747656    
   2438000   0.99982983     16.553558      5.2398168    
   2439000   1.0343837      16.579599      5.2480005    
   2440000   1.0195185      16.471917      5.2448649    
   2441000   1.0450938      16.754976      5.2926296    
   2442000   0.97376488     16.665536      5.2720244    
   2443000   1.0374644      16.463603      5.2889655    
   2444000   0.99210689     16.437139      5.283007     
   2445000   0.97008702     16.050563      5.3059165    
   2446000   0.98863188     16.948943      5.2726655    
   2447000   0.98899483     15.965173      5.2697073    
   2448000   1.0383121      16.967629      5.2389414    
   2449000   1.0089428      17.651174      5.2349104    
   2450000   0.97221872     17.121898      5.2545188    
   2451000   1.0018133      16.537165      5.2566756    
   2452000   0.99974747     17.230646      5.264978     
   2453000   1.0512088      16.456962      5.2634013    
   2454000   0.96138251     16.45043       5.2614912    
   2455000   1.0057808      17.430644      5.2490059    
   2456000   1.0148618      16.636547      5.2683005    
   2457000   1.0118558      17.30749       5.247929     
   2458000   0.99696389     16.574458      5.2463291    
   2459000   0.99750244     16.333769      5.2652234    
   2460000   0.97278144     16.103371      5.2860011    
   2461000   0.99602554     16.871174      5.23247      
   2462000   0.94591848     16.692188      5.2166072    
   2463000   1.0002297      16.955645      5.2678592    
   2464000   1.0100288      16.438554      5.2773617    
   2465000   0.99607285     16.886846      5.2701285    
   2466000   1.0169684      16.878047      5.2457162    
   2467000   0.98424312     16.395064      5.2682143    
   2468000   1.0332294      17.219223      5.2373594    
   2469000   0.99908742     16.541528      5.2551379    
   2470000   0.99698256     17.198955      5.2511821    
   2471000   1.0065624      16.875187      5.257099     
   2472000   1.0027104      16.706094      5.2496456    
   2473000   1.0019276      17.202332      5.268322     
   2474000   1.0219753      16.797233      5.2980004    
   2475000   1.0073765      16.653664      5.2645478    
   2476000   1.0139422      16.941604      5.2763055    
   2477000   0.97470144     16.838987      5.2743449    
   2478000   1.011651       16.731417      5.2367248    
   2479000   1.0004956      16.929201      5.2527076    
   2480000   1.0284684      17.012858      5.2533765    
   2481000   0.99916658     16.900937      5.2729685    
   2482000   0.98540181     16.88673       5.2574389    
   2483000   1.0421213      17.322568      5.2355242    
   2484000   0.99320575     16.458668      5.2500607    
   2485000   0.9899625      17.059877      5.2364156    
   2486000   1.0388446      16.594007      5.2413668    
   2487000   0.97967161     16.238992      5.2170795    
   2488000   1.045728       16.587305      5.2465389    
   2489000   1.0119511      16.888815      5.2443568    
   2490000   1.0036949      16.189299      5.227446     
   2491000   0.9936754      17.133741      5.2176934    
   2492000   1.0724269      16.985936      5.210143     
   2493000   1.032643       16.515889      5.2024456    
   2494000   1.037763       17.029164      5.2315049    
   2495000   1.0489408      16.748569      5.2657148    
   2496000   0.9836901      17.045366      5.216118     
   2497000   1.0170656      16.572055      5.28829      
   2498000   1.0316071      16.512483      5.2784925    
   2499000   1.0126487      16.824274      5.2352849    
   2500000   1.0047466      16.92395       5.2452714    
   2501000   1.023499       16.456726      5.263506     
   2502000   1.0172171      16.821232      5.2237352    
   2503000   0.99888261     16.375634      5.2268492    
   2504000   0.99169366     16.74324       5.2456901    
   2505000   0.97379259     16.744994      5.2502071    
   2506000   0.97928562     16.253514      5.262879     
   2507000   1.0103932      16.657402      5.2751507    
   2508000   0.968596       16.596929      5.2800678    
   2509000   0.99319796     16.649725      5.2245326    
   2510000   0.96633597     16.002886      5.2492437    
   2511000   1.0136086      17.31792       5.2831363    
   2512000   0.98507138     16.747248      5.2628507    
   2513000   0.9658244      16.538003      5.2218668    
   2514000   1.0374806      16.74909       5.2524394    
   2515000   0.99408154     17.080757      5.2534004    
   2516000   1.0433957      17.113775      5.2618096    
   2517000   0.99629954     17.101686      5.2903513    
   2518000   0.97928074     16.505741      5.2509698    
   2519000   1.0427649      17.351377      5.2253863    
   2520000   1.0355645      17.134406      5.261361     
   2521000   0.9633397      16.935774      5.272657     
   2522000   0.97436308     16.405256      5.2526357    
   2523000   1.0426513      16.428209      5.2383092    
   2524000   0.98838841     16.342021      5.2201487    
   2525000   1.0119555      16.79133       5.2591184    
   2526000   1.013844       16.740604      5.2353464    
   2527000   1.0099925      16.379549      5.250561     
   2528000   1.0046187      16.719672      5.209618     
   2529000   0.98857012     16.956131      5.1991588    
   2530000   0.98508338     16.715226      5.248931     
   2531000   0.98710483     16.424846      5.2464361    
   2532000   0.97484112     16.131586      5.2265069    
   2533000   1.0146246      16.80374       5.2323037    
   2534000   1.0659898      16.563017      5.2799503    
   2535000   0.94649413     16.339839      5.2752643    
   2536000   1.002273       16.511002      5.2310766    
   2537000   0.93620683     16.21658       5.2450455    
   2538000   0.97710505     16.894921      5.2698585    
   2539000   0.94418405     16.555675      5.2424488    
   2540000   1.029608       17.103714      5.2098376    
   2541000   0.98323483     17.039215      5.2677583    
   2542000   0.99536812     17.232731      5.2835281    
   2543000   0.99489756     16.569684      5.2606474    
   2544000   0.9454807      16.477863      5.2457633    
   2545000   1.0195678      16.910328      5.2796604    
   2546000   0.98174399     16.736717      5.2405627    
   2547000   1.0401477      16.496011      5.2557353    
   2548000   1.0381562      16.626184      5.3111541    
   2549000   0.99573241     16.63901       5.2675523    
   2550000   0.99967199     17.007536      5.2904312    
   2551000   0.99859685     16.590283      5.2597581    
   2552000   0.96298757     17.457835      5.2835656    
   2553000   1.006206       15.887907      5.2495369    
   2554000   1.0164422      16.342202      5.2832152    
   2555000   1.0018967      17.168661      5.2414643    
   2556000   1.0329675      16.458585      5.2271268    
   2557000   1.0129912      16.565051      5.2457535    
   2558000   0.99833023     16.371381      5.2527793    
   2559000   0.95508577     16.55484       5.2294099    
   2560000   1.0317069      16.582946      5.28629      
   2561000   1.0132269      16.773375      5.2448628    
   2562000   1.0224865      16.601226      5.2662293    
   2563000   0.99163991     16.812446      5.2615056    
   2564000   1.0324174      16.443273      5.2347167    
   2565000   0.9892121      16.511579      5.2560659    
   2566000   0.95439705     16.701323      5.2098906    
   2567000   1.0420369      16.942622      5.2525845    
   2568000   1.0048789      16.898232      5.2669353    
   2569000   0.99002342     16.425656      5.2405768    
   2570000   1.0324294      16.263033      5.2659482    
   2571000   1.0043858      17.129192      5.2505705    
   2572000   1.0410537      16.444512      5.2577717    
   2573000   1.0154709      16.871855      5.24766      
   2574000   0.97226509     15.951341      5.236893     
   2575000   1.0383892      17.113114      5.2201105    
   2576000   0.97702789     17.077329      5.2167828    
   2577000   0.99037073     16.527214      5.2106799    
   2578000   1.0046986      15.865772      5.245868     
   2579000   0.98971866     17.149749      5.2657394    
   2580000   0.97086559     16.891829      5.2432905    
   2581000   0.99889336     16.301668      5.2620039    
   2582000   1.0462436      16.298389      5.2703729    
   2583000   0.98570467     16.553911      5.2414441    
   2584000   1.0029717      17.220691      5.238045     
   2585000   1.0073726      16.748271      5.2186304    
   2586000   1.0074744      16.795498      5.2161108    
   2587000   1.0264501      17.277298      5.1885643    
   2588000   0.99044734     16.486445      5.2531259    
   2589000   0.97436102     16.200422      5.2462631    
   2590000   0.98833604     16.657135      5.2466861    
   2591000   1.034372       17.326723      5.2041183    
   2592000   1.0024826      16.937527      5.2082633    
   2593000   1.0288454      16.668398      5.1990349    
   2594000   1.0003111      17.006659      5.239007     
   2595000   0.9873389      15.872375      5.2389739    
   2596000   1.0076119      16.520884      5.2288357    
   2597000   1.0089967      16.115697      5.2742128    
   2598000   0.95984625     16.812439      5.2273049    
   2599000   1.0069285      16.299019      5.2563741    
   2600000   1.0126803      16.657774      5.2184681    
   2601000   1.0060774      16.310964      5.2713244    
   2602000   0.97518458     16.536967      5.2563425    
   2603000   0.98508129     16.750711      5.2621102    
   2604000   1.0171511      16.961443      5.2563644    
   2605000   0.96674349     17.091557      5.2326619    
   2606000   0.98342168     16.885344      5.2625362    
   2607000   1.0069276      16.633932      5.2548128    
   2608000   0.96883236     16.914007      5.2639345    
   2609000   0.98728657     16.428628      5.2787705    
   2610000   0.99408415     16.565526      5.2702617    
   2611000   0.98070904     16.513695      5.246055     
   2612000   1.0549918      16.900877      5.2243615    
   2613000   0.96100134     16.706967      5.2108906    
   2614000   1.0267662      17.098512      5.2174268    
   2615000   0.99260812     16.845044      5.1820307    
   2616000   0.98074305     16.799461      5.2307942    
   2617000   0.99579587     16.523999      5.2214709    
   2618000   1.0348831      17.175412      5.2554624    
   2619000   1.0381512      17.33495       5.214276     
   2620000   1.0134374      16.36901       5.2354946    
   2621000   0.99406483     16.305533      5.2734235    
   2622000   1.0000546      16.202721      5.2646627    
   2623000   1.0013344      17.128373      5.2280004    
   2624000   0.97670188     16.907551      5.2384143    
   2625000   1.0178184      16.54322       5.2180475    
   2626000   1.0482346      16.886133      5.2166303    
   2627000   0.9998059      16.564715      5.2675013    
   2628000   0.98939821     16.866578      5.2622968    
   2629000   1.0417348      16.584198      5.2501325    
   2630000   1.0252413      17.33345       5.2511183    
   2631000   1.009002       16.26746       5.2530412    
   2632000   0.97526508     16.465691      5.2338362    
   2633000   1.048379       16.957183      5.2197873    
   2634000   1.0217232      17.000681      5.2248758    
   2635000   0.96326492     16.611733      5.2408171    
   2636000   1.0114744      16.299722      5.2201297    
   2637000   1.0003066      16.912371      5.2167913    
   2638000   0.98523457     15.993996      5.2565601    
   2639000   1.0119586      16.695954      5.2561303    
   2640000   1.0170964      17.05262       5.2582452    
   2641000   1.0052594      16.685957      5.2475908    
   2642000   0.98500009     16.646034      5.2178859    
   2643000   0.95022241     16.444844      5.2419494    
   2644000   1.0138355      16.945598      5.2623861    
   2645000   1.0382739      16.91275       5.2590907    
   2646000   0.97522303     16.715342      5.2269716    
   2647000   1.0218993      16.162726      5.2632647    
   2648000   1.0167466      16.571735      5.2837652    
   2649000   1.0130744      16.628346      5.2651699    
   2650000   1.0069942      16.726089      5.2756441    
   2651000   1.0203769      17.412238      5.2636368    
   2652000   1.0244358      16.94314       5.2740227    
   2653000   1.0349552      17.125486      5.2506857    
   2654000   1.0437694      16.727962      5.2558081    
   2655000   0.98943024     16.612327      5.236765     
   2656000   1.0207225      16.242006      5.2248107    
   2657000   0.97476701     16.614493      5.2447337    
   2658000   0.98460883     16.436775      5.241854     
   2659000   0.98975312     16.509897      5.2707289    
   2660000   0.97722215     16.874235      5.2462615    
   2661000   0.99363361     16.884562      5.2537174    
   2662000   0.98097202     16.606223      5.2465499    
   2663000   1.0066097      16.85518       5.1981444    
   2664000   1.0115731      16.870614      5.2308694    
   2665000   0.99457772     16.427015      5.2911516    
   2666000   0.98140723     16.652055      5.2590996    
   2667000   0.99115438     16.409618      5.2580199    
   2668000   1.0117852      16.954986      5.2435525    
   2669000   1.0059283      16.786182      5.2607768    
   2670000   0.98472648     16.257253      5.2611473    
   2671000   1.0089372      16.902076      5.2293235    
   2672000   0.97480644     16.728272      5.2426095    
   2673000   1.0033598      16.89757       5.2207095    
   2674000   0.96740465     16.79774       5.2257309    
   2675000   1.0062509      17.179093      5.2333807    
   2676000   0.99837794     16.716781      5.2055609    
   2677000   0.97382627     16.528508      5.2436407    
   2678000   0.99238868     16.492647      5.2398186    
   2679000   0.98569209     16.467409      5.2504082    
   2680000   1.0212158      16.743195      5.2410229    
   2681000   1.0304321      16.795036      5.2617265    
   2682000   0.95301665     16.398089      5.2330445    
   2683000   0.96503037     17.096716      5.2284949    
   2684000   0.97636523     16.956063      5.2377858    
   2685000   0.97245703     17.01163       5.2183934    
   2686000   0.98170787     16.501921      5.2602799    
   2687000   1.004881       16.70878       5.238258     
   2688000   1.0167747      17.053366      5.2669146    
   2689000   0.99964469     16.683652      5.2553272    
   2690000   0.99028776     16.710392      5.2723801    
   2691000   1.0201629      16.842286      5.2305303    
   2692000   1.0227503      17.124514      5.2697532    
   2693000   0.9915693      16.512121      5.2119135    
   2694000   1.0181597      17.194496      5.2265435    
   2695000   0.98669082     16.617953      5.214162     
   2696000   1.0109867      17.004531      5.2252963    
   2697000   1.0208074      16.367459      5.2241711    
   2698000   0.97807537     17.169496      5.2081756    
   2699000   1.0139363      16.997637      5.2286214    
   2700000   1.0106162      17.279019      5.270631     
   2701000   1.0475435      17.133461      5.1994687    
   2702000   1.0087434      16.871614      5.218984     
   2703000   1.0038068      16.498549      5.2151596    
   2704000   1.0059384      15.935173      5.2499658    
   2705000   1.016199       16.115854      5.2435262    
   2706000   1.012035       16.663633      5.252039     
   2707000   1.0498363      16.789732      5.2777825    
   2708000   0.99698278     17.251184      5.261703     
   2709000   0.99147018     16.660852      5.2742919    
   2710000   1.0413576      17.044532      5.2794027    
   2711000   0.98069042     15.948435      5.2396307    
   2712000   1.0383485      16.941456      5.2130556    
   2713000   1.052347       17.289415      5.2260126    
   2714000   0.95898902     16.553444      5.2018205    
   2715000   1.027375       16.752841      5.1897063    
   2716000   1.0282489      16.366426      5.2345166    
   2717000   1.0044276      16.825511      5.254746     
   2718000   0.98100845     16.545343      5.2478652    
   2719000   1.0243101      16.61107       5.2010549    
   2720000   1.0160938      16.67967       5.2500383    
   2721000   1.0008328      16.800621      5.262323     
   2722000   0.9930711      17.125667      5.2558659    
   2723000   1.0141831      17.205936      5.2699318    
   2724000   0.99636303     16.900381      5.2327494    
   2725000   0.99446544     16.725775      5.219873     
   2726000   0.96579904     16.598662      5.2163474    
   2727000   1.0083666      16.881836      5.2437253    
   2728000   1.0106178      16.451035      5.2230754    
   2729000   0.99271475     16.862975      5.2518992    
   2730000   1.0097742      16.650884      5.2439468    
   2731000   1.0375945      16.757308      5.2202262    
   2732000   0.98767634     16.756228      5.2445452    
   2733000   0.96626667     17.146803      5.2381695    
   2734000   1.0126544      17.444015      5.227692     
   2735000   0.99662432     16.39963       5.2342329    
   2736000   1.0266735      16.786876      5.2352794    
   2737000   0.98830366     16.867582      5.2271896    
   2738000   1.0184721      17.182617      5.2447243    
   2739000   0.99907661     16.542967      5.2522388    
   2740000   1.0039153      16.938866      5.2666242    
   2741000   0.99808308     16.132166      5.2193088    
   2742000   1.0042741      16.524333      5.2581212    
   2743000   1.0170275      17.052423      5.2153769    
   2744000   1.0253473      16.438469      5.2148672    
   2745000   0.99968487     16.726485      5.2113742    
   2746000   1.0064495      16.724757      5.2512025    
   2747000   1.0424339      17.167009      5.1940731    
   2748000   0.98218525     16.764642      5.2455049    
   2749000   1.0313569      16.469104      5.2460158    
   2750000   1.0256071      16.519328      5.2410666    
   2751000   0.98753841     16.676815      5.2663094    
   2752000   1.0033975      17.014877      5.2046823    
   2753000   1.0438643      16.97793       5.2414214    
   2754000   0.97846028     16.950559      5.2448247    
   2755000   1.0302505      17.143636      5.2520521    
   2756000   0.99314311     16.838405      5.2291755    
   2757000   1.0062535      17.148017      5.1962238    
   2758000   1.0193551      16.442504      5.2265739    
   2759000   1.0301263      17.156377      5.2678906    
   2760000   0.96811882     17.092517      5.2605045    
   2761000   1.0237877      16.542989      5.2688235    
   2762000   0.95779137     16.346761      5.2113005    
   2763000   0.96754227     16.794075      5.2461899    
   2764000   1.0364981      17.151612      5.2067496    
   2765000   1.0547716      17.252994      5.2670157    
   2766000   0.98179351     16.835425      5.2407704    
   2767000   0.97169781     16.507343      5.2058925    
   2768000   1.0489278      16.822051      5.2226856    
   2769000   1.0338312      16.850199      5.2372693    
   2770000   0.99364829     16.184627      5.2388813    
   2771000   1.0048099      17.223868      5.2526264    
   2772000   0.98433412     16.049549      5.2500476    
   2773000   0.96591473     16.731533      5.246915     
   2774000   1.0439953      16.235956      5.260972     
   2775000   0.99626672     16.668474      5.2453345    
   2776000   0.99779787     17.164925      5.2992977    
   2777000   1.0051025      16.819133      5.297445     
   2778000   0.99988498     16.611766      5.2867425    
   2779000   0.99327284     17.101162      5.2643003    
   2780000   0.97143121     17.323871      5.2454255    
   2781000   1.0035912      17.058981      5.2782643    
   2782000   0.99582557     16.705192      5.253576     
   2783000   1.0255655      17.133591      5.2861836    
   2784000   1.00188        17.35272       5.2489907    
   2785000   1.0402362      17.323827      5.2566466    
   2786000   1.0040001      17.036349      5.253219     
   2787000   1.0444136      16.505353      5.2250706    
   2788000   1.0524438      17.18786       5.2222913    
   2789000   1.0041502      16.600896      5.2276938    
   2790000   1.0040673      16.66522       5.2748237    
   2791000   0.97197125     16.36496       5.2494203    
   2792000   1.0294349      16.647901      5.2793358    
   2793000   1.0097541      16.501937      5.2503455    
   2794000   1.0061999      16.467714      5.2461701    
   2795000   1.0091686      16.99437       5.2453249    
   2796000   1.0270542      16.634958      5.2459477    
   2797000   0.97585925     16.855125      5.2758847    
   2798000   1.0490304      17.052198      5.2427197    
   2799000   1.0158309      16.568236      5.2586685    
   2800000   0.98001302     17.028074      5.2358763    
   2801000   0.97301067     16.858203      5.2347829    
   2802000   0.99076868     16.364095      5.2423441    
   2803000   0.98411476     17.096735      5.2444481    
   2804000   1.0081061      16.632408      5.2382579    
   2805000   0.99977103     16.395791      5.2245211    
   2806000   0.99250581     16.762437      5.2241765    
   2807000   0.98043227     16.793665      5.2151075    
   2808000   1.0169799      16.571417      5.2046556    
   2809000   1.0349617      16.343205      5.2285887    
   2810000   0.96533377     17.146173      5.1923582    
   2811000   0.99491497     17.172397      5.2129225    
   2812000   0.97657379     16.87238       5.2540112    
   2813000   1.003942       16.932097      5.2011268    
   2814000   1.0004387      16.713801      5.2182256    
   2815000   0.93869759     16.770626      5.2433837    
   2816000   0.97637922     15.879483      5.2278286    
   2817000   0.99104698     16.751182      5.1970533    
   2818000   1.0514817      17.445907      5.2266718    
   2819000   1.0198372      16.494739      5.2260872    
   2820000   1.0472305      16.403974      5.2338764    
   2821000   1.0090147      16.141487      5.2556209    
   2822000   0.99013526     17.142051      5.2402231    
   2823000   0.99931769     16.89302       5.267604     
   2824000   0.98579486     16.843703      5.250636     
   2825000   1.0186196      16.818009      5.2258893    
   2826000   0.99474513     16.210958      5.2924464    
   2827000   1.0025809      16.730766      5.2727982    
   2828000   0.98371809     17.192028      5.2275592    
   2829000   0.95783727     16.579103      5.2412708    
   2830000   0.97888776     16.300859      5.2627708    
   2831000   0.94481276     16.458656      5.251096     
   2832000   0.97621194     16.363662      5.2435099    
   2833000   0.9969951      17.175275      5.2656036    
   2834000   0.99960573     17.207718      5.2294132    
   2835000   0.98845991     16.862941      5.2157906    
   2836000   1.0418981      16.807839      5.230642     
   2837000   1.008493       17.038778      5.2659658    
   2838000   1.0266651      16.477838      5.3063459    
   2839000   0.98588718     16.414078      5.2360926    
   2840000   0.97332602     16.907648      5.2234996    
   2841000   1.0202803      16.507457      5.22165      
   2842000   0.94985409     16.622903      5.2146681    
   2843000   0.98236017     17.149189      5.2056877    
   2844000   1.0321281      16.881026      5.2394972    
   2845000   1.0044113      16.35971       5.2324964    
   2846000   1.0062965      17.083987      5.2420245    
   2847000   0.97642594     16.257777      5.2819113    
   2848000   0.94152919     16.647526      5.2217136    
   2849000   1.0179012      16.883153      5.1919374    
   2850000   0.98100574     16.555631      5.3007485    
   2851000   0.99942069     16.612771      5.2336421    
   2852000   1.0650106      16.857343      5.2494012    
   2853000   1.01198        16.483857      5.2868935    
   2854000   0.98017421     16.182419      5.3151242    
   2855000   1.0195617      16.981087      5.2804676    
   2856000   1.0044338      17.072444      5.2405721    
   2857000   1.0152192      17.05447       5.2604268    
   2858000   0.97188054     16.463802      5.2849374    
   2859000   1.0342811      17.400093      5.2600763    
   2860000   1.016436       16.832693      5.2566859    
   2861000   1.0131857      16.129617      5.2414102    
   2862000   1.0039381      16.483125      5.2244621    
   2863000   0.97270318     17.257736      5.2054856    
   2864000   0.97915272     16.906841      5.1960817    
   2865000   1.0293634      17.375973      5.2378369    
   2866000   0.97528913     16.777783      5.2166232    
   2867000   0.98848035     16.993051      5.2269911    
   2868000   1.0021419      16.948678      5.2332893    
   2869000   0.97786688     16.411665      5.2329398    
   2870000   0.98935511     16.787947      5.2419093    
   2871000   0.98442849     16.866261      5.2552418    
   2872000   1.0239041      16.558022      5.2271801    
   2873000   0.96754267     16.755157      5.2304604    
   2874000   1.0107234      16.842901      5.2434347    
   2875000   1.0637727      16.675512      5.2460296    
   2876000   0.98167635     16.480656      5.2232652    
   2877000   0.98495288     16.593517      5.2090495    
   2878000   0.98771157     16.622865      5.2199073    
   2879000   0.99569969     17.315514      5.2085876    
   2880000   0.97157496     16.560622      5.2640061    
   2881000   1.0135944      17.174904      5.231552     
   2882000   1.0060362      16.942148      5.2310234    
   2883000   1.0007713      17.139627      5.2583576    
   2884000   1.0290567      16.93541       5.2332831    
   2885000   1.0418382      16.845542      5.2500619    
   2886000   1.0161112      17.282917      5.2600832    
   2887000   0.9699914      16.931611      5.3015418    
   2888000   0.95833757     16.845096      5.2565974    
   2889000   0.99587275     16.897553      5.25996      
   2890000   0.98664564     17.171782      5.2633813    
   2891000   1.0071501      16.261591      5.2865272    
   2892000   0.95597688     16.535297      5.2492364    
   2893000   0.99064087     16.538089      5.2116874    
   2894000   1.0229675      16.803578      5.2238248    
   2895000   1.0109762      16.720724      5.2150696    
   2896000   0.98292644     16.881367      5.245365     
   2897000   1.0047967      16.43791       5.2852405    
   2898000   1.0091941      16.618815      5.2523586    
   2899000   1.0024876      16.983126      5.2567996    
   2900000   1.0130727      16.630607      5.2659566    
   2901000   1.0014808      16.579794      5.2478296    
   2902000   0.97867694     16.482741      5.2825004    
   2903000   0.95639682     16.712176      5.2934984    
   2904000   0.97058852     17.304381      5.2430409    
   2905000   0.99654575     17.291755      5.1747242    
   2906000   0.98806951     17.009736      5.2672105    
   2907000   1.0290407      16.625192      5.2635787    
   2908000   0.97153369     17.102138      5.2709313    
   2909000   1.0290378      17.000475      5.2498656    
   2910000   1.0077278      17.181974      5.2569127    
   2911000   0.98775183     16.962796      5.274097     
   2912000   0.98871067     16.630017      5.2332508    
   2913000   0.97955401     16.909333      5.2484481    
   2914000   1.025902       16.946019      5.2013383    
   2915000   1.0330673      16.263547      5.2279647    
   2916000   0.99587402     16.978868      5.2460114    
   2917000   0.97659002     16.505001      5.2141083    
   2918000   0.9792416      16.786216      5.2639071    
   2919000   0.99268141     16.855891      5.2315502    
   2920000   0.97225628     16.928664      5.2291817    
   2921000   0.97393879     16.715509      5.236233     
   2922000   0.97554692     16.847311      5.2326518    
   2923000   1.0058232      16.326276      5.2496525    
   2924000   0.98105477     16.977051      5.2435573    
   2925000   1.0084355      16.373144      5.2279623    
   2926000   1.0034657      17.164053      5.2373752    
   2927000   0.99269305     16.747435      5.2238008    
   2928000   0.99340996     16.435338      5.2535835    
   2929000   0.9960086      16.482149      5.2338237    
   2930000   1.014214       17.121207      5.2847597    
   2931000   0.99005043     17.091343      5.308573     
   2932000   1.0013733      16.993702      5.2604799    
   2933000   0.98162356     16.483299      5.2728129    
   2934000   1.0316887      16.975217      5.2342974    
   2935000   0.97594769     16.676448      5.3050655    
   2936000   1.0090838      16.662734      5.2334535    
   2937000   0.97638702     16.947914      5.2370811    
   2938000   1.051605       16.437116      5.2320376    
   2939000   0.97241933     16.708378      5.2211631    
   2940000   1.0303029      17.083574      5.2504843    
   2941000   0.97877785     16.46025       5.2530547    
   2942000   0.97099977     16.71407       5.2271913    
   2943000   1.0172754      16.835897      5.2255075    
   2944000   1.0366691      16.780371      5.2123352    
   2945000   1.0228588      16.935988      5.2283872    
   2946000   1.0045881      17.122457      5.2502208    
   2947000   0.99830343     16.897295      5.2514029    
   2948000   1.004367       16.534778      5.2192911    
   2949000   0.97226878     16.408374      5.2385515    
   2950000   1.0277863      16.925359      5.2258011    
   2951000   0.96830686     16.504029      5.2265337    
   2952000   0.96392844     17.097485      5.1962584    
   2953000   1.0709385      16.702148      5.186134     
   2954000   0.99844866     17.247053      5.2134424    
   2955000   0.9941476      16.661239      5.2242276    
   2956000   0.99544653     16.518722      5.2395388    
   2957000   1.0034273      17.347276      5.2391195    
   2958000   1.0089271      17.001107      5.2337776    
   2959000   0.99995031     16.282779      5.2465385    
   2960000   1.027035       16.981625      5.263808     
   2961000   1.0312939      17.031911      5.2145768    
   2962000   1.0004488      16.639016      5.2399567    
   2963000   1.007072       17.008104      5.22386      
   2964000   0.97964796     16.653019      5.2213283    
   2965000   1.0030734      16.783835      5.2380456    
   2966000   1.0366907      16.354683      5.2287589    
   2967000   1.0066143      16.898409      5.2211617    
   2968000   0.99115827     16.809753      5.2338954    
   2969000   1.0078453      17.148282      5.2182288    
   2970000   1.0316355      16.678379      5.2688179    
   2971000   0.99741574     16.273802      5.2769693    
   2972000   0.99595072     16.467287      5.2526496    
   2973000   1.0139542      16.68954       5.2750191    
   2974000   0.99167366     16.375023      5.2363143    
   2975000   1.0082938      17.087149      5.2779566    
   2976000   1.028741       17.437312      5.2693703    
   2977000   1.0005465      17.151828      5.2513569    
   2978000   1.0028221      16.484477      5.2733871    
   2979000   1.0069297      16.720433      5.2815067    
   2980000   0.96200163     16.653976      5.2178296    
   2981000   1.0003923      16.667153      5.2616246    
   2982000   1.0681326      16.507761      5.2523969    
   2983000   0.98652087     16.722592      5.2343002    
   2984000   0.99634566     17.028395      5.2272577    
   2985000   1.0293293      17.0061        5.2995292    
   2986000   0.9857606      16.120898      5.2661884    
   2987000   1.0028604      16.775204      5.2667685    
   2988000   0.99978284     16.561064      5.2727488    
   2989000   1.0071337      16.774902      5.243901     
   2990000   0.98999317     17.117306      5.2283734    
   2991000   0.94968702     16.344933      5.270993     
   2992000   0.98158683     17.011486      5.2503828    
   2993000   1.0148395      16.951045      5.2464244    
   2994000   0.98213922     16.387222      5.2315388    
   2995000   1.0099601      17.072352      5.255872     
   2996000   0.98133401     17.127507      5.2826536    
   2997000   1.0193683      16.797729      5.2753826    
   2998000   0.96871628     16.000446      5.248821     
   2999000   1.0005199      17.219492      5.2347603    
   3000000   0.99522501     16.714366      5.2361232    
   3001000   1.0289379      16.863052      5.2417474    
   3002000   0.98833723     16.801792      5.260082     
   3003000   1.0474209      17.304083      5.26258      
   3004000   1.014989       16.774119      5.2463417    
   3005000   0.99587116     16.399223      5.2140371    
   3006000   0.97127759     16.584107      5.259944     
   3007000   1.0258875      16.827057      5.2482909    
   3008000   1.0115669      17.302801      5.2357405    
   3009000   0.99849399     16.40886       5.2077026    
   3010000   0.95112058     16.69729       5.2301091    
   3011000   0.97315427     16.481527      5.242493     
   3012000   0.98711792     16.361241      5.2453867    
   3013000   0.98849391     16.146926      5.2408208    
   3014000   1.0004421      16.317566      5.2369051    
   3015000   0.98068551     16.396614      5.2394229    
   3016000   0.9933074      16.274373      5.23875      
   3017000   0.98887045     16.87321       5.2358573    
   3018000   0.98734324     16.609576      5.3111487    
   3019000   0.98373007     16.800683      5.2454593    
   3020000   0.96819734     16.252074      5.257655     
   3021000   1.0240441      16.275184      5.2395727    
   3022000   1.0125193      16.847545      5.2770343    
   3023000   0.95618605     16.397523      5.2747377    
   3024000   1.022068       16.657064      5.2498821    
   3025000   0.99514327     17.064536      5.2459876    
   3026000   0.95007887     16.26765       5.2465052    
   3027000   0.97995788     17.308179      5.2572363    
   3028000   1.036195       16.783784      5.2489917    
   3029000   1.005723       16.658127      5.2565872    
   3030000   0.99751125     16.995878      5.2374595    
   3031000   1.00549        16.840629      5.2712943    
   3032000   1.0030263      17.006134      5.2488854    
   3033000   1.0416902      16.762801      5.2481711    
   3034000   1.0496121      16.606379      5.2622429    
   3035000   1.0426847      17.167065      5.2392544    
   3036000   0.97583563     16.264495      5.2356623    
   3037000   0.99620463     16.933395      5.2767151    
   3038000   1.0214669      16.490695      5.2505807    
   3039000   0.99743654     16.545561      5.2423755    
   3040000   0.97558543     16.430219      5.235257     
   3041000   1.0367351      17.136008      5.2431257    
   3042000   1.0337442      16.7514        5.2474473    
   3043000   1.0120967      17.343056      5.2818971    
   3044000   0.98248504     16.167954      5.253064     
   3045000   0.98879264     16.508153      5.2422444    
   3046000   1.0197338      17.102451      5.2288072    
   3047000   1.0213874      17.115685      5.2311574    
   3048000   1.0154893      16.772697      5.2600489    
   3049000   0.99420443     16.850296      5.2567598    
   3050000   0.96942418     16.853686      5.2267378    
   3051000   1.0157346      16.692978      5.2498949    
   3052000   1.0416649      16.899056      5.2411635    
   3053000   0.98137754     16.607604      5.2385906    
   3054000   0.99180159     16.497517      5.2367153    
   3055000   1.0138806      17.036461      5.3258494    
   3056000   0.98175095     16.492624      5.299899     
   3057000   1.0435416      16.483741      5.2575954    
   3058000   1.0327991      16.477585      5.2610966    
   3059000   1.0454249      17.17038       5.2715385    
   3060000   1.0413068      16.643598      5.2567505    
   3061000   0.99590461     16.94208       5.2557122    
   3062000   0.95287734     16.833698      5.2895412    
   3063000   1.0333481      16.365853      5.2482481    
   3064000   0.97937708     16.652128      5.2846927    
   3065000   1.0456847      16.437726      5.2517737    
   3066000   1.0253442      16.457368      5.2510815    
   3067000   0.97638365     15.924249      5.245936     
   3068000   1.0170016      17.062719      5.2146327    
   3069000   0.96420038     16.868831      5.2147301    
   3070000   0.99580356     17.013407      5.2330697    
   3071000   0.98405791     16.4552        5.2383543    
   3072000   0.98964977     16.71578       5.2764181    
   3073000   1.057964       17.19531       5.2743931    
   3074000   0.9978436      16.573191      5.2771128    
   3075000   1.0186667      16.359864      5.2460042    
   3076000   1.0091919      16.799665      5.2721968    
   3077000   1.0163526      16.782434      5.2586498    
   3078000   1.012654       16.618175      5.260254     
   3079000   1.0151797      16.586784      5.2459146    
   3080000   1.007477       16.857003      5.2457997    
   3081000   0.970061       16.402765      5.2223424    
   3082000   1.0156488      17.09676       5.2181266    
   3083000   1.0143215      16.857094      5.2362945    
   3084000   0.99647822     17.347403      5.2169536    
   3085000   1.029923       16.862483      5.2264518    
   3086000   1.0079838      16.297075      5.2288197    
   3087000   1.0035014      16.619248      5.2533756    
   3088000   1.0223573      17.227681      5.2238762    
   3089000   1.027134       17.008757      5.2397741    
   3090000   0.99287332     15.899132      5.2289814    
   3091000   0.99164047     17.192997      5.2445295    
   3092000   0.98990039     16.030189      5.2532713    
   3093000   0.96587022     16.531405      5.3047932    
   3094000   1.0055228      16.834636      5.2596098    
   3095000   1.0632607      17.239761      5.2338516    
   3096000   1.0161032      16.637642      5.2091856    
   3097000   0.99888778     16.518943      5.2698371    
   3098000   0.94157807     16.548381      5.2644164    
   3099000   1.0404073      17.387721      5.2350687    
   3100000   1.0243805      17.233765      5.2544059    
   3101000   0.97624449     16.343811      5.2655577    
   3102000   0.98672935     16.858622      5.2503713    
   3103000   1.0044252      16.177308      5.2451234    
   3104000   0.99031135     16.597009      5.2675903    
   3105000   0.95836059     16.623012      5.2536704    
   3106000   0.97798323     16.129859      5.2455246    
   3107000   0.99011071     16.595702      5.2874019    
   3108000   1.0281307      16.540213      5.2738861    
   3109000   1.0366676      16.955036      5.2786226    
   3110000   1.0243812      16.783146      5.2999259    
   3111000   1.0122795      16.546882      5.267373     
   3112000   0.98615104     16.330587      5.2612953    
   3113000   1.0355169      17.077668      5.2615898    
   3114000   0.99132015     16.156847      5.2936222    
   3115000   1.0445119      16.552978      5.2573863    
   3116000   1.023642       16.851549      5.26493      
   3117000   0.99158671     16.252255      5.2575142    
   3118000   0.99560917     16.82295       5.2943082    
   3119000   0.94707736     16.251654      5.2777051    
   3120000   1.0318963      16.358673      5.3176534    
   3121000   1.0162964      16.772498      5.2734019    
   3122000   1.0477252      16.561577      5.2618806    
   3123000   1.0339379      16.99598       5.2589838    
   3124000   1.0126411      16.770264      5.2490978    
   3125000   1.0318126      17.206927      5.2297716    
   3126000   1.0164596      16.586203      5.2311577    
   3127000   1.0365693      16.558843      5.2623661    
   3128000   1.0188398      17.241766      5.2466895    
   3129000   0.99844395     16.538451      5.2627616    
   3130000   0.9798206      16.49355       5.2436257    
   3131000   1.0361106      16.554777      5.2510353    
   3132000   0.99644083     16.524595      5.2588452    
   3133000   1.0024825      16.744163      5.2254798    
   3134000   0.96926134     16.788445      5.2181145    
   3135000   1.0165785      17.081177      5.207878     
   3136000   1.0047868      16.692663      5.2541651    
   3137000   0.9904843      16.474139      5.2327594    
   3138000   1.0595841      17.097394      5.2328806    
   3139000   1.0075632      16.955015      5.2288474    
   3140000   1.0117989      16.853658      5.2645865    
   3141000   0.98419481     16.56083       5.2603995    
   3142000   1.0234595      16.829182      5.2440073    
   3143000   0.99807453     16.933633      5.2694536    
   3144000   1.0380029      16.766307      5.2619616    
   3145000   0.98622838     16.850362      5.2087513    
   3146000   1.0473036      17.002963      5.2259196    
   3147000   0.98067911     16.977836      5.243802     
   3148000   1.0148844      16.180876      5.2294796    
   3149000   1.0156924      16.497635      5.2341171    
   3150000   1.0567316      16.413608      5.2774709    
   3151000   1.0093839      16.516245      5.2698865    
   3152000   1.0126497      17.179002      5.2426594    
   3153000   1.008435       16.486221      5.2432124    
   3154000   0.97816637     16.631422      5.2303397    
   3155000   1.0143864      16.323543      5.2577638    
   3156000   1.0039217      16.653223      5.2401397    
   3157000   1.0329001      16.893534      5.2399463    
   3158000   0.98620202     15.794397      5.2359285    
   3159000   1.0027772      16.476306      5.2363079    
   3160000   0.98124866     17.243398      5.222303     
   3161000   1.0219271      17.342558      5.2517228    
   3162000   0.96566221     17.352356      5.2333449    
   3163000   1.0518281      16.826815      5.2506456    
   3164000   0.96982324     16.591506      5.2351047    
   3165000   0.99462492     17.018484      5.2509645    
   3166000   1.0262053      17.175637      5.2525105    
   3167000   0.97355768     16.313259      5.2460572    
   3168000   1.0001498      16.51847       5.2843913    
   3169000   0.99233478     16.683408      5.2833672    
   3170000   0.99964102     16.574964      5.2676818    
   3171000   0.98767218     17.037667      5.2493969    
   3172000   1.0283967      16.289327      5.2803159    
   3173000   0.98231948     16.948929      5.2652703    
   3174000   1.040272       17.057502      5.2167777    
   3175000   1.0059896      17.183877      5.2691004    
   3176000   0.97386372     16.695454      5.2314679    
   3177000   0.98174867     16.792085      5.2192848    
   3178000   0.97534219     16.90293       5.2749112    
   3179000   1.0187526      16.591332      5.2622954    
   3180000   0.97746086     16.795686      5.2401433    
   3181000   0.97749561     16.766909      5.2649893    
   3182000   0.95156453     16.652076      5.241439     
   3183000   1.0067273      16.746648      5.2311271    
   3184000   1.0040833      16.850845      5.2336729    
   3185000   1.0116137      16.393364      5.2413751    
   3186000   0.97525136     16.962066      5.2347378    
   3187000   1.0238632      16.559165      5.2526075    
   3188000   1.0012152      16.879752      5.2081687    
   3189000   1.0305427      16.759522      5.274448     
   3190000   0.95463415     16.320793      5.2361901    
   3191000   1.0109095      16.386283      5.2346894    
   3192000   1.0165913      16.196066      5.2290862    
   3193000   0.99209939     16.785292      5.2103797    
   3194000   0.98480019     17.194514      5.2665677    
   3195000   1.0101897      17.007802      5.253103     
   3196000   1.021059       16.746827      5.2571155    
   3197000   0.94892202     16.45048       5.2341468    
   3198000   1.0181793      16.395889      5.2489407    
   3199000   1.0103248      16.513143      5.282071     
   3200000   0.96751768     16.795386      5.2829799    
   3201000   0.99196737     16.696137      5.2813592    
   3202000   0.99390007     16.723939      5.2657316    
   3203000   1.0274542      17.044291      5.2267624    
   3204000   0.98813575     16.397712      5.2292934    
   3205000   1.0314903      16.549723      5.2334612    
   3206000   0.99799111     16.417472      5.2513739    
   3207000   0.99866096     16.41672       5.237647     
   3208000   0.98363361     16.644903      5.2341678    
   3209000   0.9884499      16.988908      5.230152     
   3210000   0.96546137     16.931514      5.2476491    
   3211000   0.96106036     16.619164      5.2577487    
   3212000   0.94992165     16.988162      5.2210224    
   3213000   0.97930645     16.829203      5.2276278    
   3214000   0.99342624     16.500262      5.1973461    
   3215000   0.98095224     16.344693      5.2265576    
   3216000   1.0103976      16.372968      5.2355024    
   3217000   0.97225692     16.554738      5.2693122    
   3218000   0.97279936     16.479421      5.2610021    
   3219000   0.99839109     16.329197      5.2515206    
   3220000   1.0265754      16.675952      5.2430883    
   3221000   1.0214111      16.838733      5.2679886    
   3222000   0.99820412     16.183965      5.2635377    
   3223000   0.99074205     16.877837      5.2545537    
   3224000   1.0280789      17.162142      5.2345636    
   3225000   0.98392861     17.065535      5.2448083    
   3226000   0.99428677     16.77839       5.2286432    
   3227000   0.9987039      16.712127      5.2404847    
   3228000   0.98152543     17.084842      5.2326069    
   3229000   1.0165853      16.697818      5.248634     
   3230000   0.97726365     16.914841      5.2472117    
   3231000   1.0037114      16.405419      5.2420204    
   3232000   1.0362719      16.480393      5.234393     
   3233000   0.95358624     17.172744      5.222559     
   3234000   1.0248183      16.49401       5.2627742    
   3235000   0.99356988     16.480963      5.2468329    
   3236000   1.0034057      16.933684      5.2496179    
   3237000   1.00022        16.688301      5.2572675    
   3238000   1.0080554      16.924902      5.2308185    
   3239000   0.98068288     16.50656       5.2407936    
   3240000   0.98633702     16.782189      5.2201218    
   3241000   0.98571287     16.688318      5.2308432    
   3242000   0.94904022     16.457396      5.2505562    
   3243000   1.0260809      16.481197      5.2327073    
   3244000   1.0610988      17.051889      5.2352116    
   3245000   0.99935158     17.195639      5.2607865    
   3246000   0.96601177     16.506027      5.2574295    
   3247000   1.0278115      16.277099      5.2853247    
   3248000   1.0165763      16.701466      5.2609011    
   3249000   0.96856519     16.523174      5.2690829    
   3250000   0.98127517     16.883042      5.2737539    
   3251000   0.96555384     16.655302      5.2570221    
   3252000   0.99193322     16.543115      5.2328593    
   3253000   0.99060852     16.201878      5.2537939    
   3254000   0.96309768     17.251363      5.2364679    
   3255000   0.93952782     16.927856      5.2273724    
   3256000   1.0230828      16.84235       5.2220698    
   3257000   1.0313044      17.072034      5.2645277    
   3258000   1.0134037      16.659458      5.2657798    
   3259000   0.97687274     16.363514      5.2225246    
   3260000   1.0173719      16.878953      5.2209694    
   3261000   0.96983268     16.894003      5.2293909    
   3262000   1.0245222      16.299825      5.2982814    
   3263000   0.96505387     16.203622      5.2468912    
   3264000   0.95516913     16.46616       5.2841396    
   3265000   0.96715483     16.27916       5.3103997    
   3266000   1.0740776      17.129187      5.2910279    
   3267000   0.98284558     16.720607      5.2636568    
   3268000   1.031342       16.693822      5.2524149    
   3269000   0.99058069     16.320078      5.263506     
   3270000   0.95333203     17.22694       5.2107997    
   3271000   0.98181079     16.432955      5.2531284    
   3272000   1.0187208      16.850748      5.2499864    
   3273000   0.99813731     17.237462      5.2381331    
   3274000   1.0072263      16.14133       5.2188873    
   3275000   1.0132397      17.332866      5.2156411    
   3276000   1.0156695      17.167341      5.2377078    
   3277000   0.98454563     16.623065      5.2395484    
   3278000   1.0250535      16.914473      5.2608291    
   3279000   0.99088658     16.430196      5.2554787    
   3280000   1.043789       17.016413      5.2854301    
   3281000   0.97589259     16.386368      5.2319129    
   3282000   0.98256773     16.696247      5.21338      
   3283000   1.0084244      16.616761      5.2226828    
   3284000   1.0376656      17.034521      5.2468234    
   3285000   1.0186419      16.68525       5.2443313    
   3286000   0.99474577     16.497883      5.2519709    
   3287000   0.9613586      16.261049      5.2228555    
   3288000   0.96138803     16.12006       5.2509859    
   3289000   0.99192976     16.329398      5.233712     
   3290000   1.0069998      16.983105      5.25107      
   3291000   0.98196598     16.845638      5.2587524    
   3292000   1.0292267      17.011149      5.2069832    
   3293000   1.0079774      16.160624      5.2355068    
   3294000   1.0166032      16.93713       5.2341494    
   3295000   1.0543836      16.996188      5.2595928    
   3296000   1.0154344      16.845905      5.244843     
   3297000   0.97184453     17.047554      5.2592002    
   3298000   1.0253291      16.623714      5.2191231    
   3299000   0.98607955     16.297888      5.2412939    
   3300000   1.015325       16.245983      5.2034272    
   3301000   0.99909821     16.608496      5.2358061    
   3302000   0.98662455     17.292754      5.2181994    
   3303000   1.0032373      15.899417      5.2916087    
   3304000   0.96168128     16.93399       5.2110897    
   3305000   1.0079691      16.193749      5.2573914    
   3306000   0.97742867     16.561358      5.2671477    
   3307000   1.0382979      17.214739      5.2703399    
   3308000   1.030004       16.820082      5.2525825    
   3309000   1.0150597      17.09966       5.2252373    
   3310000   0.98652468     17.100064      5.2281445    
   3311000   0.99409722     16.507156      5.2552066    
   3312000   1.0061429      16.192891      5.2758591    
   3313000   1.0001922      17.249677      5.2189943    
   3314000   1.0231717      17.245679      5.2532978    
   3315000   1.0441074      16.56705       5.2753995    
   3316000   1.0136523      16.435806      5.2661096    
   3317000   1.0146887      16.53486       5.2514027    
   3318000   0.98346557     16.900887      5.2483786    
   3319000   1.0265048      16.954008      5.26971      
   3320000   0.98588048     16.764644      5.2409184    
   3321000   1.0142435      16.382308      5.2383295    
   3322000   1.0086186      16.659444      5.2324855    
   3323000   1.0180332      17.049534      5.2681148    
   3324000   0.97413072     16.629776      5.2984112    
   3325000   1.0017103      16.877604      5.3179886    
   3326000   0.97981918     17.164304      5.2855906    
   3327000   1.0142135      16.49177       5.2567688    
   3328000   1.0358994      17.338184      5.2062454    
   3329000   1.0102926      16.983143      5.2127572    
   3330000   1.0038599      16.741323      5.2389112    
   3331000   0.99608694     16.99019       5.2340153    
   3332000   0.9866722      16.428156      5.2603041    
   3333000   0.99425419     16.936646      5.2515854    
   3334000   0.99244248     16.621018      5.2095997    
   3335000   1.0116002      16.345546      5.276958     
   3336000   1.0209805      16.86885       5.2773773    
   3337000   0.96570805     16.677336      5.2038842    
   3338000   1.0238468      16.7879        5.2167957    
   3339000   1.0086122      16.967688      5.222189     
   3340000   1.0298539      16.499586      5.2362045    
   3341000   0.99808415     16.702422      5.2390927    
   3342000   1.0036709      16.881602      5.2365932    
   3343000   0.96322319     15.975624      5.2292039    
   3344000   0.9841938      17.562721      5.2325687    
   3345000   0.96360894     16.204436      5.247141     
   3346000   1.0023647      16.321233      5.2618065    
   3347000   1.0149392      16.577057      5.2377051    
   3348000   1.0169331      16.254924      5.2621836    
   3349000   0.98585292     16.979405      5.2224979    
   3350000   1.0075854      17.050119      5.2538824    
   3351000   1.0360383      16.767833      5.2151557    
   3352000   0.99878459     16.843314      5.2682599    
   3353000   0.97002033     16.730335      5.2537883    
   3354000   1.0030017      17.173923      5.2583806    
   3355000   1.0101423      16.882132      5.268942     
   3356000   0.98595476     16.215236      5.2145314    
   3357000   0.97334041     16.98063       5.2128879    
   3358000   0.97255033     16.752115      5.2848281    
   3359000   1.0092573      16.648276      5.3003907    
   3360000   1.0016922      16.765299      5.3053273    
   3361000   1.0240996      16.69876       5.2604755    
   3362000   1.0141689      17.018745      5.2650841    
   3363000   0.99148993     16.954593      5.2787186    
   3364000   1.0334568      16.90342       5.2170235    
   3365000   0.97416776     16.404023      5.259508     
   3366000   1.000549       17.191468      5.2662612    
   3367000   0.99554457     16.610942      5.2547849    
   3368000   1.0182438      16.607017      5.2760274    
   3369000   0.95254081     16.534107      5.2689309    
   3370000   1.0102245      17.617203      5.2235191    
   3371000   1.018349       16.693689      5.2440935    
   3372000   0.98715563     16.617153      5.223515     
   3373000   1.0268021      16.55405       5.2296007    
   3374000   1.0182249      16.407183      5.2330903    
   3375000   0.98946403     16.621918      5.2347003    
   3376000   1.007965       16.591666      5.2345712    
   3377000   1.0298838      16.525914      5.2673636    
   3378000   0.96431235     16.42029       5.2733395    
   3379000   1.002227       16.713065      5.2769975    
   3380000   1.0131245      17.111206      5.2461774    
   3381000   0.99905666     16.783379      5.2280851    
   3382000   1.0039092      16.015033      5.2426296    
   3383000   1.0204785      16.811621      5.230266     
   3384000   0.99367938     16.494985      5.2651525    
   3385000   1.0600991      16.929555      5.271005     
   3386000   1.0430784      16.804432      5.2656749    
   3387000   0.98067795     16.834187      5.2950815    
   3388000   0.96528297     16.675255      5.2858381    
   3389000   1.001291       16.962759      5.281376     
   3390000   1.0288009      16.475403      5.2798061    
   3391000   1.0103962      16.736638      5.2608801    
   3392000   1.0098881      16.484153      5.2964275    
   3393000   1.0434019      16.653939      5.2850779    
   3394000   0.95554211     17.212433      5.2118927    
   3395000   0.98889941     16.970169      5.2337889    
   3396000   1.0056346      16.657416      5.2326948    
   3397000   0.99625202     16.994472      5.1870824    
   3398000   1.0061292      16.465421      5.2108952    
   3399000   0.96948596     16.453311      5.2680852    
   3400000   1.0033717      16.747571      5.2584257    
   3401000   0.97951034     16.622209      5.2605047    
   3402000   1.014263       17.03855       5.2134675    
   3403000   1.0212591      16.494525      5.24603      
   3404000   1.0241999      17.452247      5.2707865    
   3405000   0.98438023     16.591959      5.2466222    
   3406000   1.0072063      16.764098      5.2361091    
   3407000   1.003724       16.750076      5.2528412    
   3408000   1.0055243      16.859045      5.2411665    
   3409000   1.0427042      16.84606       5.2775055    
   3410000   0.96727811     16.963039      5.2735665    
   3411000   1.0267737      16.604941      5.2626999    
   3412000   0.98236472     16.84362       5.2537636    
   3413000   0.9959924      16.730799      5.220369     
   3414000   1.0058118      17.112493      5.2427473    
   3415000   0.97783573     16.655033      5.2790825    
   3416000   1.0155986      16.312454      5.2308465    
   3417000   1.0156509      17.20718       5.2179745    
   3418000   1.0072804      16.976904      5.2175587    
   3419000   1.012923       16.549101      5.2467977    
   3420000   0.99205509     16.349399      5.2398394    
   3421000   0.99009568     17.330065      5.242377     
   3422000   0.95187848     16.865174      5.2424372    
   3423000   1.0191229      16.767444      5.2412127    
   3424000   0.9747595      16.608854      5.2356464    
   3425000   1.0224081      17.139017      5.2450784    
   3426000   1.0444543      17.105819      5.2569996    
   3427000   0.97808499     16.801333      5.2530962    
   3428000   1.0120289      16.441828      5.23722      
   3429000   0.98337133     16.781842      5.2559735    
   3430000   0.98384579     16.586715      5.283473     
   3431000   1.0314548      16.722525      5.2830043    
   3432000   1.0223658      16.595813      5.2577671    
   3433000   0.97854988     16.756924      5.2203677    
   3434000   0.96432574     16.588571      5.2786203    
   3435000   0.99145686     16.737755      5.2208245    
   3436000   0.97242888     17.046546      5.2735491    
   3437000   0.98704103     16.849268      5.2878852    
   3438000   0.99053193     17.006405      5.3431827    
   3439000   0.99998729     16.706379      5.2705677    
   3440000   0.99788633     16.9485        5.2745792    
   3441000   1.0113691      16.380026      5.2555562    
   3442000   1.0065521      17.414619      5.2594011    
   3443000   0.99096501     17.550266      5.2296557    
   3444000   0.99863345     16.763532      5.2534764    
   3445000   0.98574598     17.218333      5.2545551    
   3446000   1.0068112      16.534176      5.2996236    
   3447000   0.97535569     16.867343      5.2825441    
   3448000   0.98151932     16.430995      5.2660208    
   3449000   0.96536936     16.766304      5.2741876    
   3450000   1.0308145      17.069222      5.3287957    
   3451000   0.97475844     16.5964        5.3230868    
   3452000   1.0428142      16.833576      5.2794373    
   3453000   0.97663152     16.139368      5.3007665    
   3454000   0.97605327     16.964735      5.2364227    
   3455000   1.0097093      17.3599        5.277614     
   3456000   0.99774394     17.315989      5.2312489    
   3457000   1.0359287      17.401223      5.2591658    
   3458000   0.99847626     16.296775      5.2348742    
   3459000   0.98233991     17.003729      5.298354     
   3460000   1.0060655      17.320784      5.2370603    
   3461000   1.0458413      17.243719      5.228803     
   3462000   0.98884326     16.649561      5.2534439    
   3463000   0.9863917      17.193869      5.2749609    
   3464000   0.99199744     17.335309      5.2122533    
   3465000   0.98052557     16.385955      5.2560989    
   3466000   1.0082975      16.673452      5.2224148    
   3467000   1.0035646      16.263123      5.2148567    
   3468000   1.0134523      16.827717      5.2379466    
   3469000   0.98870004     17.061911      5.2365061    
   3470000   1.0227859      16.798294      5.2129152    
   3471000   1.0158389      16.794791      5.2109189    
   3472000   1.0231043      16.463603      5.2507113    
   3473000   0.94577353     16.785459      5.2337016    
   3474000   1.0069474      16.641563      5.2214671    
   3475000   1.0617731      16.504573      5.2209435    
   3476000   1.0154405      17.109822      5.2533344    
   3477000   1.014075       16.239296      5.2571627    
   3478000   0.99040744     16.847481      5.2524975    
   3479000   1.0255495      17.091156      5.2198196    
   3480000   0.99947584     16.904418      5.238002     
   3481000   1.0446389      16.557599      5.2248853    
   3482000   0.98352755     16.818343      5.2682299    
   3483000   0.98586448     16.437487      5.2335541    
   3484000   1.0061073      16.274302      5.2056156    
   3485000   0.99520613     16.24617       5.2100173    
   3486000   1.0178686      16.829463      5.2207725    
   3487000   0.97040912     17.191555      5.2082468    
   3488000   1.0003175      16.610254      5.2318349    
   3489000   1.0444599      16.49546       5.2417321    
   3490000   0.99656534     16.460289      5.2525971    
   3491000   0.97607005     16.75963       5.2635692    
   3492000   1.0130431      17.037537      5.2694211    
   3493000   1.0441095      16.451988      5.257633     
   3494000   0.99068395     16.243319      5.281192     
   3495000   1.0011094      16.04006       5.2595725    
   3496000   0.97577136     16.036743      5.3148578    
   3497000   1.0091055      16.764611      5.2822688    
   3498000   1.0199047      16.671197      5.2451417    
   3499000   1.0170317      16.770732      5.2281422    
   3500000   1.0495048      17.37254       5.2300899    
   3501000   1.0054956      16.605056      5.2586225    
   3502000   1.0113002      16.45876       5.2419211    
   3503000   0.96709152     16.74507       5.2408694    
   3504000   1.0254581      16.783751      5.2585279    
   3505000   0.97227667     16.482167      5.2575299    
   3506000   0.99844903     16.76475       5.2686155    
   3507000   1.0122137      16.958815      5.2435698    
   3508000   0.97521344     17.040332      5.2581225    
   3509000   0.97777504     16.548151      5.2348178    
   3510000   0.99997826     16.891771      5.2047062    
   3511000   1.0322336      16.70598       5.2413842    
   3512000   0.93731311     16.566322      5.2223594    
   3513000   0.97028654     16.654403      5.2213732    
   3514000   1.0152123      16.534124      5.2285486    
   3515000   0.9949297      17.140266      5.1981541    
   3516000   1.0367328      17.4682        5.2059225    
   3517000   1.0025712      16.901323      5.226431     
   3518000   0.99671713     16.459314      5.2335065    
   3519000   1.0286181      16.512371      5.2248287    
   3520000   0.99785091     17.130244      5.2396003    
   3521000   1.0147234      16.188873      5.2843358    
   3522000   1.0265378      16.874805      5.2768757    
   3523000   0.97789257     16.798664      5.246361     
   3524000   1.0620838      17.035393      5.2334106    
   3525000   0.95333702     16.826136      5.2423463    
   3526000   0.96835838     16.99514       5.2468932    
   3527000   0.99138741     16.999308      5.2432185    
   3528000   1.0211052      17.014851      5.2598719    
   3529000   0.95297853     16.856598      5.2391637    
   3530000   1.0071465      16.779893      5.1987521    
   3531000   1.0064482      16.413211      5.2366439    
   3532000   1.0063814      16.604125      5.2009026    
   3533000   1.0145403      16.515725      5.2298268    
   3534000   0.98696518     17.002474      5.2179877    
   3535000   1.0344312      17.356957      5.2035063    
   3536000   0.94168356     16.895212      5.2286853    
   3537000   1.0323783      16.348424      5.2572523    
   3538000   0.99228948     17.610845      5.195889     
   3539000   1.0213358      16.129032      5.2700915    
   3540000   0.98300871     16.410765      5.2648327    
   3541000   1.0622679      16.544849      5.2660936    
   3542000   0.98541528     16.867734      5.2563937    
   3543000   1.003947       16.770906      5.2334735    
   3544000   1.013357       16.521228      5.2357642    
   3545000   0.98205218     16.492492      5.2480793    
   3546000   1.0156914      16.809067      5.2477742    
   3547000   0.98498231     16.648065      5.2228259    
   3548000   0.98414419     16.911949      5.2454036    
   3549000   1.0215595      16.391796      5.2375581    
   3550000   1.0273407      16.7316        5.2513834    
   3551000   0.95794887     16.21763       5.2559683    
   3552000   0.99789851     16.647102      5.2647332    
   3553000   0.99771173     16.636659      5.2404995    
   3554000   1.0401327      16.791554      5.2427153    
   3555000   0.99004651     16.691837      5.2327404    
   3556000   1.0167599      16.577766      5.2454172    
   3557000   0.95033113     16.788404      5.2158073    
   3558000   1.0257972      17.034689      5.2521472    
   3559000   0.992449       17.352827      5.2074266    
   3560000   1.0565251      16.690182      5.2395676    
   3561000   1.0352076      16.723676      5.2138486    
   3562000   0.96863153     17.440819      5.1868263    
   3563000   0.96476719     16.952537      5.1972297    
   3564000   1.0206684      16.551665      5.2137969    
   3565000   1.0578422      16.882714      5.2107455    
   3566000   1.029482       17.287814      5.234412     
   3567000   0.99275858     16.917625      5.2128543    
   3568000   0.99330774     16.941749      5.2092007    
   3569000   1.032583       16.611429      5.2615743    
   3570000   0.98211009     16.439104      5.236174     
   3571000   1.027501       16.283045      5.2822672    
   3572000   0.9787588      16.622198      5.2113434    
   3573000   1.0021043      16.54471       5.2428446    
   3574000   1.0426299      16.647546      5.2211471    
   3575000   1.0241047      16.658131      5.2501718    
   3576000   1.0178554      16.890323      5.2538223    
   3577000   1.0257727      16.588765      5.2443911    
   3578000   0.95354036     16.436026      5.2152514    
   3579000   1.0078815      16.69299       5.2591769    
   3580000   0.98721698     17.047313      5.2217072    
   3581000   0.95743266     16.766319      5.2437051    
   3582000   1.0064916      17.198716      5.2374956    
   3583000   1.0438067      16.800142      5.2362754    
   3584000   0.97879388     16.838344      5.2371629    
   3585000   0.97562679     16.470905      5.1921381    
   3586000   1.055233       17.358075      5.2228016    
   3587000   1.0037152      16.620118      5.2159591    
   3588000   1.0260887      16.684216      5.27148      
   3589000   1.0097393      17.196305      5.2143261    
   3590000   0.96747944     16.683221      5.2528719    
   3591000   1.0115653      17.099585      5.2254309    
   3592000   1.0222081      16.603066      5.22969      
   3593000   0.98831663     17.012122      5.2296602    
   3594000   0.9624278      16.936069      5.2680668    
   3595000   1.0195235      16.798676      5.2394294    
   3596000   0.99160186     16.953599      5.2436139    
   3597000   1.0306629      16.85995       5.233626     
   3598000   1.0094208      16.916974      5.2382781    
   3599000   0.98682112     16.803896      5.2477958    
   3600000   1.0104064      17.031104      5.2602178    
   3601000   1.0153144      17.043934      5.2994529    
   3602000   0.96442863     16.382836      5.2232855    
   3603000   0.99136503     16.766923      5.2507315    
   3604000   1.016697       15.466299      5.2803404    
   3605000   1.0276704      17.062942      5.2315466    
   3606000   0.98846629     16.517302      5.2614205    
   3607000   1.0158352      16.789257      5.2678323    
   3608000   0.99404775     16.979353      5.2963412    
   3609000   1.0314143      16.853592      5.2719263    
   3610000   1.0277868      16.872121      5.259431     
   3611000   0.98367713     16.713597      5.2555495    
   3612000   1.0011097      16.612371      5.233088     
   3613000   1.0495341      16.781915      5.2164777    
   3614000   1.004404       16.58541       5.2444691    
   3615000   1.0014553      17.340845      5.2544171    
   3616000   0.9504679      17.035623      5.2668607    
   3617000   1.0068738      16.439081      5.2204876    
   3618000   0.97053904     16.462528      5.2716091    
   3619000   0.99472493     17.226026      5.2403468    
   3620000   1.0088188      17.19216       5.2095992    
   3621000   1.0079267      16.406073      5.1748705    
   3622000   0.98153529     17.032219      5.2146792    
   3623000   0.96943514     16.343102      5.2303415    
   3624000   1.0156613      16.434131      5.2258732    
   3625000   1.0092494      16.696989      5.2222713    
   3626000   0.98267375     16.502583      5.2356489    
   3627000   1.0056799      16.301908      5.2044637    
   3628000   1.0104591      16.405908      5.2472157    
   3629000   0.99068882     17.384806      5.2337929    
   3630000   1.0026288      16.844526      5.2154361    
   3631000   0.98022782     16.285467      5.2308027    
   3632000   1.0110733      16.669366      5.2330588    
   3633000   0.98551021     16.291924      5.2425202    
   3634000   1.0014994      16.590262      5.2590609    
   3635000   1.016907       16.986458      5.2302302    
   3636000   1.0202319      16.750508      5.224258     
   3637000   0.99689287     16.660038      5.2431846    
   3638000   0.95520807     16.342021      5.2199011    
   3639000   1.0101355      16.802088      5.2445282    
   3640000   1.0065158      16.793241      5.2339616    
   3641000   1.0185301      16.900669      5.2512977    
   3642000   1.0009779      17.060125      5.2207806    
   3643000   1.0042472      16.70084       5.2612553    
   3644000   0.98074792     17.027924      5.2501104    
   3645000   0.97954507     16.528212      5.2284783    
   3646000   1.0293567      17.685799      5.2686201    
   3647000   1.022235       16.756316      5.2181761    
   3648000   0.99240972     16.921349      5.2008445    
   3649000   1.0450986      17.203061      5.2266842    
   3650000   1.0294093      17.107251      5.2025937    
   3651000   1.0078004      16.597748      5.2486768    
   3652000   1.0164027      16.737076      5.2684441    
   3653000   1.0105415      16.791144      5.2419897    
   3654000   1.0173981      16.842126      5.1991143    
   3655000   1.0174538      16.424696      5.1926518    
   3656000   1.0259184      17.58798       5.2127266    
   3657000   0.97312656     16.86128       5.2591814    
   3658000   0.9761489      16.657128      5.2751681    
   3659000   0.93111766     16.687672      5.326232     
   3660000   0.98850042     16.391269      5.2650902    
   3661000   1.006865       16.258967      5.2850538    
   3662000   0.98631793     16.976365      5.2653759    
   3663000   1.0206432      16.674398      5.2545053    
   3664000   0.98258134     16.435245      5.2389752    
   3665000   0.99683659     16.6955        5.2438641    
   3666000   1.0511433      17.063145      5.255091     
   3667000   0.98509604     16.583381      5.2464763    
   3668000   1.0067409      16.55103       5.2708933    
   3669000   1.0016809      16.336764      5.2360441    
   3670000   1.0041529      16.840429      5.2903741    
   3671000   1.0502712      16.742408      5.269876     
   3672000   1.0061251      16.231481      5.2677978    
   3673000   1.0589656      16.193287      5.3125154    
   3674000   0.98007389     17.172638      5.2692362    
   3675000   1.0214294      17.228476      5.268589     
   3676000   0.99215684     16.70435       5.2433151    
   3677000   0.97107317     17.574468      5.2644886    
   3678000   1.0033128      16.622333      5.2675045    
   3679000   1.0161999      17.079224      5.2825564    
   3680000   1.0142977      16.5663        5.284819     
   3681000   1.0331796      16.361765      5.294776     
   3682000   0.95412716     16.876648      5.2465386    
   3683000   1.0175306      17.294414      5.26842      
   3684000   0.96653229     16.10352       5.3091467    
   3685000   0.94427581     16.332258      5.3546347    
   3686000   1.0038576      16.307858      5.3003118    
   3687000   0.98926993     17.188668      5.2979381    
   3688000   1.022314       16.977968      5.2875183    
   3689000   1.0230301      16.757119      5.2844743    
   3690000   0.96172791     16.258747      5.2679264    
   3691000   0.98638405     16.772956      5.2482244    
   3692000   0.97779926     17.265074      5.2762502    
   3693000   0.97392564     16.395317      5.287682     
   3694000   0.95566393     16.22915       5.2484879    
   3695000   1.0187287      17.111452      5.2469256    
   3696000   0.997076       16.99037       5.2349267    
   3697000   1.0540735      17.014964      5.2275686    
   3698000   1.0123967      17.195389      5.2217561    
   3699000   1.0303343      16.76208       5.2086081    
   3700000   1.0298754      17.265787      5.2303742    
   3701000   1.0251541      17.078755      5.2090329    
   3702000   0.99769275     16.987253      5.2213433    
   3703000   0.98115162     16.351777      5.2317126    
   3704000   1.0011199      16.815744      5.2383906    
   3705000   1.0092682      16.833366      5.235029     
   3706000   0.98406887     16.821738      5.2245616    
   3707000   1.036562       16.500838      5.2178151    
   3708000   0.98599388     16.880806      5.2481904    
   3709000   1.0347378      17.257901      5.2286067    
   3710000   0.99687815     16.734474      5.241009     
   3711000   0.9939712      16.297016      5.2586375    
   3712000   0.97949326     17.092998      5.2519118    
   3713000   1.0120751      17.249651      5.2615643    
   3714000   1.0142795      17.236895      5.2624873    
   3715000   0.99491872     16.976024      5.2771006    
   3716000   1.009943       16.986541      5.2712837    
   3717000   1.0140502      16.796716      5.2846898    
   3718000   1.028155       16.536303      5.3113806    
   3719000   1.002499       16.589684      5.2902441    
   3720000   0.99808315     16.475713      5.3374856    
   3721000   0.9822322      16.619009      5.3222408    
   3722000   0.98482169     16.469561      5.2718178    
   3723000   0.99934268     16.305336      5.2599331    
   3724000   1.074384       16.298664      5.2780453    
   3725000   0.98962458     16.508448      5.2647428    
   3726000   1.0246497      17.19857       5.2630823    
   3727000   1.0057313      16.302931      5.2526059    
   3728000   1.0115399      16.701905      5.2395554    
   3729000   1.0012229      16.745014      5.2484023    
   3730000   1.0314373      16.914984      5.2528064    
   3731000   0.97945447     16.722308      5.2232304    
   3732000   0.97203535     17.136405      5.1889673    
   3733000   1.016378       16.644595      5.2039731    
   3734000   0.98020841     16.194997      5.2436251    
   3735000   0.9959951      16.815939      5.2384505    
   3736000   1.037035       16.778817      5.2188945    
   3737000   1.0306469      16.931704      5.2636408    
   3738000   1.0209464      17.292457      5.1933607    
   3739000   1.0026311      17.414172      5.2438482    
   3740000   1.0072342      15.990656      5.2658558    
   3741000   0.95649896     17.102624      5.2786256    
   3742000   1.0273346      16.915795      5.2427435    
   3743000   0.97547446     16.763409      5.2694948    
   3744000   1.0018566      16.896978      5.2238451    
   3745000   1.0015869      17.060563      5.2416919    
   3746000   0.96341741     16.527609      5.242034     
   3747000   1.0138562      16.801452      5.2203376    
   3748000   1.0051427      16.949268      5.2344409    
   3749000   1.0251743      16.92545       5.2838223    
   3750000   1.0061804      17.347582      5.2419361    
   3751000   0.99951699     17.250818      5.2326932    
   3752000   1.0217253      16.45425       5.2530838    
   3753000   0.97761595     16.560836      5.2680969    
   3754000   1.0285639      16.274349      5.2695207    
   3755000   0.99743621     16.440782      5.250597     
   3756000   1.0268783      17.359552      5.2771806    
   3757000   1.0384368      16.949137      5.2830432    
   3758000   0.954946       16.666898      5.2934762    
   3759000   0.99270431     16.606626      5.2416476    
   3760000   1.0225042      17.038237      5.2446683    
   3761000   0.99410546     17.122034      5.2582669    
   3762000   0.98449307     16.592068      5.2511661    
   3763000   1.0480911      16.724252      5.2596292    
   3764000   1.0256498      16.627667      5.2695026    
   3765000   1.0139954      16.735195      5.2565219    
   3766000   1.015965       16.340227      5.2737261    
   3767000   1.0422518      16.684355      5.2515729    
   3768000   0.97126857     16.257191      5.2433762    
   3769000   1.0140655      16.450107      5.2375707    
   3770000   1.0381409      16.76053       5.2168443    
   3771000   1.0347005      16.441536      5.2231268    
   3772000   1.0116945      16.679187      5.2561334    
   3773000   1.0105226      16.661106      5.2379771    
   3774000   0.99457166     16.88736       5.2401368    
   3775000   0.97871116     16.852626      5.2787844    
   3776000   0.96013976     16.438648      5.2523353    
   3777000   0.96479306     16.331346      5.2785864    
   3778000   1.0082529      17.563315      5.2445313    
   3779000   1.038787       16.967126      5.249623     
   3780000   1.0166546      16.956228      5.2086308    
   3781000   0.99811117     16.800589      5.2381749    
   3782000   0.99030215     16.920437      5.2392844    
   3783000   0.96001709     16.820421      5.2367714    
   3784000   1.0257334      16.226409      5.2367766    
   3785000   1.0116685      16.263552      5.254661     
   3786000   1.0273367      17.045206      5.2721676    
   3787000   1.0207432      16.507181      5.2473449    
   3788000   1.0113588      16.578777      5.2421185    
   3789000   1.0180864      16.974751      5.2269798    
   3790000   0.95336863     16.157413      5.2782802    
   3791000   1.0241455      16.390758      5.2642747    
   3792000   1.0285102      16.810248      5.2650354    
   3793000   1.0080168      16.595547      5.2643284    
   3794000   0.97691459     16.414058      5.290214     
   3795000   1.0004109      16.485151      5.2482155    
   3796000   0.98395912     16.599204      5.2519709    
   3797000   1.0133582      16.949081      5.2075814    
   3798000   1.0045248      16.715904      5.2549331    
   3799000   1.017221       16.862356      5.2590099    
   3800000   1.0020579      17.18563       5.2261742    
   3801000   1.0001608      16.705365      5.2346773    
   3802000   1.0033956      16.994987      5.245        
   3803000   1.0179243      16.045736      5.2374578    
   3804000   1.0119311      16.988615      5.231751     
   3805000   1.0144895      16.615081      5.2548082    
   3806000   1.0147255      17.216267      5.2462842    
   3807000   1.0053058      16.758078      5.2227137    
   3808000   0.99264338     17.261002      5.2447903    
   3809000   1.0124564      16.263362      5.2390373    
   3810000   1.0246626      16.999552      5.3052648    
   3811000   1.053676       16.752854      5.3128746    
   3812000   1.021113       16.626788      5.2372507    
   3813000   0.98313291     16.105531      5.2324653    
   3814000   0.97996723     16.516611      5.259926     
   3815000   1.0054638      16.382489      5.2333288    
   3816000   1.0437549      16.999866      5.2434501    
   3817000   1.0666072      16.766383      5.2733397    
   3818000   1.0131112      17.271782      5.2360977    
   3819000   1.0063657      16.632238      5.2125208    
   3820000   1.0006235      16.175142      5.2456645    
   3821000   1.0006565      16.734301      5.2563624    
   3822000   0.98331641     16.320836      5.2445455    
   3823000   0.9584595      16.220233      5.2505583    
   3824000   0.99625142     16.655548      5.2201294    
   3825000   0.96612394     15.947929      5.253952     
   3826000   1.0082318      16.378742      5.2750721    
   3827000   0.97731098     16.930103      5.2522372    
   3828000   0.95917591     16.846342      5.2555563    
   3829000   0.97833639     16.726018      5.2470147    
   3830000   0.99043761     17.021179      5.2556168    
   3831000   1.0177612      16.958769      5.2206659    
   3832000   1.0132626      16.779623      5.2787436    
   3833000   1.0527224      16.893112      5.2693846    
   3834000   0.97819211     16.419891      5.2740741    
   3835000   1.0141734      16.549217      5.2361259    
   3836000   1.0082953      16.864385      5.2237046    
   3837000   1.0163977      16.972741      5.2405626    
   3838000   0.99907513     17.089256      5.2278191    
   3839000   1.0343038      17.001281      5.204201     
   3840000   1.0033063      16.940795      5.2112791    
   3841000   0.99813278     16.860829      5.2161356    
   3842000   0.98641869     16.657171      5.2330682    
   3843000   0.97933453     16.350856      5.2182354    
   3844000   0.98361183     16.727115      5.2372116    
   3845000   1.037732       16.599396      5.2375301    
   3846000   0.94259062     16.546957      5.2157578    
   3847000   1.0361497      16.587257      5.2110179    
   3848000   1.003236       17.032376      5.22205      
   3849000   1.000318       16.937501      5.2088236    
   3850000   1.0028726      16.21693       5.205061     
   3851000   1.0279455      17.145627      5.2162735    
   3852000   1.0222217      16.510531      5.2832613    
   3853000   0.99617593     16.846665      5.2484566    
   3854000   1.0446049      16.932617      5.2440007    
   3855000   0.97299135     16.567578      5.2445439    
   3856000   1.0168005      16.62697       5.2426559    
   3857000   0.98233976     16.547617      5.2288879    
   3858000   1.0060629      16.803036      5.2610868    
   3859000   0.98709626     16.364606      5.2455515    
   3860000   1.0069821      17.003927      5.2314546    
   3861000   1.0193412      17.030649      5.2072945    
   3862000   1.0087578      16.918216      5.2098357    
   3863000   1.0370905      16.630272      5.2512672    
   3864000   0.99765548     16.835852      5.2369641    
   3865000   1.0365039      17.392247      5.2329585    
   3866000   0.99060262     16.983643      5.2502515    
   3867000   0.99340111     16.946186      5.2680829    
   3868000   0.98179995     16.877792      5.2715544    
   3869000   1.010831       16.938068      5.2433959    
   3870000   0.97024835     16.446         5.2491687    
   3871000   0.97350642     16.489025      5.2668832    
   3872000   0.98982091     16.982412      5.2524252    
   3873000   0.99911255     16.725052      5.2734344    
   3874000   0.99517409     17.589534      5.2389122    
   3875000   0.99553588     16.646256      5.2343637    
   3876000   1.0217241      16.915493      5.2400911    
   3877000   0.97709562     16.655454      5.2275475    
   3878000   0.99976205     17.320859      5.2369389    
   3879000   0.97363518     16.649488      5.2307076    
   3880000   0.98245144     16.701783      5.2451718    
   3881000   0.98762783     16.345912      5.2349441    
   3882000   1.0267514      17.31443       5.220305     
   3883000   0.99379268     16.816089      5.2068242    
   3884000   1.0229685      16.666591      5.1861435    
   3885000   0.98513579     16.663608      5.2096128    
   3886000   1.0224245      16.819928      5.2555689    
   3887000   1.0221286      16.25403       5.2978205    
   3888000   0.97644211     16.29132       5.2642461    
   3889000   1.0070188      16.334862      5.2658173    
   3890000   1.0458234      16.700045      5.241426     
   3891000   1.0038681      17.1685        5.2627161    
   3892000   1.0179691      17.028399      5.2542655    
   3893000   1.0007078      17.244281      5.2193771    
   3894000   0.95854674     16.528574      5.2240613    
   3895000   0.97962687     16.640685      5.2450628    
   3896000   1.0009852      16.573346      5.2664848    
   3897000   0.99104502     16.760295      5.3160685    
   3898000   0.98374328     16.858712      5.2689497    
   3899000   0.99838379     16.661274      5.2458359    
   3900000   0.9923755      16.591686      5.2649573    
   3901000   0.99080616     16.910664      5.2884827    
   3902000   0.98050689     16.578511      5.264628     
   3903000   1.0172127      16.886436      5.3134472    
   3904000   1.0359392      16.258276      5.2797662    
   3905000   1.0429299      17.027783      5.2646953    
   3906000   1.0112632      17.430623      5.2906259    
   3907000   1.0206026      16.670525      5.2591143    
   3908000   0.98548119     16.745657      5.2750439    
   3909000   0.97679862     16.078672      5.2581187    
   3910000   1.0099108      17.072822      5.2387025    
   3911000   0.98014417     16.593096      5.278778     
   3912000   0.96527081     16.799381      5.2609854    
   3913000   0.97881743     17.147534      5.2461627    
   3914000   0.98742045     16.228198      5.264756     
   3915000   1.0443146      16.948672      5.2326232    
   3916000   1.0498346      16.703631      5.2536152    
   3917000   1.0121201      17.03156       5.2428537    
   3918000   0.97148498     16.972314      5.235796     
   3919000   1.0347695      16.674548      5.2466986    
   3920000   1.0393506      16.897311      5.2623365    
   3921000   1.0095125      16.57413       5.2698302    
   3922000   0.99377559     16.649263      5.2903515    
   3923000   1.0229112      16.851977      5.3079244    
   3924000   0.97372361     16.667464      5.276382     
   3925000   1.0607591      17.031391      5.2551746    
   3926000   1.0116343      17.362287      5.2669802    
   3927000   1.0281617      16.898376      5.2648746    
   3928000   0.95483014     16.770059      5.2193115    
   3929000   0.98438709     16.873069      5.264936     
   3930000   0.98256104     16.813994      5.252394     
   3931000   1.0123702      15.967489      5.2206001    
   3932000   0.99133803     16.782386      5.2650461    
   3933000   0.9641701      16.514482      5.2460072    
   3934000   1.0067948      17.079581      5.2633377    
   3935000   1.0026061      17.081526      5.2539004    
   3936000   1.0017497      16.235865      5.253346     
   3937000   1.049614       17.115456      5.184113     
   3938000   1.0114292      16.729247      5.2367408    
   3939000   0.97017852     16.502454      5.2695084    
   3940000   0.97435751     16.137203      5.2454714    
   3941000   1.0042036      16.881278      5.2764576    
   3942000   0.98037552     16.599732      5.2483861    
   3943000   1.0027492      17.235184      5.2533798    
   3944000   0.98742516     17.023789      5.2304751    
   3945000   1.013353       16.667186      5.26032      
   3946000   0.96064936     16.545334      5.2481731    
   3947000   1.011967       17.132613      5.2623374    
   3948000   1.0203847      16.912576      5.2547585    
   3949000   1.0040552      16.878323      5.2779514    
   3950000   1.0088974      16.732941      5.2759832    
   3951000   1.0509697      16.917277      5.2599401    
   3952000   1.0052465      16.577545      5.2254174    
   3953000   0.96979735     16.653874      5.2200107    
   3954000   1.006113       16.843659      5.2474468    
   3955000   1.0035726      16.47424       5.2393992    
   3956000   0.96055655     16.225361      5.226935     
   3957000   0.99830507     16.535076      5.2531159    
   3958000   1.0395989      16.850175      5.2317896    
   3959000   0.96345099     16.667257      5.2102285    
   3960000   0.97869267     16.964949      5.2377306    
   3961000   1.0026096      16.786039      5.2265147    
   3962000   0.95162564     16.779544      5.2067789    
   3963000   1.0279804      17.074198      5.2356683    
   3964000   0.9726077      17.198626      5.2486893    
   3965000   0.99676336     17.02407       5.2498548    
   3966000   1.0412008      17.108216      5.2676187    
   3967000   0.97562581     16.949971      5.2333999    
   3968000   0.98752934     16.19929       5.246442     
   3969000   1.017297       16.944176      5.2646362    
   3970000   0.99740936     16.279475      5.2094264    
   3971000   0.98946754     16.282161      5.2638559    
   3972000   1.0122057      16.393467      5.285155     
   3973000   0.98463641     16.293796      5.2167752    
   3974000   0.98521383     16.971253      5.2271099    
   3975000   0.98527494     16.614544      5.2394157    
   3976000   0.99367223     16.85328       5.2315676    
   3977000   1.0073121      16.949401      5.2151748    
   3978000   1.0317339      16.228141      5.2308902    
   3979000   1.0015995      16.633884      5.2828272    
   3980000   1.0244685      16.848261      5.2598588    
   3981000   1.0603069      17.035578      5.249595     
   3982000   1.0492986      17.325449      5.2259268    
   3983000   0.99089026     16.631856      5.242555     
   3984000   0.97841239     16.317156      5.2344557    
   3985000   1.0624551      16.842741      5.2514738    
   3986000   1.0072449      16.479346      5.2543521    
   3987000   0.95305994     16.676957      5.2516651    
   3988000   0.9892039      16.800674      5.2954055    
   3989000   0.99553537     16.737016      5.2917477    
   3990000   0.9986591      16.378439      5.3032043    
   3991000   0.98391138     16.9031        5.2260702    
   3992000   0.97625419     17.134722      5.2347868    
   3993000   0.98425315     16.341396      5.2629562    
   3994000   1.0053918      16.548392      5.2439169    
   3995000   0.99526058     16.705125      5.2507107    
   3996000   1.0215628      16.796934      5.2056322    
   3997000   0.98126406     16.590661      5.2443196    
   3998000   0.98588961     16.405474      5.2173934    
   3999000   0.97322999     16.21212       5.2012849    
   4000000   0.98415152     15.94777       5.2379693    
   4001000   0.99685783     16.434465      5.2869806    
   4002000   0.95988874     16.771877      5.2490788    
   4003000   0.99318904     16.577101      5.2156854    
   4004000   0.9873993      16.300502      5.2248132    
   4005000   0.95997891     17.027799      5.2176203    
   4006000   1.0263679      16.80521       5.2074178    
   4007000   0.9676473      16.712606      5.2213729    
   4008000   0.99948628     16.301077      5.2403789    
   4009000   1.0000204      17.345233      5.2055339    
   4010000   0.98041031     16.684068      5.205631     
   4011000   0.99351743     16.731079      5.2383463    
   4012000   0.98534877     16.906491      5.2074226    
   4013000   0.99174224     16.668959      5.2316856    
   4014000   1.0152198      16.714668      5.2290668    
   4015000   1.0448811      16.832174      5.2767824    
   4016000   0.98600775     16.250795      5.2604662    
   4017000   0.96574837     16.96837       5.2373079    
   4018000   0.9887943      16.453459      5.2433525    
   4019000   0.95850397     16.632926      5.2368333    
   4020000   0.94918604     16.45111       5.2294145    
   4021000   1.0246498      17.136418      5.2266901    
   4022000   1.004303       17.077709      5.2213284    
   4023000   0.96750282     17.062822      5.2050309    
   4024000   0.98210647     16.755483      5.2154511    
   4025000   0.99513372     16.588033      5.2220374    
   4026000   1.0361771      16.637979      5.2737949    
   4027000   0.9924687      16.700301      5.2181145    
   4028000   0.98949725     16.916645      5.190198     
   4029000   1.0041416      16.643077      5.2479513    
   4030000   0.98443061     16.718078      5.2543542    
   4031000   0.98694668     17.009444      5.2060425    
   4032000   0.99919411     16.751444      5.2305792    
   4033000   1.0045113      16.778955      5.2444684    
   4034000   1.0096228      16.708338      5.2319728    
   4035000   1.0100864      16.646117      5.2268947    
   4036000   0.9730764      17.117738      5.2084776    
   4037000   0.99579321     16.392977      5.2289994    
   4038000   1.0071093      16.187144      5.2546536    
   4039000   0.99233888     17.347865      5.2331687    
   4040000   0.983995       16.349029      5.2308599    
   4041000   1.0108254      16.326863      5.2403691    
   4042000   1.0232497      16.893806      5.2504949    
   4043000   1.0266928      16.743007      5.2293874    
   4044000   1.0235804      16.315839      5.2526193    
   4045000   1.0183296      17.186102      5.2290762    
   4046000   1.0346263      17.470998      5.1910475    
   4047000   0.94893137     16.630705      5.2249075    
   4048000   0.98376956     16.876087      5.2157316    
   4049000   0.9779418      16.72851       5.2321209    
   4050000   1.0272326      17.262011      5.2053631    
   4051000   1.0259806      16.979975      5.2497236    
   4052000   0.98298253     16.61177       5.2263043    
   4053000   0.96692711     16.513247      5.2151226    
   4054000   1.0431438      17.221671      5.2143631    
   4055000   0.9839624      16.308497      5.2382201    
   4056000   0.97171673     16.918673      5.2040821    
   4057000   1.0010367      16.394215      5.2324528    
   4058000   1.0318853      16.456932      5.2166789    
   4059000   0.97501868     17.068996      5.2290632    
   4060000   1.0004273      16.437525      5.2347027    
   4061000   0.95359599     16.989522      5.2113639    
   4062000   1.0238663      16.586717      5.2619197    
   4063000   1.0094225      16.33612       5.2292421    
   4064000   0.9628991      16.491754      5.2406322    
   4065000   1.0425182      17.225787      5.2454203    
   4066000   1.0280864      16.575579      5.2324256    
   4067000   0.95728939     16.744609      5.2152851    
   4068000   1.0141514      17.020501      5.190782     
   4069000   1.0153505      16.682992      5.2402072    
   4070000   1.0293966      17.342755      5.2272193    
   4071000   0.97192115     17.123648      5.2153413    
   4072000   0.98984582     16.726463      5.2097643    
   4073000   0.9440484      16.285755      5.277561     
   4074000   1.0324853      16.471999      5.2639709    
   4075000   0.99431213     16.503473      5.2513702    
   4076000   0.98102397     17.292195      5.2454153    
   4077000   1.0061945      16.65815       5.2389922    
   4078000   1.0159617      16.610783      5.2560113    
   4079000   1.0216182      16.57421       5.207867     
   4080000   0.98572002     16.569714      5.2192269    
   4081000   1.0043889      16.222304      5.2560041    
   4082000   0.99848492     16.983093      5.2274721    
   4083000   1.0202582      16.169201      5.2252898    
   4084000   0.97748595     16.271446      5.2240102    
   4085000   0.9846945      16.584466      5.2431159    
   4086000   1.0113306      16.495479      5.2571077    
   4087000   0.96255447     16.522388      5.2395519    
   4088000   0.9662907      15.851251      5.2493243    
   4089000   1.0073416      16.513135      5.2628665    
   4090000   1.0181725      16.96845       5.2174524    
   4091000   1.0339833      16.484109      5.2032966    
   4092000   0.97342815     16.41461       5.2135138    
   4093000   0.99192241     16.329007      5.2221228    
   4094000   0.94320864     16.210605      5.2171146    
   4095000   1.0266335      16.626965      5.2191517    
   4096000   1.0325961      16.756994      5.2290305    
   4097000   0.99202491     16.609417      5.2418118    
   4098000   1.0290424      16.600708      5.2528681    
   4099000   0.97181423     16.306246      5.2326646    
   4100000   1.0451094      16.447739      5.2418013    
   4101000   0.97922273     17.14374       5.2103298    
   4102000   1.0447523      16.849675      5.2449182    
   4103000   1.0558867      16.391496      5.2500126    
   4104000   0.9850346      16.636429      5.2168022    
   4105000   0.97305769     16.207824      5.2140991    
   4106000   1.0041432      16.622772      5.2573205    
   4107000   1.0045877      16.510957      5.2614008    
   4108000   0.98303905     16.959708      5.2266779    
   4109000   1.0303674      16.61941       5.2140142    
   4110000   0.98187179     17.252607      5.205272     
   4111000   0.99639994     16.577218      5.243255     
   4112000   1.0142392      16.788161      5.2353216    
   4113000   1.0295389      17.077215      5.2340822    
   4114000   0.99672181     16.594508      5.246319     
   4115000   1.0495035      17.186306      5.2007189    
   4116000   0.96819879     16.615057      5.2145909    
   4117000   1.0019154      16.80103       5.216387     
   4118000   1.0124714      16.870652      5.2150019    
   4119000   1.0237325      17.032173      5.2037163    
   4120000   0.98399801     16.962659      5.2360181    
   4121000   0.96872683     16.856902      5.2256121    
   4122000   1.011494       16.492275      5.235314     
   4123000   0.98054167     16.4016        5.2443856    
   4124000   1.0206582      17.041552      5.2086644    
   4125000   0.96139508     16.684143      5.2161459    
   4126000   1.0421817      17.246828      5.2222496    
   4127000   1.0144029      16.011891      5.2528414    
   4128000   0.99903587     17.02815       5.1891334    
   4129000   1.0333181      16.581317      5.2193223    
   4130000   1.0180329      16.82115       5.2170033    
   4131000   1.0295085      16.936584      5.2442031    
   4132000   1.0306437      16.9156        5.2508585    
   4133000   1.0209298      17.101189      5.23058      
   4134000   0.98359205     16.993538      5.219237     
   4135000   1.0014179      16.169463      5.2414961    
   4136000   0.95351815     16.718552      5.2710456    
   4137000   1.0191451      15.966408      5.2752138    
   4138000   0.98957763     16.692675      5.2483942    
   4139000   1.014429       16.72361       5.2585371    
   4140000   0.9885887      16.378479      5.3014028    
   4141000   0.97380781     16.60685       5.2408472    
   4142000   0.99904328     16.977249      5.252724     
   4143000   0.98122415     16.722495      5.241113     
   4144000   1.0130358      17.048002      5.2548369    
   4145000   1.0193402      16.635617      5.241011     
   4146000   1.0223928      17.214496      5.2447411    
   4147000   1.0579176      16.925703      5.2289843    
   4148000   1.0188351      17.277463      5.2194065    
   4149000   0.99606157     17.38267       5.236129     
   4150000   0.99985575     16.883294      5.2392507    
   4151000   1.0253337      16.8271        5.2659523    
   4152000   1.0598941      16.640858      5.244768     
   4153000   1.0113435      17.0686        5.2291289    
   4154000   1.022237       16.193488      5.2394737    
   4155000   1.0281468      16.33687       5.2354063    
   4156000   1.008856       16.824056      5.2988098    
   4157000   0.99436133     16.788428      5.2972026    
   4158000   1.0041501      17.162856      5.2791325    
   4159000   1.0239972      16.677209      5.3058749    
   4160000   0.97019652     16.433078      5.253764     
   4161000   0.97293731     16.790903      5.2741368    
   4162000   0.98536369     17.09011       5.2699597    
   4163000   0.99018409     16.741483      5.3113084    
   4164000   1.0458838      17.196206      5.2438415    
   4165000   1.0434836      16.855619      5.2622022    
   4166000   1.0032344      16.764755      5.197358     
   4167000   0.97094551     16.29628       5.2435184    
   4168000   0.9719584      16.548708      5.2518907    
   4169000   0.95421052     16.721771      5.2878724    
   4170000   1.0028634      17.152855      5.2960008    
   4171000   1.0160348      17.068456      5.2586222    
   4172000   1.0059001      17.138399      5.286036     
   4173000   1.0343132      16.738628      5.2605387    
   4174000   1.0497226      17.150825      5.2655319    
   4175000   1.0026293      16.756632      5.2516977    
   4176000   0.9979292      16.99198       5.2804988    
   4177000   0.99428853     16.512714      5.3111009    
   4178000   1.0170067      16.766537      5.2753362    
   4179000   1.0158252      16.686962      5.2613609    
   4180000   0.9872103      16.427598      5.2896403    
   4181000   0.99760843     17.101192      5.2433614    
   4182000   0.99466274     17.032086      5.2463496    
   4183000   1.0024888      16.332104      5.2684995    
   4184000   1.0096052      17.217006      5.2207699    
   4185000   0.98165946     16.257876      5.2362848    
   4186000   0.98252118     16.507111      5.2236754    
   4187000   0.99744644     16.945482      5.2384286    
   4188000   1.022563       16.614872      5.2180411    
   4189000   0.98572885     16.719305      5.2256836    
   4190000   1.0188413      16.708014      5.2550912    
   4191000   0.98975942     16.82656       5.2107213    
   4192000   1.001346       16.653585      5.2154602    
   4193000   0.97406221     17.239214      5.1675699    
   4194000   1.0191602      16.825933      5.2159673    
   4195000   0.98508775     16.547998      5.2271316    
   4196000   0.98251174     16.866913      5.2172639    
   4197000   1.0199889      16.995299      5.2439794    
   4198000   1.0080235      16.4982        5.2263115    
   4199000   0.95639001     16.78004       5.2019134    
   4200000   1.0093472      16.63968       5.2510974    
   4201000   1.0404657      16.697498      5.262014     
   4202000   1.0045642      16.443985      5.2373689    
   4203000   0.99437215     16.950947      5.2423203    
   4204000   0.95494011     16.702121      5.2328323    
   4205000   0.9911258      16.380131      5.2554922    
   4206000   1.0088562      16.389197      5.2441415    
   4207000   0.96728764     16.420468      5.2407457    
   4208000   0.99896277     16.432764      5.2644522    
   4209000   0.98088957     17.084132      5.2568288    
   4210000   0.98501404     16.315646      5.2789466    
   4211000   1.0366167      17.074655      5.2476379    
   4212000   1.0286385      17.220318      5.2511685    
   4213000   0.98733448     17.129743      5.2280999    
   4214000   1.0119986      16.643301      5.225761     
   4215000   0.98153831     17.22678       5.2365353    
   4216000   1.0121148      16.85747       5.233072     
   4217000   1.0316883      17.10355       5.2443422    
   4218000   0.97284249     17.10178       5.2151009    
   4219000   0.99737627     16.177952      5.241952     
   4220000   0.97717163     16.506992      5.2339575    
   4221000   0.94412284     16.179679      5.2261909    
   4222000   0.97032774     16.853231      5.2176891    
   4223000   0.98423208     16.614665      5.2255442    
   4224000   1.0085029      17.036113      5.2095936    
   4225000   0.99007742     17.262006      5.2142194    
   4226000   0.99657717     16.309235      5.2044006    
   4227000   0.9748858      16.986173      5.2244927    
   4228000   0.99501352     16.583965      5.2646693    
   4229000   0.96073865     16.993268      5.2392833    
   4230000   0.97664754     16.881107      5.2049947    
   4231000   0.99708847     17.338223      5.2649848    
   4232000   0.99663114     17.136438      5.2131783    
   4233000   0.9692786      16.672802      5.2200884    
   4234000   0.96683586     16.72639       5.2904131    
   4235000   1.0234296      16.441986      5.2002112    
   4236000   0.98450355     16.342182      5.2447007    
   4237000   0.98083543     16.723753      5.2444676    
   4238000   0.95397241     16.584397      5.2365977    
   4239000   0.98232588     16.707471      5.2073372    
   4240000   1.0154603      17.313447      5.2299981    
   4241000   1.0220836      16.725598      5.2260785    
   4242000   1.0094399      16.599649      5.202258     
   4243000   1.0012972      16.774398      5.2012453    
   4244000   0.97536185     16.759239      5.2110444    
   4245000   0.99126351     16.12153       5.1856386    
   4246000   0.9825467      16.086427      5.2370862    
   4247000   1.0467548      16.641635      5.2510102    
   4248000   1.000743       16.86676       5.2226217    
   4249000   0.98338618     16.364331      5.2398498    
   4250000   0.95713444     16.433835      5.216021     
   4251000   0.99188688     17.000662      5.2529295    
   4252000   1.0413296      16.586451      5.2318521    
   4253000   0.97892051     16.046574      5.2041164    
   4254000   0.99950848     16.645947      5.1800217    
   4255000   0.99665888     17.157475      5.2198632    
   4256000   1.0063456      16.678004      5.1916165    
   4257000   1.0270801      16.762498      5.2283386    
   4258000   0.99136878     16.196317      5.2615628    
   4259000   0.9864217      17.132361      5.2259249    
   4260000   0.97976331     16.687657      5.2480753    
   4261000   1.0265717      16.518672      5.2445526    
   4262000   1.0413967      16.398823      5.2311598    
   4263000   1.0160494      16.936065      5.2434539    
   4264000   0.99086854     16.764638      5.1965785    
   4265000   0.97313663     16.819649      5.2069357    
   4266000   1.0081441      16.731005      5.2384633    
   4267000   1.0509467      16.488665      5.2515831    
   4268000   0.98778945     16.486496      5.2476707    
   4269000   1.0140188      17.224793      5.2206244    
   4270000   0.98307475     16.843085      5.218559     
   4271000   1.0414868      17.081485      5.2257911    
   4272000   1.0208952      16.671413      5.2324077    
   4273000   0.98023585     16.326414      5.2511023    
   4274000   1.0249043      17.334914      5.2277656    
   4275000   1.0050042      16.852811      5.2626229    
   4276000   0.9637464      16.774011      5.228815     
   4277000   1.0474327      16.66655       5.2634889    
   4278000   1.0086491      16.245487      5.2849287    
   4279000   1.0169107      16.71283       5.2510641    
   4280000   1.056113       17.15528       5.2716459    
   4281000   1.0273933      16.488228      5.2992447    
   4282000   0.98584394     16.516301      5.264973     
   4283000   0.9789716      17.01487       5.2188229    
   4284000   1.0259074      17.207712      5.259949     
   4285000   0.98311533     16.573272      5.2806617    
   4286000   1.0134352      17.10762       5.2100552    
   4287000   1.0003251      16.704195      5.2698206    
   4288000   1.0647454      17.558721      5.243825     
   4289000   0.98611599     16.803349      5.2428189    
   4290000   0.99565929     16.885412      5.2416625    
   4291000   0.99941677     16.795313      5.2469615    
   4292000   0.98023504     16.557426      5.2355932    
   4293000   0.95526757     16.856487      5.2322983    
   4294000   0.99591681     16.705894      5.2404891    
   4295000   0.99758738     16.667692      5.2438572    
   4296000   0.95932534     16.259766      5.2992263    
   4297000   1.0104104      16.626392      5.2296495    
   4298000   0.99720785     16.696391      5.2197409    
   4299000   0.99691979     16.548828      5.2620547    
   4300000   1.0028936      17.17428       5.2380357    
   4301000   0.98527588     17.558601      5.214398     
   4302000   0.98160714     16.635776      5.2417338    
   4303000   1.0051255      16.832324      5.2158071    
   4304000   1.0152207      16.666039      5.2519419    
   4305000   0.99658393     16.9602        5.2015432    
   4306000   0.97592497     16.306621      5.1987773    
   4307000   0.9923446      16.876587      5.2093673    
   4308000   1.0396034      16.681867      5.2220113    
   4309000   0.98752822     16.777607      5.2348728    
   4310000   0.98947502     16.530212      5.2407786    
   4311000   0.98689528     17.126898      5.2524887    
   4312000   1.0088893      16.870208      5.2477791    
   4313000   0.98162498     16.777007      5.2449354    
   4314000   1.0292835      16.830359      5.2596808    
   4315000   0.98252128     16.547843      5.2261465    
   4316000   0.96982757     17.027516      5.2281165    
   4317000   0.98828725     16.270692      5.2411203    
   4318000   1.0310687      16.725968      5.2073238    
   4319000   1.018955       16.565088      5.2522955    
   4320000   0.96720972     16.482384      5.2405346    
   4321000   1.026002       16.813148      5.2264568    
   4322000   0.99580163     16.464783      5.2315177    
   4323000   1.03506        17.372395      5.2356453    
   4324000   1.0210956      17.182279      5.2630839    
   4325000   1.042972       16.549933      5.2133606    
   4326000   1.000819       16.788923      5.2480111    
   4327000   1.0368158      16.729903      5.2325678    
   4328000   0.98793972     17.081941      5.2005779    
   4329000   0.98174312     15.862783      5.2460266    
   4330000   1.0051534      16.81521       5.229805     
   4331000   1.0029105      17.056113      5.2212735    
   4332000   0.99174932     16.92433       5.2601007    
   4333000   1.0156563      16.382271      5.2361362    
   4334000   0.9818074      16.29522       5.2343292    
   4335000   0.99172126     16.97954       5.2066138    
   4336000   0.9944837      16.648155      5.2405896    
   4337000   0.97475062     16.645062      5.2282738    
   4338000   1.0058649      16.974798      5.2300378    
   4339000   0.97841565     16.553648      5.2441798    
   4340000   0.94537893     16.92012       5.2120665    
   4341000   1.0317372      16.684833      5.2304633    
   4342000   0.95328051     16.519865      5.229437     
   4343000   1.0223725      17.212517      5.2548585    
   4344000   0.94778926     16.210608      5.2689131    
   4345000   1.0323301      16.641429      5.2277466    
   4346000   0.99821763     16.620131      5.2367931    
   4347000   1.0355499      16.631761      5.2239249    
   4348000   1.0296686      16.760915      5.2152635    
   4349000   0.98327339     16.71918       5.2297883    
   4350000   0.99360148     16.373432      5.2204187    
   4351000   1.0097706      16.516363      5.2445845    
   4352000   1.0240214      16.70964       5.2191042    
   4353000   0.96534406     16.443694      5.2246862    
   4354000   0.99738182     16.457003      5.2549386    
   4355000   1.0334472      16.788223      5.2071222    
   4356000   0.9990473      16.348424      5.2383931    
   4357000   1.0324644      16.682377      5.223684     
   4358000   1.0255699      16.527004      5.2186972    
   4359000   1.0062224      16.608209      5.2536634    
   4360000   0.97913276     16.115622      5.2091386    
   4361000   1.0331659      16.532217      5.223502     
   4362000   0.99795131     16.247001      5.2260354    
   4363000   0.99564233     16.278616      5.2313862    
   4364000   0.99538501     16.912088      5.2337885    
   4365000   1.03541        17.267795      5.2225617    
   4366000   1.0268208      16.882528      5.2216029    
   4367000   1.0550248      17.19605       5.2417451    
   4368000   0.97186099     16.420919      5.2222616    
   4369000   1.0021158      16.70691       5.2287382    
   4370000   1.0006457      16.516736      5.2295052    
   4371000   0.99309398     16.817646      5.2661726    
   4372000   1.0052113      16.951773      5.2428514    
   4373000   0.99200463     15.976875      5.2386912    
   4374000   1.0164784      16.317378      5.2685457    
   4375000   1.0012499      15.805411      5.246157     
   4376000   0.98717461     17.075228      5.2141527    
   4377000   1.0403861      16.81563       5.2456299    
   4378000   1.0205491      16.207058      5.2251435    
   4379000   0.96084121     16.562495      5.2424601    
   4380000   1.0099364      16.610767      5.2366966    
   4381000   1.0026439      16.705884      5.2623302    
   4382000   0.99590521     16.729176      5.2443886    
   4383000   1.026686       16.785166      5.2531256    
   4384000   0.97001651     16.1877        5.2461118    
   4385000   1.0108499      16.759813      5.2542498    
   4386000   1.0182144      16.706716      5.2236723    
   4387000   1.0049587      16.613732      5.2438287    
   4388000   0.96555861     16.636458      5.2501438    
   4389000   0.99084151     16.642647      5.2185667    
   4390000   0.98468        16.891896      5.2247174    
   4391000   1.0287693      16.730048      5.2076158    
   4392000   1.0337869      16.700932      5.2254948    
   4393000   0.99543286     16.52252       5.2425832    
   4394000   1.0013912      16.942995      5.2279133    
   4395000   1.0015365      16.567208      5.2204556    
   4396000   1.0099853      16.848021      5.2374872    
   4397000   0.98094357     16.644628      5.2316228    
   4398000   1.0061402      16.757541      5.3036335    
   4399000   1.0128205      16.794124      5.2425376    
   4400000   0.9929923      17.238609      5.2165886    
   4401000   0.98921963     17.030004      5.2426532    
   4402000   1.009551       16.186459      5.2499011    
   4403000   0.99889409     16.899119      5.2394961    
   4404000   1.0390522      16.960419      5.2237859    
   4405000   0.94965779     16.565578      5.2381613    
   4406000   1.0089008      16.553529      5.2249961    
   4407000   1.0246791      16.543178      5.2170304    
   4408000   0.97504812     16.620353      5.2223077    
   4409000   0.98821158     17.616878      5.2506031    
   4410000   1.0048506      16.79994       5.2226721    
   4411000   0.98309411     17.106376      5.2452654    
   4412000   0.97647714     16.356872      5.2355905    
   4413000   0.98462567     17.20602       5.2415766    
   4414000   1.0023849      16.464543      5.2713777    
   4415000   0.98538277     16.778755      5.276169     
   4416000   1.0093005      16.228482      5.2408063    
   4417000   1.0518789      16.744873      5.224289     
   4418000   0.99730878     16.446357      5.2390258    
   4419000   1.0061351      16.435815      5.2348487    
   4420000   1.0057448      16.662369      5.2498315    
   4421000   0.99845731     16.973279      5.2260402    
   4422000   0.96094917     16.54458       5.2654203    
   4423000   0.99313474     16.952543      5.2601958    
   4424000   1.0400734      16.499398      5.2472802    
   4425000   1.0239801      16.715002      5.2574079    
   4426000   1.0136026      16.651403      5.2424583    
   4427000   0.98617839     17.341109      5.2332241    
   4428000   0.9759454      16.515087      5.2565825    
   4429000   1.0371606      16.706621      5.2505107    
   4430000   0.96186044     17.061219      5.2400741    
   4431000   1.0127985      17.115555      5.2665713    
   4432000   1.0114242      16.418312      5.2777451    
   4433000   1.0105176      16.734637      5.2355985    
   4434000   0.9617891      16.914119      5.2446185    
   4435000   0.99779422     16.856324      5.2802922    
   4436000   1.0084337      16.630037      5.2590597    
   4437000   1.0120421      16.633383      5.2859958    
   4438000   1.0051902      16.576075      5.2805708    
   4439000   1.0104626      16.684297      5.2727168    
   4440000   1.02471        16.794403      5.2396135    
   4441000   1.0167568      16.644781      5.2383955    
   4442000   0.99522231     17.038969      5.2548171    
   4443000   1.028905       16.445971      5.2088403    
   4444000   1.0350813      16.681437      5.2143049    
   4445000   1.0223832      16.653056      5.2288484    
   4446000   1.0071032      16.46735       5.2101455    
   4447000   1.0051295      16.260184      5.247797     
   4448000   0.98803623     16.683216      5.2391202    
   4449000   0.98745232     16.913893      5.2468725    
   4450000   1.0001788      16.927075      5.209947     
   4451000   1.0247727      16.826398      5.2179811    
   4452000   0.99074606     16.778971      5.2926333    
   4453000   1.0466276      16.754453      5.2369827    
   4454000   1.0397143      17.093775      5.2297326    
   4455000   1.0271899      16.566006      5.24338      
   4456000   0.99050169     16.636179      5.2487747    
   4457000   1.0039057      16.459554      5.2486993    
   4458000   1.0053476      16.161697      5.2826963    
   4459000   1.0106391      16.487153      5.292196     
   4460000   0.99772977     16.987637      5.2637848    
   4461000   0.9504145      16.25803       5.265607     
   4462000   1.0032976      17.132757      5.2461697    
   4463000   0.99114607     15.995313      5.2665231    
   4464000   0.98588796     16.595499      5.2254406    
   4465000   1.0107965      17.206444      5.2327862    
   4466000   0.99196432     17.061119      5.2471895    
   4467000   1.029148       16.334116      5.2477556    
   4468000   1.0563576      16.794533      5.2606961    
   4469000   1.0068136      16.659196      5.2090436    
   4470000   0.95379111     16.884612      5.2160259    
   4471000   0.98507875     16.851008      5.2522695    
   4472000   0.95803623     16.818016      5.2165952    
   4473000   1.0054642      17.306343      5.2202202    
   4474000   0.98788465     16.560955      5.232627     
   4475000   1.004377       16.69325       5.2335614    
   4476000   0.95156581     16.608322      5.2444505    
   4477000   0.9906621      16.981436      5.221074     
   4478000   0.99992654     15.953961      5.2223757    
   4479000   0.99735225     16.478173      5.2646821    
   4480000   0.98688837     16.521388      5.216379     
   4481000   0.99265845     16.784806      5.2151387    
   4482000   1.0250243      16.55768       5.2252591    
   4483000   1.0065222      17.096255      5.2374948    
   4484000   1.0237771      16.660358      5.2734797    
   4485000   1.0072447      17.340972      5.2304261    
   4486000   1.0597083      17.02198       5.2531361    
   4487000   1.0216066      16.849194      5.3097296    
   4488000   0.99655649     16.828853      5.2517517    
   4489000   1.0092134      16.76563       5.270353     
   4490000   1.0598964      16.965656      5.264225     
   4491000   1.0087273      16.484659      5.2747009    
   4492000   0.99359514     16.310433      5.263913     
   4493000   0.98882101     16.548992      5.2395317    
   4494000   0.99899681     16.678235      5.2411734    
   4495000   0.95871674     17.055408      5.2175513    
   4496000   0.97514197     16.192678      5.2628322    
   4497000   0.97750906     16.760733      5.2152099    
   4498000   0.99574253     16.895987      5.2696388    
   4499000   1.0100063      16.817593      5.2650772    
   4500000   1.0815637      17.347799      5.2707151    
   4501000   1.0087829      17.248933      5.3124686    
   4502000   0.98404754     16.292291      5.3025153    
   4503000   1.0411818      16.777185      5.2937454    
   4504000   1.007097       17.176215      5.3042272    
   4505000   0.96584213     16.338436      5.3207545    
   4506000   0.99553441     17.37876       5.3175065    
   4507000   1.0099144      16.756741      5.2887554    
   4508000   1.0033014      17.057502      5.2859159    
   4509000   1.02816        16.656764      5.2489394    
   4510000   0.97010255     16.433223      5.2491142    
   4511000   1.0193466      16.883854      5.2653286    
   4512000   1.0432698      17.06339       5.2775216    
   4513000   1.0451232      16.799275      5.3142344    
   4514000   1.0130323      16.982065      5.3296062    
   4515000   1.028768       16.930076      5.2592369    
   4516000   0.96083773     16.696142      5.3043381    
   4517000   0.95505747     16.171686      5.282386     
   4518000   1.0139512      17.132536      5.2326517    
   4519000   1.0465784      16.561275      5.278293     
   4520000   1.0189135      16.716022      5.2529022    
   4521000   0.9612756      16.70633       5.2250075    
   4522000   1.0158285      17.258771      5.252598     
   4523000   1.005241       16.489727      5.2387318    
   4524000   0.99093801     16.766091      5.2570455    
   4525000   0.98591083     16.611698      5.2461654    
   4526000   0.98823576     16.582359      5.2754252    
   4527000   1.0108396      16.319395      5.2641348    
   4528000   0.98739472     16.912751      5.2285991    
   4529000   1.0101096      16.212653      5.2366776    
   4530000   1.0000231      16.731662      5.2287761    
   4531000   1.0118886      16.481671      5.2382185    
   4532000   0.96650186     16.28329       5.1978359    
   4533000   0.97496838     17.190094      5.2227001    
   4534000   0.96948038     16.754699      5.2064078    
   4535000   1.0176875      17.176236      5.219643     
   4536000   0.9510043      16.620394      5.2888126    
   4537000   1.0104932      16.861295      5.2560264    
   4538000   0.97469223     16.572282      5.2146459    
   4539000   0.97029748     16.4108        5.2338248    
   4540000   1.0042822      17.35253       5.2298092    
   4541000   1.0156035      16.416511      5.2364481    
   4542000   0.93952214     16.457009      5.2963275    
   4543000   0.9855203      16.212125      5.2794082    
   4544000   1.0083736      16.608047      5.2376614    
   4545000   0.99915493     16.755591      5.2610786    
   4546000   1.0141277      17.22452       5.2866521    
   4547000   1.009561       16.315699      5.2445349    
   4548000   1.0288393      17.076094      5.2357245    
   4549000   1.0705892      16.696629      5.252981     
   4550000   1.0076845      17.434428      5.2664284    
   4551000   0.99162299     17.085488      5.2280248    
   4552000   1.0348744      16.379623      5.291403     
   4553000   1.0491077      17.157506      5.2462733    
   4554000   0.99912944     16.960089      5.260408     
   4555000   1.0293741      16.711027      5.2065289    
   4556000   1.0080559      16.843294      5.2835154    
   4557000   1.0236279      16.629902      5.2728531    
   4558000   1.0288547      16.546871      5.2324703    
   4559000   1.021121       17.221992      5.2334408    
   4560000   0.9996378      16.979808      5.2241223    
   4561000   1.0136456      16.57445       5.2119324    
   4562000   1.0054623      16.862403      5.2172183    
   4563000   1.0124509      17.233609      5.2290161    
   4564000   1.0125731      16.697723      5.2304427    
   4565000   0.97667474     16.092917      5.2604869    
   4566000   0.99417221     15.893306      5.2424308    
   4567000   1.0167851      16.634292      5.2668586    
   4568000   1.0287064      17.521678      5.2360851    
   4569000   1.0266019      17.299111      5.202035     
   4570000   1.0101803      16.717141      5.2322912    
   4571000   0.993888       16.567648      5.2480993    
   4572000   1.029359       16.890225      5.2567664    
   4573000   0.99610545     17.004758      5.2861597    
   4574000   0.98731429     16.612035      5.2688864    
   4575000   0.97620855     16.982088      5.2818278    
   4576000   1.0084232      16.701595      5.2379617    
   4577000   0.99687351     16.462313      5.2399909    
   4578000   1.0047117      16.581397      5.2929558    
   4579000   1.0181596      16.713565      5.3058466    
   4580000   0.99855319     16.45486       5.2717299    
   4581000   0.99459615     16.764251      5.2831117    
   4582000   0.99783948     16.503456      5.2591746    
   4583000   0.98744801     17.014871      5.2834021    
   4584000   1.0097323      17.102627      5.2456967    
   4585000   1.0038971      16.769498      5.2562592    
   4586000   0.99600491     17.707562      5.2384458    
   4587000   0.98376281     17.329584      5.2139311    
   4588000   1.0149784      16.582532      5.2180947    
   4589000   1.0040555      16.218402      5.2296011    
   4590000   1.0134378      17.176541      5.2531439    
   4591000   1.0391244      16.334632      5.2552049    
   4592000   1.0274384      16.680276      5.2610292    
   4593000   1.0185115      17.191375      5.2466414    
   4594000   1.0444013      17.051116      5.2241543    
   4595000   0.99426809     17.435437      5.2527299    
   4596000   1.0263446      16.93643       5.1925688    
   4597000   1.0231879      16.979054      5.2470626    
   4598000   1.040181       16.542734      5.2254146    
   4599000   1.0306823      16.795868      5.2429104    
   4600000   1.0689243      17.095258      5.2440827    
   4601000   0.98499066     16.900757      5.2705646    
   4602000   0.9620844      16.444972      5.2522009    
   4603000   0.97541003     16.308312      5.1882558    
   4604000   1.0018971      16.561517      5.2163158    
   4605000   1.0021713      16.592176      5.2320604    
   4606000   1.0230193      17.312554      5.2578279    
   4607000   1.0034504      16.533856      5.2185348    
   4608000   1.0099401      16.428195      5.1988115    
   4609000   0.97431526     16.582721      5.2739267    
   4610000   0.99020038     16.964704      5.2490125    
   4611000   1.017923       17.247573      5.2626923    
   4612000   1.0211119      16.678         5.2365368    
   4613000   0.98278295     16.540088      5.2430833    
   4614000   0.98553749     16.052761      5.2667976    
   4615000   1.0378318      16.880623      5.2097494    
   4616000   0.98127689     16.51522       5.2425918    
   4617000   1.0139731      16.617799      5.2375588    
   4618000   1.0015876      16.894013      5.2381306    
   4619000   1.0104411      16.42284       5.2250458    
   4620000   0.97313311     16.604577      5.2417915    
   4621000   1.0405296      16.936544      5.250462     
   4622000   0.96938066     16.993934      5.2525584    
   4623000   0.95322943     16.947436      5.2280045    
   4624000   0.99994486     16.904647      5.2289599    
   4625000   1.0169504      17.056842      5.2035612    
   4626000   1.0436429      16.378138      5.2528956    
   4627000   1.0205099      16.827384      5.2385721    
   4628000   0.98768893     16.710685      5.2045072    
   4629000   0.95472911     16.668264      5.2344278    
   4630000   1.0166759      17.04875       5.2239465    
   4631000   0.97684439     16.458962      5.2177056    
   4632000   1.0371787      16.841399      5.263539     
   4633000   1.0200023      17.0115        5.2511002    
   4634000   0.98606998     16.746412      5.2305228    
   4635000   0.99476015     17.089921      5.2294456    
   4636000   1.0181505      17.233784      5.2279463    
   4637000   1.0052115      17.334646      5.2427484    
   4638000   0.99264094     16.586001      5.2570923    
   4639000   1.0334164      16.647582      5.2450087    
   4640000   0.993023       15.895355      5.2489597    
   4641000   0.95782563     16.855631      5.2346231    
   4642000   1.036936       17.558711      5.2556846    
   4643000   0.98558835     16.886436      5.2472865    
   4644000   0.96584664     16.417732      5.2678791    
   4645000   0.99431301     16.357557      5.2827157    
   4646000   1.0368528      16.444434      5.2693437    
   4647000   1.0385423      16.760732      5.2414671    
   4648000   1.0288139      16.531979      5.257357     
   4649000   0.98280084     17.141572      5.2641929    
   4650000   1.0063499      17.14553       5.2697809    
   4651000   0.98582272     16.809797      5.2890345    
   4652000   0.99517759     16.359126      5.2180557    
   4653000   1.0307495      16.374217      5.2035189    
   4654000   0.99193908     16.540904      5.2594909    
   4655000   1.0187104      17.240256      5.2028662    
   4656000   0.96973778     16.656655      5.2438114    
   4657000   0.97193318     16.284985      5.2432096    
   4658000   0.96132643     16.459314      5.2374065    
   4659000   0.96680647     16.573049      5.2679963    
   4660000   1.0128224      17.368319      5.2844614    
   4661000   1.0481597      17.190136      5.3032441    
   4662000   1.0038902      16.985953      5.2823963    
   4663000   1.0179779      17.189238      5.2915653    
   4664000   0.95699279     16.658207      5.2514844    
   4665000   0.99607552     16.418839      5.2905335    
   4666000   0.96266533     16.353884      5.3172975    
   4667000   0.97925171     17.188857      5.2965487    
   4668000   0.97719246     16.857074      5.3074765    
   4669000   0.98464234     17.082273      5.3368169    
   4670000   1.0174579      17.07624       5.2742627    
   4671000   0.98855681     16.449187      5.2694527    
   4672000   1.0329929      16.60447       5.2832818    
   4673000   1.0260591      16.778133      5.2621679    
   4674000   0.94916085     17.158743      5.3015964    
   4675000   1.0048662      16.478609      5.2670052    
   4676000   1.0187869      16.838194      5.2387941    
   4677000   1.0139208      16.786374      5.238935     
   4678000   1.0055835      17.190053      5.2386715    
   4679000   0.97515487     16.570764      5.2589932    
   4680000   0.98186312     16.905529      5.2554548    
   4681000   1.0511507      16.979045      5.2255504    
   4682000   1.0252476      15.951569      5.2348579    
   4683000   0.99047892     16.927991      5.2392388    
   4684000   0.96352078     17.015215      5.2485698    
   4685000   1.0334508      16.771976      5.287619     
   4686000   0.98869024     16.770878      5.2610926    
   4687000   1.040081       17.490459      5.2945016    
   4688000   0.98247948     16.883932      5.2872402    
   4689000   0.98143541     16.997925      5.2141092    
   4690000   1.0346129      16.768212      5.244148     
   4691000   1.006456       16.853062      5.2209904    
   4692000   0.93854298     16.628182      5.2227487    
   4693000   1.0166458      16.950612      5.2334047    
   4694000   1.0089921      16.949168      5.2651546    
   4695000   0.94706008     17.036288      5.2739422    
   4696000   1.0279427      17.226772      5.2433234    
   4697000   1.0290629      16.826835      5.2351498    
   4698000   1.0106786      16.609525      5.2277698    
   4699000   0.97602053     16.67295       5.2227282    
   4700000   0.99924147     16.723718      5.2039261    
   4701000   0.99157946     16.693795      5.2123612    
   4702000   0.99248539     16.782016      5.2698824    
   4703000   0.97362163     16.384167      5.241021     
   4704000   0.98995802     16.49499       5.2445148    
   4705000   0.97674153     16.700248      5.2359142    
   4706000   1.0124912      17.138492      5.2512982    
   4707000   1.0104387      16.556689      5.2409774    
   4708000   0.95824938     16.419473      5.2647381    
   4709000   1.0270432      16.751256      5.2689788    
   4710000   1.0250012      16.797153      5.2103271    
   4711000   1.0441215      16.409699      5.2283164    
   4712000   0.98399195     16.884905      5.2276167    
   4713000   1.0451089      16.803137      5.2427009    
   4714000   1.0209194      17.073442      5.2674468    
   4715000   0.98559796     16.728966      5.263618     
   4716000   0.99545449     16.779373      5.2758408    
   4717000   1.0500067      16.509758      5.2682503    
   4718000   0.98316846     16.909075      5.2449559    
   4719000   0.98374065     16.682676      5.2323998    
   4720000   0.9932556      16.580426      5.2502144    
   4721000   0.95958287     16.79759       5.2368343    
   4722000   1.0059154      16.890532      5.2058611    
   4723000   1.0119132      16.526564      5.2551048    
   4724000   1.0064637      16.840239      5.2587904    
   4725000   0.977281       16.381546      5.2775134    
   4726000   0.9952688      17.320794      5.2377202    
   4727000   1.0178095      16.741226      5.2118968    
   4728000   1.0246326      16.65401       5.2537782    
   4729000   1.0087669      16.458587      5.231871     
   4730000   1.0278678      16.908058      5.2232984    
   4731000   1.0012545      16.531109      5.2613497    
   4732000   1.0099943      17.291678      5.1893858    
   4733000   1.0133464      16.337176      5.2469367    
   4734000   1.0507861      16.596652      5.2346245    
   4735000   0.980185       16.28503       5.2490578    
   4736000   1.0174196      16.815048      5.237707     
   4737000   0.96571989     16.544081      5.2424687    
   4738000   1.0045073      16.53188       5.273209     
   4739000   0.96801367     16.470137      5.2807646    
   4740000   1.0437692      16.946696      5.2882972    
   4741000   1.0059759      17.059998      5.2962441    
   4742000   0.96044697     16.897489      5.283787     
   4743000   1.0033159      16.558088      5.2730966    
   4744000   0.9845769      16.489674      5.2181907    
   4745000   1.0022208      16.964333      5.2252055    
   4746000   0.95341309     17.028693      5.1957867    
   4747000   0.99082178     16.175502      5.2321627    
   4748000   0.98647933     16.751539      5.258675     
   4749000   0.97527805     16.492526      5.2565508    
   4750000   1.0013451      16.869879      5.2422101    
   4751000   0.98210796     16.667047      5.2630125    
   4752000   0.96529926     16.398678      5.2847034    
   4753000   0.9967383      16.858817      5.2272613    
   4754000   0.99175553     16.804772      5.2367768    
   4755000   0.98850706     16.729524      5.2347687    
   4756000   0.9918181      16.468034      5.2702061    
   4757000   1.026439       16.892681      5.2252703    
   4758000   0.97512717     16.751144      5.2573702    
   4759000   1.0206814      16.671775      5.2517507    
   4760000   1.0316467      17.103324      5.2448283    
   4761000   0.99265456     17.100116      5.2690341    
   4762000   0.99982378     15.988461      5.2910349    
   4763000   0.95567202     16.080493      5.2496055    
   4764000   1.0100407      16.547936      5.2268437    
   4765000   1.0327915      17.091662      5.2515349    
   4766000   1.0154121      16.250938      5.2705944    
   4767000   0.99027637     16.127446      5.3073927    
   4768000   1.0106028      16.545388      5.3002995    
   4769000   1.0043014      17.150072      5.2723519    
   4770000   1.0032644      16.76092       5.2460195    
   4771000   1.0276844      16.849867      5.2448002    
   4772000   1.0146639      16.547441      5.2784629    
   4773000   0.96872481     15.886307      5.2676691    
   4774000   0.99004806     16.708417      5.2475265    
   4775000   0.99680303     16.824409      5.2777148    
   4776000   0.96629862     16.539859      5.2561497    
   4777000   0.98646086     16.695409      5.2646051    
   4778000   0.96034902     16.961892      5.2740011    
   4779000   1.007058       17.164651      5.2443415    
   4780000   1.0306461      16.160736      5.2968594    
   4781000   0.97665874     16.232918      5.2597758    
   4782000   0.98289852     17.046124      5.2258026    
   4783000   0.99781576     16.743467      5.2092607    
   4784000   1.0385486      16.367175      5.2286148    
   4785000   1.0403062      16.776281      5.2403905    
   4786000   1.0171727      16.583441      5.253684     
   4787000   1.0032184      16.571411      5.2479007    
   4788000   0.99557142     16.997473      5.2291482    
   4789000   0.98674384     16.955406      5.2548378    
   4790000   0.98702017     16.727155      5.2361901    
   4791000   0.99839973     16.991646      5.2140198    
   4792000   0.95349227     16.280688      5.2576504    
   4793000   1.0134406      16.793283      5.2647365    
   4794000   1.0078455      16.571324      5.248575     
   4795000   0.9982875      16.648517      5.2268961    
   4796000   1.0079359      16.715415      5.2260738    
   4797000   0.97947124     16.337103      5.2087551    
   4798000   0.99323946     16.479489      5.1880184    
   4799000   0.96899486     16.703071      5.2266326    
   4800000   0.9938861      16.134307      5.2342137    
   4801000   0.99386556     16.57782       5.2154236    
   4802000   0.93995579     16.702595      5.244667     
   4803000   1.0135212      17.163851      5.2205638    
   4804000   1.0407682      16.500898      5.2584164    
   4805000   1.0091584      16.542761      5.2025693    
   4806000   0.95661612     16.883738      5.2079625    
   4807000   0.99247613     16.471875      5.2284044    
   4808000   1.0331065      16.969356      5.2574697    
   4809000   1.0048647      17.016861      5.1901093    
   4810000   0.99920536     16.408428      5.2394332    
   4811000   1.0150592      16.596206      5.2228663    
   4812000   0.99783762     16.733739      5.2040278    
   4813000   1.0186483      16.554871      5.2140358    
   4814000   0.99596614     16.776493      5.2024513    
   4815000   1.0206226      16.639378      5.2186723    
   4816000   0.95153034     16.654387      5.2135624    
   4817000   1.0108827      16.798465      5.2345378    
   4818000   0.99367858     17.122575      5.2368223    
   4819000   0.98290892     16.076995      5.2318648    
   4820000   1.013205       16.845627      5.2382092    
   4821000   0.97678604     16.821479      5.2097658    
   4822000   1.0059052      16.337763      5.212505     
   4823000   0.95041215     17.230899      5.23531      
   4824000   1.0364683      16.692473      5.265539     
   4825000   0.9877205      17.21408       5.2364494    
   4826000   1.0396399      16.857431      5.2388292    
   4827000   0.9715536      16.880216      5.216566     
   4828000   1.0312702      16.546705      5.2513377    
   4829000   0.96902156     16.522502      5.2948025    
   4830000   0.9773699      16.69836       5.2725653    
   4831000   1.0178329      16.308029      5.2739348    
   4832000   1.0055304      16.377153      5.2638608    
   4833000   1.0282567      17.20448       5.2683185    
   4834000   0.94729846     16.805249      5.247726     
   4835000   1.0047674      16.775262      5.2488276    
   4836000   0.99427097     16.530649      5.251393     
   4837000   0.99629201     17.019806      5.2578274    
   4838000   0.99591127     16.165421      5.226388     
   4839000   1.0265131      17.05          5.2379079    
   4840000   1.0037202      16.854544      5.2714569    
   4841000   0.98520403     16.98114       5.2214947    
   4842000   0.9680061      16.813572      5.2470602    
   4843000   0.94227764     16.386689      5.2328504    
   4844000   1.0147919      17.401442      5.2095621    
   4845000   1.0282561      17.16885       5.2310657    
   4846000   0.96612621     16.652079      5.2482486    
   4847000   1.0272929      17.351817      5.224862     
   4848000   0.98222568     16.867756      5.2421503    
   4849000   0.98574616     16.87186       5.2153839    
   4850000   1.0096413      16.632641      5.2319817    
   4851000   0.99317733     16.36933       5.2082995    
   4852000   0.96787411     16.540673      5.229629     
   4853000   0.99464179     16.677178      5.2575312    
   4854000   0.99379784     16.76094       5.2256053    
   4855000   1.0177463      16.134952      5.234231     
   4856000   0.97772993     16.898278      5.2450228    
   4857000   0.98062534     16.275574      5.2590817    
   4858000   1.0205439      16.603677      5.2671942    
   4859000   1.0333041      16.732905      5.266709     
   4860000   0.9797258      16.939613      5.2306144    
   4861000   0.98533367     16.316267      5.2946284    
   4862000   0.99367761     16.614376      5.2547531    
   4863000   1.0044963      16.79161       5.2102434    
   4864000   1.0203323      17.217256      5.200742     
   4865000   1.0130357      16.507898      5.2518778    
   4866000   0.95963795     16.46477       5.279621     
   4867000   1.0160375      16.680514      5.2968017    
   4868000   0.97620542     16.421295      5.2642873    
   4869000   1.0234888      16.773847      5.3004331    
   4870000   1.0003467      15.608052      5.3059711    
   4871000   0.99113861     17.342917      5.2817902    
   4872000   0.96945727     16.255625      5.2822657    
   4873000   0.99269281     16.167775      5.2579785    
   4874000   1.0353735      16.832052      5.2649797    
   4875000   1.0035421      16.215652      5.2318456    
   4876000   1.0402203      16.406088      5.213859     
   4877000   0.98232017     16.965783      5.2220406    
   4878000   1.0178569      17.387359      5.2232124    
   4879000   0.99992091     16.966625      5.2673086    
   4880000   1.0124975      17.025652      5.2509426    
   4881000   1.0274988      17.121902      5.2338284    
   4882000   0.99933707     16.415476      5.2338935    
   4883000   0.97344835     16.546689      5.2490522    
   4884000   0.9850128      16.868672      5.2243229    
   4885000   1.0345344      16.889045      5.2343387    
   4886000   0.97709642     16.757208      5.1849856    
   4887000   1.0084801      16.763014      5.223954     
   4888000   0.99941783     16.524509      5.2741495    
   4889000   0.98084631     16.963446      5.2518866    
   4890000   1.0209475      16.744292      5.2171926    
   4891000   1.0062042      16.478512      5.228284     
   4892000   0.99230233     16.867537      5.2063077    
   4893000   0.99279962     17.567623      5.2477946    
   4894000   0.96066806     16.660043      5.2339101    
   4895000   1.0094565      16.924107      5.2486048    
   4896000   1.0022309      17.09987       5.2961954    
   4897000   0.98318713     16.461331      5.230897     
   4898000   1.0056469      16.380513      5.2259714    
   4899000   1.0032871      16.684841      5.2504381    
   4900000   0.9903486      16.951283      5.1755045    
   4901000   1.0335697      17.005166      5.2359841    
   4902000   0.97955745     16.388256      5.2154345    
   4903000   0.98828595     16.451168      5.2077917    
   4904000   1.0191624      16.750883      5.2269107    
   4905000   1.0289202      16.802403      5.2128816    
   4906000   1.0088704      16.888718      5.2387061    
   4907000   0.95590496     16.693034      5.2402143    
   4908000   0.99908939     16.6414        5.2257226    
   4909000   1.0424787      16.895295      5.2667549    
   4910000   0.97845779     16.782561      5.2680165    
   4911000   1.0016142      16.880233      5.2125444    
   4912000   1.0022677      16.876461      5.2118372    
   4913000   0.99287619     16.258568      5.2247887    
   4914000   1.0140538      16.355385      5.2096845    
   4915000   1.0070243      16.899901      5.2257697    
   4916000   1.0316531      17.195158      5.2348542    
   4917000   1.040826       17.077422      5.2634393    
   4918000   1.0130464      15.974643      5.2479835    
   4919000   1.0275729      16.657252      5.303797     
   4920000   0.9524065      17.000686      5.2635044    
   4921000   0.98957246     16.738865      5.2563472    
   4922000   1.0403513      16.295319      5.2266369    
   4923000   0.95015617     16.714402      5.214759     
   4924000   0.98946289     16.473774      5.2123545    
   4925000   0.97309676     16.803746      5.2248814    
   4926000   1.0040301      17.071794      5.2515793    
   4927000   1.0001011      16.604859      5.2569289    
   4928000   0.99775961     16.483458      5.2759751    
   4929000   1.0067053      16.933744      5.2526957    
   4930000   0.96013414     16.643319      5.2479442    
   4931000   0.99097273     16.779241      5.2592655    
   4932000   0.98133292     16.83613       5.2519846    
   4933000   1.0053568      16.628248      5.2830094    
   4934000   0.97905938     16.587759      5.284716     
   4935000   1.0029758      16.716335      5.2896096    
   4936000   0.97997125     16.768327      5.2700951    
   4937000   1.0184357      17.472016      5.2288365    
   4938000   1.006382       16.741854      5.2919269    
   4939000   1.0307437      16.412768      5.23968      
   4940000   1.016683       16.870001      5.2354969    
   4941000   1.0056739      17.127033      5.2308236    
   4942000   1.0325919      16.568361      5.2472288    
   4943000   1.0156331      16.472262      5.2307484    
   4944000   1.0197705      16.757978      5.2226273    
   4945000   0.9911164      16.808086      5.2258879    
   4946000   1.0149523      16.740539      5.2512641    
   4947000   1.0040095      17.03381       5.2103536    
   4948000   1.0400101      16.926808      5.2366948    
   4949000   0.99271545     16.738725      5.248289     
   4950000   1.0029054      16.559297      5.2357591    
   4951000   0.99641892     16.768815      5.2460059    
   4952000   0.99314596     16.366499      5.258884     
   4953000   0.99602819     16.698873      5.2384939    
   4954000   1.0257357      16.64325       5.2403708    
   4955000   1.0385169      16.551865      5.2270567    
   4956000   1.0121995      17.27046       5.2292407    
   4957000   1.0313123      16.685655      5.1938107    
   4958000   1.0131027      16.677399      5.2557921    
   4959000   0.99895159     16.770245      5.2310235    
   4960000   1.0156449      16.409028      5.2099028    
   4961000   1.0151138      16.780526      5.2613032    
   4962000   0.9768047      16.251239      5.2261191    
   4963000   1.0381564      16.430968      5.2225221    
   4964000   1.0055764      16.845774      5.2219035    
   4965000   0.99333068     16.41919       5.2297323    
   4966000   0.98007453     16.392467      5.2231795    
   4967000   0.98576848     16.699691      5.2209108    
   4968000   0.97891321     16.614334      5.2030352    
   4969000   0.98505206     16.567326      5.2456507    
   4970000   0.98880101     16.64237       5.2402694    
   4971000   0.99453459     16.88375       5.21355      
   4972000   1.0107326      16.498408      5.2608961    
   4973000   1.0241172      17.010968      5.2351002    
   4974000   1.0045407      17.333478      5.2209396    
   4975000   0.98816643     16.381319      5.2233425    
   4976000   1.0226563      17.03622       5.2231002    
   4977000   1.0554272      17.157282      5.2645197    
   4978000   1.0469762      17.07311       5.256945     
   4979000   1.0260853      16.98764       5.2387269    
   4980000   1.0354243      16.795583      5.25108      
   4981000   1.0111763      16.642166      5.2648603    
   4982000   0.99209789     16.656839      5.2725044    
   4983000   1.0230435      17.074275      5.243526     
   4984000   0.9948567      16.921318      5.2730015    
   4985000   0.9983694      16.786563      5.231596     
   4986000   1.0105477      16.891224      5.2359088    
   4987000   1.0362929      16.933481      5.2462441    
   4988000   0.99772349     16.790356      5.2190693    
   4989000   0.96873693     16.376853      5.2849274    
   4990000   0.98113691     16.516885      5.2300109    
   4991000   1.0300591      16.816681      5.2195841    
   4992000   0.97348175     16.280285      5.2584513    
   4993000   1.0068076      16.723423      5.2473428    
   4994000   1.0327114      17.262578      5.2419671    
   4995000   0.97530128     17.040228      5.2545803    
   4996000   0.96794024     16.559467      5.2356809    
   4997000   0.97288475     16.554666      5.2103184    
   4998000   1.0107885      16.400008      5.2478609    
   4999000   0.94481093     16.715554      5.2625672    
   5000000   0.9994446      17.038837      5.2102083    
   5001000   1.0323823      17.071514      5.2346951    
   5002000   0.97146834     16.903246      5.2530267    
   5003000   1.0328551      16.732212      5.2244084    
   5004000   1.0049496      16.507027      5.2076334    
   5005000   1.0331336      16.606361      5.2289126    
   5006000   0.99829879     16.885358      5.2169429    
   5007000   0.99544615     17.202702      5.2142541    
   5008000   0.97353317     16.889091      5.2641215    
   5009000   1.0797601      17.050219      5.2478199    
   5010000   1.0307351      17.023151      5.2293886    
   5011000   0.96222147     16.585342      5.2245621    
   5012000   0.96259481     16.300981      5.2238286    
   5013000   0.99928591     16.774396      5.2092714    
   5014000   1.0298661      16.885108      5.2407131    
   5015000   0.97823005     17.116179      5.2390452    
   5016000   1.0304203      16.159463      5.2329459    
   5017000   0.9961307      16.31446       5.2399639    
   5018000   1.0127751      17.254089      5.2110835    
   5019000   0.99006546     17.108432      5.2299026    
   5020000   0.97748774     16.739475      5.2096571    
   5021000   1.013696       16.62585       5.2625487    
   5022000   0.99728557     16.385025      5.2322085    
   5023000   0.9812731      16.810893      5.2513212    
   5024000   0.95186008     17.006026      5.2311254    
   5025000   1.0316927      16.494933      5.2405894    
   5026000   0.9917405      16.825015      5.2528114    
   5027000   0.99113834     16.534537      5.2976384    
   5028000   1.003136       16.080015      5.2558945    
   5029000   0.95049465     16.730819      5.280396     
   5030000   0.99535816     16.922641      5.2497464    
   5031000   1.0303292      17.075138      5.2805678    
   5032000   1.0439946      16.821513      5.2506619    
   5033000   0.98639639     16.512392      5.2209869    
   5034000   0.99030979     16.498133      5.2781193    
   5035000   1.0350788      16.37263       5.2689579    
   5036000   0.99083821     16.443939      5.2690667    
   5037000   0.96656715     16.437375      5.2129741    
   5038000   1.0274473      16.407651      5.2599284    
   5039000   0.95824354     16.435753      5.2737661    
   5040000   1.0322544      16.959168      5.2514322    
   5041000   0.99306347     16.736496      5.2851566    
   5042000   1.0390187      16.932883      5.2521127    
   5043000   1.025705       16.520227      5.2386717    
   5044000   0.99407783     16.648619      5.2323513    
   5045000   1.003544       17.085989      5.2170623    
   5046000   0.99562116     16.882764      5.2207136    
   5047000   1.0170901      16.146383      5.2193068    
   5048000   1.0038717      16.726225      5.2328263    
   5049000   1.0156581      17.028553      5.2408869    
   5050000   0.99587759     16.961756      5.2532883    
   5051000   1.0460414      17.161816      5.2311221    
   5052000   1.0159252      16.608464      5.2237746    
   5053000   0.96102748     16.627455      5.2736077    
   5054000   1.017651       16.757706      5.2572406    
   5055000   1.0136119      16.435935      5.2753464    
   5056000   1.0567207      17.389069      5.2771472    
   5057000   0.99107938     16.181188      5.2632056    
   5058000   1.0179468      16.966768      5.2216261    
   5059000   0.9785058      16.312543      5.2822972    
   5060000   0.9986769      16.91199       5.2106013    
   5061000   1.0329385      16.80532       5.2667851    
   5062000   1.0228357      16.759741      5.2316679    
   5063000   0.99720006     17.03218       5.2486502    
   5064000   0.94986897     16.5312        5.2381219    
   5065000   1.0357661      16.567576      5.2167919    
   5066000   1.015805       16.596864      5.2604907    
   5067000   0.98179535     16.758044      5.2529771    
   5068000   0.95918844     16.443451      5.2452903    
   5069000   0.98072903     16.256829      5.2785782    
   5070000   1.0216945      16.668597      5.2752345    
   5071000   0.99900304     16.854177      5.2608592    
   5072000   0.9983907      17.011602      5.3220605    
   5073000   0.97814858     17.167051      5.2590346    
   5074000   1.0028133      16.825977      5.2749457    
   5075000   0.97533808     16.546535      5.2522719    
   5076000   1.0028674      16.699265      5.2605558    
   5077000   0.99918707     16.394647      5.2646163    
   5078000   0.97067402     16.226783      5.2651368    
   5079000   0.97096736     16.246851      5.2534665    
   5080000   1.0023946      17.072325      5.2613079    
   5081000   1.0092687      16.790977      5.2688571    
   5082000   1.0067665      16.60634       5.2439444    
   5083000   0.99008798     16.827226      5.2350932    
   5084000   0.99432725     16.826771      5.2308138    
   5085000   1.0200236      16.259842      5.240547     
   5086000   0.97602274     16.893106      5.220201     
   5087000   0.97984094     16.727715      5.2355644    
   5088000   1.0007204      16.847085      5.255482     
   5089000   1.0014202      16.901938      5.2385533    
   5090000   1.025513       17.119796      5.2373997    
   5091000   1.0200181      16.824604      5.2082093    
   5092000   0.99301174     16.318374      5.2332305    
   5093000   0.99140528     16.557645      5.2355636    
   5094000   0.98915707     16.444025      5.2559759    
   5095000   0.99625464     16.562017      5.2148355    
   5096000   0.99424027     16.557793      5.2581018    
   5097000   0.99757893     16.664028      5.2151021    
   5098000   0.99357817     16.684017      5.2111348    
   5099000   1.0075519      16.662592      5.2301487    
   5100000   1.0135328      16.779483      5.2318147    
Loop time of 11959.7 on 1 procs for 5000000 steps with 1101 atoms

Performance: 361212.843 tau/day, 418.070 timesteps/s
100.0% CPU use with 1 MPI tasks x 1 OpenMP threads

MPI task timing breakdown:
Section |  min time  |  avg time  |  max time  |%varavg| %total
---------------------------------------------------------------
Pair    | 7082.8     | 7082.8     | 7082.8     |   0.0 | 59.22
Bond    | 259.73     | 259.73     | 259.73     |   0.0 |  2.17
Neigh   | 4273.1     | 4273.1     | 4273.1     |   0.0 | 35.73
Comm    | 2.9029     | 2.9029     | 2.9029     |   0.0 |  0.02
Output  | 12.956     | 12.956     | 12.956     |   0.0 |  0.11
Modify  | 291.02     | 291.02     | 291.02     |   0.0 |  2.43
Other   |            | 37.27      |            |       |  0.31

Nlocal:           1101 ave        1101 max        1101 min
Histogram: 1 0 0 0 0 0 0 0 0 0
Nghost:              0 ave           0 max           0 min
Histogram: 1 0 0 0 0 0 0 0 0 0
Neighs:         307601 ave      307601 max      307601 min
Histogram: 1 0 0 0 0 0 0 0 0 0

Total # of neighbors = 307601
Ave neighs/atom = 279.38329
Ave special neighs/atom = 1.9981835
Neighbor list builds = 34608
Dangerous builds = 0

# This simulation is done
# Move onto the next one
clear
OMP_NUM_THREADS environment is not set. Defaulting to 1 thread. (src/comm.cpp:98)
  using 1 OpenMP thread(s) per MPI task
next f
jump SELF

###
# Reference paper:
# K. Kremer and G. S. Grest
# Dynamics of entangled linear polymer melts: A molecular-dynamics simulation
# J Chem Phys 92, 5057 (1990)

##################################
# MIHIR: for branched polymers
# LJ minimum first to expand and explore, then collapse
###

###
# Looping through the various plusshaped polymers to simulate,
# define variables to switch through
variable f index bb51nuc1bl25bn4d30tot100 bb101nuc1bl50bn4d30tot200 bb151nuc1bl75bn4d30tot300 bb201nuc1bl100bn4d30tot400 bb251nuc1bl125bn4d30tot500 bb301nuc1bl150bn4d30tot600 bb351nuc1bl175bn4d30tot700 bb401nuc1bl200bn4d30tot800 bb451nuc1bl225bn4d30tot900 bb501nuc1bl250bn4d30tot1000 bb551nuc1bl275bn4d30tot1100 bb601nuc1bl300bn4d30tot1200
###


###
# Box and units  (use LJ units and periodic boundaries)
###

units lj
log plusshaped/logs/$f.log
log plusshaped/logs/bb601nuc1bl300bn4d30tot1200.log
