#atom_style bond #no stiffness
atom_style angle #with stiffness

boundary        p p p
###
# Pair interactions require lists of neighbours to be calculated
###

#neighbor 0.3 bin
neighbor 4 bin

neigh_modify every 1 delay 1 check yes
atom_modify sort 0 0
### Generate RESTART file, SPECIAL format, not a .txt file ###
### Useful if simulation crashes ###

restart 1000000 plusshaped/restarts/$f.restart
restart 1000000 plusshaped/restarts/bb601nuc1bl300bn4d30tot1200.restart
#############################



### READ "start" data file ###

read_data plusshaped/$f.dat
read_data plusshaped/bb601nuc1bl300bn4d30tot1200.dat
Reading data file ...
  orthogonal box = (-1000 -1000 -1000) to (1000 1000 1000)
  1 by 1 by 1 MPI processor grid
  reading atoms ...
  1201 atoms
  scanning bonds ...
  3 = max bonds/atom
  scanning angles ...
  6 = max angles/atom
  reading bonds ...
  1200 bonds
  reading angles ...
  1202 angles
Finding 1-2 1-3 1-4 neighbors ...
  special bond factors lj:    0        0        0       
  special bond factors coul:  0        0        0       
     4 = max # of 1-2 neighbors
     4 = max # of 1-3 neighbors
     8 = max # of 1-4 neighbors
    12 = max # of special neighbors
  special bonds CPU = 0.001 seconds
  read_data CPU = 0.076 seconds

######################

### READ "REstart" data file ###

######################



###
# Define groups (atom type 1 is group 'all')
###
group all type 1
1201 atoms in group all


###
# Dump configs - "simple dumpings"
###

###
# Dump configs + box coords
###

dump   1   all   custom   1000  plusshaped/trjs/$f.lammpstrj  id  x y z  ix iy iz
dump   1   all   custom   1000  plusshaped/trjs/bb601nuc1bl300bn4d30tot1200.lammpstrj  id  x y z  ix iy iz
dump_modify   1   format line "%d %.5f %.5f %.5f %d %d %d"

########################################################################


###################################################################
# Stiffness term
#
# E = K * (1+cos(theta)), K>0
#
angle_style   cosine
#change this coefficient to change stiffness (e.g. 1,5,10)
angle_coeff   1 1.0
###################################################################

###################################################################
# Pair interaction between non-bonded atoms
#
#  Lennard-Jones 12-6 potential with cutoff:
#  potential E=4epsilon[ (sigma/r)^12 - (sigma/r)^6]  for r<r_cut
#
#  1.12246 = 2^(1/6) is the minimum of the potential


pair_style      lj/cut 1.12246152962189
#pair_style      lj/cut 3

#
#  pair_modify shift yes adds a constant to the potential such

#  that E(r_cut)=0. Forces remains unchanged.
#

pair_modify     shift yes

#
#  pair_coeff for lj/cut, specify 4:
#    * atom type interacting with
#    * atom type
#    * epsilon (energy units)
#    * sigma (distance units)
#

pair_coeff      1 1 1.0 1.0
###################################################################

###################################################################
# Pair interaction between non-bonded atoms
#
#  soft potential, for PUSHING apart overlapping atoms
#  potential E=A*(1 + cos(pi*r/r_c))
#
#  1.12246 = 2^(1/6) is the cut-off r_c

#pair_style     soft 1.12246152962189

#
#  pair_coeff for soft, specify 3:
#    * atom type interacting with
#    * atom type
#    * A
#
#

#pair_coeff      1 1 100.0
###################################################################

###################################################################
# Pair interaction between bonded atoms
#
# Fene potential + Lennard Jones 12-6:

#
#  E= - 0.5 K R0^2 ln[ 1- (r/R0)^2]
#     + 4epsilon[ (sigma/r)^12 - (sigma/r)^6] + epsilon
#

bond_style   fene


#
# For style fene, specify:
#   * bond type
#   * K (energy/distance^2)
#   * R0 (distance)
#   * epsilon (energy)  (LJ component)
#   * sigma (distance)  (LJ component)
#


special_bonds fene #<=== I M P O R T A N T (new command)
Finding 1-2 1-3 1-4 neighbors ...
  special bond factors lj:    0        1        1       
  special bond factors coul:  0        1        1       
     4 = max # of 1-2 neighbors
    12 = max # of special neighbors
  special bonds CPU = 0.000 seconds

bond_coeff   1   30   2   1.0   1.0


###################################################

###################################################################
# Pair interaction between bonded atoms
#
# Harmonic potential:
#
#  E= K * (R-R0)^2
#

#bond_style   harmonic

#
# For style harmonic, specify:
#   * bond type
#   * K (energy/distance^2)
#   * R0 (distance)
#

#bond_coeff   1   60.0   1.0
#bond_coeff   2   harmonic 0.1   1.0

###################################################
compute 1 all gyration
variable rog equal c_1
#compute 2 all coord/atom cutoff 1.1

#dump 2 all custom 10000 contact_number.dump id c_2


###
# Set up fixes
###
thermo_style   custom   step  temp enthalpy c_1
fix 1 all nve   ###NVE ensemble

fix 2 all   langevin   1.0 1.0 1.0  100103   ###Langevin integrator Tstart Tstop 1/friction rndseed


##### Sample thermodynamic info  (temperature, energy, pressure, etc.) #####
thermo 1000









############################################################################

###
# set timestep of integrator

timestep 0.01

###
# run integration for a number of steps
###
#run 0
#variable r equal c_1
#if "$r < 63.1" then "quit 1"

# lj potential minimum, cause molecule to explore
run 100000
Generated 0 of 0 mixed pair_coeff terms from geometric mixing rule
Neighbor list info ...
  update: every = 1 steps, delay = 1 steps, check = yes
  max neighbors/atom: 2000, page size: 100000
  master list distance cutoff = 5.1224615
  ghost atom cutoff = 5.1224615
  binsize = 2.5612308, bins = 781 781 781
  1 neighbor lists, perpetual/occasional/extra = 1 0 0
  (1) pair lj/cut, perpetual
      attributes: half, newton on
      pair build: half/bin/newton
      stencil: half/bin/3d
      bin: standard
WARNING: Communication cutoff 5.12246152962189 is shorter than a bond length based estimate of 5.455. This may lead to errors. (src/comm.cpp:723)
Per MPI rank memory allocation (min/avg/max) = 1861 | 1861 | 1861 Mbytes
   Step          Temp         Enthalpy         c_1      
         0   0              13.192671      157.58589    
      1000   1.0046661      17.456215      156.98584    
      2000   0.94250669     17.676657      156.41673    
      3000   0.9805081      18.031865      155.82909    
      4000   1.0005032      17.901438      155.20503    
      5000   0.96214835     17.804971      154.76734    
      6000   1.0012926      18.282959      154.36105    
      7000   1.0081706      18.070675      154.1672     
      8000   1.0234509      17.74872       153.79998    
      9000   1.0163034      18.565416      153.04023    
     10000   1.001467       18.510556      152.49391    
     11000   0.9575255      18.313944      152.2594     
     12000   1.0064091      18.518381      152.0081     
     13000   1.050445       18.591679      151.42852    
     14000   1.0257157      18.360678      151.10886    
     15000   1.0089318      18.542285      150.76687    
     16000   1.0161325      18.694235      150.56231    
     17000   0.99565004     18.993996      150.35909    
     18000   1.0003674      18.449909      150.11902    
     19000   1.026274       18.662902      149.91565    
     20000   1.0172386      19.016437      149.77947    
     21000   0.9722154      18.462936      149.46018    
     22000   1.0494994      19.121786      148.81113    
     23000   0.95897457     18.720442      148.61634    
     24000   0.9968789      18.386998      148.28189    
     25000   1.0034689      19.056514      147.95891    
     26000   1.0367907      18.803416      147.83063    
     27000   1.0135819      19.038181      147.49429    
     28000   1.0309728      19.047994      147.1426     
     29000   1.0235521      18.618709      146.95118    
     30000   1.0312602      18.760637      146.73785    
     31000   0.97926241     18.4144        146.55366    
     32000   0.99458636     18.680631      146.33569    
     33000   1.0120288      19.216522      146.09167    
     34000   1.0121619      19.313374      145.74252    
     35000   0.99497763     18.899159      145.42607    
     36000   1.0369202      19.158064      145.18717    
     37000   1.0338797      19.20981       145.12793    
     38000   0.99562392     18.899712      144.661      
     39000   1.0955323      19.281979      144.39065    
     40000   1.01096        19.328254      144.08499    
     41000   1.0577472      19.179983      143.94516    
     42000   1.0355359      19.135147      143.68708    
     43000   1.0251783      19.626793      143.39806    
     44000   1.0071898      19.506261      143.18732    
     45000   1.0340673      19.251878      143.08597    
     46000   1.0131148      19.266015      142.80441    
     47000   0.97638137     19.498447      142.49374    
     48000   1.0079818      19.493997      142.32695    
     49000   1.0139501      19.337819      142.00777    
     50000   1.030618       19.583633      141.97845    
     51000   1.0082489      19.04316       141.71337    
     52000   0.99491949     19.507136      141.53833    
     53000   0.99993071     19.338244      141.22063    
     54000   0.98673756     19.422484      140.67666    
     55000   1.0228153      19.682315      140.34183    
     56000   1.037318       19.829958      140.28197    
     57000   0.98771186     19.425228      140.38483    
     58000   1.0121518      19.357632      140.30349    
     59000   0.99001816     19.530098      139.92763    
     60000   1.0136496      19.787874      139.66571    
     61000   0.99339039     19.493435      139.47335    
     62000   0.98650657     19.376898      139.12557    
     63000   1.0311776      19.593822      139.01601    
     64000   1.0259677      19.379252      138.77819    
     65000   0.98189975     19.279888      138.53371    
     66000   1.0147525      19.903739      138.53187    
     67000   0.97436546     19.314848      138.27272    
     68000   1.0144612      19.558754      138.17568    
     69000   0.97466684     19.436881      138.04316    
     70000   1.0108264      20.003767      137.88314    
     71000   0.98724609     19.901799      137.72107    
     72000   1.0152194      19.708887      137.44295    
     73000   0.96290732     19.666444      137.09871    
     74000   0.97632746     19.609647      136.82575    
     75000   0.98980124     19.470802      136.61083    
     76000   0.99144208     19.978936      136.33576    
     77000   1.009416       19.446699      136.33683    
     78000   0.98790759     19.184045      136.22579    
     79000   1.0389373      19.617213      136.1915     
     80000   0.98116021     19.936015      135.89568    
     81000   1.0099608      19.629751      135.63711    
     82000   1.0417403      19.71264       135.36811    
     83000   1.009588       19.363064      135.28646    
     84000   0.97410684     19.590046      135.03023    
     85000   1.0324171      19.508143      134.86247    
     86000   0.979775       19.751582      134.63522    
     87000   1.0114209      19.147391      134.6338     
     88000   0.97026453     19.320845      134.41436    
     89000   1.0207738      19.817964      134.22847    
     90000   1.0218099      19.779959      134.05695    
     91000   0.96344939     19.299042      133.89487    
     92000   1.0371868      19.661261      133.63236    
     93000   0.9924987      19.343931      133.48548    
     94000   0.98248693     19.580884      133.35286    
     95000   1.0130822      19.706152      133.12389    
     96000   1.031162       19.770036      132.7811     
     97000   1.0197435      19.396897      132.5939     
     98000   0.98341612     19.385986      132.4701     
     99000   0.99554661     19.91189       132.26947    
    100000   1.0192429      19.621948      132.23249    
Loop time of 216.493 on 1 procs for 100000 steps with 1201 atoms

Performance: 399089.942 tau/day, 461.910 timesteps/s
100.0% CPU use with 1 MPI tasks x 1 OpenMP threads

MPI task timing breakdown:
Section |  min time  |  avg time  |  max time  |%varavg| %total
---------------------------------------------------------------
Pair    | 1.864      | 1.864      | 1.864      |   0.0 |  0.86
Bond    | 4.4598     | 4.4598     | 4.4598     |   0.0 |  2.06
Neigh   | 204.68     | 204.68     | 204.68     |   0.0 | 94.54
Comm    | 0.031999   | 0.031999   | 0.031999   |   0.0 |  0.01
Output  | 0.25773    | 0.25773    | 0.25773    |   0.0 |  0.12
Modify  | 4.8802     | 4.8802     | 4.8802     |   0.0 |  2.25
Other   |            | 0.3236     |            |       |  0.15

Nlocal:           1201 ave        1201 max        1201 min
Histogram: 1 0 0 0 0 0 0 0 0 0
Nghost:              0 ave           0 max           0 min
Histogram: 1 0 0 0 0 0 0 0 0 0
Neighs:           6537 ave        6537 max        6537 min
Histogram: 1 0 0 0 0 0 0 0 0 0

Total # of neighbors = 6537
Ave neighs/atom = 5.4429642
Ave special neighs/atom = 1.9983347
Neighbor list builds = 1115
Dangerous builds = 0

# Replace lj potential, now collapse
pair_style      lj/cut 3

# Cutoff simul when gyration under 5
# Variable created with equal requires v_ + 'name'
fix 3 all halt 1000 v_rog < 5

run 5000000
Generated 0 of 0 mixed pair_coeff terms from geometric mixing rule
Per MPI rank memory allocation (min/avg/max) = 1861 | 1861 | 1861 Mbytes
   Step          Temp         Enthalpy         c_1      
    100000   1.0192429      19.061581      132.23249    
    101000   1.0185916      19.832592      132.0159     
    102000   1.0293766      19.346837      131.66426    
    103000   1.0184097      19.084921      131.34597    
    104000   1.0333191      18.970327      131.06012    
    105000   1.0229327      19.311959      131.00512    
    106000   1.0362097      19.642463      130.8452     
    107000   0.97457778     19.469549      130.76572    
    108000   0.98885913     18.856788      130.51388    
    109000   1.0354657      19.534856      130.29362    
    110000   0.98534125     19.647254      130.17172    
    111000   1.0105107      19.316787      129.76134    
    112000   1.0042821      19.417574      129.42021    
    113000   0.98528976     18.909595      129.03672    
    114000   1.0538382      19.319395      128.8635     
    115000   0.95557214     19.127306      128.68183    
    116000   1.0447182      18.804162      128.63512    
    117000   1.0272723      19.06494       128.57883    
    118000   1.0265673      19.333973      128.20312    
    119000   1.0243246      19.153265      128.08649    
    120000   1.0399568      19.257148      128.01363    
    121000   0.97483187     19.306271      127.71297    
    122000   1.0243813      19.040723      127.66287    
    123000   1.0088395      19.15294       127.67425    
    124000   0.97049439     19.19819       127.62468    
    125000   1.0105276      19.075322      127.50321    
    126000   0.97296057     19.364347      127.4752     
    127000   0.96045395     19.100299      127.32518    
    128000   0.98539027     19.400829      126.85048    
    129000   0.97259893     19.322187      126.67992    
    130000   1.0073861      19.546143      126.49705    
    131000   1.0265747      19.059867      126.20969    
    132000   0.99686664     19.208493      126.34075    
    133000   0.99420215     19.161686      126.18307    
    134000   0.9644305      19.019047      126.06581    
    135000   0.99391888     19.259827      125.76881    
    136000   1.0336703      19.159272      125.68353    
    137000   1.0297458      18.484819      125.47701    
    138000   0.97757254     19.078498      125.17386    
    139000   0.98489576     18.968413      125.02765    
    140000   0.97861335     18.924951      124.82752    
    141000   1.0343239      18.938542      124.50716    
    142000   1.0183083      19.193779      124.42373    
    143000   1.0084103      19.133435      124.21612    
    144000   0.99309661     19.089359      124.18709    
    145000   0.98625498     19.146147      123.95696    
    146000   0.98513371     18.970114      123.85359    
    147000   1.0234816      19.265788      123.68635    
    148000   0.99854898     19.19686       123.48306    
    149000   1.0348321      19.142885      123.2745     
    150000   0.99943231     19.407253      123.09978    
    151000   1.0219583      19.173629      122.97403    
    152000   0.99845513     19.057302      122.73589    
    153000   0.99827706     18.99809       122.5687     
    154000   1.0205011      19.14665       122.45499    
    155000   0.96197878     18.746596      122.38271    
    156000   0.97391739     19.246087      122.24293    
    157000   0.98099016     18.817869      122.06049    
    158000   0.96494402     19.126156      121.82097    
    159000   0.98741411     18.994847      121.39203    
    160000   1.0071449      18.661391      121.29683    
    161000   0.9886586      18.838743      121.06984    
    162000   0.9939186      18.812904      120.94596    
    163000   0.98028532     19.375298      120.95576    
    164000   1.0193687      19.214538      120.96112    
    165000   1.000634       19.09638       120.8596     
    166000   1.0396792      19.392762      120.61034    
    167000   1.0423435      19.54172       120.42088    
    168000   0.96803741     18.746173      120.34287    
    169000   0.97176121     18.929091      120.24482    
    170000   1.0348788      19.281957      119.98376    
    171000   0.99542448     18.770206      119.81025    
    172000   0.98259621     18.820201      119.71704    
    173000   0.99569033     19.009625      119.23756    
    174000   1.0084598      19.155442      119.11062    
    175000   1.0137701      18.821396      118.99642    
    176000   0.99452399     19.418764      118.71957    
    177000   1.0285278      18.933371      118.39845    
    178000   1.0042818      19.165319      118.19563    
    179000   0.98883515     19.29866       118.10573    
    180000   1.0239168      19.163287      117.87546    
    181000   1.021856       18.717444      117.53224    
    182000   1.0140876      18.646376      117.38652    
    183000   1.0154643      19.11581       117.23311    
    184000   1.0039712      18.777358      117.13905    
    185000   0.98842811     19.187787      117.05786    
    186000   1.0239692      19.201034      116.79095    
    187000   1.0348261      18.970488      116.61036    
    188000   0.99737502     19.215596      116.23476    
    189000   1.0057486      18.765747      115.87186    
    190000   1.0022314      19.68062       115.69693    
    191000   0.99570411     18.977064      115.45332    
    192000   1.0184761      19.597865      115.14022    
    193000   0.98986568     19.287439      114.83978    
    194000   0.96299862     19.361116      114.77709    
    195000   0.99602495     19.380309      114.67329    
    196000   1.0327705      19.070472      114.54432    
    197000   0.99220656     19.6402        114.51311    
    198000   1.005243       18.834417      114.34365    
    199000   1.0403252      19.140244      114.33869    
    200000   1.040247       19.177464      114.27695    
    201000   0.99000871     19.231406      114.3259     
    202000   0.98686395     19.550062      114.10159    
    203000   1.0238584      18.923107      114.16052    
    204000   1.0192649      19.247133      114.02786    
    205000   0.96610446     18.955191      113.93492    
    206000   1.0013971      18.851529      113.91809    
    207000   1.0152974      19.423336      113.953      
    208000   1.0348466      19.339431      113.82339    
    209000   1.0054514      19.182311      113.49489    
    210000   0.99717803     19.121766      113.31623    
    211000   1.0318128      19.129081      113.24373    
    212000   0.97286594     19.182222      113.08284    
    213000   0.97321211     19.13779       112.85915    
    214000   0.9984633      19.097748      112.6564     
    215000   0.99172309     19.038733      112.28481    
    216000   1.0026592      18.574832      111.81951    
    217000   0.97905551     19.357944      111.74538    
    218000   1.002735       19.380284      111.73407    
    219000   0.9794942      19.131494      111.58218    
    220000   1.0476215      19.553336      111.34765    
    221000   1.0151644      18.799251      111.12266    
    222000   0.96222814     18.429635      110.95224    
    223000   1.0284666      18.791653      111.03459    
    224000   0.99845342     19.283929      110.8692     
    225000   1.0104724      19.415308      110.73717    
    226000   1.0057847      18.977658      110.51323    
    227000   1.0210102      18.874443      110.49016    
    228000   0.99406035     19.185891      110.36424    
    229000   0.97072012     19.285197      110.16435    
    230000   0.99990124     18.701795      109.95399    
    231000   1.0104822      18.788074      109.8199     
    232000   0.98527215     19.296993      109.7558     
    233000   0.99915413     19.069115      109.51825    
    234000   0.93885058     18.975577      109.55115    
    235000   0.98111575     19.100494      109.40492    
    236000   1.0354772      19.203162      109.2131     
    237000   0.97162624     18.847506      108.96552    
    238000   0.99792177     18.999186      108.85222    
    239000   1.0098208      18.793189      108.96322    
    240000   1.0504969      19.161344      108.81323    
    241000   0.97792318     18.804111      108.82352    
    242000   1.0125517      19.149457      108.54774    
    243000   1.0203496      18.689233      108.17428    
    244000   0.96372349     18.654309      108.24848    
    245000   1.0313893      18.757279      108.02965    
    246000   0.99949768     18.831762      107.85137    
    247000   1.0370458      18.756096      107.79067    
    248000   0.9688982      19.049727      107.91425    
    249000   0.98788819     18.789891      107.80268    
    250000   1.0229099      18.809146      107.65366    
    251000   0.98707303     18.699223      107.52847    
    252000   0.97128499     18.979917      107.32564    
    253000   0.99168172     18.75436       106.96845    
    254000   0.98142819     18.90784       106.69217    
    255000   1.0526847      18.628075      106.56746    
    256000   1.0309703      19.065982      106.38794    
    257000   1.01727        18.724282      106.20801    
    258000   1.0485428      18.966598      105.94971    
    259000   1.0400689      19.020531      106.041      
    260000   1.0178593      18.780967      105.88895    
    261000   0.99701823     18.922551      105.79705    
    262000   1.0015454      19.089781      105.6431     
    263000   1.0022864      18.730323      105.71429    
    264000   0.98643709     18.854397      105.52644    
    265000   1.0121392      18.818534      105.22502    
    266000   0.97628969     19.00278       105.00073    
    267000   0.97592319     19.079084      104.75161    
    268000   1.0353678      19.427583      104.44944    
    269000   1.0199738      19.260874      104.21167    
    270000   0.98585595     18.722541      103.9906     
    271000   1.0068163      18.987549      104.08419    
    272000   0.96950059     18.848125      103.98749    
    273000   1.0104505      18.377224      103.66763    
    274000   0.96495417     18.716657      103.27508    
    275000   0.99242651     18.92352       103.07375    
    276000   0.99254041     18.286286      103.04526    
    277000   0.97136444     18.88437       102.95777    
    278000   0.99222208     18.594098      102.66606    
    279000   1.0499724      19.176921      102.31066    
    280000   0.96658484     19.080923      102.03268    
    281000   0.99182421     18.498796      101.98323    
    282000   1.00841        18.688549      101.68692    
    283000   1.012488       18.879346      101.51051    
    284000   1.0051956      18.771715      101.44198    
    285000   0.98780726     18.411501      101.08481    
    286000   1.0090524      18.757301      101.00966    
    287000   0.96800374     19.165721      100.78715    
    288000   0.99414903     18.810623      100.72653    
    289000   1.0133058      19.115995      100.66225    
    290000   0.96278455     18.495888      100.6943     
    291000   0.98551092     18.594754      100.57719    
    292000   1.0183867      18.737644      100.41606    
    293000   0.98754337     18.606926      100.37381    
    294000   1.0338025      18.764307      100.44754    
    295000   0.99413823     18.82268       100.44052    
    296000   0.98604101     19.426907      100.33105    
    297000   1.0013936      19.054354      100.24662    
    298000   1.0293108      19.01016       100.20945    
    299000   1.008125       19.249652      100.1058     
    300000   0.9779894      18.448636      99.922621    
    301000   0.9896813      18.836585      99.682187    
    302000   0.97821591     18.815792      99.616051    
    303000   1.0054817      18.581749      99.297883    
    304000   0.98620832     18.24262       99.153797    
    305000   0.98287078     18.658172      99.057939    
    306000   1.0240543      18.961531      98.948817    
    307000   1.0225064      18.689539      99.032373    
    308000   1.0185884      19.11786       99.105081    
    309000   1.0300107      18.659044      98.837524    
    310000   1.0151494      19.091222      98.697546    
    311000   0.99194915     18.799543      98.553324    
    312000   0.98572305     18.700368      98.513411    
    313000   0.98323604     18.548742      98.344191    
    314000   1.0208749      19.027811      98.172722    
    315000   1.0081149      18.799234      97.934096    
    316000   1.0026914      18.687569      97.684358    
    317000   1.0103         18.841263      97.475134    
    318000   0.98547416     18.534907      97.254884    
    319000   1.0076377      18.978343      97.294806    
    320000   0.98816181     19.035492      97.249665    
    321000   0.98039128     18.857215      96.970916    
    322000   0.97057395     18.113211      96.77115     
    323000   1.0286275      18.20958       96.599375    
    324000   1.0556286      19.219997      96.474699    
    325000   1.0177821      18.718724      96.404379    
    326000   0.99423965     18.577415      96.397278    
    327000   1.0139734      19.138617      96.23389     
    328000   0.97844483     18.410196      96.184855    
    329000   1.0047159      18.727504      95.741786    
    330000   0.98930613     19.101773      95.474789    
    331000   0.95585284     18.813357      95.454415    
    332000   1.0016012      18.631372      94.971415    
    333000   1.0254314      19.215461      94.794838    
    334000   0.99154137     19.044019      94.595119    
    335000   1.0201233      18.739711      94.590799    
    336000   1.0101504      18.661552      94.390301    
    337000   1.0185474      18.979358      94.077035    
    338000   1.0137         18.984916      93.863931    
    339000   0.9905299      18.599376      93.550826    
    340000   0.97368685     18.706321      93.600235    
    341000   0.98313291     18.627886      93.559902    
    342000   0.99525957     18.648533      93.382529    
    343000   1.0150959      19.084854      93.432484    
    344000   0.99578569     18.602648      93.281497    
    345000   1.0194717      18.704586      93.203855    
    346000   1.0177955      18.643563      93.121936    
    347000   0.99413258     18.940265      92.921602    
    348000   1.0447475      18.643034      92.732568    
    349000   1.0271741      18.371186      92.655022    
    350000   1.0191191      18.540044      92.882206    
    351000   0.99050867     18.65401       92.726948    
    352000   0.99261998     18.483382      92.660714    
    353000   0.97075207     18.810302      92.519395    
    354000   1.0099935      18.072704      92.42598     
    355000   1.0379957      18.304502      92.262338    
    356000   1.0065575      18.825787      92.124156    
    357000   0.97574988     18.899213      91.983887    
    358000   0.97770292     18.843263      91.831828    
    359000   0.96853535     18.123811      91.494812    
    360000   1.0193019      18.9749        91.318292    
    361000   0.97335609     18.613953      91.142028    
    362000   0.9719656      19.056812      91.050087    
    363000   0.98480127     18.659051      90.906058    
    364000   1.0333854      18.757288      90.705006    
    365000   0.9684515      19.027577      90.843395    
    366000   0.99513548     18.319221      90.744933    
    367000   1.0186935      18.725291      90.689622    
    368000   1.0025481      18.792767      90.415552    
    369000   1.006807       18.505147      90.037007    
    370000   1.0057606      18.915128      90.092383    
    371000   0.97814393     18.147531      90.031504    
    372000   1.014984       18.72546       90.084307    
    373000   0.99297636     18.794811      89.778129    
    374000   1.0163315      18.684443      89.690645    
    375000   1.0068091      18.612339      89.519006    
    376000   0.99872924     18.353813      89.428134    
    377000   0.99424752     18.592919      88.97543     
    378000   0.97235013     18.354886      88.761114    
    379000   1.0051369      18.822869      88.47581     
    380000   0.98322732     18.683366      88.285106    
    381000   1.0157539      18.796274      88.148257    
    382000   0.99363673     18.496621      88.040211    
    383000   1.0223775      18.436203      87.966982    
    384000   0.96614216     18.320818      87.730539    
    385000   1.0100728      18.08145       87.385795    
    386000   1.0024106      18.578487      87.331505    
    387000   1.0048857      18.549358      87.011332    
    388000   0.99654926     18.203065      86.722467    
    389000   1.0139963      18.712682      86.719113    
    390000   1.0050324      18.725594      86.585988    
    391000   0.9959274      18.241781      86.502834    
    392000   1.0089134      18.741984      86.35387     
    393000   0.99648568     18.479225      86.264764    
    394000   1.0541097      18.490968      86.17715     
    395000   1.0402342      18.874438      86.161691    
    396000   1.0190311      18.284659      85.828098    
    397000   0.99187323     18.378358      85.69135     
    398000   0.98945046     18.450508      85.808424    
    399000   1.0169472      18.506633      85.712386    
    400000   0.99470273     18.70862       85.866398    
    401000   1.0162013      18.671114      85.622216    
    402000   1.0079112      18.433986      85.355488    
    403000   1.0016885      18.308116      85.18819     
    404000   0.99057081     18.234265      85.106878    
    405000   0.99909705     18.740313      84.914705    
    406000   1.0270704      18.252371      84.890362    
    407000   1.0082831      18.558726      84.745851    
    408000   1.0204146      18.40638       84.784816    
    409000   0.97081388     18.185279      84.489677    
    410000   0.99522622     18.020601      84.358438    
    411000   0.99370983     18.295657      84.379852    
    412000   1.0259897      18.328697      84.375671    
    413000   1.0241169      18.766318      84.15296     
    414000   1.0441454      18.619182      83.750067    
    415000   0.99771881     18.540436      83.706239    
    416000   0.99174591     18.749832      83.477492    
    417000   0.98678401     18.0609        83.185183    
    418000   1.0049308      17.907361      82.94942     
    419000   0.96433539     18.295253      82.741679    
    420000   0.99529193     18.268819      82.42952     
    421000   0.98652178     18.086711      82.257601    
    422000   1.0298372      18.316681      82.048709    
    423000   1.0378711      18.682569      81.81101     
    424000   0.98752409     18.005013      81.566914    
    425000   0.99081921     18.406173      81.580941    
    426000   0.97351727     18.120709      81.537551    
    427000   0.98926877     18.146291      81.562852    
    428000   0.99360539     18.432612      81.241941    
    429000   0.98313259     18.27007       81.074235    
    430000   0.95103332     18.283008      81.056263    
    431000   0.99030378     18.420526      80.800812    
    432000   0.99917601     18.736479      80.626663    
    433000   0.98999667     18.755964      80.6344      
    434000   0.96865907     18.302272      80.328441    
    435000   0.98712204     18.115139      80.054108    
    436000   1.0030578      18.783762      79.865619    
    437000   1.0086069      18.43119       79.577557    
    438000   1.0115133      18.162384      79.32306     
    439000   1.0176695      18.266461      79.357729    
    440000   1.0029736      18.729761      79.211454    
    441000   1.0006081      18.788082      79.114586    
    442000   1.0485857      19.240762      78.890021    
    443000   0.99369987     17.799695      78.818257    
    444000   0.95760297     18.202411      78.688793    
    445000   0.99720238     18.521855      78.632754    
    446000   1.0084828      18.318224      78.577909    
    447000   0.99504754     18.276214      78.664951    
    448000   1.0340432      18.687302      78.451457    
    449000   1.018362       18.163458      78.42182     
    450000   0.95204118     18.296163      78.359542    
    451000   1.0217723      18.113727      78.441189    
    452000   0.99045434     18.431282      78.094508    
    453000   1.0060693      18.39822       78.104949    
    454000   1.0339491      18.175984      78.023445    
    455000   1.0065372      18.484382      78.096476    
    456000   0.95268845     18.287092      78.006249    
    457000   0.98615989     18.542942      77.917852    
    458000   1.0095458      18.283014      78.005777    
    459000   0.99143242     18.151365      77.844877    
    460000   0.9989251      18.457633      77.836439    
    461000   1.0229096      18.225613      77.456392    
    462000   1.0229566      17.992683      77.395247    
    463000   0.99841622     18.567873      77.288506    
    464000   0.99951899     18.523833      77.486177    
    465000   0.97399749     18.652792      77.507835    
    466000   1.0626656      18.570724      77.331395    
    467000   0.98612026     17.950678      77.303308    
    468000   0.97610393     18.680375      77.048727    
    469000   1.0223289      18.722822      76.916631    
    470000   0.98393844     18.310621      77.049484    
    471000   1.0333655      18.076783      76.93934     
    472000   1.0096281      18.132285      76.889242    
    473000   0.99707367     18.548793      76.64249     
    474000   1.009412       18.323069      76.542085    
    475000   1.0012247      17.72135       76.419436    
    476000   0.97597382     17.919587      76.150529    
    477000   1.0000134      18.589514      76.11743     
    478000   1.0091574      17.964078      76.006373    
    479000   1.0009837      18.169469      75.80432     
    480000   1.0230386      17.971354      75.560896    
    481000   1.00112        18.514584      75.280806    
    482000   0.98079015     18.294429      75.284243    
    483000   1.01134        18.455221      75.340916    
    484000   0.98836598     18.209249      75.19575     
    485000   0.97771932     18.709316      74.944297    
    486000   1.0044624      18.429017      74.93068     
    487000   0.97566406     18.32748       74.831546    
    488000   1.0097289      18.026788      74.761575    
    489000   0.99104225     18.24098       74.514969    
    490000   1.0230814      18.193129      74.4114      
    491000   1.0269626      18.595677      74.276766    
    492000   0.99940523     18.326176      74.155866    
    493000   1.0167978      18.23627       73.892247    
    494000   1.0292412      17.594876      73.649132    
    495000   1.0001407      18.004335      73.549771    
    496000   0.95287833     18.081325      73.605031    
    497000   0.95121191     18.007792      73.392418    
    498000   0.98698625     18.111231      73.295657    
    499000   0.96843299     18.476999      73.129422    
    500000   0.98660475     18.623946      72.930546    
    501000   0.97801994     18.05704       72.734435    
    502000   1.0142756      18.348689      72.643065    
    503000   1.0336817      18.63401       72.804659    
    504000   0.9825417      18.06329       72.712979    
    505000   1.0332841      18.646482      72.41197     
    506000   1.0111143      18.241963      72.204228    
    507000   1.0139047      18.504388      72.129519    
    508000   1.006643       18.223304      71.96998     
    509000   1.0114883      18.321106      72.047502    
    510000   0.99116579     18.278866      71.777221    
    511000   1.031148       18.484408      71.626119    
    512000   0.99523442     18.478143      71.425883    
    513000   1.0352258      18.355957      71.309113    
    514000   0.97484368     18.449896      71.234973    
    515000   0.99608833     18.609558      71.009196    
    516000   0.98330856     18.523469      70.920505    
    517000   0.98336131     18.600884      70.866253    
    518000   1.0106083      18.230213      70.597338    
    519000   0.99463808     18.054646      70.705888    
    520000   0.99018327     18.885307      70.593158    
    521000   0.97191282     17.788816      70.428989    
    522000   0.9942248      18.360699      70.250335    
    523000   0.99553722     18.244657      70.066213    
    524000   1.0174559      18.562404      70.001066    
    525000   1.0085136      18.017142      69.724207    
    526000   0.96364952     17.938134      69.469377    
    527000   1.0406414      18.083192      69.204262    
    528000   1.0227257      18.010968      69.207885    
    529000   0.96491343     17.781381      69.077368    
    530000   0.95791849     18.098383      68.846932    
    531000   1.0282594      18.114291      68.541002    
    532000   0.98672007     18.395545      68.357477    
    533000   1.0168797      18.689778      68.304842    
    534000   0.99562408     18.319216      68.209656    
    535000   1.0024122      17.849366      68.052867    
    536000   0.9796922      18.658371      67.926004    
    537000   1.0096366      18.301972      67.630203    
    538000   0.98226598     17.798866      67.550176    
    539000   0.9869895      18.015757      67.633319    
    540000   1.0022074      18.125022      67.154868    
    541000   1.0334236      18.236059      66.90022     
    542000   1.037752       18.585725      66.770731    
    543000   0.99214601     18.390747      66.837802    
    544000   1.0392964      18.704893      66.671819    
    545000   0.97627514     18.058362      66.4927      
    546000   0.99089396     18.329662      66.53238     
    547000   0.99975111     18.250963      66.446125    
    548000   0.98029005     18.037899      66.306479    
    549000   0.99488729     18.220708      66.442701    
    550000   0.98946735     17.849245      66.463691    
    551000   1.0282338      17.946687      66.565374    
    552000   0.9772619      17.817829      66.624762    
    553000   1.0249429      18.603228      66.675777    
    554000   0.98143173     18.220297      66.486679    
    555000   1.0089877      18.143892      66.52352     
    556000   1.0232784      18.532539      66.360029    
    557000   0.98327565     18.076835      66.238245    
    558000   1.0191084      18.097273      65.995446    
    559000   0.99558456     18.262578      65.754742    
    560000   0.98955598     18.608921      65.538035    
    561000   1.0168063      17.97985       65.244582    
    562000   1.0013276      18.097964      65.185743    
    563000   0.95062651     17.688905      65.013581    
    564000   0.95905098     17.682049      64.949204    
    565000   0.99822841     17.947982      64.954364    
    566000   1.0014444      18.292575      64.915165    
    567000   1.0270804      17.813926      64.783036    
    568000   0.97611411     17.924189      64.68896     
    569000   1.0099011      17.80583       64.653648    
    570000   0.98054311     18.06961       64.702287    
    571000   1.0007625      18.514465      64.561752    
    572000   0.96336992     17.836564      64.506952    
    573000   0.98989161     18.088246      64.435431    
    574000   1.0051955      18.050465      64.34454     
    575000   1.0204056      18.177711      64.06094     
    576000   0.98503673     17.947163      63.904013    
    577000   1.0165298      18.583281      63.654092    
    578000   0.99306214     18.189527      63.512204    
    579000   0.99204482     18.265191      63.507949    
    580000   1.0097755      17.916019      63.437973    
    581000   0.99865699     18.152039      63.472976    
    582000   0.97079235     18.420243      63.422989    
    583000   0.95843371     18.321648      63.28787     
    584000   1.0595667      18.410043      63.335361    
    585000   1.0244955      17.872956      63.192331    
    586000   0.93494045     17.168597      63.231542    
    587000   1.017745       18.517487      62.983146    
    588000   1.009535       17.794266      63.050218    
    589000   1.0095117      18.593252      63.061783    
    590000   0.96378367     18.233923      62.929419    
    591000   0.97966725     17.820692      62.734303    
    592000   1.0299772      18.679569      62.607675    
    593000   1.0015435      18.193661      62.462585    
    594000   1.0351217      18.150255      62.26081     
    595000   0.98562031     17.846167      62.290492    
    596000   1.0196136      17.831776      62.428254    
    597000   0.95548291     17.79851       62.477527    
    598000   0.98176087     17.292899      62.48247     
    599000   1.019693       18.011399      62.331579    
    600000   1.0184005      18.304891      62.152608    
    601000   1.0212962      18.559345      62.050547    
    602000   1.0128585      18.106421      61.86831     
    603000   1.0403306      18.012557      61.564825    
    604000   1.0058587      18.340075      61.83437     
    605000   0.96777864     17.630158      61.806464    
    606000   1.0154821      18.517566      61.538297    
    607000   0.98937302     17.687206      61.338347    
    608000   0.99697141     18.043127      61.319986    
    609000   0.93757066     17.932383      61.238071    
    610000   0.99742571     17.494862      61.069955    
    611000   0.99578112     18.245284      60.822416    
    612000   1.0536995      18.304932      60.77904     
    613000   0.98860499     17.459086      60.647324    
    614000   0.99056235     18.152618      60.540943    
    615000   0.96154671     17.628495      60.331989    
    616000   0.99408559     17.457073      60.060869    
    617000   0.97936692     18.090381      60.161336    
    618000   0.99075927     18.351573      59.967785    
    619000   0.99121833     17.898866      59.811426    
    620000   1.0048664      18.23633       59.555838    
    621000   1.0126087      18.13078       59.211436    
    622000   0.990073       18.25288       59.151943    
    623000   1.022241       17.727854      59.169533    
    624000   0.98805177     17.733063      59.132427    
    625000   0.99070092     17.990679      59.077652    
    626000   1.0007652      17.903634      58.886626    
    627000   0.97479221     17.882404      58.73168     
    628000   1.016623       17.651026      58.589677    
    629000   0.99925301     17.936993      58.465822    
    630000   0.97618573     17.876559      58.152418    
    631000   0.97894847     17.528214      58.120319    
    632000   0.98218666     17.1672        57.843222    
    633000   0.99060841     17.51795       57.646735    
    634000   1.0024751      18.169172      57.760787    
    635000   0.98601556     17.958546      57.825484    
    636000   1.019512       17.707593      57.68711     
    637000   1.0036316      18.150088      57.560263    
    638000   1.0123029      18.229494      57.469654    
    639000   0.99932706     18.098664      57.159361    
    640000   1.0474143      18.092461      57.139287    
    641000   1.029427       18.022898      56.929554    
    642000   0.97261868     18.621616      56.843522    
    643000   1.0117795      17.458357      56.748844    
    644000   1.0276582      18.099776      56.616335    
    645000   1.0146354      17.977499      56.577676    
    646000   0.98987865     18.139636      56.360154    
    647000   1.0421124      18.152648      56.285542    
    648000   1.0113946      18.075354      56.224238    
    649000   0.97832446     17.793599      56.06728     
    650000   0.99701045     18.162376      55.789392    
    651000   0.99797893     17.798334      55.808766    
    652000   0.99448097     18.062313      55.679007    
    653000   1.0251248      18.115188      55.628572    
    654000   0.99386681     17.657687      55.345468    
    655000   1.0273683      18.160996      55.459023    
    656000   1.0252338      18.08589       55.191947    
    657000   1.0273311      17.778604      55.250613    
    658000   0.98252644     18.564655      55.294469    
    659000   0.96546307     17.826782      55.297136    
    660000   1.0190408      17.855088      55.164995    
    661000   1.0145826      17.909253      55.117253    
    662000   0.96975497     17.626312      54.872249    
    663000   1.0166826      17.712068      54.894683    
    664000   1.014925       17.936378      54.919457    
    665000   0.9999206      18.144366      54.82999     
    666000   0.97126182     17.872999      54.57809     
    667000   1.0124614      18.409278      54.593652    
    668000   1.0047779      17.489479      54.625043    
    669000   1.0187427      18.402803      54.651744    
    670000   1.0201473      17.968029      54.412784    
    671000   0.99474592     17.731319      54.354899    
    672000   1.0060061      18.08497       53.890961    
    673000   0.99421908     17.81623       53.641921    
    674000   1.0042361      18.656095      53.627329    
    675000   1.0137082      17.95769       53.405992    
    676000   1.0033679      18.021674      53.44054     
    677000   1.0334973      18.157609      53.122679    
    678000   1.0046391      18.326938      53.020238    
    679000   0.97086375     17.715128      52.789055    
    680000   0.94534135     18.091163      52.627074    
    681000   0.99508213     18.270422      52.419349    
    682000   0.9728931      18.095815      52.278658    
    683000   1.0207842      17.78259       52.168298    
    684000   1.0036728      18.041271      52.133778    
    685000   1.0070923      17.762077      52.191862    
    686000   1.0109079      17.98353       52.267623    
    687000   0.97798783     17.558894      52.31361     
    688000   1.0027809      17.448482      52.122613    
    689000   1.0067104      18.10518       52.104746    
    690000   0.95418246     18.299147      52.019153    
    691000   1.0354487      17.696434      51.974932    
    692000   0.98818071     18.025602      51.954101    
    693000   1.0087221      17.842384      51.805433    
    694000   1.0150193      17.808426      51.920973    
    695000   1.045437       17.772065      51.644089    
    696000   1.0165215      18.25808       51.671277    
    697000   0.97107786     17.729535      51.588993    
    698000   1.0493324      17.503596      51.354065    
    699000   1.0614765      18.071975      51.321664    
    700000   1.0300917      18.012602      51.234197    
    701000   0.97713873     17.875944      51.097909    
    702000   1.0381712      17.578437      51.109243    
    703000   1.0180246      17.879688      51.037033    
    704000   1.0347517      17.710118      50.971965    
    705000   1.0116568      17.990781      50.774228    
    706000   1.0125583      17.911324      50.597997    
    707000   1.0028643      18.080328      50.335452    
    708000   1.022034       17.907119      50.167613    
    709000   1.0287951      18.371387      49.857374    
    710000   0.94820169     18.233925      49.778012    
    711000   0.9799356      18.037782      49.54165     
    712000   1.0021741      18.116906      49.319081    
    713000   0.97056502     17.665839      49.305429    
    714000   0.98154516     17.81064       49.319872    
    715000   0.99398045     17.847995      49.57524     
    716000   1.0334307      18.414635      49.815719    
    717000   1.0085546      18.015931      49.843721    
    718000   1.0217299      18.039849      49.810381    
    719000   1.0002033      17.69797       49.891835    
    720000   1.0052168      17.640985      49.860107    
    721000   1.0239302      17.96694       49.837158    
    722000   1.0155414      17.425604      49.879257    
    723000   1.0215812      18.002019      50.001751    
    724000   0.9990895      18.662811      49.881497    
    725000   0.99120774     18.140122      49.797582    
    726000   1.0149612      17.587309      49.788042    
    727000   0.97844641     17.75943       49.794944    
    728000   1.0387538      18.399945      49.931752    
    729000   1.0108573      18.250511      49.557703    
    730000   0.98928394     18.19595       49.42851     
    731000   0.98684055     17.806942      49.436395    
    732000   0.99051879     17.744985      49.275248    
    733000   1.0255149      17.502719      49.174038    
    734000   0.95859974     16.817857      49.168418    
    735000   1.0065125      17.686325      48.987197    
    736000   0.95220359     17.071203      48.965701    
    737000   1.0325081      17.924299      49.037173    
    738000   0.97911529     18.071402      48.653179    
    739000   0.96895317     17.876956      48.453387    
    740000   0.99195674     17.378231      48.372507    
    741000   1.018751       17.723764      48.242847    
    742000   0.97321        17.9841        48.103789    
    743000   1.025138       17.659425      48.169065    
    744000   1.0165478      18.043224      48.031629    
    745000   0.98152208     17.203247      48.089795    
    746000   1.0190217      17.97383       47.949212    
    747000   0.9994505      17.781811      47.940249    
    748000   1.0163183      17.894813      47.662352    
    749000   1.0597589      17.074529      47.531496    
    750000   0.98571577     17.469199      47.423341    
    751000   0.9917945      17.984377      47.496293    
    752000   0.96834462     17.88348       47.326087    
    753000   0.99911092     18.480485      47.280396    
    754000   0.98062881     17.839197      47.112292    
    755000   1.0092068      17.972367      46.938467    
    756000   1.0076694      17.452568      46.918936    
    757000   1.0349362      17.917127      47.005894    
    758000   1.0055846      18.274738      46.784556    
    759000   0.98764164     18.198865      46.84021     
    760000   1.0249434      17.886552      46.792163    
    761000   1.0064589      17.664005      46.414757    
    762000   0.97727379     17.867779      46.270565    
    763000   1.0063577      17.832325      46.33245     
    764000   1.0068006      17.374113      46.024156    
    765000   0.98937836     17.846116      45.85459     
    766000   1.0383328      17.832311      45.669657    
    767000   1.0056888      17.675321      45.449622    
    768000   1.0187521      18.117625      45.24714     
    769000   1.0063706      17.74161       45.190312    
    770000   0.97136624     17.303796      44.764261    
    771000   1.0432396      18.053259      44.866711    
    772000   0.97731475     17.255784      44.920437    
    773000   0.96609015     17.795594      44.701281    
    774000   0.99553148     17.513712      44.490692    
    775000   0.98681668     17.782787      44.405397    
    776000   1.0126148      18.336357      44.392663    
    777000   1.0496058      17.686995      44.091326    
    778000   1.0030653      17.522487      43.87244     
    779000   1.0279969      17.562361      43.64912     
    780000   1.0105238      17.509924      43.352623    
    781000   0.98190312     17.47118       43.371591    
    782000   1.0112355      17.969843      43.124006    
    783000   1.0280721      17.904555      43.0967      
    784000   1.0018333      17.983195      42.980566    
    785000   0.99880426     17.664437      43.146323    
    786000   1.0001593      17.379153      42.984071    
    787000   0.98233474     17.584494      42.996578    
    788000   1.0233129      18.387753      43.078291    
    789000   1.0121662      17.710721      42.962958    
    790000   0.9962658      17.695693      42.891076    
    791000   0.96859749     17.593754      42.649154    
    792000   1.0198428      17.14431       42.465019    
    793000   1.0059346      17.956296      42.321561    
    794000   1.0147612      17.791357      42.273422    
    795000   1.02263        17.835641      42.236312    
    796000   0.96851308     17.691218      41.940104    
    797000   0.95186103     17.71429       41.753342    
    798000   0.98441758     17.571302      41.721059    
    799000   1.0058374      17.53449       41.771646    
    800000   0.99383858     17.330835      41.602409    
    801000   1.0000949      17.527536      41.659598    
    802000   0.98408304     17.373634      41.46697     
    803000   0.98762141     17.579747      41.629495    
    804000   0.96404408     17.713029      41.61241     
    805000   0.99678917     18.262857      41.507798    
    806000   1.0229387      17.098663      41.347248    
    807000   0.97715979     17.382179      41.353801    
    808000   1.0290174      18.123529      41.427272    
    809000   1.0023392      17.474         41.182805    
    810000   1.0132956      17.931177      40.973269    
    811000   1.0333741      17.551703      40.682578    
    812000   1.020835       17.35005       40.479808    
    813000   1.0099173      17.741942      40.130656    
    814000   1.0540399      17.96595       40.258001    
    815000   0.95373731     17.200496      40.113899    
    816000   1.011015       18.297239      40.014426    
    817000   0.9941818      18.070455      40.050831    
    818000   1.0281511      17.817282      40.078866    
    819000   1.008048       17.443721      39.988045    
    820000   1.0324208      17.515159      40.04177     
    821000   0.98619166     17.879137      39.891885    
    822000   1.0031964      17.478536      39.752645    
    823000   1.0137199      17.829807      39.557217    
    824000   1.0120277      17.866487      39.394496    
    825000   1.0355378      17.856169      39.340782    
    826000   0.99446575     17.451261      39.06685     
    827000   0.99674598     17.369723      38.917955    
    828000   1.0502863      18.204406      38.861131    
    829000   1.0301084      17.719139      38.73525     
    830000   1.0047957      17.602262      38.478893    
    831000   0.99452177     18.005205      38.325353    
    832000   0.98688202     17.110794      38.109551    
    833000   0.98531176     17.898658      38.046208    
    834000   0.96707938     17.55329       37.947154    
    835000   0.98529455     17.093914      37.739655    
    836000   0.99458805     18.141807      37.58974     
    837000   0.97650864     17.758812      37.458587    
    838000   1.0122764      17.448727      37.375671    
    839000   1.0132151      17.531849      37.226059    
    840000   0.99322716     17.583536      37.003401    
    841000   0.99754156     17.793552      36.881678    
    842000   1.0326205      17.258291      36.796289    
    843000   0.99760815     17.085219      36.711158    
    844000   0.99750071     17.608287      36.756107    
    845000   1.012175       17.420036      36.733657    
    846000   0.99880663     17.698871      36.943598    
    847000   0.97297972     17.519615      36.816386    
    848000   1.0066754      17.717632      36.429088    
    849000   1.0064127      17.601526      36.343159    
    850000   1.0077057      16.921891      36.228108    
    851000   1.0334169      17.487394      36.056998    
    852000   1.0140283      17.329831      35.86832     
    853000   0.97190001     17.614143      35.714564    
    854000   0.99659746     16.961434      35.641126    
    855000   0.98180859     17.270358      35.589706    
    856000   0.99000071     17.396813      35.461385    
    857000   1.0138454      17.34139       35.44027     
    858000   0.9942977      17.731834      35.382374    
    859000   0.98580011     17.467575      35.284853    
    860000   0.97628742     17.294114      35.152267    
    861000   1.0365665      17.835996      35.080709    
    862000   1.0117427      18.028287      34.887427    
    863000   0.99346424     17.42693       34.662493    
    864000   1.0072191      18.040104      34.559129    
    865000   1.0005848      17.161027      34.402299    
    866000   0.9685588      17.611033      34.220917    
    867000   1.0165781      17.444907      34.016159    
    868000   1.044464       17.479944      34.084343    
    869000   0.98539918     17.912616      33.964306    
    870000   1.0289222      17.666871      33.966445    
    871000   1.0224587      17.798442      33.859353    
    872000   0.99768256     17.606172      33.753863    
    873000   1.0261588      17.791633      33.7648      
    874000   0.98506289     17.503643      33.484142    
    875000   1.0065157      17.843683      33.465421    
    876000   1.0052728      17.736609      33.26807     
    877000   0.97276703     17.587387      33.247249    
    878000   0.99596495     17.757357      33.249855    
    879000   1.0150298      17.548439      33.200725    
    880000   1.0351664      17.31989       33.216742    
    881000   1.0028824      17.717069      33.147249    
    882000   0.97007743     17.598292      32.979555    
    883000   1.0571694      17.238443      33.150589    
    884000   0.99410279     17.697739      33.111288    
    885000   0.96850092     17.344041      33.037005    
    886000   1.0198003      17.831985      32.99321     
    887000   0.96379301     17.072588      32.875       
    888000   1.0189607      17.405734      32.696984    
    889000   0.99657761     17.754004      32.396218    
    890000   1.0031016      17.111589      32.498111    
    891000   1.011492       17.920292      32.341887    
    892000   0.99295067     17.572987      32.323819    
    893000   0.98606235     17.560706      32.356871    
    894000   0.97526247     17.10323       32.399434    
    895000   1.0334054      17.997034      32.142357    
    896000   1.0377561      17.95336       32.108309    
    897000   1.0332603      17.536794      32.03466     
    898000   0.96722826     17.244313      31.733822    
    899000   1.0256875      17.662374      31.595874    
    900000   1.0381967      17.06283       31.544333    
    901000   0.98601631     16.903831      31.491663    
    902000   0.96240035     16.776349      31.302311    
    903000   0.99840363     17.282462      31.187289    
    904000   1.0175861      17.675191      31.308492    
    905000   1.0463039      17.516859      31.20558     
    906000   0.99053692     17.015001      31.195087    
    907000   0.99247519     17.608869      31.062275    
    908000   1.0271849      18.0676        30.983562    
    909000   1.0099961      17.272158      31.085437    
    910000   1.0283444      17.486536      30.979234    
    911000   0.99849927     16.883416      31.042453    
    912000   1.004208       17.462031      30.890957    
    913000   0.99757234     17.903677      30.862456    
    914000   1.0202911      17.331893      30.829441    
    915000   0.96586354     16.991984      30.856064    
    916000   1.0196377      17.656043      30.832532    
    917000   0.99706123     17.235572      30.93816     
    918000   0.98049859     17.019566      30.719876    
    919000   0.98097078     17.226475      30.618915    
    920000   0.9835744      17.132638      30.458336    
    921000   1.0134755      17.992438      30.644594    
    922000   0.9915106      17.043381      30.550547    
    923000   1.0461707      17.513189      30.566356    
    924000   1.049497       18.013755      30.426369    
    925000   0.98851501     17.138126      30.465717    
    926000   1.0389332      17.515303      30.406889    
    927000   0.9697697      17.11878       30.148868    
    928000   1.0128762      17.607039      30.057365    
    929000   0.99690657     17.518028      29.944754    
    930000   1.0213021      17.930428      29.834409    
    931000   0.98253914     17.165709      29.696595    
    932000   1.0611928      17.363635      29.595697    
    933000   0.9740985      17.696472      29.607058    
    934000   1.0057616      17.071623      29.483747    
    935000   1.0187609      17.53981       29.442836    
    936000   1.0251958      17.982311      29.443181    
    937000   1.0032219      17.132519      29.209012    
    938000   0.96501592     17.310511      29.232702    
    939000   1.0151037      17.624889      29.221736    
    940000   0.96032535     17.702839      29.112545    
    941000   1.0203104      17.441052      29.202207    
    942000   1.0158902      17.264434      29.163728    
    943000   0.99185661     17.15779       29.040059    
    944000   1.0251695      17.701115      28.96147     
    945000   0.98773952     17.196066      28.916485    
    946000   1.0349861      17.156031      28.740258    
    947000   0.99686231     17.053003      28.548008    
    948000   1.0256417      17.432458      28.169675    
    949000   1.0142215      17.382079      28.073944    
    950000   1.0041042      17.555292      27.733272    
    951000   1.0307914      17.062571      27.511757    
    952000   1.0030636      17.204567      27.165446    
    953000   1.0115264      17.173482      27.12473     
    954000   1.0166906      17.059531      27.128892    
    955000   1.0316417      17.583881      26.961309    
    956000   0.96578384     17.200462      27.044093    
    957000   0.97160893     17.205297      26.817223    
    958000   0.98656171     17.347293      26.728563    
    959000   1.0353912      17.569676      26.794055    
    960000   1.0235282      17.587463      26.690741    
    961000   0.9833206      17.451989      26.849995    
    962000   0.99565311     17.683809      26.897589    
    963000   0.98748662     17.542362      26.855171    
    964000   0.99465814     17.319626      26.838809    
    965000   1.0248159      17.216909      26.801999    
    966000   1.0138399      17.422954      26.594944    
    967000   0.98495786     17.57428       26.587012    
    968000   0.98440636     16.754764      26.501373    
    969000   0.97653541     17.606371      26.405454    
    970000   0.98790153     17.111882      26.276974    
    971000   0.98645893     17.567587      26.203121    
    972000   1.0038095      17.30061       25.899512    
    973000   0.9956449      17.188365      25.816186    
    974000   0.97767916     17.315883      25.606428    
    975000   0.99510241     17.385594      25.563808    
    976000   0.9877091      17.433476      25.562947    
    977000   0.95702988     17.76611       25.705376    
    978000   1.0334532      17.4501        25.512651    
    979000   1.0101464      17.734371      25.441008    
    980000   1.0070602      17.458311      25.350081    
    981000   0.99437678     17.072072      25.265549    
    982000   0.99621824     17.201969      25.078229    
    983000   0.99742018     17.351901      24.95397     
    984000   0.98854933     17.660383      24.750034    
    985000   1.0019172      17.464989      24.73217     
    986000   0.94492914     17.377694      24.732663    
    987000   0.99508736     17.475093      24.515637    
    988000   1.0260925      18.034387      24.406611    
    989000   1.0127803      17.773277      24.061937    
    990000   0.98602044     17.082754      23.908492    
    991000   0.99451022     17.343844      23.897374    
    992000   1.0208352      17.534758      23.939665    
    993000   0.94926186     17.141728      23.595317    
    994000   1.0222883      17.190141      23.537798    
    995000   0.95843453     17.784327      23.441549    
    996000   1.029242       17.36922       23.461392    
    997000   1.0037592      17.373635      23.471768    
    998000   1.0119678      17.487257      23.391658    
    999000   1.055164       17.48089       23.359245    
   1000000   0.99880482     17.278729      23.313165    
   1001000   1.0129683      17.649467      23.211204    
   1002000   1.0034839      17.364914      22.98956     
   1003000   0.95496598     17.26396       22.985573    
   1004000   0.97431519     17.131329      22.988526    
   1005000   0.95427609     16.94767       22.680113    
   1006000   1.0249526      17.419336      22.774351    
   1007000   1.022638       17.968249      22.818812    
   1008000   0.96801        16.908539      22.694076    
   1009000   0.99133121     17.219595      22.741013    
   1010000   0.99489878     16.951538      22.529292    
   1011000   1.0116734      17.093757      22.4456      
   1012000   0.970295       17.446996      22.29041     
   1013000   1.0203184      17.2505        22.305016    
   1014000   1.0019462      16.870736      22.348755    
   1015000   1.0419699      17.518243      22.329939    
   1016000   0.99213888     17.101853      22.451382    
   1017000   1.0266104      17.463606      22.388311    
   1018000   1.0145878      17.087309      22.084592    
   1019000   0.99351896     17.358996      22.165135    
   1020000   0.97241184     16.690916      21.928994    
   1021000   1.0410906      17.054387      21.745409    
   1022000   1.0200639      16.997604      21.664515    
   1023000   0.99233285     17.212699      21.312693    
   1024000   0.99324907     17.190035      21.194049    
   1025000   0.97665827     17.653905      21.066088    
   1026000   0.98817683     17.38567       21.037678    
   1027000   1.0112009      17.203611      20.851965    
   1028000   0.98032934     17.346265      20.70289     
   1029000   0.96017068     16.84454       20.579978    
   1030000   0.98572666     17.589532      20.562421    
   1031000   1.0072154      17.246688      20.559483    
   1032000   1.026696       17.270077      20.225929    
   1033000   0.9888948      17.401479      20.258782    
   1034000   0.96989756     17.020056      20.213074    
   1035000   0.99706847     16.976798      20.013615    
   1036000   1.0061682      17.278961      19.91442     
   1037000   0.99335405     17.093846      19.886584    
   1038000   1.0268399      17.558826      19.772064    
   1039000   1.0118763      16.88523       19.397829    
   1040000   0.98207101     17.17216       19.239339    
   1041000   1.0091703      17.482206      19.252156    
   1042000   0.99002641     17.273621      18.905746    
   1043000   1.011008       17.237551      18.953668    
   1044000   0.98285521     17.277413      19.008756    
   1045000   0.99068622     16.896633      19.010727    
   1046000   1.0035448      16.807688      19.03555     
   1047000   0.99852713     17.250673      18.999689    
   1048000   1.0165044      17.145983      19.028818    
   1049000   0.9599093      16.677714      18.982222    
   1050000   1.0180383      17.041096      19.008682    
   1051000   0.98019533     16.590391      18.820603    
   1052000   0.99031744     16.447981      18.601009    
   1053000   1.0016336      17.0497        18.589235    
   1054000   1.024345       17.103526      18.51783     
   1055000   0.94613272     16.72772       18.703606    
   1056000   0.99578617     17.157075      18.546334    
   1057000   0.96664368     16.749906      18.565312    
   1058000   1.0125536      17.380013      18.514093    
   1059000   1.0041421      16.50548       18.234124    
   1060000   1.0097324      17.038189      18.347104    
   1061000   0.99489685     16.640829      18.350192    
   1062000   0.99487814     16.639021      18.230344    
   1063000   1.0286993      17.03979       18.286133    
   1064000   0.98257567     16.997307      18.187826    
   1065000   0.98773174     17.24673       18.181953    
   1066000   1.0349806      17.014524      17.952156    
   1067000   0.98951937     17.062127      17.879308    
   1068000   0.97352536     16.51062       18.023673    
   1069000   1.0164615      17.057264      17.930859    
   1070000   1.0027077      16.978784      17.916881    
   1071000   0.9811327      17.183805      17.981361    
   1072000   1.0137823      16.632816      18.054504    
   1073000   1.0326597      17.044795      18.109933    
   1074000   1.0063643      17.194454      17.821139    
   1075000   1.0085917      16.925467      17.654119    
   1076000   1.0309824      17.480859      17.530149    
   1077000   0.99762013     16.668557      17.684763    
   1078000   1.0237509      16.388791      17.513276    
   1079000   0.98567581     16.59989       17.347773    
   1080000   0.98177966     17.061537      17.344735    
   1081000   0.97504053     17.126335      17.594067    
   1082000   1.0070299      16.909955      17.626451    
   1083000   0.96280565     16.880383      17.722867    
   1084000   0.99220339     16.68436       17.723454    
   1085000   0.99445749     17.061897      17.857939    
   1086000   1.0014301      17.539496      17.754827    
   1087000   1.0202852      16.831411      17.793634    
   1088000   0.98389419     17.03523       17.792914    
   1089000   0.97251506     16.885819      17.813005    
   1090000   0.99955722     16.73038       17.682747    
   1091000   1.0041289      16.594354      17.643819    
   1092000   1.0046532      17.320656      17.45368     
   1093000   1.008418       17.69729       17.261026    
   1094000   0.99027006     16.864045      17.207103    
   1095000   0.95770724     16.28799       17.102982    
   1096000   0.99825384     17.382873      17.124632    
   1097000   0.9839805      16.94695       17.018483    
   1098000   0.99612239     17.396702      17.04246     
   1099000   0.95260904     16.969336      16.771665    
   1100000   1.0217093      16.98067       16.623603    
   1101000   1.0146275      16.743312      16.32013     
   1102000   1.0213432      16.745411      16.180951    
   1103000   1.0215505      17.113132      16.137762    
   1104000   1.006047       16.915086      15.924708    
   1105000   1.0115004      17.625436      15.575656    
   1106000   1.0023936      17.126477      15.690413    
   1107000   1.0485904      17.059957      15.703451    
   1108000   0.99380667     16.853627      15.525354    
   1109000   1.0244853      16.826066      15.550706    
   1110000   1.0254587      16.916351      15.643835    
   1111000   0.97919959     16.52831       15.675363    
   1112000   0.98524862     16.880244      15.767737    
   1113000   0.98867321     17.125086      15.709909    
   1114000   1.0032994      17.312131      15.599103    
   1115000   0.99771867     16.763611      15.562811    
   1116000   0.96427618     16.628452      15.623734    
   1117000   0.94552715     16.761635      15.799935    
   1118000   0.98197663     17.096922      15.931883    
   1119000   1.0134341      17.353987      16.134006    
   1120000   0.970905       16.960413      16.243426    
   1121000   1.0043991      16.969363      16.115328    
   1122000   1.0222652      17.002185      16.039915    
   1123000   0.99105452     16.832267      15.965938    
   1124000   0.95143116     16.726312      15.835217    
   1125000   1.0042552      16.926099      15.980508    
   1126000   0.97754856     17.208641      15.82698     
   1127000   0.99017965     16.724826      15.859821    
   1128000   1.0222259      16.727681      15.830069    
   1129000   0.99557366     16.95993       16.024289    
   1130000   0.98752021     17.027054      15.877518    
   1131000   0.98558418     17.113831      15.607046    
   1132000   1.0137716      16.400752      15.551948    
   1133000   0.97097019     16.921558      15.620936    
   1134000   1.0072708      17.039817      15.387418    
   1135000   0.98293491     16.964613      15.477141    
   1136000   0.9774629      17.050963      15.53894     
   1137000   1.017451       16.728602      15.50414     
   1138000   0.97708787     16.807152      15.525681    
   1139000   1.0115992      16.96572       15.370873    
   1140000   0.97579048     16.992644      15.324582    
   1141000   1.0180791      16.649748      15.14127     
   1142000   0.99327827     17.339684      15.122223    
   1143000   1.0243766      17.414929      14.968727    
   1144000   0.98750639     17.107003      15.052007    
   1145000   1.0054465      17.191485      14.981564    
   1146000   1.012281       17.387732      14.783682    
   1147000   0.95668646     16.582466      14.72322     
   1148000   1.039288       17.29886       14.518797    
   1149000   1.003652       17.183391      14.326223    
   1150000   0.99386153     17.262986      14.217236    
   1151000   1.01531        16.623657      14.046112    
   1152000   1.0498246      16.902401      14.018826    
   1153000   1.003108       17.058192      13.806625    
   1154000   1.0058178      16.965947      13.811729    
   1155000   0.99877691     16.859667      13.798561    
   1156000   0.999565       17.050704      13.651477    
   1157000   1.0104672      17.182832      13.508298    
   1158000   0.96803002     17.14429       13.326192    
   1159000   1.0585301      17.214047      13.145137    
   1160000   1.0090555      17.639049      13.16129     
   1161000   1.0564851      17.071857      13.092075    
   1162000   1.0032559      16.763575      13.145713    
   1163000   0.96762692     17.449659      13.143283    
   1164000   1.0264708      17.047663      12.921761    
   1165000   0.99478041     16.706478      12.868261    
   1166000   1.0380268      17.108856      12.95676     
   1167000   1.0313322      17.261763      12.818127    
   1168000   1.0180684      17.181028      12.719373    
   1169000   0.98539884     16.826046      12.910864    
   1170000   0.99738303     16.855701      12.816239    
   1171000   0.94919781     17.046017      12.680402    
   1172000   1.0308035      17.168666      12.591957    
   1173000   0.97925417     16.988872      12.62283     
   1174000   1.0155075      17.269167      12.470103    
   1175000   0.98296894     16.590403      12.39762     
   1176000   0.96802008     17.035473      12.629348    
   1177000   1.0106933      17.088453      12.518739    
   1178000   0.9753349      16.396357      12.498717    
   1179000   1.0176476      17.440361      12.681641    
   1180000   1.0235167      16.501233      12.498133    
   1181000   0.98033893     16.994195      12.451212    
   1182000   1.0192737      17.028471      12.188676    
   1183000   1.0335179      16.915813      12.022571    
   1184000   0.98859226     17.195522      11.821434    
   1185000   0.99478315     16.430018      11.624664    
   1186000   1.00088        16.947422      11.544745    
   1187000   0.97888822     16.874689      11.504717    
   1188000   1.0045863      16.568775      11.330331    
   1189000   0.98240026     17.061292      11.33354     
   1190000   0.96312167     16.953672      11.330119    
   1191000   0.968191       16.933915      11.177751    
   1192000   0.97122358     16.882175      11.258876    
   1193000   1.0088434      17.090872      11.288331    
   1194000   0.98265935     16.739597      11.041299    
   1195000   1.0048876      17.057781      10.774221    
   1196000   0.97790185     16.361763      10.602509    
   1197000   1.0170994      16.989204      10.735752    
   1198000   1.0265224      17.092346      10.80105     
   1199000   0.9707798      17.00247       10.626926    
   1200000   1.0031584      16.744876      10.375013    
   1201000   0.97585213     17.015699      10.328884    
   1202000   1.0103268      16.315116      10.146612    
   1203000   0.97211455     16.289207      10.04237     
   1204000   1.005319       17.031147      9.9338252    
   1205000   1.0014547      16.785802      9.9014434    
   1206000   0.9892772      16.729317      9.973647     
   1207000   0.94779172     16.446174      9.7924853    
   1208000   0.96350572     16.562332      9.5592495    
   1209000   0.97609589     17.023761      9.5358799    
   1210000   0.99642633     16.86615       9.464268     
   1211000   0.98594445     16.806037      9.3453146    
   1212000   1.0402075      17.258655      9.3999276    
   1213000   1.0336273      16.666145      9.3863315    
   1214000   1.0123657      16.970031      9.3520709    
   1215000   0.99581035     16.745369      9.2481464    
   1216000   0.94536238     16.763914      9.1805746    
   1217000   0.98417356     16.819394      9.2383407    
   1218000   0.97079579     16.894479      9.2131437    
   1219000   0.97674404     17.613607      9.3075512    
   1220000   0.99151479     17.068965      9.3447709    
   1221000   1.0146441      16.759325      9.2958468    
   1222000   1.0137541      16.730929      9.2256002    
   1223000   1.0198887      16.680764      9.1779119    
   1224000   0.98736739     17.159459      9.0367538    
   1225000   0.98776265     16.772579      9.0095596    
   1226000   0.96194563     16.683795      8.8887349    
   1227000   0.96625108     16.49949       8.7840643    
   1228000   1.0181349      17.015367      8.6114355    
   1229000   1.0335984      17.722245      8.4322689    
   1230000   1.0224521      16.791236      8.2016059    
   1231000   1.0112262      16.722251      8.3302544    
   1232000   1.0060735      16.762355      8.3892962    
   1233000   1.0318688      16.921222      8.4648006    
   1234000   0.9642667      17.01082       8.4591511    
   1235000   0.95765721     17.294784      8.3244216    
   1236000   1.0073823      17.048305      8.333502     
   1237000   0.98421757     17.122645      8.3887579    
   1238000   0.9841383      17.396598      8.319312     
   1239000   1.0036033      16.531969      8.4185918    
   1240000   0.99870286     17.148587      8.4413859    
   1241000   0.98025346     16.56565       8.33078      
   1242000   0.97136601     16.786268      8.3046318    
   1243000   1.0545603      17.00646       8.3473547    
   1244000   0.9973263      17.146634      8.3360559    
   1245000   1.0122472      16.784635      8.2197054    
   1246000   0.98038092     16.931641      8.1899244    
   1247000   1.0283571      16.397231      8.2127972    
   1248000   0.99964554     17.124078      8.1539701    
   1249000   0.97694802     16.93366       8.0117193    
   1250000   1.0019324      16.993993      7.9036555    
   1251000   1.0193891      16.51716       7.7384308    
   1252000   1.0271279      16.982857      7.5784132    
   1253000   1.0044904      17.636391      7.4645555    
   1254000   0.97707121     17.086471      7.4404874    
   1255000   0.99287505     16.864209      7.366072     
   1256000   0.96237146     16.985826      7.3338224    
   1257000   0.97988105     17.226488      7.2773224    
   1258000   0.98934591     17.042193      7.1124148    
   1259000   0.98916861     16.547093      7.0113196    
   1260000   1.0137717      17.048195      6.857959     
   1261000   0.96599206     16.760975      6.5571752    
   1262000   1.0256359      16.542872      6.38311      
   1263000   1.0391233      16.755218      6.2382292    
   1264000   0.97233724     16.787591      6.1027949    
   1265000   1.0241316      16.915844      5.9596131    
   1266000   0.97238579     17.031035      6.0253412    
   1267000   0.95841558     16.52632       6.0206528    
   1268000   0.99055383     16.368679      5.8888687    
   1269000   0.98562688     16.587305      5.7692948    
   1270000   0.9504398      16.634452      5.7302086    
   1271000   1.0200672      16.763952      5.7222695    
   1272000   1.014795       16.889502      5.6475744    
   1273000   0.98012915     16.707423      5.6216022    
   1274000   1.0094545      16.435941      5.5890553    
   1275000   0.98950326     16.69526       5.5776733    
   1276000   1.0151213      16.88908       5.5230261    
   1277000   0.98582338     17.290693      5.5156242    
   1278000   0.99612071     16.461251      5.5185602    
   1279000   1.0066908      17.028168      5.4878248    
   1280000   0.99566665     16.917591      5.4639315    
   1281000   0.96581252     16.282193      5.4416282    
   1282000   1.001845       16.903886      5.4780059    
   1283000   1.0191135      16.950035      5.4946914    
   1284000   1.0072674      16.69226       5.4429806    
   1285000   0.9901067      16.697262      5.4363774    
   1286000   1.0146637      16.93801       5.4339753    
   1287000   0.96661078     16.316829      5.3955391    
   1288000   1.0116138      16.983863      5.3884946    
   1289000   1.0047183      16.262645      5.3846293    
   1290000   0.96027535     16.84155       5.3878943    
   1291000   1.0068381      16.470401      5.3757115    
   1292000   0.96667218     16.519097      5.3759769    
   1293000   0.96521955     17.034814      5.3816703    
   1294000   1.0114418      16.95137       5.3816643    
   1295000   1.0248066      17.108002      5.3840674    
   1296000   1.0232307      16.219234      5.3934709    
   1297000   0.99316016     16.21729       5.3833468    
   1298000   0.98488111     16.777757      5.3859083    
   1299000   0.97925241     16.36064       5.448464     
   1300000   1.0226185      16.69458       5.405822     
   1301000   1.0197102      16.768305      5.3680258    
   1302000   0.92918445     16.312867      5.399243     
   1303000   0.99207059     16.676247      5.4137533    
   1304000   0.98701631     16.844762      5.3738549    
   1305000   1.0222869      16.932933      5.3829887    
   1306000   1.0207168      16.543014      5.3792841    
   1307000   1.0257049      16.853669      5.3927004    
   1308000   0.99042757     16.293875      5.372269     
   1309000   0.99631818     16.639054      5.417096     
   1310000   1.005098       16.912693      5.398567     
   1311000   0.97467804     16.831773      5.3999337    
   1312000   0.99204751     16.627857      5.3690264    
   1313000   0.99888996     16.372794      5.3638073    
   1314000   1.0431691      16.77031       5.359154     
   1315000   1.0031888      15.795329      5.3795883    
   1316000   0.99625835     16.697956      5.392651     
   1317000   1.0056348      16.776691      5.3933802    
   1318000   1.0165612      16.797311      5.3692404    
   1319000   0.98299668     17.433205      5.3637389    
   1320000   0.99266702     16.762983      5.3903131    
   1321000   1.0291689      17.082793      5.3845958    
   1322000   1.0204323      16.845342      5.3690716    
   1323000   1.03198        16.643592      5.4078964    
   1324000   1.0091797      16.329434      5.3893253    
   1325000   0.99518421     16.962978      5.3885695    
   1326000   0.97920856     16.862945      5.3893209    
   1327000   0.97463976     16.654565      5.409983     
   1328000   1.0053564      16.256268      5.4366122    
   1329000   0.98044846     16.177437      5.4371696    
   1330000   1.0001989      16.590951      5.423542     
   1331000   1.0075242      16.304921      5.4171827    
   1332000   1.0392444      16.465018      5.4672357    
   1333000   1.0444239      16.602854      5.394863     
   1334000   0.94073523     16.703766      5.3987294    
   1335000   0.96417705     16.342983      5.4129418    
   1336000   0.95473097     16.472589      5.3989092    
   1337000   1.0017314      16.495239      5.3712368    
   1338000   0.98353602     16.469991      5.3733339    
   1339000   1.0150495      16.693728      5.3981068    
   1340000   1.0219788      16.525735      5.4002927    
   1341000   1.006026       16.830854      5.3984381    
   1342000   1.0146623      16.806556      5.4312862    
   1343000   1.0439023      16.827912      5.4118824    
   1344000   1.0483049      16.666117      5.4086232    
   1345000   0.97843913     16.846699      5.3612016    
   1346000   1.0016649      16.381332      5.3848594    
   1347000   1.0493318      16.581361      5.3927104    
   1348000   0.97262556     17.285104      5.3883841    
   1349000   1.0048209      16.580795      5.3736548    
   1350000   1.0074027      16.800536      5.3694221    
   1351000   0.99135565     16.865358      5.3761607    
   1352000   0.9852107      16.593706      5.3739423    
   1353000   0.98454451     16.949294      5.3802758    
   1354000   0.9906675      16.674366      5.3724427    
   1355000   1.0021064      17.224922      5.3634351    
   1356000   0.97952306     16.660001      5.3714805    
   1357000   0.99540992     17.021298      5.3766961    
   1358000   0.99456076     16.963805      5.4068253    
   1359000   0.98794034     16.975602      5.3997207    
   1360000   1.0024555      16.759985      5.4307861    
   1361000   0.99195784     16.852702      5.4114968    
   1362000   0.98922064     16.983381      5.4341629    
   1363000   1.033865       16.982183      5.3586171    
   1364000   0.99771372     16.505993      5.3929464    
   1365000   1.0343608      16.650401      5.393053     
   1366000   1.0508367      17.015179      5.3839233    
   1367000   1.0313049      16.714961      5.3720239    
   1368000   0.99641293     16.429078      5.4247324    
   1369000   0.97744049     17.112472      5.4168848    
   1370000   0.99222247     16.737571      5.384538     
   1371000   0.99575838     16.94797       5.4058661    
   1372000   0.96558565     16.710522      5.4023353    
   1373000   0.97649205     16.673383      5.3687271    
   1374000   1.0038398      16.262339      5.396008     
   1375000   0.99341059     16.606124      5.3770715    
   1376000   1.0275123      16.995864      5.3825744    
   1377000   0.97143159     16.424177      5.4437889    
   1378000   0.98528318     16.775784      5.3439369    
   1379000   1.0212114      16.880747      5.3829409    
   1380000   1.0643622      17.380887      5.4125367    
   1381000   0.94984285     16.288936      5.4176396    
   1382000   0.99073904     16.71183       5.3918351    
   1383000   1.0217597      16.748845      5.3966616    
   1384000   0.98015137     16.966772      5.4408851    
   1385000   0.98239841     16.583218      5.3954506    
   1386000   1.0225449      17.143183      5.4031698    
   1387000   0.97097756     16.493118      5.3794324    
   1388000   0.9877727      15.844607      5.4320479    
   1389000   0.97356814     16.542396      5.3721989    
   1390000   0.94700973     16.72373       5.3994995    
   1391000   1.0289938      16.54345       5.3532242    
   1392000   1.0159382      16.872042      5.4190537    
   1393000   1.0094032      16.66017       5.3847136    
   1394000   0.95090439     16.424655      5.3854092    
   1395000   1.0264751      17.029999      5.3372078    
   1396000   1.0428334      17.094945      5.388354     
   1397000   1.0031656      16.687499      5.3992016    
   1398000   0.99886434     17.026168      5.3404987    
   1399000   1.0538164      17.410884      5.3908853    
   1400000   1.0135885      16.701261      5.4014691    
   1401000   1.0445042      16.810677      5.3948176    
   1402000   1.0015065      16.810511      5.3727871    
   1403000   0.96477588     16.530814      5.3839907    
   1404000   1.018823       16.751239      5.3467599    
   1405000   1.0041432      16.94326       5.3435144    
   1406000   0.98684432     16.762084      5.3552686    
   1407000   1.0151355      16.673281      5.3928623    
   1408000   1.0053574      17.095333      5.357817     
   1409000   0.97591426     17.063702      5.3976447    
   1410000   1.0325632      17.130276      5.3887255    
   1411000   0.98584225     16.760828      5.370759     
   1412000   1.0058762      16.57586       5.3854259    
   1413000   0.99955694     16.409012      5.3843934    
   1414000   1.0075321      16.414484      5.3795521    
   1415000   0.99040732     15.971782      5.396039     
   1416000   0.97943424     16.784243      5.3856049    
   1417000   1.0034092      16.904549      5.3827103    
   1418000   1.0134019      16.675941      5.3661296    
   1419000   1.0350145      16.475805      5.3698291    
   1420000   1.0431576      16.991038      5.3751525    
   1421000   1.0018719      16.761046      5.3533968    
   1422000   1.0228977      16.459445      5.3963351    
   1423000   0.98260356     16.521867      5.3869917    
   1424000   0.97779345     16.834432      5.3779698    
   1425000   1.0273357      16.743417      5.3486659    
   1426000   1.0028799      16.518769      5.3549605    
   1427000   0.98498003     16.859491      5.3952902    
   1428000   0.97545443     17.06344       5.3918362    
   1429000   0.98960998     16.990431      5.3606632    
   1430000   0.9832715      16.9646        5.3614296    
   1431000   0.98403247     16.262056      5.3703748    
   1432000   1.0058059      16.627778      5.3771226    
   1433000   1.0093759      17.013208      5.35932      
   1434000   1.0216661      16.984395      5.370122     
   1435000   1.0147384      16.883279      5.395149     
   1436000   1.0180743      16.605751      5.38152      
   1437000   0.99973871     16.519247      5.3993789    
   1438000   1.0302322      16.676183      5.3759221    
   1439000   0.9858317      16.504735      5.3935649    
   1440000   0.98160384     17.043638      5.3705323    
   1441000   0.95174772     16.750038      5.3970501    
   1442000   0.9898904      16.154585      5.4091806    
   1443000   0.97509695     16.43539       5.4210466    
   1444000   1.0338144      16.878327      5.388968     
   1445000   1.0012163      16.39079       5.4411932    
   1446000   1.0040252      17.010901      5.3941189    
   1447000   0.98512256     17.17604       5.3776431    
   1448000   1.0176667      16.195112      5.4141202    
   1449000   0.95794277     16.715821      5.4277185    
   1450000   1.0134603      17.091363      5.4282936    
   1451000   1.0264347      16.53261       5.4526287    
   1452000   0.99538025     16.623851      5.432847     
   1453000   0.97440926     16.746058      5.3882363    
   1454000   0.98068418     16.529747      5.4081278    
   1455000   1.0180958      15.936952      5.4224329    
   1456000   0.96774959     16.327465      5.4207782    
   1457000   0.98738893     15.866039      5.4174438    
   1458000   1.023493       16.329996      5.4188603    
   1459000   1.0115443      16.617909      5.4120539    
   1460000   1.0128787      16.896432      5.4162705    
   1461000   1.007925       16.415142      5.3939867    
   1462000   0.98485841     16.622384      5.4213585    
   1463000   1.0180228      16.619014      5.4031528    
   1464000   1.0115189      16.212349      5.3996632    
   1465000   0.9658704      16.814599      5.418826     
   1466000   0.9900166      17.051219      5.4024977    
   1467000   0.98860055     16.791611      5.3554058    
   1468000   0.99745641     16.380924      5.3837747    
   1469000   0.96197683     17.042793      5.3823581    
   1470000   1.0273374      16.485518      5.4245339    
   1471000   0.98718486     16.752074      5.4111569    
   1472000   1.0076179      16.586451      5.4154633    
   1473000   1.0354103      16.755568      5.3840781    
   1474000   1.0426278      16.59864       5.3937322    
   1475000   0.99591249     16.319753      5.4268901    
   1476000   1.0044258      16.56714       5.4296342    
   1477000   1.0414         16.376832      5.4097085    
   1478000   1.0015029      16.43948       5.4147562    
   1479000   0.9478383      16.544209      5.4095031    
   1480000   1.0118442      16.48785       5.3888357    
   1481000   0.98051969     17.256079      5.3581546    
   1482000   0.98954699     16.946086      5.3845627    
   1483000   1.0134387      16.599644      5.4271089    
   1484000   1.0012076      16.55016       5.371272     
   1485000   1.0155527      16.900873      5.3782865    
   1486000   1.0065394      16.414816      5.3888623    
   1487000   1.0046082      16.726408      5.4067007    
   1488000   1.0635482      17.047389      5.4099252    
   1489000   1.0447054      16.26497       5.396313     
   1490000   1.0206883      16.49163       5.387313     
   1491000   0.97773261     16.904284      5.4227557    
   1492000   0.99741407     17.213898      5.3676653    
   1493000   1.0710201      16.817459      5.3846687    
   1494000   1.0127496      16.988613      5.3808022    
   1495000   1.0041628      16.443774      5.3826074    
   1496000   1.0212849      16.61921       5.3728433    
   1497000   0.9741708      16.518266      5.3812373    
   1498000   0.96733084     16.884642      5.3676552    
   1499000   0.99720594     16.853736      5.3845013    
   1500000   0.98714126     17.24203       5.4184469    
   1501000   1.0152182      16.702965      5.4111439    
   1502000   0.97280015     16.506095      5.372253     
   1503000   1.0315295      16.054658      5.385755     
   1504000   1.0035444      17.011201      5.3868562    
   1505000   1.0046514      16.75951       5.3802403    
   1506000   0.97466949     16.616165      5.3899024    
   1507000   0.97238366     16.248664      5.3725816    
   1508000   0.98983348     16.68141       5.3825348    
   1509000   1.014367       16.570524      5.3933265    
   1510000   1.0129983      16.132037      5.4125979    
   1511000   1.0017031      16.374561      5.3936336    
   1512000   1.0010522      16.495715      5.3863565    
   1513000   1.0012121      16.700693      5.3864069    
   1514000   1.0029833      16.765266      5.3859664    
   1515000   0.99045476     16.858804      5.4061814    
   1516000   0.97404132     16.612476      5.3928909    
   1517000   0.97794277     16.858842      5.4032361    
   1518000   1.0146988      16.406616      5.3964708    
   1519000   0.9979553      17.74937       5.3721244    
   1520000   0.98517901     17.144234      5.3633681    
   1521000   0.9740757      16.868545      5.3909938    
   1522000   1.0380533      16.331529      5.3991159    
   1523000   0.99404945     16.791767      5.3873226    
   1524000   1.0124237      16.794195      5.3718783    
   1525000   1.0367272      16.615161      5.4172351    
   1526000   0.99038278     17.295425      5.3952169    
   1527000   1.0234668      16.250116      5.3756226    
   1528000   0.99502445     16.605922      5.3628644    
   1529000   0.98166375     16.617099      5.3611128    
   1530000   1.0038476      17.201977      5.3592028    
   1531000   0.97485736     17.146472      5.3697252    
   1532000   0.97323073     16.913014      5.3757152    
   1533000   0.97925396     16.976514      5.3995575    
   1534000   1.0211226      16.573932      5.3916449    
   1535000   0.98124097     16.345059      5.4054327    
   1536000   1.0262454      16.787034      5.3869106    
   1537000   0.98735062     16.647386      5.4106663    
   1538000   0.9912786      16.43872       5.3851824    
   1539000   1.017005       16.916865      5.3528498    
   1540000   1.0280914      16.299099      5.3842521    
   1541000   1.044371       16.910499      5.3897815    
   1542000   0.9751842      16.833792      5.4080223    
   1543000   0.97023938     16.644976      5.3803454    
   1544000   1.0186371      16.391335      5.4019469    
   1545000   1.0027141      16.640956      5.3823199    
   1546000   1.0220251      16.485437      5.3962356    
   1547000   1.0128629      17.376499      5.4041245    
   1548000   0.97605694     16.260648      5.3820355    
   1549000   0.97735196     16.56267       5.3687282    
   1550000   0.96408323     16.480992      5.3464865    
   1551000   1.0061173      16.651346      5.3546902    
   1552000   0.97732342     16.904591      5.3602493    
   1553000   1.0277178      16.841931      5.3819909    
   1554000   0.99659        17.157624      5.4007888    
   1555000   1.0235309      16.552254      5.3725442    
   1556000   0.97237215     16.196158      5.4124943    
   1557000   1.02448        17.152008      5.3855927    
   1558000   1.0007122      16.915807      5.3739694    
   1559000   1.0079052      17.07361       5.3890523    
   1560000   1.026673       16.835489      5.4179733    
   1561000   1.0135321      16.449145      5.3940482    
   1562000   1.0191316      16.539074      5.3679182    
   1563000   1.0077842      16.847302      5.3558952    
   1564000   1.0027983      16.715728      5.3847454    
   1565000   0.99043825     16.90141       5.3796167    
   1566000   1.0074644      16.62499       5.388057     
   1567000   1.0209065      16.40081       5.4493368    
   1568000   1.041944       16.866065      5.3750184    
   1569000   1.0007877      16.508592      5.3745501    
   1570000   0.9871517      16.611504      5.3983958    
   1571000   0.97677317     16.349871      5.3530793    
   1572000   1.0041352      16.812977      5.3943879    
   1573000   0.98036965     16.739197      5.4214213    
   1574000   1.0289591      16.358442      5.3977267    
   1575000   1.0063633      17.059638      5.3964666    
   1576000   0.97130432     17.048301      5.3871022    
   1577000   0.97785524     16.98723       5.3916611    
   1578000   0.99399923     16.934067      5.4137309    
   1579000   0.99961503     16.827279      5.4041187    
   1580000   1.0217342      16.978669      5.3821453    
   1581000   0.97983051     16.862616      5.3777042    
   1582000   1.0025168      16.380205      5.3975824    
   1583000   1.008279       17.256542      5.3717942    
   1584000   1.0255103      16.839874      5.3652234    
   1585000   1.0180666      16.681775      5.4192604    
   1586000   1.0297509      17.14514       5.3712505    
   1587000   1.0367608      16.845624      5.3989344    
   1588000   0.99656957     16.562887      5.3830922    
   1589000   1.0295488      16.356609      5.3946739    
   1590000   1.0574376      16.949724      5.3717939    
   1591000   0.97260882     16.545978      5.3899005    
   1592000   0.99472408     16.859408      5.3936497    
   1593000   1.0294843      16.817824      5.3901211    
   1594000   1.0087679      17.170384      5.352739     
   1595000   0.98403748     16.651994      5.3972052    
   1596000   1.0279595      17.504242      5.3852507    
   1597000   1.0033068      17.053932      5.4008863    
   1598000   1.0365599      16.46517       5.4072805    
   1599000   0.97629936     16.494576      5.3878482    
   1600000   1.0532161      16.477482      5.3650831    
   1601000   1.0354395      16.898911      5.3576561    
   1602000   1.0181014      16.588053      5.403967     
   1603000   0.96267175     16.426691      5.3864033    
   1604000   0.99137011     16.368547      5.3766209    
   1605000   0.99908865     16.8114        5.3691227    
   1606000   0.96532868     16.336291      5.3704791    
   1607000   1.0096161      16.460475      5.3924904    
   1608000   0.98527764     17.075694      5.4015885    
   1609000   0.96532806     16.730708      5.3857141    
   1610000   0.99444998     16.90672       5.3989243    
   1611000   1.0007124      17.326079      5.4074923    
   1612000   1.0118986      16.65978       5.3946849    
   1613000   1.0183467      17.170659      5.4010007    
   1614000   0.96628313     16.954289      5.3977513    
   1615000   1.0055587      16.691375      5.3832517    
   1616000   1.002253       17.12579       5.3852501    
   1617000   1.047208       17.498887      5.3759577    
   1618000   1.0158924      16.544057      5.4002025    
   1619000   0.99453289     17.532098      5.40386      
   1620000   0.955663       16.822797      5.3973543    
   1621000   0.98621531     16.272151      5.3998167    
   1622000   0.9671423      16.748169      5.4078409    
   1623000   1.0088377      17.022688      5.4079524    
   1624000   0.97914439     16.947729      5.4177526    
   1625000   1.0041302      16.327058      5.4538059    
   1626000   1.0028532      17.15612       5.4142278    
   1627000   0.97859305     16.744778      5.4297731    
   1628000   0.99197922     16.943929      5.4206259    
   1629000   1.0302448      17.13921       5.4415561    
   1630000   0.96932833     16.782345      5.4408763    
   1631000   0.99376328     16.85711       5.4129543    
   1632000   0.96279044     16.683639      5.4335797    
   1633000   0.95627292     16.526654      5.3953363    
   1634000   1.0746235      16.744328      5.4434612    
   1635000   0.99635153     16.63003       5.4119174    
   1636000   1.0111853      16.630364      5.415106     
   1637000   0.9942435      16.484203      5.4202567    
   1638000   1.0130088      17.069773      5.4251419    
   1639000   0.99084818     16.8568        5.4237652    
   1640000   1.0275491      16.426389      5.4501614    
   1641000   0.98209831     16.563611      5.4371604    
   1642000   1.0297303      16.802012      5.3994249    
   1643000   0.96415902     16.528242      5.4578388    
   1644000   0.98138972     16.679031      5.4144654    
   1645000   0.98957219     16.823114      5.3987717    
   1646000   1.0285763      17.205876      5.3533209    
   1647000   1.0056133      17.138957      5.3728507    
   1648000   1.025351       16.65165       5.3916382    
   1649000   0.99530657     16.579882      5.3863083    
   1650000   0.99136836     16.845166      5.4029314    
   1651000   0.98414779     16.768136      5.3882653    
   1652000   0.98294174     16.573533      5.3687741    
   1653000   0.99834773     16.805558      5.3680689    
   1654000   0.97624633     16.597002      5.3478874    
   1655000   1.0139495      16.350613      5.408466     
   1656000   1.0050038      17.214622      5.3922904    
   1657000   1.0197679      16.701304      5.4053835    
   1658000   1.0056498      16.692         5.3722159    
   1659000   1.0018326      16.256831      5.4219082    
   1660000   1.0061393      16.413051      5.4118199    
   1661000   1.0025091      16.813081      5.4279124    
   1662000   0.99664231     16.307596      5.4100143    
   1663000   1.0008099      16.386309      5.4186751    
   1664000   1.0114014      16.017838      5.4073241    
   1665000   0.94068128     16.879751      5.3951182    
   1666000   1.0080542      16.779087      5.4262417    
   1667000   1.0028752      17.195584      5.3818359    
   1668000   1.0549232      16.708777      5.3758955    
   1669000   0.97834641     17.211739      5.3505883    
   1670000   0.9769223      16.463798      5.379931     
   1671000   1.0056759      16.76427       5.3666361    
   1672000   1.0125488      16.947876      5.383333     
   1673000   0.98720622     16.954282      5.389255     
   1674000   0.9848048      16.524979      5.3807036    
   1675000   1.0241939      17.055977      5.3803294    
   1676000   1.000107       16.460068      5.3970293    
   1677000   1.0479227      16.487114      5.4164238    
   1678000   1.0217796      16.684577      5.4094002    
   1679000   0.99180041     17.157325      5.43191      
   1680000   1.0268307      17.104747      5.375642     
   1681000   1.0045942      16.454931      5.3893823    
   1682000   1.027944       16.966696      5.3761057    
   1683000   1.0103277      17.450258      5.3806224    
   1684000   0.99128841     16.819621      5.4047766    
   1685000   0.99991175     16.826618      5.3781684    
   1686000   0.99972547     16.794419      5.3986445    
   1687000   0.99386537     16.571544      5.4325404    
   1688000   0.99100359     17.007309      5.409519     
   1689000   1.0138646      16.745801      5.4276913    
   1690000   1.0149411      16.760825      5.4068758    
   1691000   1.0050961      16.96867       5.4244733    
   1692000   1.0233799      16.279275      5.4043662    
   1693000   1.0086987      16.387605      5.3910551    
   1694000   1.0263482      17.118999      5.3842174    
   1695000   0.99198176     16.423352      5.3827661    
   1696000   0.99386099     16.392837      5.43179      
   1697000   1.004084       16.640777      5.4507859    
   1698000   0.98682651     16.17136       5.4100719    
   1699000   0.99699279     17.302282      5.3975016    
   1700000   1.012794       16.621661      5.4011105    
   1701000   0.98633889     16.388299      5.3908853    
   1702000   1.0246691      16.448405      5.3863844    
   1703000   1.0269631      17.012213      5.4006696    
   1704000   0.98304759     17.040989      5.3900099    
   1705000   0.9746552      16.841921      5.3807411    
   1706000   1.0091758      16.87321       5.3912117    
   1707000   0.98855352     16.807969      5.4084904    
   1708000   0.99608142     16.661331      5.4568609    
   1709000   0.97932906     16.407946      5.4372838    
   1710000   1.0242397      16.656891      5.4375572    
   1711000   0.96372032     16.232471      5.4182242    
   1712000   0.95444124     16.264826      5.4004534    
   1713000   0.97281048     17.064792      5.3834659    
   1714000   1.0022781      17.087684      5.3839155    
   1715000   0.98493731     16.72913       5.41095      
   1716000   0.96710537     17.464433      5.4156311    
   1717000   1.0092598      17.009126      5.3835361    
   1718000   0.96801583     16.602554      5.414692     
   1719000   0.98716611     16.922162      5.3904969    
   1720000   0.9855267      16.018724      5.3973008    
   1721000   1.0060458      16.133187      5.3804342    
   1722000   0.97461163     17.020286      5.4116352    
   1723000   1.0389286      16.748477      5.3715328    
   1724000   0.95083862     17.055841      5.3807754    
   1725000   0.96319871     16.762633      5.3830337    
   1726000   1.0042476      16.838087      5.3553622    
   1727000   0.99007648     16.958064      5.3718861    
   1728000   0.99163872     16.363647      5.4025816    
   1729000   1.003049       16.698451      5.4033012    
   1730000   1.0199788      16.804702      5.3902832    
   1731000   1.0016128      16.685108      5.3702752    
   1732000   0.99368516     16.725105      5.3968847    
   1733000   0.97199909     16.634271      5.372753     
   1734000   0.98342117     16.482783      5.3833212    
   1735000   1.0397097      16.942836      5.3823041    
   1736000   0.99588293     16.539555      5.4020341    
   1737000   0.99950702     16.027303      5.386246     
   1738000   1.019483       17.224579      5.3679156    
   1739000   0.94551032     16.677254      5.429175     
   1740000   0.96089231     17.075935      5.409493     
   1741000   0.9860454      16.360913      5.4156212    
   1742000   1.018377       16.631296      5.4100176    
   1743000   0.99696579     16.428702      5.4054816    
   1744000   1.0324254      17.196542      5.3727916    
   1745000   1.0204586      16.406698      5.4067122    
   1746000   1.0140564      16.897024      5.3882189    
   1747000   1.0280388      16.664141      5.367529     
   1748000   0.95861418     17.020206      5.423881     
   1749000   1.0183726      16.904827      5.4188192    
   1750000   1.0049424      16.174564      5.4465231    
   1751000   0.96757428     16.866133      5.4317227    
   1752000   0.98398605     17.002781      5.4884789    
   1753000   1.0442553      16.686874      5.4328893    
   1754000   1.0058073      16.686081      5.4151715    
   1755000   0.95590537     16.780558      5.4401396    
   1756000   0.97935815     16.741222      5.4233547    
   1757000   1.0160123      16.174812      5.415288     
   1758000   0.99282786     16.480068      5.4241546    
   1759000   0.93886763     16.077563      5.396768     
   1760000   1.000456       16.185352      5.4349613    
   1761000   0.97325849     16.980244      5.3865631    
   1762000   0.97736829     17.10896       5.3965659    
   1763000   0.99597529     16.691919      5.4105328    
   1764000   0.99898895     17.005264      5.3869967    
   1765000   0.96913327     16.640986      5.3933571    
   1766000   1.0383827      16.720832      5.3929401    
   1767000   1.0283386      16.895997      5.395574     
   1768000   0.9738489      16.162737      5.4156095    
   1769000   1.0097038      16.445393      5.3871648    
   1770000   1.0244164      16.188114      5.4173412    
   1771000   1.0049568      16.713794      5.463406     
   1772000   0.98585059     16.563687      5.4426214    
   1773000   1.0022915      17.272527      5.4158078    
   1774000   1.0175774      16.814703      5.445375     
   1775000   0.97245641     16.957063      5.4610674    
   1776000   1.0154738      16.695997      5.4201266    
   1777000   1.022778       16.917454      5.4502851    
   1778000   0.97967613     16.471948      5.4900011    
   1779000   1.015677       16.52827       5.4174793    
   1780000   1.0126402      16.852479      5.430743     
   1781000   0.98600257     16.54298       5.42654      
   1782000   1.004318       16.387619      5.3942703    
   1783000   1.0008343      17.304286      5.3373945    
   1784000   1.021067       16.828322      5.3652596    
   1785000   1.0082235      17.128394      5.3767064    
   1786000   0.96315372     16.121495      5.3894326    
   1787000   0.95974916     16.721997      5.4063392    
   1788000   1.0238596      17.273688      5.3604492    
   1789000   1.0043588      17.115989      5.3918212    
   1790000   1.0129038      17.052386      5.3913834    
   1791000   1.0314752      16.974046      5.4105292    
   1792000   0.96302201     16.334313      5.3700874    
   1793000   0.97750284     16.858713      5.3696114    
   1794000   0.97527159     16.48456       5.3722752    
   1795000   1.0425815      16.814166      5.3891183    
   1796000   1.0101872      16.672424      5.4194629    
   1797000   0.99539673     16.643594      5.3883609    
   1798000   0.97505256     16.479808      5.4020454    
   1799000   1.0255541      17.388318      5.3763275    
   1800000   0.98128659     16.627203      5.3824292    
   1801000   1.0253827      16.430778      5.3776192    
   1802000   0.99414892     17.017145      5.3723576    
   1803000   1.040802       16.827908      5.3528321    
   1804000   0.9964403      16.394216      5.3776415    
   1805000   1.0493731      16.604673      5.3885287    
   1806000   1.0360687      16.726118      5.3999143    
   1807000   0.99921389     16.610003      5.3754536    
   1808000   1.0414493      16.641998      5.4080769    
   1809000   0.99751928     17.02532       5.4055823    
   1810000   1.0141249      16.33746       5.4055667    
   1811000   0.92419165     16.601721      5.42181      
   1812000   1.0072212      16.779092      5.3933143    
   1813000   0.99317851     16.383325      5.3824845    
   1814000   0.99090974     17.090658      5.3560463    
   1815000   1.0043018      16.739843      5.3886381    
   1816000   0.97472724     16.186932      5.3754014    
   1817000   1.0011943      16.626884      5.3954249    
   1818000   0.98519061     16.324029      5.3688774    
   1819000   0.98214861     17.095671      5.3543457    
   1820000   1.006066       17.053242      5.3938625    
   1821000   1.0091343      16.777851      5.4021833    
   1822000   1.0278224      16.371055      5.3768228    
   1823000   1.032362       16.29942       5.3591642    
   1824000   0.97214099     16.645154      5.3784488    
   1825000   1.0112373      17.039711      5.3730601    
   1826000   0.98819372     16.648407      5.3630911    
   1827000   1.0004072      16.252107      5.3976159    
   1828000   1.0170126      17.041886      5.3634087    
   1829000   1.003837       17.005739      5.3673938    
   1830000   1.0337494      16.662097      5.4300171    
   1831000   0.95046128     16.616424      5.413455     
   1832000   1.0402707      17.074852      5.4118035    
   1833000   1.0522001      16.646229      5.4398984    
   1834000   0.99219838     17.114904      5.4258964    
   1835000   1.0130186      16.752558      5.4026383    
   1836000   0.98941846     16.391073      5.4005406    
   1837000   0.99633019     16.857548      5.4183934    
   1838000   1.0053138      16.594076      5.4115576    
   1839000   0.94601011     16.345962      5.4381069    
   1840000   1.0153481      16.449303      5.3958222    
   1841000   1.0063849      17.210764      5.3782346    
   1842000   0.99193146     16.684974      5.3994934    
   1843000   1.0118185      16.910298      5.374192     
   1844000   1.0193299      16.707488      5.3637627    
   1845000   0.97550346     16.87737       5.3873375    
   1846000   0.98246147     16.453449      5.3655336    
   1847000   0.95876419     16.365842      5.3994021    
   1848000   0.99368515     16.5267        5.3820956    
   1849000   1.0114128      17.059934      5.3590318    
   1850000   1.0041703      16.562845      5.3850617    
   1851000   0.94043634     16.461147      5.3879279    
   1852000   0.96220022     16.213295      5.4187007    
   1853000   1.0084391      16.846636      5.3650347    
   1854000   0.99086768     16.836111      5.3877621    
   1855000   0.99250158     16.481267      5.3886755    
   1856000   1.0052847      16.647184      5.3606271    
   1857000   1.0290186      17.034987      5.3760075    
   1858000   1.0217026      16.533243      5.3844648    
   1859000   0.99927611     16.393678      5.3890735    
   1860000   1.0189379      16.838927      5.3932532    
   1861000   1.004105       16.132586      5.3975872    
   1862000   0.98983258     17.14773       5.3941262    
   1863000   0.98348697     17.174126      5.3516525    
   1864000   1.028271       16.935194      5.3364542    
   1865000   0.99152215     16.510186      5.3555755    
   1866000   1.0218731      16.574665      5.3559984    
   1867000   1.0420562      16.854148      5.4068425    
   1868000   1.0067335      16.445728      5.4113199    
   1869000   1.0093801      16.300393      5.439826     
   1870000   0.97681803     16.712173      5.4006289    
   1871000   1.0311969      17.070915      5.3833278    
   1872000   0.97299764     17.254188      5.3767542    
   1873000   0.98249154     16.92208       5.368998     
   1874000   0.9691701      16.410432      5.379894     
   1875000   0.98097119     16.960414      5.373685     
   1876000   1.0121815      16.526501      5.3885803    
   1877000   0.97549232     16.62116       5.3694064    
   1878000   1.0263204      16.278018      5.3783836    
   1879000   1.0014128      16.814071      5.3626928    
   1880000   1.0057437      16.786846      5.3943211    
   1881000   0.98633216     16.57273       5.3362844    
   1882000   0.9889897      16.646385      5.3389532    
   1883000   1.0063487      16.456984      5.3801883    
   1884000   1.017483       16.28664       5.3968878    
   1885000   0.99413977     16.49161       5.3898458    
   1886000   0.97541653     16.570545      5.4185502    
   1887000   1.0346257      16.803573      5.3779457    
   1888000   1.0069822      16.459798      5.3825496    
   1889000   0.98782593     16.281702      5.37952      
   1890000   0.99475462     16.845402      5.3729443    
   1891000   1.0021091      16.280478      5.4029328    
   1892000   0.99710472     16.600732      5.3964834    
   1893000   0.98070157     16.536598      5.383584     
   1894000   0.99609523     16.628362      5.3786701    
   1895000   0.98956897     16.439518      5.3563598    
   1896000   1.0134395      17.591853      5.351878     
   1897000   0.9967236      16.76687       5.3928342    
   1898000   1.0505733      16.897033      5.398591     
   1899000   0.9968717      16.690025      5.3906296    
   1900000   0.9958362      16.640593      5.4189388    
   1901000   0.97691381     16.648293      5.3753744    
   1902000   1.002506       16.734706      5.368406     
   1903000   1.0046053      16.537759      5.4105473    
   1904000   1.0049878      16.426189      5.3965729    
   1905000   0.98958527     16.91094       5.381276     
   1906000   0.9792542      16.545766      5.4388768    
   1907000   0.99201539     16.891435      5.372044     
   1908000   0.95475586     16.132706      5.3951943    
   1909000   0.97605379     16.264272      5.3996778    
   1910000   0.9803642      16.810065      5.4032897    
   1911000   0.99378573     16.730596      5.353916     
   1912000   0.96947512     16.575096      5.4081605    
   1913000   1.0366515      16.745233      5.3911568    
   1914000   1.0254997      16.559026      5.4043515    
   1915000   1.0149472      16.278586      5.4249407    
   1916000   0.98656347     17.092367      5.3932277    
   1917000   0.96301341     16.764804      5.3911631    
   1918000   0.96757155     17.365077      5.3668652    
   1919000   1.0252755      16.206704      5.4052885    
   1920000   0.99009006     16.589584      5.3837727    
   1921000   1.0077968      16.822524      5.3955935    
   1922000   1.0100767      16.470419      5.4020371    
   1923000   1.0204641      16.74955       5.378179     
   1924000   1.048814       16.554447      5.3816541    
   1925000   0.99027625     17.030668      5.3978875    
   1926000   1.0066858      16.558072      5.3801214    
   1927000   1.024478       17.027927      5.4000506    
   1928000   1.0499396      17.116488      5.4124898    
   1929000   1.0253114      16.709009      5.3391368    
   1930000   0.97740156     16.59726       5.3855849    
   1931000   0.95752808     16.703794      5.4103158    
   1932000   0.98491673     16.365351      5.455998     
   1933000   0.97120091     16.425771      5.4104292    
   1934000   0.94884605     16.52091       5.429812     
   1935000   1.0331542      16.575223      5.3958703    
   1936000   1.0156409      16.941301      5.4007753    
   1937000   1.040708       16.646249      5.3725929    
   1938000   0.96363997     16.88614       5.4136102    
   1939000   1.0396471      16.73256       5.3651458    
   1940000   1.0000312      16.664927      5.417743     
   1941000   0.97516365     16.615545      5.4220372    
   1942000   1.0142336      16.140296      5.4017553    
   1943000   1.0114623      16.657392      5.4039465    
   1944000   0.96871024     16.124456      5.4097025    
   1945000   1.0140037      16.872449      5.4024871    
   1946000   1.0113674      16.915677      5.3525029    
   1947000   0.99143291     16.826377      5.3827959    
   1948000   0.98058691     16.769882      5.3856307    
   1949000   1.0453442      16.939979      5.3720101    
   1950000   1.0252074      16.605508      5.3869013    
   1951000   0.97384571     16.719625      5.3954635    
   1952000   1.001478       16.457906      5.4517777    
   1953000   0.98853658     16.596671      5.4227262    
   1954000   0.98561331     16.38465       5.4217997    
   1955000   0.97868465     16.319176      5.4371571    
   1956000   1.0289022      16.288044      5.4502238    
   1957000   0.98943156     17.013106      5.3842015    
   1958000   1.000256       16.84701       5.3929263    
   1959000   1.0297511      16.704783      5.3909635    
   1960000   0.98780155     16.284051      5.3830257    
   1961000   0.9467548      16.043433      5.3795894    
   1962000   0.99591075     16.915255      5.376551     
   1963000   1.008524       16.791577      5.3595099    
   1964000   0.95696694     16.572033      5.4120861    
   1965000   1.003822       16.812976      5.3996992    
   1966000   0.99811223     16.413377      5.3587374    
   1967000   0.99451491     16.443409      5.3801625    
   1968000   0.9861021      17.230722      5.362028     
   1969000   1.0167018      16.740518      5.4051729    
   1970000   1.0149729      16.87332       5.411446     
   1971000   1.013794       16.763948      5.3763529    
   1972000   1.0129705      16.901777      5.3828838    
   1973000   0.96890366     16.760084      5.3625917    
   1974000   1.0158412      16.484782      5.3958289    
   1975000   0.98502386     16.633054      5.3736772    
   1976000   1.0202979      16.661554      5.3891337    
   1977000   0.99797042     16.490543      5.3653166    
   1978000   1.0012744      16.32973       5.3890144    
   1979000   1.0047357      17.234444      5.3610671    
   1980000   1.0284753      16.75716       5.3700249    
   1981000   1.0029972      17.115365      5.3441892    
   1982000   0.95059558     16.474765      5.3832021    
   1983000   0.97461317     16.730933      5.4016852    
   1984000   1.0128542      16.522664      5.4020862    
   1985000   0.9933305      16.986653      5.3749603    
   1986000   0.99476198     16.655547      5.4130545    
   1987000   0.98731609     16.660507      5.3941634    
   1988000   1.007856       16.701213      5.4086217    
   1989000   0.99341559     17.006995      5.417146     
   1990000   0.96627222     16.530381      5.3844061    
   1991000   1.0098187      16.295211      5.3816012    
   1992000   0.98692823     17.015434      5.4183603    
   1993000   1.0220569      17.104325      5.432761     
   1994000   1.051251       17.048531      5.4240887    
   1995000   1.0009519      16.779768      5.4208588    
   1996000   1.0011256      16.380649      5.4174844    
   1997000   1.0201777      17.102989      5.4401714    
   1998000   1.0094008      17.171614      5.397218     
   1999000   1.0161828      16.446842      5.4015965    
   2000000   1.0277558      16.496032      5.4441931    
   2001000   1.0231688      16.888119      5.4210941    
   2002000   0.97352655     16.080364      5.4320152    
   2003000   1.0424161      16.293419      5.3678354    
   2004000   1.0136269      16.610541      5.3965771    
   2005000   1.0256663      16.929798      5.3581172    
   2006000   0.94438125     16.366817      5.378795     
   2007000   1.0214114      16.692002      5.3641523    
   2008000   0.97402621     16.24756       5.3966513    
   2009000   1.0097452      16.785514      5.3532278    
   2010000   0.98393466     16.433358      5.352405     
   2011000   1.007999       16.948794      5.3573905    
   2012000   1.0263103      16.841881      5.3616518    
   2013000   1.021855       16.432539      5.3778212    
   2014000   0.98691823     16.157239      5.4087556    
   2015000   0.98429488     16.313025      5.3737522    
   2016000   1.0070277      16.051539      5.3846319    
   2017000   0.99252443     16.847279      5.4323303    
   2018000   1.0067684      16.831108      5.4022012    
   2019000   1.0357164      16.329634      5.4074105    
   2020000   0.98859039     17.043996      5.4135957    
   2021000   0.96958607     16.790261      5.4113241    
   2022000   1.0037686      16.932643      5.3839352    
   2023000   1.0172454      16.462924      5.4085974    
   2024000   0.98889137     16.676749      5.3828976    
   2025000   0.97333887     16.452481      5.3915262    
   2026000   0.9951332      16.751979      5.3991761    
   2027000   0.98859654     16.362249      5.3797709    
   2028000   0.9985323      16.499107      5.3857016    
   2029000   0.97201834     16.509086      5.3800071    
   2030000   0.98962305     17.004051      5.3660065    
   2031000   1.0003557      16.327103      5.3719216    
   2032000   0.99977138     16.60101       5.3514264    
   2033000   1.0211896      17.33846       5.3665349    
   2034000   1.0196633      16.376311      5.3553523    
   2035000   0.99994299     16.963106      5.3733363    
   2036000   0.98412254     15.945499      5.3770949    
   2037000   0.98528824     16.52662       5.3839377    
   2038000   1.0259825      16.97326       5.3875234    
   2039000   0.98610746     16.6715        5.3841591    
   2040000   1.0461072      16.856322      5.3975004    
   2041000   1.0238261      16.570488      5.3896241    
   2042000   1.001917       16.734789      5.3679622    
   2043000   0.99890806     16.79618       5.3901032    
   2044000   1.0056575      16.947931      5.3678759    
   2045000   0.9875041      17.216031      5.3941439    
   2046000   1.0245189      16.597311      5.3658113    
   2047000   1.0204549      17.126012      5.3715368    
   2048000   0.97646202     16.574955      5.3700966    
   2049000   1.0313753      16.626103      5.3702575    
   2050000   1.0390702      16.807543      5.3832858    
   2051000   0.97495636     16.52912       5.3905923    
   2052000   0.978379       16.846914      5.3772348    
   2053000   1.0047057      16.824559      5.3799881    
   2054000   0.99907745     16.303894      5.3699955    
   2055000   0.97590145     16.899674      5.3613781    
   2056000   0.98894435     16.672752      5.3969079    
   2057000   1.0766526      16.560653      5.4031184    
   2058000   0.97918988     16.883974      5.3674236    
   2059000   1.0056222      16.639258      5.4068914    
   2060000   1.0240466      17.012626      5.3937851    
   2061000   0.99504074     16.706664      5.3868508    
   2062000   1.0341254      17.119831      5.3969199    
   2063000   1.0047254      16.960968      5.3928767    
   2064000   1.03037        16.183331      5.3707566    
   2065000   1.0080177      16.340023      5.3872058    
   2066000   0.99258906     16.637332      5.4085183    
   2067000   1.0249485      16.694914      5.3795779    
   2068000   1.0084312      17.404417      5.3470046    
   2069000   1.0047114      16.762017      5.3896014    
   2070000   0.97302881     16.701628      5.3680244    
   2071000   1.0038557      16.088379      5.4053509    
   2072000   0.96617732     16.303663      5.4194084    
   2073000   0.99684549     16.583121      5.3877093    
   2074000   1.0153834      16.456799      5.3752244    
   2075000   1.0134386      16.90716       5.3663922    
   2076000   1.0050388      16.837037      5.3535486    
   2077000   1.0327048      17.035088      5.3934663    
   2078000   0.9918827      16.519879      5.3821457    
   2079000   0.99925564     17.20639       5.3580001    
   2080000   1.0050727      16.630213      5.4011487    
   2081000   1.0105578      17.533197      5.3664155    
   2082000   1.0011715      16.542398      5.3771636    
   2083000   0.96466671     16.876427      5.4001754    
   2084000   0.98513493     16.29911       5.3695884    
   2085000   1.0160858      16.8034        5.3744026    
   2086000   0.97631249     16.999223      5.3752226    
   2087000   0.97775303     17.00833       5.3768418    
   2088000   0.98726361     16.40199       5.4028578    
   2089000   1.0260608      16.1413        5.4518754    
   2090000   1.0169405      16.920208      5.3869387    
   2091000   0.99035013     16.818603      5.3828836    
   2092000   0.98298065     16.226223      5.3740607    
   2093000   1.0047079      16.664575      5.3729896    
   2094000   1.0163628      16.35674       5.3976386    
   2095000   0.9942436      16.912385      5.3876097    
   2096000   0.99555219     16.640991      5.3744496    
   2097000   0.96417257     16.495408      5.369163     
   2098000   1.0019321      16.448318      5.3733106    
   2099000   0.97889688     17.048256      5.3886304    
   2100000   1.0354532      17.077925      5.3791621    
   2101000   1.0141299      16.778839      5.3552294    
   2102000   0.98333919     16.588727      5.3596104    
   2103000   1.0133096      16.602133      5.3635594    
   2104000   1.0390624      16.268978      5.390705     
   2105000   0.95377693     16.219733      5.3552292    
   2106000   1.0115174      16.696472      5.391395     
   2107000   0.99880725     16.717427      5.3723628    
   2108000   0.98084025     16.55318       5.3868718    
   2109000   1.0051517      16.134101      5.3591891    
   2110000   0.95527396     16.548176      5.3740354    
   2111000   0.99548271     16.623699      5.3661568    
   2112000   0.96494659     16.332553      5.3932311    
   2113000   0.96864733     16.553318      5.3630086    
   2114000   0.98088515     16.563477      5.375976     
   2115000   0.99656214     16.595538      5.3593139    
   2116000   1.0436246      17.183704      5.3581714    
   2117000   1.0314984      16.769094      5.3672949    
   2118000   1.0100668      16.68361       5.3666764    
   2119000   1.0569594      17.063181      5.3911612    
   2120000   1.0039166      17.081463      5.3675032    
   2121000   1.0307969      17.418222      5.3594858    
   2122000   0.97746112     16.463354      5.383535     
   2123000   0.98135591     16.745243      5.3624843    
   2124000   1.0362714      16.57572       5.3774893    
   2125000   0.99926648     16.908568      5.3563809    
   2126000   0.97311266     16.932391      5.384621     
   2127000   0.98920237     16.363269      5.3639761    
   2128000   0.96868734     16.640593      5.3658223    
   2129000   1.002229       16.242536      5.4018334    
   2130000   0.93691423     16.357908      5.4403656    
   2131000   1.0269678      16.584856      5.4007122    
   2132000   1.0008081      16.863921      5.3755632    
   2133000   0.99326854     16.816559      5.40798      
   2134000   0.97329593     16.740489      5.4079963    
   2135000   1.0258744      17.16585       5.415796     
   2136000   0.97636977     16.509317      5.4341642    
   2137000   0.97888032     16.941948      5.3986217    
   2138000   1.0207232      16.930957      5.4367584    
   2139000   1.0252902      16.459754      5.4383466    
   2140000   0.99126229     16.369257      5.4356835    
   2141000   0.97075543     16.387408      5.4593523    
   2142000   1.016854       17.311762      5.4175014    
   2143000   0.98580753     17.066581      5.39281      
   2144000   0.98451822     16.863027      5.3787706    
   2145000   0.96286946     16.438154      5.3965906    
   2146000   1.0090349      16.852807      5.3866821    
   2147000   0.97642201     16.25564       5.3890258    
   2148000   1.0253438      16.593157      5.4028798    
   2149000   0.9723033      16.581645      5.4089447    
   2150000   0.9746318      16.283961      5.4206621    
   2151000   1.0118433      17.060312      5.4010267    
   2152000   1.0266225      17.623848      5.3838169    
   2153000   0.97516412     16.512461      5.3843256    
   2154000   0.99969627     17.019477      5.3773987    
   2155000   0.99159132     16.479114      5.377491     
   2156000   1.0286352      16.563918      5.3998607    
   2157000   1.0072683      16.620045      5.3612168    
   2158000   1.0260996      16.242261      5.3979415    
   2159000   1.0324899      16.66873       5.3802207    
   2160000   1.0012764      16.965026      5.3806713    
   2161000   0.99654819     16.035444      5.3970174    
   2162000   1.0162675      16.482842      5.3695092    
   2163000   0.95826255     16.750709      5.3955355    
   2164000   1.0040897      16.792961      5.3682628    
   2165000   0.993101       16.510955      5.3957752    
   2166000   0.98602144     16.765316      5.3850706    
   2167000   1.0239124      16.379079      5.3910134    
   2168000   1.0162703      16.53873       5.3582226    
   2169000   1.0386103      16.093292      5.3884533    
   2170000   0.98949216     16.632644      5.372057     
   2171000   0.99083111     17.040857      5.4040517    
   2172000   0.98262985     16.879845      5.4158741    
   2173000   0.99300543     16.282192      5.418372     
   2174000   1.0163129      17.11865       5.423256     
   2175000   1.0156427      16.717303      5.4215277    
   2176000   1.0000285      17.099922      5.3680704    
   2177000   0.98572189     17.084105      5.3867226    
   2178000   0.98829685     16.767005      5.4132343    
   2179000   0.97631731     16.755947      5.3838483    
   2180000   0.99661665     16.462903      5.4414662    
   2181000   0.99061523     16.959964      5.4254142    
   2182000   1.0154588      16.860891      5.4621204    
   2183000   0.95650701     15.7524        5.4166594    
   2184000   1.0392032      16.461721      5.3986891    
   2185000   1.0211715      16.888746      5.3995304    
   2186000   0.99834081     16.614877      5.3727829    
   2187000   1.006542       16.735127      5.3966213    
   2188000   1.0104009      16.062388      5.3986463    
   2189000   1.0139309      16.555434      5.3636596    
   2190000   0.98826666     16.392521      5.3932669    
   2191000   0.96978398     16.861583      5.3683829    
   2192000   1.0181457      17.01452       5.3815743    
   2193000   1.0001688      16.73615       5.3948556    
   2194000   0.99498673     16.259812      5.3681128    
   2195000   1.0040356      16.877928      5.3774281    
   2196000   1.0383368      16.799461      5.3685792    
   2197000   0.97393877     16.313558      5.4138431    
   2198000   0.9482728      16.556576      5.4045157    
   2199000   0.98775661     16.724268      5.3685274    
   2200000   1.0072153      16.678705      5.3711928    
   2201000   1.0225053      16.310936      5.4034737    
   2202000   0.98188539     16.325568      5.3823122    
   2203000   1.0388377      16.824158      5.3956047    
   2204000   0.99929003     16.584759      5.4211461    
   2205000   1.0512519      16.616463      5.3565436    
   2206000   0.99095885     16.545112      5.3632844    
   2207000   0.98885743     16.930257      5.3885884    
   2208000   0.99473127     16.21471       5.3760107    
   2209000   1.0083996      16.947856      5.3987593    
   2210000   0.99423808     16.776225      5.386505     
   2211000   1.0118092      16.849039      5.3682317    
   2212000   1.0078667      17.057077      5.4064579    
   2213000   1.0118308      16.753228      5.4069902    
   2214000   0.99555587     16.593015      5.4206083    
   2215000   1.0466774      16.474196      5.4249987    
   2216000   0.97836405     16.252486      5.3981853    
   2217000   1.0074356      16.611407      5.3945876    
   2218000   0.99210167     16.388944      5.4238428    
   2219000   1.0110402      16.651982      5.3865675    
   2220000   0.95968762     16.313216      5.3756382    
   2221000   1.0166753      16.439124      5.3656509    
   2222000   0.98958825     16.997788      5.4072358    
   2223000   0.99007847     16.336841      5.3711921    
   2224000   1.0179071      16.569927      5.3439197    
   2225000   1.017341       16.629699      5.4025465    
   2226000   1.0016355      16.821268      5.4111075    
   2227000   1.0118792      16.58697       5.3721415    
   2228000   0.99467276     16.703222      5.3716022    
   2229000   0.96663312     16.289583      5.4139469    
   2230000   1.0312135      16.55494       5.4120686    
   2231000   1.0130569      16.600691      5.3933017    
   2232000   0.99227845     16.455399      5.3663404    
   2233000   1.0038973      16.297605      5.377088     
   2234000   0.96091229     16.949092      5.3681326    
   2235000   0.99079587     17.071393      5.3739464    
   2236000   1.0114933      16.512525      5.3792646    
   2237000   1.0094791      16.794278      5.3686526    
   2238000   0.96376427     16.543559      5.3821544    
   2239000   1.0210109      17.18926       5.3511011    
   2240000   1.0475543      16.245381      5.3748732    
   2241000   0.98963088     16.588352      5.4224596    
   2242000   0.9599346      16.572816      5.4024641    
   2243000   0.99425234     17.250867      5.3912895    
   2244000   1.0095829      17.231298      5.4028605    
   2245000   0.99984967     16.699309      5.4054238    
   2246000   1.0684162      16.599216      5.4039908    
   2247000   0.98214055     16.707649      5.3532776    
   2248000   1.0092533      16.783967      5.4037322    
   2249000   0.9664934      16.563486      5.3810209    
   2250000   0.99213051     16.392207      5.4016575    
   2251000   1.0558555      16.829589      5.4038975    
   2252000   1.0035747      17.065118      5.3954939    
   2253000   0.98049809     17.249711      5.40084      
   2254000   1.0025011      15.914214      5.4049052    
   2255000   0.96038226     17.278199      5.3788904    
   2256000   1.0169304      16.259556      5.4332776    
   2257000   1.0204881      16.838692      5.3821517    
   2258000   1.0029471      16.63761       5.4121505    
   2259000   0.96534882     16.884053      5.3835102    
   2260000   1.0224871      16.75178       5.3924841    
   2261000   0.99510599     16.850655      5.4346571    
   2262000   1.0093812      17.426441      5.4037372    
   2263000   1.0381094      16.543781      5.3843864    
   2264000   1.0148266      16.979716      5.3751395    
   2265000   0.96532122     16.092705      5.3727005    
   2266000   0.99463777     16.42266       5.3966463    
   2267000   1.0345616      16.676209      5.3754154    
   2268000   0.99109428     16.949592      5.3648108    
   2269000   0.99359053     16.3778        5.3839839    
   2270000   1.0404381      17.312602      5.3845109    
   2271000   1.0123807      16.996987      5.3626954    
   2272000   0.99258129     16.156031      5.3745252    
   2273000   1.027549       16.670555      5.3864105    
   2274000   1.0301084      17.159339      5.3605538    
   2275000   0.99917521     16.840522      5.3773827    
   2276000   0.99752022     17.109834      5.3673426    
   2277000   1.0017321      16.592951      5.4255666    
   2278000   0.98576061     16.707421      5.4088142    
   2279000   0.98418824     16.311865      5.3774026    
   2280000   1.0009334      16.590712      5.3887116    
   2281000   0.99822709     16.704137      5.3750706    
   2282000   0.9796788      16.587002      5.3898651    
   2283000   1.0273701      17.017949      5.4295196    
   2284000   0.98669369     17.654261      5.3840912    
   2285000   0.97765917     17.119616      5.3835274    
   2286000   0.94311711     16.225813      5.4159533    
   2287000   0.99802638     16.684312      5.4110128    
   2288000   0.98682722     16.370225      5.4043665    
   2289000   1.0159136      16.71887       5.4262226    
   2290000   1.0374234      16.487623      5.4008513    
   2291000   0.99412859     16.236213      5.3878111    
   2292000   1.0377119      17.376875      5.3641359    
   2293000   1.0506129      17.055943      5.3707803    
   2294000   0.97757378     17.493575      5.3876839    
   2295000   1.0441447      16.043266      5.3926773    
   2296000   1.0304839      16.347912      5.3908063    
   2297000   1.0187197      16.826015      5.3892008    
   2298000   0.99276727     16.664522      5.3912862    
   2299000   1.0259981      16.872043      5.3897033    
   2300000   0.98324221     16.916722      5.3720372    
   2301000   1.0350144      16.980285      5.3708872    
   2302000   0.98462522     16.967295      5.3707189    
   2303000   0.97817009     16.690459      5.4021547    
   2304000   1.0173666      16.556613      5.3965796    
   2305000   0.95765458     15.842523      5.4257601    
   2306000   1.0720333      16.616441      5.4308363    
   2307000   1.0068484      16.206782      5.4010187    
   2308000   0.98637791     17.116727      5.4222051    
   2309000   0.97242442     16.390805      5.407191     
   2310000   0.99634778     16.628537      5.434998     
   2311000   1.0242201      16.978615      5.3973429    
   2312000   0.97954433     16.712354      5.4021616    
   2313000   1.0349008      16.629852      5.4373821    
   2314000   0.98843256     16.632917      5.4098997    
   2315000   1.019204       16.929061      5.4308654    
   2316000   1.0212984      16.672384      5.3891939    
   2317000   0.99125818     16.410375      5.3727611    
   2318000   1.0204249      16.584874      5.3748894    
   2319000   0.96432246     16.827436      5.3817346    
   2320000   1.0113742      16.736682      5.3735274    
   2321000   0.99209251     16.626088      5.3819251    
   2322000   0.99968854     16.63638       5.4122118    
   2323000   0.94703209     16.642634      5.41124      
   2324000   1.0456143      17.082681      5.3621257    
   2325000   0.98746367     16.694971      5.3720248    
   2326000   1.0457726      16.621076      5.3629921    
   2327000   0.99320704     16.725749      5.4009795    
   2328000   1.0212603      16.547156      5.4229693    
   2329000   1.0249294      16.952023      5.4059116    
   2330000   0.97080456     17.117266      5.4050198    
   2331000   1.0261014      17.636957      5.4185174    
   2332000   1.0653734      16.679441      5.4098018    
   2333000   1.0324053      16.315109      5.4133679    
   2334000   0.98363094     16.003466      5.3937964    
   2335000   1.0002703      16.939819      5.3806083    
   2336000   1.027508       16.499083      5.3921546    
   2337000   1.0281658      16.73354       5.3778964    
   2338000   1.0695593      16.641477      5.3624757    
   2339000   1.0127546      16.900681      5.4064575    
   2340000   0.97153907     16.860824      5.400544     
   2341000   1.0025079      16.569805      5.3636292    
   2342000   0.98480581     17.155903      5.4052572    
   2343000   0.98232165     17.204606      5.3682368    
   2344000   0.98257639     16.292447      5.370554     
   2345000   1.0076007      17.065043      5.3817582    
   2346000   0.98059889     16.294252      5.4012014    
   2347000   1.0152184      16.826481      5.3713308    
   2348000   0.98499947     16.293897      5.3800946    
   2349000   1.0460075      16.882498      5.3724066    
   2350000   1.0043613      16.997776      5.3649865    
   2351000   0.94983365     16.742862      5.3756032    
   2352000   0.99155448     16.702286      5.4073583    
   2353000   0.99853865     16.810354      5.3500252    
   2354000   1.032171       17.187769      5.3678367    
   2355000   1.0239456      16.65423       5.3812813    
   2356000   0.975597       16.281881      5.3463117    
   2357000   0.99042744     16.869731      5.3704159    
   2358000   0.98300458     17.512851      5.4239407    
   2359000   1.0283474      17.035595      5.3929116    
   2360000   1.0226793      16.973896      5.3579951    
   2361000   1.0176735      16.519439      5.4018536    
   2362000   0.96785513     16.535204      5.3900916    
   2363000   0.99245679     16.466004      5.3804551    
   2364000   1.06294        16.745753      5.411019     
   2365000   1.0258871      16.326101      5.4049918    
   2366000   1.005317       16.465445      5.3828373    
   2367000   1.0110821      16.494968      5.3925992    
   2368000   0.99064794     17.060093      5.3729887    
   2369000   1.0000136      16.713217      5.3502658    
   2370000   1.0042214      16.705586      5.3778762    
   2371000   0.98472649     17.233832      5.3745541    
   2372000   0.98078088     16.989545      5.4024859    
   2373000   1.0092049      16.618901      5.3793378    
   2374000   1.0247291      16.473585      5.3643493    
   2375000   1.0087732      16.846641      5.383778     
   2376000   0.99758463     16.670011      5.4082496    
   2377000   1.0268919      16.498414      5.4210471    
   2378000   1.0261064      16.849819      5.433103     
   2379000   1.002986       17.083362      5.4246253    
   2380000   1.0385228      16.689055      5.3832909    
   2381000   1.0020028      16.825832      5.3799965    
   2382000   1.0067977      16.629177      5.4186937    
   2383000   0.99157555     16.547713      5.4013005    
   2384000   1.039262       16.272186      5.4208531    
   2385000   1.0071703      16.670558      5.3789033    
   2386000   0.98214901     16.806015      5.4123504    
   2387000   1.0048306      16.802528      5.3588012    
   2388000   1.0000342      16.155021      5.4157881    
   2389000   1.0445519      17.062794      5.3858938    
   2390000   0.97664256     16.305746      5.3885932    
   2391000   0.9965382      16.458215      5.3700051    
   2392000   0.96009643     16.33695       5.3751364    
   2393000   0.98554971     17.256183      5.365577     
   2394000   1.0267557      16.947788      5.3917783    
   2395000   0.98970569     16.49691       5.3680733    
   2396000   1.0162986      16.904801      5.3708844    
   2397000   0.99171926     16.181985      5.3757507    
   2398000   0.98269719     16.431579      5.3910056    
   2399000   0.97393473     16.562747      5.4180002    
   2400000   0.96896764     16.15949       5.4144146    
   2401000   0.99561846     16.562377      5.3812524    
   2402000   1.0127811      17.076186      5.4017163    
   2403000   1.027711       16.783994      5.415973     
   2404000   1.0256335      17.009576      5.4178153    
   2405000   0.97994732     16.34218       5.3924121    
   2406000   1.0104964      16.230505      5.4138392    
   2407000   1.0023841      16.612147      5.372401     
   2408000   0.96636139     16.63742       5.3820815    
   2409000   1.0063666      16.881716      5.3895187    
   2410000   0.99057932     16.620559      5.3752968    
   2411000   1.0024053      17.21516       5.3534444    
   2412000   1.0001482      16.504967      5.3821159    
   2413000   1.0089515      16.427985      5.3927486    
   2414000   0.96482346     16.041307      5.4309184    
   2415000   0.97533245     17.386964      5.4431365    
   2416000   1.0058751      16.486231      5.4352176    
   2417000   1.0219897      16.586057      5.4291134    
   2418000   1.0004633      16.789355      5.402721     
   2419000   0.95614984     16.65964       5.39487      
   2420000   1.038819       16.755164      5.3748692    
   2421000   0.97529694     17.113332      5.3715587    
   2422000   0.99724787     17.115816      5.369879     
   2423000   1.0337149      16.641165      5.3770347    
   2424000   0.97880147     16.399512      5.3821833    
   2425000   0.9958258      16.645949      5.3782135    
   2426000   0.99850476     16.862214      5.3721249    
   2427000   0.99374848     16.957984      5.3657384    
   2428000   1.0035667      16.835986      5.3475454    
   2429000   0.9837709      16.620771      5.3717222    
   2430000   0.98040145     16.686619      5.4181494    
   2431000   1.0017442      16.779197      5.3756554    
   2432000   0.98385983     16.876357      5.4019241    
   2433000   0.9876839      16.835399      5.4087611    
   2434000   1.0107466      17.437594      5.4230257    
   2435000   0.99133425     16.877515      5.39869      
   2436000   1.0095649      16.764143      5.4014994    
   2437000   1.019491       16.20207       5.4143725    
   2438000   0.99213633     17.235856      5.3890738    
   2439000   1.0095027      16.251903      5.3923637    
   2440000   1.0130172      16.582737      5.4038735    
   2441000   1.0339771      16.262989      5.4278033    
   2442000   1.0004133      16.642291      5.4294702    
   2443000   1.0218749      16.863291      5.3757998    
   2444000   0.95982398     16.560824      5.3799271    
   2445000   1.0407215      16.935187      5.3844888    
   2446000   1.0272983      16.663837      5.3896815    
   2447000   0.98958096     16.642063      5.379429     
   2448000   0.96764525     17.021581      5.3955642    
   2449000   1.0314218      16.919297      5.3892925    
   2450000   0.99019648     16.686604      5.4018692    
   2451000   1.0005534      16.443451      5.4116952    
   2452000   0.98224927     15.987919      5.3863473    
   2453000   0.98369254     15.921739      5.394181     
   2454000   1.0149243      16.703032      5.373625     
   2455000   1.0057601      17.015882      5.3860597    
   2456000   0.96730781     16.260383      5.3984786    
   2457000   0.9841686      16.674997      5.4158119    
   2458000   0.9832536      16.908279      5.4114296    
   2459000   1.0099274      17.30953       5.3703614    
   2460000   0.97780477     16.917278      5.3775027    
   2461000   0.98310496     16.769035      5.3850403    
   2462000   0.98678887     17.118185      5.4043112    
   2463000   1.0124241      17.560017      5.3938953    
   2464000   1.0377969      17.004477      5.37859      
   2465000   0.98796855     16.730099      5.3687454    
   2466000   1.0009881      17.075496      5.369741     
   2467000   1.0002038      16.572068      5.3793911    
   2468000   0.99915451     16.184672      5.3691503    
   2469000   0.98360386     16.620454      5.399851     
   2470000   0.99788412     16.349183      5.3943976    
   2471000   0.98732941     16.886315      5.386991     
   2472000   0.99832031     16.032048      5.3825094    
   2473000   0.9909322      16.577525      5.3891241    
   2474000   1.0063295      16.080886      5.4013127    
   2475000   1.0318183      16.916345      5.4085866    
   2476000   1.0101597      16.621948      5.3801651    
   2477000   0.99223401     16.550811      5.3811831    
   2478000   0.98946262     16.275211      5.3566954    
   2479000   0.97894025     16.496342      5.392995     
   2480000   0.98218239     16.727198      5.3505917    
   2481000   1.0027896      17.072657      5.345407     
   2482000   1.0123676      16.698962      5.3718937    
   2483000   1.0272745      16.294059      5.3797769    
   2484000   1.0213553      17.035624      5.3873104    
   2485000   0.99615948     16.719157      5.3771371    
   2486000   0.99767641     16.06409       5.388557     
   2487000   1.0564689      16.845926      5.3554639    
   2488000   0.98228677     17.017957      5.3645295    
   2489000   0.96901771     16.962435      5.3532624    
   2490000   0.93970541     16.41341       5.3766418    
   2491000   1.0558764      17.328056      5.4060872    
   2492000   1.0250401      17.021934      5.3811864    
   2493000   1.0099233      17.196817      5.3563988    
   2494000   0.97669042     16.656021      5.3977207    
   2495000   0.98489216     16.571428      5.3837711    
   2496000   0.98740135     16.809968      5.4127786    
   2497000   0.97947621     16.935445      5.3825506    
   2498000   1.0009987      16.105574      5.3581743    
   2499000   1.0148941      16.484963      5.3736457    
   2500000   1.0353856      16.691521      5.3865712    
   2501000   1.0120383      17.102287      5.3542112    
   2502000   0.97130072     16.310933      5.4048516    
   2503000   1.0304746      16.296901      5.3961898    
   2504000   0.96177757     16.392831      5.3765315    
   2505000   0.98442258     16.114997      5.3767305    
   2506000   1.0135342      17.142164      5.3917974    
   2507000   1.0167003      16.909406      5.3876186    
   2508000   1.0180227      16.821381      5.3654277    
   2509000   1.017115       16.482947      5.367639     
   2510000   1.0018809      16.607302      5.3979804    
   2511000   0.98529092     16.993305      5.399099     
   2512000   1.0138287      16.304139      5.4219502    
   2513000   0.99420919     15.964397      5.4054855    
   2514000   0.9667358      16.206054      5.4172196    
   2515000   1.0044074      16.714625      5.3860689    
   2516000   1.0165473      16.531122      5.3743037    
   2517000   0.98794363     16.681957      5.3850033    
   2518000   0.98046367     16.881307      5.3827337    
   2519000   0.98541443     16.942498      5.3525559    
   2520000   1.0029994      16.519231      5.3937308    
   2521000   0.99699275     16.829299      5.3551186    
   2522000   1.03231        16.614563      5.3550699    
   2523000   1.0165647      17.031316      5.3640094    
   2524000   0.99349443     16.863336      5.3912777    
   2525000   1.0195125      16.278682      5.3860098    
   2526000   1.0382737      16.444909      5.3678972    
   2527000   1.0291036      17.267018      5.3469815    
   2528000   1.0046676      16.586237      5.3921754    
   2529000   0.99178182     16.560597      5.4099572    
   2530000   1.0287633      16.616378      5.415313     
   2531000   1.0342804      16.751209      5.3923194    
   2532000   0.97590191     16.990453      5.4086358    
   2533000   1.0179709      17.629178      5.3711701    
   2534000   1.0074126      16.087098      5.3663457    
   2535000   1.0094699      16.594724      5.377795     
   2536000   0.9769686      16.266069      5.3773004    
   2537000   1.0116907      16.312138      5.4119267    
   2538000   0.99346953     17.007069      5.3895396    
   2539000   1.017034       16.810714      5.381556     
   2540000   0.99834633     16.683756      5.4112912    
   2541000   0.97830519     16.612593      5.3896143    
   2542000   1.0152894      16.521298      5.3885463    
   2543000   1.0022526      16.96194       5.3619406    
   2544000   1.0107016      16.806561      5.3849631    
   2545000   0.991782       16.308083      5.3654995    
   2546000   1.0036048      16.792464      5.3788658    
   2547000   1.0642728      16.319798      5.3373265    
   2548000   1.0193139      16.609481      5.372176     
   2549000   1.0017651      16.91352       5.3720309    
   2550000   1.0062461      17.388228      5.3850411    
   2551000   1.03398        16.027338      5.3783396    
   2552000   0.9795027      16.569242      5.3580286    
   2553000   0.9898721      16.440572      5.3351404    
   2554000   1.0052657      16.50594       5.3765945    
   2555000   1.0452373      16.710273      5.3653373    
   2556000   0.96703368     17.067894      5.3547871    
   2557000   0.99113558     16.719515      5.3959178    
   2558000   0.9841514      16.504424      5.353488     
   2559000   1.0497392      16.812621      5.398374     
   2560000   1.021272       16.600336      5.3507295    
   2561000   0.94925573     16.383738      5.3888811    
   2562000   1.0029426      16.225773      5.3740839    
   2563000   1.0041387      16.719447      5.3922873    
   2564000   1.0116101      17.026511      5.3896129    
   2565000   0.96798348     17.12815       5.3849172    
   2566000   0.97219718     16.758511      5.4134733    
   2567000   0.97969285     16.692204      5.4241262    
   2568000   1.0055246      16.399698      5.4189176    
   2569000   0.99822975     16.658652      5.3899139    
   2570000   1.0326807      17.023247      5.412552     
   2571000   0.99142239     16.598855      5.3881048    
   2572000   0.98638352     17.267142      5.3770871    
   2573000   0.97831448     16.896361      5.4038703    
   2574000   0.95621008     16.635122      5.3678051    
   2575000   1.0362484      17.701301      5.3379726    
   2576000   0.98613113     16.401873      5.3756479    
   2577000   1.0110571      16.914274      5.3835422    
   2578000   1.0127813      16.873375      5.4089528    
   2579000   1.0068249      16.84915       5.360326     
   2580000   1.0270014      17.113174      5.3982607    
   2581000   1.0151719      16.360467      5.3906154    
   2582000   1.0164743      16.757396      5.3770258    
   2583000   1.0297532      16.808047      5.3630029    
   2584000   1.0037596      16.849267      5.4211375    
   2585000   1.0112166      16.306186      5.3455413    
   2586000   0.96438924     16.863141      5.3638015    
   2587000   1.0090803      16.615671      5.360209     
   2588000   1.0094811      16.769127      5.3641505    
   2589000   1.0142996      16.503181      5.3601126    
   2590000   0.9777008      16.751657      5.3901344    
   2591000   0.95606172     15.971762      5.3806084    
   2592000   0.99462055     16.545401      5.3829352    
   2593000   0.98758931     16.960755      5.345821     
   2594000   1.0054568      16.522365      5.351105     
   2595000   1.0212036      17.043288      5.3473237    
   2596000   0.98681096     16.902374      5.3672127    
   2597000   1.0000072      16.770069      5.3859415    
   2598000   1.038051       17.494408      5.3556406    
   2599000   1.0160625      16.670593      5.3559084    
   2600000   1.0191983      16.815949      5.3635945    
   2601000   1.0018209      16.155233      5.3608948    
   2602000   0.97152202     16.671974      5.4097543    
   2603000   1.010316       16.632886      5.3925769    
   2604000   1.0237991      16.724368      5.3887816    
   2605000   0.96428715     17.172058      5.3979407    
   2606000   1.0053414      16.456665      5.3750622    
   2607000   0.99598249     16.491799      5.3798181    
   2608000   1.0023939      16.874792      5.3977046    
   2609000   0.9660212      16.737607      5.3962472    
   2610000   0.97902069     16.921642      5.4070053    
   2611000   1.0301367      16.523877      5.3899817    
   2612000   0.99294352     17.430727      5.3559835    
   2613000   0.98256452     17.275581      5.3820449    
   2614000   0.98503168     16.431301      5.3984751    
   2615000   1.0322249      17.332175      5.4095614    
   2616000   1.0193603      16.653652      5.40014      
   2617000   0.92623919     16.391666      5.4152656    
   2618000   1.0199137      16.837839      5.3872717    
   2619000   1.0246015      16.734563      5.3930113    
   2620000   0.99317922     16.554295      5.4150782    
   2621000   1.0087804      16.225567      5.3876159    
   2622000   0.99779809     16.788686      5.3774062    
   2623000   1.0253175      16.846388      5.4239225    
   2624000   0.98603826     17.027728      5.4326859    
   2625000   0.97976785     16.752065      5.3619509    
   2626000   1.0282217      16.512564      5.4158601    
   2627000   0.99406829     17.141496      5.398676     
   2628000   1.0085407      16.389498      5.3881358    
   2629000   1.0249246      16.458665      5.3758071    
   2630000   1.033378       16.797385      5.3896339    
   2631000   1.0174857      16.88578       5.3568427    
   2632000   0.98443562     16.86798       5.3877726    
   2633000   1.0166653      16.977194      5.4036316    
   2634000   1.0107818      16.738385      5.372625     
   2635000   1.0148909      16.598439      5.3868253    
   2636000   0.97271521     16.644923      5.4307188    
   2637000   0.97846981     16.888338      5.4377732    
   2638000   0.98103131     17.501359      5.4116442    
   2639000   0.95339752     16.621399      5.4350406    
   2640000   1.020941       16.580207      5.3827678    
   2641000   1.0167965      16.495066      5.3719769    
   2642000   1.0096839      16.499989      5.3593969    
   2643000   1.0680427      16.681865      5.381168     
   2644000   0.96360358     16.288688      5.3703766    
   2645000   1.0010437      16.434263      5.3713278    
   2646000   0.99485093     16.514971      5.3671307    
   2647000   0.98093932     16.306582      5.4382045    
   2648000   0.96009978     16.301939      5.371325     
   2649000   0.96033095     17.159859      5.3692608    
   2650000   1.0011998      16.596513      5.4134073    
   2651000   0.99329765     17.106834      5.3960279    
   2652000   0.9855632      17.119342      5.3819704    
   2653000   0.98929841     16.89359       5.3890719    
   2654000   0.98008113     16.86764       5.3601388    
   2655000   0.97286176     16.195197      5.3835769    
   2656000   1.0180959      16.591119      5.3537555    
   2657000   0.97762603     16.629798      5.3735937    
   2658000   1.005343       17.085273      5.3879359    
   2659000   1.0392249      16.740948      5.3747831    
   2660000   1.0261514      16.976252      5.4044311    
   2661000   1.0223198      16.958026      5.4013758    
   2662000   0.97066699     16.555678      5.3915472    
   2663000   1.0031844      16.806243      5.3887861    
   2664000   0.97484626     16.371828      5.3926562    
   2665000   1.0213986      16.954835      5.3683984    
   2666000   1.0423584      17.004135      5.4032771    
   2667000   0.99425224     16.424711      5.4121113    
   2668000   0.99907477     16.705065      5.3568223    
   2669000   1.0209925      16.533081      5.3944681    
   2670000   0.99957291     16.439381      5.3895599    
   2671000   0.98361        16.651846      5.3861008    
   2672000   1.0177487      16.92533       5.4183729    
   2673000   0.98374608     16.817683      5.3987701    
   2674000   1.0456204      17.022125      5.3924504    
   2675000   1.0178252      16.738996      5.374813     
   2676000   1.0284872      16.564181      5.3880066    
   2677000   1.0173312      16.730129      5.3817749    
   2678000   1.0335271      17.013016      5.3688978    
   2679000   1.0240033      17.209579      5.3643786    
   2680000   1.0108559      16.8671        5.4118582    
   2681000   1.0191741      16.792167      5.393356     
   2682000   1.0278718      16.567602      5.4129902    
   2683000   1.0242124      16.605685      5.4303997    
   2684000   0.96022126     16.528498      5.4207353    
   2685000   1.0223368      16.218592      5.3953736    
   2686000   0.98473459     16.702301      5.3697608    
   2687000   0.99249136     16.564233      5.3701198    
   2688000   1.0069685      16.457911      5.3502735    
   2689000   0.98239136     16.71864       5.3756213    
   2690000   1.0101825      16.196888      5.3796825    
   2691000   0.97500518     16.705066      5.4353978    
   2692000   1.0113898      16.770281      5.3965917    
   2693000   1.0031971      16.583467      5.4122819    
   2694000   0.99507254     16.763362      5.375657     
   2695000   1.0677304      16.732003      5.3979623    
   2696000   1.0100979      16.359303      5.4170343    
   2697000   1.0115729      16.618196      5.3905499    
   2698000   0.96736735     16.823434      5.3687717    
   2699000   1.0072954      16.771251      5.4232442    
   2700000   0.98252278     16.312872      5.3805284    
   2701000   0.98463517     16.878902      5.3879067    
   2702000   1.0146158      16.602905      5.3889497    
   2703000   1.0104773      16.624309      5.4107021    
   2704000   0.97144308     16.596797      5.391361     
   2705000   1.0308143      17.07073       5.4043854    
   2706000   1.0035274      16.742533      5.3792721    
   2707000   0.9924476      16.607845      5.3935668    
   2708000   1.0009638      16.705001      5.406691     
   2709000   1.0052416      16.717425      5.4126473    
   2710000   1.0041329      16.537656      5.3837256    
   2711000   1.0240137      16.82544       5.3743198    
   2712000   0.97002384     16.47881       5.3825549    
   2713000   0.98748387     16.443974      5.4034246    
   2714000   1.021789       16.803473      5.4156634    
   2715000   1.01104        16.541765      5.4129613    
   2716000   0.97995774     17.472856      5.3954494    
   2717000   1.0233698      16.499094      5.396507     
   2718000   0.9998984      16.849395      5.3969358    
   2719000   0.98155077     17.077553      5.3786332    
   2720000   0.98034887     16.854841      5.3964933    
   2721000   1.0147878      17.21332       5.3577513    
   2722000   0.99103815     16.530718      5.37602      
   2723000   0.95396338     16.439684      5.3622254    
   2724000   0.97516676     16.57683       5.3636021    
   2725000   0.98609423     16.625119      5.389315     
   2726000   1.0009162      16.916503      5.3763303    
   2727000   1.0016846      16.609733      5.3881167    
   2728000   1.0313168      16.545051      5.3448457    
   2729000   1.0073314      16.521307      5.3483527    
   2730000   0.98180847     16.049242      5.3994684    
   2731000   0.99909482     16.721197      5.3727158    
   2732000   1.002008       16.919714      5.4215487    
   2733000   0.96692196     16.89848       5.4132969    
   2734000   1.0044371      16.668067      5.3808154    
   2735000   1.0139393      16.899749      5.3946119    
   2736000   0.99832359     16.842059      5.4076913    
   2737000   0.96525889     16.675546      5.4133127    
   2738000   1.0297226      16.987517      5.3760048    
   2739000   1.0043649      16.462461      5.3728299    
   2740000   0.99526797     16.903698      5.3702067    
   2741000   0.96701467     16.570073      5.3845297    
   2742000   0.97123731     16.809441      5.3760055    
   2743000   0.99534847     16.982235      5.3617944    
   2744000   1.0266774      16.815039      5.3693791    
   2745000   1.0042525      16.41206       5.3780873    
   2746000   1.0071117      17.110437      5.3736613    
   2747000   1.0316135      16.896971      5.3775146    
   2748000   0.98554355     17.012928      5.3542266    
   2749000   1.0007073      16.914423      5.4156682    
   2750000   1.0480166      16.715505      5.3994235    
   2751000   0.99940472     17.103589      5.386626     
   2752000   0.99941767     16.806636      5.3901918    
   2753000   0.97226598     15.886307      5.3581352    
   2754000   0.99221729     17.246659      5.3767185    
   2755000   1.0132502      16.754919      5.4003512    
   2756000   1.0014219      16.827621      5.3844013    
   2757000   1.0117733      16.409837      5.376112     
   2758000   1.003022       16.550789      5.3708328    
   2759000   1.02532        16.53244       5.4079709    
   2760000   1.0221945      16.903756      5.3862381    
   2761000   0.9916811      17.099671      5.3934059    
   2762000   1.034217       16.166244      5.3838078    
   2763000   1.0038586      16.858186      5.4224088    
   2764000   1.0143674      16.963019      5.3766358    
   2765000   0.95975854     17.143681      5.3851439    
   2766000   1.0213997      16.757653      5.4291438    
   2767000   0.99214307     16.706839      5.4100069    
   2768000   0.99408744     16.476412      5.4400869    
   2769000   0.98369491     16.8373        5.4022627    
   2770000   1.0216359      16.61694       5.4011822    
   2771000   0.9740145      16.553265      5.4142025    
   2772000   0.97742616     16.512324      5.4491546    
   2773000   1.0222942      17.17089       5.45523      
   2774000   0.99901586     16.402644      5.4178812    
   2775000   0.9980542      16.51893       5.413169     
   2776000   0.9926335      16.605814      5.401831     
   2777000   1.0070994      17.19872       5.3781718    
   2778000   1.0138743      16.694136      5.4266169    
   2779000   1.0185752      16.614169      5.417605     
   2780000   0.99193502     16.033663      5.4158382    
   2781000   1.0414232      16.713793      5.4042259    
   2782000   1.041599       17.130741      5.4112399    
   2783000   1.0002951      16.683865      5.3805773    
   2784000   0.98447561     16.71228       5.3947242    
   2785000   1.0779183      17.044418      5.3771745    
   2786000   0.95029588     16.210826      5.3776508    
   2787000   1.0027116      16.795087      5.3697596    
   2788000   1.0173663      16.973573      5.3811738    
   2789000   1.0245206      16.682         5.4142756    
   2790000   1.0203953      16.431888      5.4197453    
   2791000   0.98438003     17.032787      5.3724977    
   2792000   1.009934       16.975432      5.3872803    
   2793000   1.0102809      16.866065      5.3805957    
   2794000   0.99023449     16.381374      5.3582177    
   2795000   1.0087364      16.760896      5.391486     
   2796000   1.037647       16.327542      5.4286756    
   2797000   1.0136479      17.286479      5.3769261    
   2798000   1.0409285      17.437161      5.3753525    
   2799000   0.98830958     16.937963      5.4008497    
   2800000   1.0188731      16.768737      5.3812283    
   2801000   0.93553328     16.320081      5.3639129    
   2802000   1.0047446      16.609789      5.373911     
   2803000   0.98375143     17.040519      5.4165578    
   2804000   0.95004451     16.395546      5.3624603    
   2805000   1.0066219      16.851845      5.4040681    
   2806000   1.0057816      16.553286      5.3785028    
   2807000   0.99766667     16.585947      5.368719     
   2808000   0.97086739     16.462626      5.4283125    
   2809000   0.98292676     16.403317      5.363779     
   2810000   0.99388475     16.741019      5.3832247    
   2811000   1.0095094      16.903719      5.374038     
   2812000   1.039003       16.81998       5.3673577    
   2813000   1.047236       16.650713      5.3812894    
   2814000   0.9943778      16.418808      5.415763     
   2815000   1.0101445      16.872768      5.3834654    
   2816000   0.99428071     16.620847      5.3566013    
   2817000   1.0058527      16.658034      5.3547045    
   2818000   1.0307775      16.832646      5.374669     
   2819000   0.99314574     16.535234      5.3886554    
   2820000   1.0113858      17.040004      5.366536     
   2821000   1.0223929      17.315451      5.4103942    
   2822000   1.0008657      17.078651      5.408257     
   2823000   0.98403856     16.611962      5.3940344    
   2824000   0.98521803     16.526906      5.372426     
   2825000   1.0115672      16.813809      5.3564761    
   2826000   1.0182352      16.545211      5.3852396    
   2827000   0.98433206     17.178485      5.3521079    
   2828000   1.0014088      16.328244      5.4242054    
   2829000   1.0073506      16.811063      5.3966874    
   2830000   0.99875664     16.676502      5.3928875    
   2831000   1.0194681      16.592086      5.4086958    
   2832000   0.97314934     16.626397      5.3886544    
   2833000   1.0287879      16.756035      5.3772838    
   2834000   1.0019532      16.794009      5.3941308    
   2835000   0.97404303     16.578955      5.3695367    
   2836000   0.96029224     16.887844      5.3668081    
   2837000   0.98503787     16.074575      5.3919761    
   2838000   1.0478788      16.744405      5.3700434    
   2839000   0.97766692     16.143223      5.3820466    
   2840000   1.0005789      16.843601      5.3961302    
   2841000   1.0246695      17.035364      5.3906566    
   2842000   0.98237105     16.355939      5.4096771    
   2843000   0.96958295     17.029113      5.4036939    
   2844000   0.99020092     16.648615      5.3817664    
   2845000   1.0006565      16.619539      5.3454048    
   2846000   0.9707952      16.011682      5.382657     
   2847000   1.0259752      16.966196      5.3752979    
   2848000   0.99408203     16.708686      5.3830439    
   2849000   0.95153177     16.115148      5.3929813    
   2850000   0.97146157     16.89301       5.3732376    
   2851000   0.96488715     16.530672      5.3691706    
   2852000   1.0029376      16.675987      5.3939274    
   2853000   1.0014405      16.575614      5.3789274    
   2854000   0.96421826     16.921607      5.3979835    
   2855000   1.0215561      17.078231      5.4125195    
   2856000   0.99904571     16.567205      5.3910393    
   2857000   0.98992348     17.054281      5.4126196    
   2858000   0.99733123     17.203117      5.3849148    
   2859000   0.9775076      16.754332      5.393949     
   2860000   0.99926068     17.186383      5.3812544    
   2861000   0.97929815     16.069162      5.3928093    
   2862000   1.0157577      16.543223      5.3767588    
   2863000   1.0100219      17.05174       5.3670463    
   2864000   1.0355122      16.978083      5.4145773    
   2865000   0.99542299     16.903152      5.371944     
   2866000   0.98120636     16.59174       5.4052894    
   2867000   1.0203893      15.88816       5.4013478    
   2868000   1.0277317      16.765155      5.3706934    
   2869000   1.000941       16.742085      5.3879987    
   2870000   1.0184582      17.25449       5.3637347    
   2871000   0.99283584     16.329656      5.4063021    
   2872000   0.97761212     16.501203      5.3702324    
   2873000   1.0095976      17.389694      5.3855808    
   2874000   1.0359993      16.816363      5.3722279    
   2875000   1.0374532      17.087997      5.3940733    
   2876000   0.9955758      16.646068      5.3719383    
   2877000   0.95850769     16.916735      5.3782389    
   2878000   0.98853503     16.946308      5.3735347    
   2879000   1.0045551      16.778686      5.3750185    
   2880000   0.97771261     16.761876      5.3851213    
   2881000   0.96322216     16.800534      5.3897705    
   2882000   1.0135554      17.082299      5.3898995    
   2883000   1.0378424      16.757223      5.3830617    
   2884000   1.0040171      17.021209      5.3656836    
   2885000   1.0149516      16.598954      5.3863046    
   2886000   1.027626       16.087145      5.3972225    
   2887000   0.98051716     17.32745       5.4046628    
   2888000   0.982424       16.519383      5.3876667    
   2889000   1.0164232      17.014701      5.3942786    
   2890000   0.97883645     16.967678      5.3483898    
   2891000   1.0187126      16.940397      5.4011522    
   2892000   1.0087177      17.128072      5.3833322    
   2893000   1.0298328      16.947969      5.4105932    
   2894000   1.0282349      17.310288      5.4087368    
   2895000   0.97697243     16.699704      5.404475     
   2896000   1.0520618      17.066069      5.4020881    
   2897000   0.98858777     16.042909      5.3818269    
   2898000   1.011759       16.427106      5.373788     
   2899000   1.0202118      16.893578      5.3573487    
   2900000   1.0011987      16.798584      5.3833356    
   2901000   1.0170114      16.336027      5.4123862    
   2902000   0.98169432     16.220134      5.3908605    
   2903000   1.0196531      16.432383      5.4218871    
   2904000   0.99111169     16.834263      5.4033867    
   2905000   0.99607741     17.020668      5.3690486    
   2906000   0.99909385     16.74138       5.3974536    
   2907000   1.0207504      16.431753      5.4355646    
   2908000   1.00672        17.02306       5.4115221    
   2909000   1.039066       16.74409       5.3715937    
   2910000   0.96305247     16.731471      5.3645347    
   2911000   0.97818545     16.316342      5.3850815    
   2912000   0.96048381     16.525784      5.3862425    
   2913000   1.0031311      15.783887      5.4059107    
   2914000   0.95934334     16.242171      5.4143505    
   2915000   1.0630419      16.952078      5.3840125    
   2916000   1.0246797      16.506728      5.3751941    
   2917000   0.9966054      16.703439      5.3900442    
   2918000   1.0000855      16.535861      5.4056667    
   2919000   0.94973618     16.567783      5.3978793    
   2920000   0.96447022     16.6977        5.3906121    
   2921000   0.98479684     17.109255      5.4108442    
   2922000   0.98562317     16.319702      5.4251853    
   2923000   0.98536768     16.828142      5.4592249    
   2924000   0.96993205     17.137723      5.4181941    
   2925000   0.97254943     16.612043      5.4286908    
   2926000   0.96842702     16.623158      5.4271131    
   2927000   0.97857349     16.522189      5.4061252    
   2928000   0.98921456     16.586663      5.4282034    
   2929000   0.98205603     16.351259      5.4343237    
   2930000   1.0119184      15.800508      5.424608     
   2931000   1.0290672      16.974351      5.3995537    
   2932000   1.0162188      17.019159      5.4510132    
   2933000   1.0006746      17.189727      5.4146515    
   2934000   1.0052361      16.710588      5.4361914    
   2935000   1.0129901      16.550171      5.3879922    
   2936000   1.0134437      16.561779      5.3932785    
   2937000   1.0053782      16.431495      5.4051027    
   2938000   0.994005       16.630586      5.4151164    
   2939000   0.96399556     16.469316      5.3966266    
   2940000   0.99145848     16.805568      5.3863741    
   2941000   1.005107       16.828701      5.3901318    
   2942000   0.97879915     16.073182      5.3879639    
   2943000   0.97982147     17.25675       5.3747931    
   2944000   0.99955928     16.277928      5.3857247    
   2945000   1.0526369      16.775292      5.3791134    
   2946000   1.0631031      16.275471      5.4014799    
   2947000   1.0119022      16.558441      5.3725017    
   2948000   0.9651994      17.25077       5.3783133    
   2949000   0.98941912     16.275507      5.384448     
   2950000   0.98837741     16.761296      5.3737307    
   2951000   0.99270134     16.645443      5.396207     
   2952000   1.0034486      16.821489      5.3842384    
   2953000   1.0108223      16.593535      5.3759729    
   2954000   1.0237257      16.7568        5.3741248    
   2955000   1.0145262      16.556488      5.3882273    
   2956000   1.0026821      16.485671      5.3849767    
   2957000   0.99771913     16.633786      5.3659723    
   2958000   0.99324306     16.767369      5.3699318    
   2959000   0.97914908     17.134021      5.3590315    
   2960000   1.0100844      16.965144      5.3597484    
   2961000   0.97755416     16.494909      5.3991006    
   2962000   1.0260067      17.188336      5.3771342    
   2963000   1.0012096      16.641578      5.4051967    
   2964000   1.0124131      16.949048      5.4058327    
   2965000   0.99395323     16.723343      5.4173363    
   2966000   1.0294648      16.92717       5.3847179    
   2967000   1.0146908      17.350207      5.4252106    
   2968000   1.0081909      16.568752      5.4155166    
   2969000   0.97862834     16.488405      5.4290262    
   2970000   1.0043747      17.17925       5.3891457    
   2971000   0.97887199     16.445605      5.3844509    
   2972000   1.0354588      17.186762      5.3934281    
   2973000   1.0041857      16.943707      5.4047689    
   2974000   0.98717793     16.788928      5.3798109    
   2975000   1.0253897      16.265117      5.4096692    
   2976000   0.9968521      16.444207      5.4196824    
   2977000   1.0197874      16.856613      5.4442198    
   2978000   1.0379783      16.593144      5.4476475    
   2979000   1.0466442      16.395162      5.4088995    
   2980000   0.99875874     16.595522      5.4067186    
   2981000   0.98719469     16.94026       5.4064521    
   2982000   0.97891432     16.509523      5.4168751    
   2983000   1.0558968      16.826474      5.3877948    
   2984000   1.0052525      16.562842      5.4207837    
   2985000   0.995353       16.407945      5.4257695    
   2986000   1.0285072      16.516898      5.4550351    
   2987000   0.96251248     16.809181      5.3771512    
   2988000   1.0026395      17.125645      5.4067972    
   2989000   0.99338684     17.202284      5.4210199    
   2990000   1.0345531      16.73634       5.3614306    
   2991000   1.0064735      16.534911      5.3870479    
   2992000   1.0615388      16.835652      5.408059     
   2993000   0.98844016     16.969631      5.3766409    
   2994000   0.97819286     16.683199      5.3738928    
   2995000   1.040323       16.784426      5.4258366    
   2996000   1.0246812      17.102544      5.395641     
   2997000   1.0041525      16.812586      5.386732     
   2998000   0.9898527      17.170266      5.3475302    
   2999000   1.0202889      16.552251      5.3844089    
   3000000   0.98365942     16.912183      5.3829173    
   3001000   0.99551355     16.916486      5.3893466    
   3002000   0.99997171     16.556766      5.4248278    
   3003000   0.98604705     17.168369      5.3933482    
   3004000   0.99400068     17.015198      5.3900169    
   3005000   0.98401833     16.592469      5.4000619    
   3006000   1.0010412      16.27306       5.4160521    
   3007000   0.98308224     16.844914      5.443971     
   3008000   0.98940193     17.279725      5.4192909    
   3009000   0.99563978     16.907704      5.407066     
   3010000   0.96629621     16.983962      5.3927756    
   3011000   1.0074713      16.915929      5.3961837    
   3012000   0.99948009     16.565633      5.3941327    
   3013000   1.0090269      16.36532       5.4232904    
   3014000   1.0117539      17.054197      5.3638892    
   3015000   0.99242826     17.099788      5.3746732    
   3016000   0.95831209     16.391433      5.3822174    
   3017000   0.98553277     16.713413      5.3846833    
   3018000   1.0041943      16.486397      5.3911757    
   3019000   1.0151527      17.005397      5.3375399    
   3020000   0.97057889     16.369617      5.387361     
   3021000   1.0008566      16.303962      5.3807336    
   3022000   1.0089827      16.382097      5.3724661    
   3023000   0.97592818     16.880741      5.3555746    
   3024000   1.027845       17.080292      5.3720938    
   3025000   0.96710932     16.65726       5.3783775    
   3026000   0.98859602     16.784003      5.3647179    
   3027000   0.93658855     16.572239      5.3893927    
   3028000   1.0290677      16.720234      5.3917633    
   3029000   0.98740344     16.528483      5.348352     
   3030000   0.97350695     16.463066      5.3635281    
   3031000   1.0299748      16.604144      5.4023879    
   3032000   1.011634       16.776445      5.3867693    
   3033000   1.018569       17.191051      5.3945835    
   3034000   0.96948997     16.785675      5.3477631    
   3035000   0.9913579      16.772014      5.3827851    
   3036000   1.0195204      16.711317      5.3729522    
   3037000   0.99141976     16.669633      5.3486801    
   3038000   1.0304289      17.178642      5.3862458    
   3039000   1.0337365      17.150915      5.3817788    
   3040000   1.0183251      16.69384       5.3456276    
   3041000   0.99409294     16.795726      5.345312     
   3042000   0.97741962     16.454322      5.356459     
   3043000   1.0304209      16.371697      5.4095064    
   3044000   1.0119646      16.726825      5.3692414    
   3045000   1.0145754      16.915814      5.3691175    
   3046000   1.0150908      16.581764      5.3606496    
   3047000   0.9952496      16.687427      5.3776216    
   3048000   0.99093288     17.137208      5.3808188    
   3049000   1.0394283      16.649238      5.4043843    
   3050000   1.0087313      16.933503      5.4072468    
   3051000   1.0164646      17.207883      5.4015133    
   3052000   1.0243233      16.881966      5.4244564    
   3053000   1.0276219      17.2511        5.4147683    
   3054000   0.98728088     16.988221      5.4028673    
   3055000   0.98808634     16.659545      5.3941636    
   3056000   1.0324798      16.772981      5.4087837    
   3057000   0.98238272     16.657079      5.4535336    
   3058000   0.98273201     16.443007      5.4267596    
   3059000   1.0045531      16.473544      5.4272065    
   3060000   1.0190405      16.898716      5.4199226    
   3061000   0.9900261      16.277548      5.4594227    
   3062000   1.014574       17.150279      5.4055499    
   3063000   1.0231236      17.319496      5.436174     
   3064000   1.0069834      17.246004      5.4062684    
   3065000   0.98004354     16.914742      5.4194727    
   3066000   1.0144147      16.513469      5.3761462    
   3067000   0.96688454     16.235949      5.409681     
   3068000   1.0109309      17.361786      5.3984673    
   3069000   0.98877638     17.146534      5.4091482    
   3070000   0.98451242     16.469068      5.3999604    
   3071000   0.98069234     16.204089      5.4080533    
   3072000   0.9788784      16.658499      5.3808633    
   3073000   1.0206592      16.392365      5.3867986    
   3074000   0.97517007     16.875414      5.4083709    
   3075000   1.0003384      16.283796      5.4142119    
   3076000   0.96399962     16.775439      5.437861     
   3077000   1.0164221      17.543538      5.415349     
   3078000   0.97743983     16.438654      5.3989786    
   3079000   1.0051764      16.950474      5.3862338    
   3080000   1.0176533      16.241034      5.4082553    
   3081000   0.9728756      16.780241      5.4328764    
   3082000   1.0219079      17.322854      5.4194783    
   3083000   1.0353425      16.298858      5.4271165    
   3084000   0.98848533     16.865691      5.384015     
   3085000   0.97983439     16.892526      5.3989719    
   3086000   1.0019143      17.336685      5.4126534    
   3087000   0.9864508      16.90611       5.418616     
   3088000   1.0115795      17.414217      5.3890853    
   3089000   0.98066833     16.90683       5.3768329    
   3090000   0.99458964     16.306616      5.3775633    
   3091000   0.98591651     16.536358      5.4069507    
   3092000   1.0111812      16.937337      5.3640116    
   3093000   1.0089571      16.54516       5.3984313    
   3094000   1.0413442      16.985933      5.3830658    
   3095000   1.0254747      17.087405      5.4151263    
   3096000   1.013643       17.000743      5.4385838    
   3097000   1.0090099      16.628138      5.4484824    
   3098000   0.96513901     17.012066      5.3886112    
   3099000   0.94874158     16.328966      5.3940779    
   3100000   1.0008013      16.308259      5.4235351    
   3101000   1.0322146      16.658176      5.4076988    
   3102000   1.022161       16.791544      5.4033502    
   3103000   0.98351482     16.533383      5.4037794    
   3104000   1.0054559      16.698163      5.388159     
   3105000   0.97500067     16.693761      5.3850345    
   3106000   0.99604348     16.97882       5.3577827    
   3107000   0.99359598     16.771121      5.4317196    
   3108000   1.0519855      16.687402      5.4123857    
   3109000   1.028331       16.926867      5.3662883    
   3110000   0.99828614     15.922886      5.3993329    
   3111000   1.0225802      16.452462      5.3850389    
   3112000   0.97630404     16.856614      5.4246038    
   3113000   1.0291867      17.20733       5.4112415    
   3114000   1.0176574      16.075652      5.3915694    
   3115000   0.97785245     16.588343      5.4092739    
   3116000   1.0161726      16.41149       5.4286575    
   3117000   0.95985139     17.098396      5.3841802    
   3118000   1.0207458      16.950789      5.3834649    
   3119000   0.96087166     16.402526      5.3741358    
   3120000   1.0088659      16.958686      5.3875271    
   3121000   0.99732602     16.320289      5.3920351    
   3122000   1.013234       16.958609      5.3722895    
   3123000   1.0171301      17.449414      5.3992371    
   3124000   1.0017116      17.44501       5.4032444    
   3125000   0.97868169     16.8932        5.3598005    
   3126000   1.0254474      17.339994      5.4315648    
   3127000   0.99405265     16.84209       5.3984629    
   3128000   1.0131272      17.331229      5.374638     
   3129000   1.0223326      17.014455      5.4047296    
   3130000   0.99026158     16.63002       5.3822699    
   3131000   0.99208849     16.522301      5.3896391    
   3132000   0.99373555     17.11883       5.3822703    
   3133000   0.99569794     16.228838      5.413576     
   3134000   1.0032865      16.332194      5.4012868    
   3135000   1.0132138      16.640783      5.4423958    
   3136000   1.0290311      16.635965      5.4358516    
   3137000   1.0232241      17.169398      5.4171514    
   3138000   1.0226489      16.684702      5.4119614    
   3139000   1.0034507      16.219421      5.4304521    
   3140000   0.95092581     16.463542      5.4310175    
   3141000   0.97727842     16.848985      5.4085364    
   3142000   1.0125504      16.734362      5.3947017    
   3143000   1.0190956      16.717074      5.4231176    
   3144000   0.99147592     17.083743      5.4495257    
   3145000   1.0268057      16.504456      5.3930128    
   3146000   1.0200758      16.621432      5.4105816    
   3147000   1.0336668      16.999863      5.4225706    
   3148000   0.97780179     16.694147      5.4073911    
   3149000   0.97956168     17.063377      5.3916543    
   3150000   1.0271457      16.725251      5.3816757    
   3151000   1.016577       16.474428      5.3757697    
   3152000   1.0146273      16.941529      5.3871264    
   3153000   0.99895759     16.585299      5.4076713    
   3154000   1.0106377      16.861947      5.3241381    
   3155000   0.98603805     16.988516      5.3809407    
   3156000   1.0356957      17.043867      5.3905131    
   3157000   0.95995226     17.115992      5.3500189    
   3158000   1.0168882      16.369001      5.3678915    
   3159000   1.0207978      16.880395      5.4049268    
   3160000   0.99943096     16.673607      5.401504     
   3161000   1.0079294      16.320837      5.439954     
   3162000   0.99429493     16.186927      5.3980434    
   3163000   1.016543       16.577857      5.3997438    
   3164000   0.99656511     16.916972      5.3732591    
   3165000   0.99885391     16.560968      5.4144306    
   3166000   0.96350991     16.529469      5.3878465    
   3167000   1.0290359      16.621983      5.4082233    
   3168000   0.93736996     16.740169      5.4120596    
   3169000   1.0280959      16.974793      5.4157708    
   3170000   1.0262441      16.90931       5.4021948    
   3171000   0.9994347      16.920483      5.4129157    
   3172000   1.0485584      16.565381      5.3923048    
   3173000   0.97679523     16.871682      5.387528     
   3174000   0.96718568     16.429962      5.4092944    
   3175000   0.99686779     16.243116      5.418509     
   3176000   1.0117676      17.057334      5.3775737    
   3177000   0.95587676     17.044389      5.4206219    
   3178000   1.0314291      16.581386      5.3863205    
   3179000   1.0048732      16.871757      5.4207629    
   3180000   0.99670463     16.835977      5.3797609    
   3181000   1.031248       17.019047      5.402714     
   3182000   0.97549569     16.484978      5.3945661    
   3183000   0.96517071     16.716377      5.3982256    
   3184000   1.0030254      16.973982      5.3946385    
   3185000   1.0044018      16.614821      5.4015101    
   3186000   1.0369063      17.004779      5.4576845    
   3187000   0.99621796     16.474504      5.3879893    
   3188000   1.0364119      16.422989      5.4186457    
   3189000   0.97714324     17.052387      5.3969758    
   3190000   0.97054188     17.109869      5.4383619    
   3191000   1.004031       16.735068      5.4491125    
   3192000   1.062653       17.23827       5.3725483    
   3193000   1.0095648      16.734612      5.3862942    
   3194000   1.0213474      16.764634      5.3803875    
   3195000   0.97627083     16.068415      5.3911136    
   3196000   1.0083733      16.699145      5.4003454    
   3197000   1.0062455      16.759068      5.3913898    
   3198000   1.0106837      17.033013      5.3950692    
   3199000   1.0103183      16.794118      5.4124379    
   3200000   1.0123278      16.439721      5.3867759    
   3201000   0.99493384     16.785666      5.3714986    
   3202000   0.99614235     16.476518      5.361945     
   3203000   0.94658102     16.431851      5.377898     
   3204000   1.0147891      16.533524      5.3808862    
   3205000   1.0427185      16.673409      5.4088648    
   3206000   1.0131054      16.623679      5.3989802    
   3207000   1.0252233      17.339319      5.412909     
   3208000   1.0091694      17.006373      5.3702028    
   3209000   0.99782414     17.378585      5.4031305    
   3210000   1.0050793      16.465826      5.4023275    
   3211000   0.96026387     16.129693      5.4284821    
   3212000   0.96469609     17.036598      5.4043738    
   3213000   0.99932424     16.313001      5.4090367    
   3214000   1.0003695      16.501721      5.3855876    
   3215000   1.0169407      17.055042      5.4048007    
   3216000   0.96157487     16.868457      5.3828557    
   3217000   1.0583263      16.744953      5.4198842    
   3218000   0.96321799     15.9836        5.4268848    
   3219000   0.99538502     16.859249      5.3923833    
   3220000   1.0039219      16.931299      5.3913563    
   3221000   1.0060554      16.564447      5.3712069    
   3222000   1.0321934      16.903594      5.3937365    
   3223000   0.97077078     16.549772      5.3677749    
   3224000   0.98363597     16.828069      5.4041229    
   3225000   0.98876382     17.171963      5.3804503    
   3226000   0.98929622     17.184948      5.4080639    
   3227000   0.95538913     16.852795      5.4105864    
   3228000   1.0136696      16.690925      5.39507      
   3229000   1.0039351      16.565196      5.3942448    
   3230000   1.0156007      16.607307      5.3789265    
   3231000   1.0614644      16.57301       5.397414     
   3232000   0.99096559     16.456408      5.3758709    
   3233000   1.0381348      16.812432      5.3766039    
   3234000   0.99055425     17.102444      5.4010392    
   3235000   1.0500075      16.2382        5.3867811    
   3236000   0.99576291     16.592695      5.4055137    
   3237000   1.002648       16.574565      5.387995     
   3238000   0.97380163     16.721154      5.3363989    
   3239000   0.98935152     16.512604      5.3973583    
   3240000   0.99357172     16.906513      5.3968869    
   3241000   1.0224443      16.772296      5.3974605    
   3242000   0.97778516     17.204368      5.4135948    
   3243000   0.95811013     16.47953       5.4121568    
   3244000   1.0322913      16.958634      5.3806749    
   3245000   0.97150558     16.853967      5.3736625    
   3246000   0.98543224     16.827582      5.3744995    
   3247000   0.97444276     16.666558      5.392477     
   3248000   1.0426824      17.521553      5.3909511    
   3249000   0.98684412     17.067742      5.4012475    
   3250000   0.96622548     16.891067      5.4362062    
   3251000   1.0669791      17.309492      5.4244763    
   3252000   1.0170494      16.852746      5.4036965    
   3253000   1.0174947      16.774498      5.4583696    
   3254000   1.003476       16.505087      5.3974453    
   3255000   1.004507       17.024997      5.4088893    
   3256000   1.0080723      16.403069      5.4056042    
   3257000   0.98880995     16.789263      5.3574044    
   3258000   0.9791498      15.920859      5.4046775    
   3259000   1.0157069      17.152263      5.3866238    
   3260000   1.0140822      16.995072      5.3901548    
   3261000   0.99342819     16.72833       5.3612462    
   3262000   0.9727436      16.211846      5.4323099    
   3263000   0.99504642     16.184292      5.4683885    
   3264000   1.0191597      17.202655      5.4638465    
   3265000   1.0064002      16.808693      5.409869     
   3266000   1.0132641      16.082359      5.4089334    
   3267000   0.99915292     16.804978      5.3861778    
   3268000   0.98635814     16.263108      5.4588456    
   3269000   0.95780391     16.780844      5.3812071    
   3270000   1.0143716      16.761733      5.4170342    
   3271000   0.95996752     16.398884      5.3779115    
   3272000   0.97027052     17.019272      5.3558378    
   3273000   1.0277649      17.277738      5.3722866    
   3274000   1.0178504      16.64773       5.4024182    
   3275000   0.98550704     17.235619      5.3956716    
   3276000   1.0018827      16.725157      5.3914122    
   3277000   1.0378379      17.247634      5.3863616    
   3278000   0.98949729     16.641593      5.3792982    
   3279000   1.0087164      16.936161      5.3664976    
   3280000   1.0331936      16.079407      5.3897383    
   3281000   1.037669       16.212655      5.3812732    
   3282000   1.0227257      16.692046      5.3867088    
   3283000   0.986279       16.801278      5.3537345    
   3284000   0.97957711     16.197622      5.389085     
   3285000   1.014218       16.874299      5.3557952    
   3286000   0.9939297      16.653527      5.3513158    
   3287000   1.0397361      16.877595      5.3690597    
   3288000   0.99527575     16.743228      5.3645935    
   3289000   1.0063051      17.016494      5.3964208    
   3290000   0.99176007     16.398526      5.3923914    
   3291000   1.0016559      16.702283      5.3840869    
   3292000   0.97583568     16.559478      5.3943646    
   3293000   1.0146931      16.658253      5.3824565    
   3294000   1.0328772      16.671345      5.3905506    
   3295000   0.98574798     16.916915      5.4020581    
   3296000   1.0009377      16.750721      5.3548266    
   3297000   1.0098427      16.40319       5.3895205    
   3298000   0.97567327     16.96738       5.4183831    
   3299000   0.98644075     16.956756      5.3982222    
   3300000   1.0371515      16.692474      5.394689     
   3301000   0.9347177      16.499696      5.3701519    
   3302000   1.0071073      17.048531      5.3918895    
   3303000   1.0036176      16.81178       5.3890035    
   3304000   0.99754426     16.796242      5.3808367    
   3305000   0.97220508     16.50529       5.4045597    
   3306000   1.0364316      16.946211      5.3870681    
   3307000   1.0241532      16.827181      5.3982001    
   3308000   0.97901964     16.461653      5.3770695    
   3309000   1.0577913      16.921721      5.4086984    
   3310000   1.0190767      16.822756      5.4039806    
   3311000   1.0063579      17.12533       5.4088461    
   3312000   0.99245685     16.194191      5.4074179    
   3313000   1.0300196      16.902945      5.3825857    
   3314000   1.0001606      16.816776      5.379967     
   3315000   1.0177331      16.930016      5.3858471    
   3316000   1.0557206      17.189987      5.3601195    
   3317000   1.0127086      16.476454      5.3837631    
   3318000   1.0101365      17.021854      5.3723624    
   3319000   1.0328891      17.015735      5.3910378    
   3320000   1.0166124      16.120842      5.3958002    
   3321000   1.0185666      16.464115      5.3845999    
   3322000   1.0258055      16.7931        5.3892471    
   3323000   1.0441059      16.774311      5.3773827    
   3324000   0.94511349     16.789143      5.3987672    
   3325000   0.97728105     17.44728       5.3779118    
   3326000   0.95716267     17.197146      5.372101     
   3327000   0.99708439     16.630983      5.4052621    
   3328000   1.0378595      16.545483      5.3719696    
   3329000   1.0178413      16.972697      5.3511001    
   3330000   1.0248456      16.987618      5.3561759    
   3331000   0.97177773     16.715439      5.3705993    
   3332000   0.98333626     16.5896        5.3907638    
   3333000   1.001873       17.074334      5.3758917    
   3334000   0.97612854     16.761577      5.3800353    
   3335000   0.97340729     16.714461      5.3586105    
   3336000   1.0064562      16.113422      5.3973114    
   3337000   0.9950729      16.690497      5.3888835    
   3338000   0.97549422     16.79299       5.3739256    
   3339000   1.0282707      16.554433      5.4335886    
   3340000   0.99098492     17.091304      5.3658215    
   3341000   0.99231833     16.742975      5.3842337    
   3342000   1.0270396      17.374512      5.368945     
   3343000   1.0084103      16.387085      5.3786319    
   3344000   0.96729715     16.521345      5.3933915    
   3345000   1.0095295      16.868617      5.3803627    
   3346000   1.0374339      16.574078      5.4376859    
   3347000   1.0045574      16.83066       5.4071821    
   3348000   1.0118504      16.661475      5.4074504    
   3349000   0.98967084     16.887917      5.375719     
   3350000   0.9759019      16.386172      5.3919054    
   3351000   0.99925449     16.864749      5.3709178    
   3352000   0.97998018     17.153614      5.4021758    
   3353000   0.99384301     16.665608      5.4072896    
   3354000   0.9809448      16.591163      5.4230526    
   3355000   0.97682616     16.738318      5.4141395    
   3356000   0.98910527     17.013633      5.4261855    
   3357000   1.0123644      17.174176      5.3635391    
   3358000   1.0163249      16.671675      5.3780973    
   3359000   0.9901053      16.420162      5.3636557    
   3360000   1.0008399      16.980264      5.3624874    
   3361000   0.98749954     16.9316        5.3792987    
   3362000   0.96552273     16.350073      5.4008953    
   3363000   1.0077679      16.757693      5.3567122    
   3364000   1.0165134      16.82899       5.3714667    
   3365000   1.0343054      16.829019      5.4084367    
   3366000   1.016246       16.497755      5.4141722    
   3367000   0.99718387     16.857835      5.3720128    
   3368000   0.97640047     16.996316      5.335292     
   3369000   1.0018476      16.62008       5.3878247    
   3370000   1.0239928      16.791786      5.3859725    
   3371000   1.0025561      17.037685      5.3644198    
   3372000   0.95995514     16.903163      5.3791813    
   3373000   0.95488575     16.697252      5.3713351    
   3374000   0.9917814      16.342514      5.3582473    
   3375000   1.0181755      16.955487      5.4022216    
   3376000   0.98742587     16.914706      5.3661712    
   3377000   1.0507695      16.601763      5.3821025    
   3378000   0.95670672     16.493797      5.3853959    
   3379000   0.98658507     17.151412      5.3780352    
   3380000   1.0060931      17.087954      5.4054772    
   3381000   0.99955403     16.544119      5.3891355    
   3382000   0.98766778     17.237443      5.3515052    
   3383000   0.99476966     16.623423      5.3716846    
   3384000   1.0445038      17.175677      5.3793319    
   3385000   1.0017416      16.859193      5.382383     
   3386000   1.0285464      16.810666      5.3701165    
   3387000   0.97665502     16.053966      5.4155712    
   3388000   1.0048237      17.076725      5.3791478    
   3389000   0.98988403     16.838923      5.3965684    
   3390000   0.99031372     16.804789      5.4331044    
   3391000   0.92973932     16.529977      5.4237154    
   3392000   1.0093034      16.519621      5.3944328    
   3393000   0.98649427     17.134408      5.3753781    
   3394000   0.99817952     17.102274      5.3941737    
   3395000   0.96515176     16.809528      5.3736061    
   3396000   0.98027723     16.23321       5.394966     
   3397000   0.98266784     16.484167      5.37852      
   3398000   1.0365356      16.685171      5.3625609    
   3399000   1.0087483      16.653032      5.3717756    
   3400000   1.0161239      16.687729      5.4125009    
   3401000   0.98832522     16.757163      5.4159791    
   3402000   1.0116476      16.733148      5.381299     
   3403000   0.96422841     17.130887      5.3767793    
   3404000   0.97815908     16.816708      5.397434     
   3405000   0.98822553     16.201847      5.3589082    
   3406000   1.0121392      16.797291      5.3757731    
   3407000   0.97921099     16.666042      5.3867992    
   3408000   1.0411345      16.638384      5.3923001    
   3409000   0.98628484     16.32315       5.3725731    
   3410000   0.96847087     16.395901      5.4255957    
   3411000   1.00418        16.606441      5.3851409    
   3412000   0.99288598     16.405213      5.3929199    
   3413000   0.98623497     16.706843      5.367482     
   3414000   1.0229388      17.291752      5.4115786    
   3415000   1.0203299      16.707518      5.4132705    
   3416000   1.0068911      16.553587      5.3750198    
   3417000   1.030475       16.424351      5.35792      
   3418000   1.0003136      16.780421      5.379414     
   3419000   0.95245248     16.662655      5.3827803    
   3420000   0.99000307     16.710539      5.3957993    
   3421000   0.98862721     16.096567      5.4013858    
   3422000   1.0382109      15.924032      5.4088831    
   3423000   1.0171644      16.994395      5.3809837    
   3424000   1.0065313      16.752969      5.3987905    
   3425000   1.0317482      16.825056      5.4143895    
   3426000   0.99559423     16.873499      5.3770738    
   3427000   1.0202868      16.624426      5.3744395    
   3428000   1.0174022      16.469061      5.373354     
   3429000   0.97525214     16.369242      5.4142327    
   3430000   1.0058312      16.431948      5.384797     
   3431000   0.98467977     16.627217      5.3807757    
   3432000   0.99191777     16.542233      5.4100841    
   3433000   1.0027143      16.420983      5.3962035    
   3434000   0.94403445     16.044712      5.4121571    
   3435000   0.99975238     16.580359      5.4008407    
   3436000   0.99486447     16.689245      5.4059485    
   3437000   0.97864451     16.367069      5.3988884    
   3438000   0.98781105     16.771228      5.3622101    
   3439000   1.0173522      17.026424      5.3745504    
   3440000   1.010038       16.454789      5.3910059    
   3441000   0.98700819     16.835028      5.3604673    
   3442000   0.94350466     16.308491      5.3829044    
   3443000   0.99570098     16.466356      5.4305524    
   3444000   0.98226128     17.101284      5.3522796    
   3445000   0.99437761     17.058902      5.3680867    
   3446000   0.99860964     16.495514      5.4009672    
   3447000   0.99329565     16.303033      5.382724     
   3448000   1.0224756      16.721244      5.3671487    
   3449000   1.0197753      17.226351      5.4125108    
   3450000   0.99302008     16.79615       5.3970333    
   3451000   1.0569331      17.017229      5.3896417    
   3452000   0.97917897     16.656813      5.4074022    
   3453000   1.0042259      16.663278      5.3617412    
   3454000   0.99795172     16.537401      5.4522186    
   3455000   1.0420706      16.893633      5.377335     
   3456000   0.97315341     16.94644       5.3927068    
   3457000   1.0341882      17.081995      5.3857088    
   3458000   1.0623579      17.078428      5.4385431    
   3459000   0.98924755     16.5182        5.4368075    
   3460000   0.99949969     16.434111      5.3965937    
   3461000   0.99126649     16.380692      5.3794866    
   3462000   1.0173271      17.064011      5.3848713    
   3463000   0.97279564     16.598286      5.4107513    
   3464000   0.97255538     16.388701      5.3285884    
   3465000   1.0188907      16.905241      5.3766209    
   3466000   1.0255291      16.257426      5.379832     
   3467000   1.0007578      16.647869      5.4097673    
   3468000   1.014177       16.649943      5.3644341    
   3469000   0.97479124     16.910446      5.371972     
   3470000   0.97066801     16.291893      5.3734475    
   3471000   0.99803459     16.726143      5.4055755    
   3472000   0.94250496     16.881508      5.4038298    
   3473000   1.0229837      16.928528      5.4139035    
   3474000   1.0154559      16.704055      5.4214321    
   3475000   0.99873554     16.664166      5.4130569    
   3476000   1.0038342      16.625833      5.3757518    
   3477000   0.99038473     16.393671      5.3678908    
   3478000   1.048201       16.656515      5.3469603    
   3479000   0.99456296     17.562461      5.3641466    
   3480000   1.0318247      16.866038      5.3741335    
   3481000   0.96099134     16.955148      5.3942098    
   3482000   0.98236832     16.811994      5.3879184    
   3483000   1.0069132      16.801349      5.3896846    
   3484000   1.0086092      16.547639      5.4033181    
   3485000   1.0119674      16.47843       5.3877827    
   3486000   0.98340021     16.741425      5.3958568    
   3487000   1.0441621      16.886382      5.3822523    
   3488000   0.99614662     16.642056      5.3756609    
   3489000   1.0242394      17.181886      5.3718578    
   3490000   1.0308565      17.048665      5.369414     
   3491000   1.0111885      15.869821      5.4155465    
   3492000   0.96528526     16.71699       5.3991841    
   3493000   0.95060983     16.669991      5.3796179    
   3494000   0.99568624     16.58801       5.388239     
   3495000   1.0296585      17.082138      5.3895258    
   3496000   0.98811124     17.008285      5.3346247    
   3497000   1.0101367      16.883711      5.3605058    
   3498000   1.0031334      16.684194      5.4016255    
   3499000   1.0362882      17.448858      5.3375578    
   3500000   1.0045191      16.983127      5.3715351    
   3501000   0.98042248     16.688386      5.3852849    
   3502000   1.0054362      16.610793      5.3951709    
   3503000   1.0164867      16.691246      5.3465713    
   3504000   1.0130178      16.964623      5.3441097    
   3505000   0.98887213     16.904398      5.3831256    
   3506000   1.0340899      16.684405      5.3960993    
   3507000   0.99668063     17.225809      5.3699313    
   3508000   1.0115002      17.001859      5.3938758    
   3509000   0.9894329      16.771243      5.3758478    
   3510000   0.98851388     16.616628      5.3703644    
   3511000   0.95202875     16.489386      5.3802443    
   3512000   0.95788699     16.801661      5.37984      
   3513000   0.96896127     17.425226      5.372963     
   3514000   0.98753965     16.302458      5.3897062    
   3515000   0.98363527     16.962374      5.3605521    
   3516000   0.98392718     16.288448      5.3590827    
   3517000   0.99068312     16.261177      5.3788698    
   3518000   1.0201409      16.903698      5.3828124    
   3519000   1.0364683      16.7171        5.4161486    
   3520000   0.99940716     16.685261      5.3981933    
   3521000   1.0484         16.516252      5.4123594    
   3522000   0.99762065     16.606821      5.4227716    
   3523000   0.96501122     16.405501      5.3848197    
   3524000   0.97736379     17.180853      5.3798588    
   3525000   1.0125356      16.635535      5.3791817    
   3526000   1.0242849      17.220873      5.3678925    
   3527000   1.0028809      16.942303      5.4003781    
   3528000   1.0016003      16.354296      5.4563594    
   3529000   1.0059299      16.715331      5.4472662    
   3530000   0.97127946     16.413464      5.4267738    
   3531000   1.0156597      17.181477      5.347038     
   3532000   0.99221696     16.899442      5.4228046    
   3533000   0.99492129     16.786509      5.4018365    
   3534000   0.98481613     16.814794      5.3622111    
   3535000   1.0173641      17.615216      5.4019477    
   3536000   0.98486768     16.599908      5.4265925    
   3537000   0.98035936     16.604354      5.400819     
   3538000   1.0352509      17.131915      5.3882671    
   3539000   0.98971722     16.608428      5.3960503    
   3540000   0.98504268     16.770745      5.3865204    
   3541000   1.0247442      16.943343      5.3960784    
   3542000   1.0044721      17.064234      5.3883275    
   3543000   1.012082       16.345061      5.3924036    
   3544000   0.99935906     16.844765      5.3835049    
   3545000   0.98693258     16.996294      5.3733826    
   3546000   0.98307352     16.957578      5.4064048    
   3547000   1.0353526      16.920447      5.4059822    
   3548000   1.0155534      16.958276      5.3878188    
   3549000   1.0144961      16.763254      5.3901033    
   3550000   1.0323945      17.079859      5.3995936    
   3551000   1.0090384      16.910357      5.3795436    
   3552000   0.98234979     16.605556      5.4087232    
   3553000   1.0107612      16.486106      5.3809059    
   3554000   0.99907899     16.910279      5.3821696    
   3555000   0.9921201      16.861288      5.3892771    
   3556000   0.99374185     16.477586      5.3965987    
   3557000   0.97881159     16.540335      5.4317584    
   3558000   1.0116578      16.730582      5.3874567    
   3559000   1.0198669      16.724532      5.4067592    
   3560000   0.95106586     16.963598      5.3735565    
   3561000   1.0167505      16.769224      5.3870407    
   3562000   1.0057473      16.811361      5.3690197    
   3563000   0.99861543     16.059324      5.4239267    
   3564000   0.96923104     16.817738      5.3537011    
   3565000   0.95991355     16.529842      5.3705107    
   3566000   1.0088759      17.154351      5.3789263    
   3567000   1.0465014      15.954256      5.3812878    
   3568000   0.97981528     16.604297      5.3703762    
   3569000   0.97596227     16.548493      5.3770846    
   3570000   1.0022058      16.394717      5.3874179    
   3571000   1.0116493      16.995922      5.3634542    
   3572000   1.0712994      16.957727      5.3642618    
   3573000   0.95443311     16.438539      5.4254095    
   3574000   0.99429401     16.40546       5.3889149    
   3575000   0.99360683     16.484163      5.3767104    
   3576000   0.9708998      16.728073      5.3769454    
   3577000   1.0221934      16.987946      5.3830155    
   3578000   0.96225621     17.023264      5.3842208    
   3579000   1.0166032      16.862121      5.4013313    
   3580000   1.0098233      16.479365      5.3678608    
   3581000   0.98520032     16.467035      5.4124308    
   3582000   1.0030895      17.059092      5.3743404    
   3583000   0.97337773     16.843989      5.4074969    
   3584000   0.9923789      17.120853      5.3806049    
   3585000   0.98939414     17.202076      5.4038739    
   3586000   1.0254044      16.631478      5.3723503    
   3587000   1.0433524      16.223389      5.3913138    
   3588000   0.97120008     16.496137      5.3552855    
   3589000   1.0025075      16.7788        5.3557872    
   3590000   1.0000912      16.030332      5.4003009    
   3591000   0.98032695     16.477615      5.3754814    
   3592000   1.0005943      16.464506      5.3900697    
   3593000   1.0096144      16.681753      5.3699774    
   3594000   1.0101607      16.577391      5.387333     
   3595000   1.014134       17.050022      5.385324     
   3596000   0.97119784     17.334297      5.391114     
   3597000   1.0231056      16.307285      5.4181869    
   3598000   1.0202858      16.64826       5.4104991    
   3599000   1.0036563      16.68025       5.3785938    
   3600000   0.99163932     16.328765      5.3715853    
   3601000   1.0084007      16.603679      5.3712428    
   3602000   0.99137191     16.64717       5.3732065    
   3603000   0.96084603     16.658202      5.382173     
   3604000   1.0019462      16.656125      5.4023249    
   3605000   1.0253679      16.76309       5.4251314    
   3606000   0.99133475     16.647905      5.4069506    
   3607000   1.0079297      16.978046      5.3978256    
   3608000   0.96554451     16.660942      5.3751157    
   3609000   1.0182766      17.362631      5.38099      
   3610000   0.99506278     16.406438      5.3858883    
   3611000   0.98583552     16.592129      5.3647815    
   3612000   0.98986642     16.082863      5.3746719    
   3613000   0.98166189     16.173798      5.3939519    
   3614000   0.97836388     16.530335      5.360691     
   3615000   1.0026999      16.884381      5.3755309    
   3616000   0.94755478     16.171993      5.4285239    
   3617000   1.0088684      16.485585      5.3859543    
   3618000   1.0269894      16.612803      5.3802672    
   3619000   0.98815919     16.642741      5.4097207    
   3620000   1.0024175      16.542808      5.4081599    
   3621000   1.0080152      16.598053      5.4103113    
   3622000   1.0310353      16.486024      5.3748826    
   3623000   0.99905508     16.469492      5.4093976    
   3624000   1.0096177      16.68518       5.3875699    
   3625000   0.99687544     16.317473      5.412619     
   3626000   1.0076023      16.389074      5.389263     
   3627000   1.0001789      16.965287      5.395488     
   3628000   1.0115117      17.290854      5.4076193    
   3629000   1.0112753      16.836314      5.3931411    
   3630000   1.0241669      16.625979      5.4187951    
   3631000   1.0051412      16.635324      5.4372376    
   3632000   1.0301161      16.993693      5.4032562    
   3633000   0.97336816     16.244331      5.4386733    
   3634000   1.0152391      16.646717      5.4192724    
   3635000   0.9891997      16.635773      5.3879495    
   3636000   0.99525445     17.318997      5.3732155    
   3637000   1.0339876      17.404854      5.362377     
   3638000   1.0442523      16.307943      5.3803037    
   3639000   1.0224547      17.601417      5.3488247    
   3640000   1.0141559      16.342674      5.376753     
   3641000   0.98368763     16.554482      5.3954134    
   3642000   0.98225362     16.704364      5.3940673    
   3643000   0.9997241      16.867473      5.3782218    
   3644000   1.0279134      16.809454      5.4127164    
   3645000   1.0090034      16.574447      5.3994467    
   3646000   1.026756       16.455254      5.3935229    
   3647000   0.97876148     17.373189      5.376102     
   3648000   1.0334484      17.405557      5.3680062    
   3649000   1.0153186      16.50039       5.4129658    
   3650000   1.0308869      16.558551      5.4145249    
   3651000   1.0093928      16.375263      5.3761223    
   3652000   1.0246815      16.629513      5.3993472    
   3653000   0.98396971     16.326421      5.4160713    
   3654000   1.0168934      16.792305      5.3808163    
   3655000   1.0682899      16.836407      5.3752228    
   3656000   1.0010226      16.766773      5.3878347    
   3657000   1.0192771      16.67844       5.3924837    
   3658000   0.96540225     16.747575      5.4288733    
   3659000   0.97696437     16.932695      5.3954404    
   3660000   0.98386254     16.666675      5.3992161    
   3661000   1.0135253      16.498753      5.4019088    
   3662000   0.99238478     16.769639      5.4226953    
   3663000   0.98788995     16.689543      5.4307462    
   3664000   0.96181672     16.608501      5.396761     
   3665000   1.0014154      17.068658      5.4007792    
   3666000   1.0134297      17.289198      5.384894     
   3667000   1.0476147      16.934234      5.411746     
   3668000   0.99212337     16.007564      5.4114114    
   3669000   1.0046767      16.688838      5.3804892    
   3670000   1.0107927      16.759261      5.4387103    
   3671000   1.0162716      17.052075      5.3919167    
   3672000   1.0010387      16.579044      5.418434     
   3673000   1.0094621      16.365194      5.4356019    
   3674000   1.02258        17.233573      5.399713     
   3675000   0.98506954     16.515515      5.4205705    
   3676000   1.0101493      16.471565      5.3955406    
   3677000   0.97332203     16.749618      5.446944     
   3678000   1.0001199      17.057997      5.4160841    
   3679000   1.0363436      16.540484      5.4151966    
   3680000   0.94694759     16.299611      5.4572655    
   3681000   1.0299365      16.643193      5.4384794    
   3682000   0.98713613     16.967355      5.446343     
   3683000   0.99605023     16.640865      5.4087599    
   3684000   0.99649882     16.765662      5.4066309    
   3685000   0.98467391     16.330271      5.4157454    
   3686000   0.9940042      16.845309      5.4240675    
   3687000   0.98620842     16.973939      5.3995502    
   3688000   1.0358392      16.780371      5.4020838    
   3689000   0.99937858     17.168136      5.439743     
   3690000   1.0119141      16.531308      5.3989173    
   3691000   1.0297915      16.663464      5.4068998    
   3692000   0.96539035     16.664354      5.3941559    
   3693000   1.0134895      16.73966       5.3844607    
   3694000   0.99952056     16.626832      5.3648949    
   3695000   1.0139421      16.885137      5.4222756    
   3696000   1.0016625      17.529638      5.4158399    
   3697000   1.0142105      16.978233      5.3975533    
   3698000   1.0361478      17.325594      5.4126509    
   3699000   0.96466044     17.324715      5.4082429    
   3700000   0.99447963     16.5026        5.4152475    
   3701000   1.0016009      17.306979      5.4176669    
   3702000   0.98133917     16.50353       5.4510653    
   3703000   0.97779958     17.109025      5.4276125    
   3704000   0.99198895     16.618604      5.4846043    
   3705000   1.0095205      16.454005      5.4411884    
   3706000   1.0131472      16.984524      5.3979688    
   3707000   0.95948329     16.652921      5.4246181    
   3708000   0.99630583     16.479325      5.4455756    
   3709000   1.0342707      16.629294      5.4105933    
   3710000   1.0191887      16.517439      5.4134748    
   3711000   1.0558752      17.066815      5.3909157    
   3712000   0.99165784     17.220533      5.3808531    
   3713000   0.96299291     16.537957      5.4006969    
   3714000   0.98571645     16.893213      5.3974899    
   3715000   1.0217575      17.093766      5.3206537    
   3716000   0.96770338     16.731471      5.3874349    
   3717000   1.0001341      16.748685      5.3887739    
   3718000   0.98937426     16.582856      5.4489095    
   3719000   1.0059157      17.029202      5.434564     
   3720000   0.99967957     16.812521      5.4186837    
   3721000   1.0531626      16.840833      5.4657398    
   3722000   1.0215883      17.028558      5.4122405    
   3723000   0.9757576      16.740527      5.4087137    
   3724000   0.94859721     16.107528      5.4363409    
   3725000   0.97906156     16.822229      5.411353     
   3726000   1.0035392      16.572174      5.4584102    
   3727000   0.97259803     16.805748      5.4329832    
   3728000   0.98955121     16.494962      5.4112701    
   3729000   1.0721226      16.854067      5.4024039    
   3730000   0.98763493     16.660776      5.3999039    
   3731000   0.96512347     17.748281      5.3988136    
   3732000   1.0079671      17.258312      5.3614567    
   3733000   0.9860631      16.759656      5.3796705    
   3734000   1.0069019      16.624107      5.4092993    
   3735000   0.97359685     16.991503      5.3940181    
   3736000   0.98011418     16.801765      5.3896453    
   3737000   0.99517495     16.63376       5.3856382    
   3738000   1.0475781      17.27711       5.3982794    
   3739000   0.99884375     16.848866      5.42532      
   3740000   0.97942207     16.439591      5.379597     
   3741000   1.0001223      16.975082      5.3716367    
   3742000   1.011662       17.232872      5.4074161    
   3743000   1.0194561      16.442796      5.4132298    
   3744000   1.0108209      16.893845      5.3885502    
   3745000   1.0113818      16.84834       5.3959628    
   3746000   0.99293978     16.638846      5.3927526    
   3747000   0.97578976     16.63664       5.3683758    
   3748000   0.97937108     16.901075      5.3575357    
   3749000   1.0383799      16.871246      5.3916952    
   3750000   0.99449216     16.7083        5.3818142    
   3751000   0.97717625     16.968298      5.3846399    
   3752000   1.0339914      16.401056      5.4256525    
   3753000   1.0375982      16.642683      5.3873017    
   3754000   0.98392931     16.282799      5.3798449    
   3755000   1.0028317      16.829049      5.3823339    
   3756000   1.0209017      16.9139        5.4021904    
   3757000   1.0036101      16.718574      5.3927169    
   3758000   1.0111451      16.705806      5.3851727    
   3759000   1.0140286      17.314067      5.3751329    
   3760000   0.97611716     16.349738      5.404743     
   3761000   1.0032459      17.075214      5.4009539    
   3762000   0.99602753     17.150812      5.3960111    
   3763000   0.99855876     16.734536      5.3598585    
   3764000   0.98700912     16.004087      5.3810872    
   3765000   1.0098467      16.283429      5.3743858    
   3766000   1.0041029      16.591704      5.3699035    
   3767000   0.97767704     16.274152      5.3774179    
   3768000   0.99085155     17.061812      5.3644395    
   3769000   1.0043369      16.82367       5.4285527    
   3770000   1.0194423      16.258527      5.3912306    
   3771000   0.98167132     16.697689      5.3745562    
   3772000   1.0153731      17.069832      5.3972459    
   3773000   0.97685846     16.996075      5.3915169    
   3774000   1.0004896      16.497536      5.3800202    
   3775000   1.002209       16.712231      5.4347419    
   3776000   0.98284942     16.461208      5.398362     
   3777000   1.0349528      16.649849      5.4138612    
   3778000   0.97782816     17.434822      5.3896496    
   3779000   0.97919617     16.255345      5.3922292    
   3780000   0.98889071     16.853322      5.3790503    
   3781000   1.0133057      17.02817       5.3691632    
   3782000   0.96849026     16.399478      5.3598096    
   3783000   1.0276348      17.465853      5.4154186    
   3784000   0.9854286      16.589825      5.380883     
   3785000   0.97171299     16.393832      5.380973     
   3786000   0.95653122     16.718555      5.4146103    
   3787000   1.0131589      16.910543      5.3921301    
   3788000   1.0080123      16.837017      5.3963609    
   3789000   1.0072734      16.574855      5.4214802    
   3790000   0.97968461     16.332638      5.3726846    
   3791000   1.0016048      16.547754      5.3896699    
   3792000   0.97085408     16.370522      5.4051312    
   3793000   1.0033297      17.469128      5.4075456    
   3794000   1.0169381      16.844145      5.3962005    
   3795000   1.0083627      16.64836       5.3938383    
   3796000   0.97945395     16.288892      5.4343457    
   3797000   1.0075465      16.652295      5.4194548    
   3798000   1.0170107      17.065936      5.4234097    
   3799000   0.9859698      16.818545      5.3955568    
   3800000   1.0330455      17.086084      5.4488728    
   3801000   0.98903245     16.833834      5.4380114    
   3802000   0.97944414     16.654904      5.4329196    
   3803000   1.0217527      16.541938      5.4178443    
   3804000   0.99908597     15.673816      5.3836747    
   3805000   1.0531796      16.805837      5.3947515    
   3806000   1.0044318      17.243014      5.3742083    
   3807000   1.0465174      16.606704      5.3850004    
   3808000   1.0000475      16.359891      5.4106507    
   3809000   1.0053608      17.099486      5.3929132    
   3810000   0.97928116     16.423245      5.4271908    
   3811000   1.0081869      16.166347      5.3711529    
   3812000   1.0183462      16.66582       5.3708456    
   3813000   0.9509193      16.01339       5.4109329    
   3814000   0.98290098     16.521824      5.3936774    
   3815000   0.9692204      16.270789      5.4361817    
   3816000   1.0387736      16.65902       5.4704726    
   3817000   1.0237344      16.579513      5.4298151    
   3818000   0.99607462     16.907325      5.4034521    
   3819000   1.0049038      17.149988      5.3977862    
   3820000   1.0079374      16.458612      5.4045519    
   3821000   0.99556133     16.458051      5.3836033    
   3822000   1.0032348      16.563471      5.3625223    
   3823000   1.0359823      15.968078      5.4109681    
   3824000   0.96948016     16.511698      5.4045516    
   3825000   0.97479972     16.980447      5.3955338    
   3826000   1.023181       16.47475       5.4003288    
   3827000   0.96822226     16.145485      5.3990379    
   3828000   0.99719327     16.368149      5.3987172    
   3829000   1.0076521      16.932141      5.378448     
   3830000   0.98900723     16.77674       5.3697611    
   3831000   1.0468724      16.763404      5.3562753    
   3832000   1.010463       16.424965      5.3751976    
   3833000   0.97005574     16.907062      5.372273     
   3834000   1.021273       16.469232      5.3830978    
   3835000   0.98341905     16.747872      5.3531885    
   3836000   0.98683146     16.644161      5.4015817    
   3837000   0.98525704     16.430231      5.3725825    
   3838000   1.0161859      16.777752      5.3795648    
   3839000   0.99712911     17.016931      5.3646393    
   3840000   0.98592384     16.278693      5.3718299    
   3841000   0.97873171     16.703734      5.3535029    
   3842000   0.95523777     16.224445      5.3866316    
   3843000   0.98658512     16.788586      5.3861696    
   3844000   0.98992258     17.041727      5.39809      
   3845000   1.0280959      16.547828      5.3821632    
   3846000   0.96706432     16.732031      5.3867613    
   3847000   1.0128651      17.293449      5.3749479    
   3848000   1.0095832      16.289448      5.4117144    
   3849000   0.97548813     16.8386        5.3834827    
   3850000   1.0243571      17.301683      5.3535297    
   3851000   0.99722156     16.545031      5.3775492    
   3852000   1.0146284      16.852901      5.3781515    
   3853000   0.99319112     17.053667      5.3712057    
   3854000   1.0154211      16.543004      5.370961     
   3855000   1.0035474      17.198573      5.3705128    
   3856000   1.0245563      16.481066      5.4016515    
   3857000   1.0502304      16.777122      5.3853945    
   3858000   1.0046712      16.61545       5.4102188    
   3859000   0.97089371     16.313417      5.3892438    
   3860000   0.95855719     16.246969      5.3736888    
   3861000   0.97595342     17.08682       5.3656158    
   3862000   1.0496009      16.542481      5.3774307    
   3863000   1.0405366      16.523492      5.3947511    
   3864000   1.0268195      17.110309      5.3571669    
   3865000   1.0495457      16.800711      5.3669352    
   3866000   0.97524057     17.120316      5.3650651    
   3867000   1.0126889      16.243731      5.3616572    
   3868000   1.0063244      16.869355      5.3826875    
   3869000   0.99397334     16.539203      5.3698255    
   3870000   1.0075071      16.756346      5.3816456    
   3871000   1.0379349      17.329329      5.4058979    
   3872000   0.98354383     16.586726      5.3836115    
   3873000   1.0129639      16.613277      5.3845025    
   3874000   1.0119217      16.695958      5.3640695    
   3875000   1.0000632      16.881731      5.3694518    
   3876000   1.0096521      17.087858      5.3880035    
   3877000   0.96640156     16.667203      5.4160439    
   3878000   1.010554       16.90176       5.3833225    
   3879000   0.9724242      16.911155      5.3807598    
   3880000   1.0017009      16.714889      5.3951375    
   3881000   0.99744771     16.32977       5.4200368    
   3882000   1.0164322      16.958524      5.4098272    
   3883000   1.0080171      16.891584      5.391651     
   3884000   1.0079176      16.69507       5.4007873    
   3885000   1.0045522      16.381174      5.383003     
   3886000   1.0163885      16.392241      5.3778031    
   3887000   1.0406048      16.629905      5.3778314    
   3888000   0.9973146      16.873698      5.3693917    
   3889000   0.99482698     16.666015      5.4018814    
   3890000   1.0506237      16.628653      5.3990143    
   3891000   1.0058694      16.543277      5.3921956    
   3892000   0.98537508     16.687575      5.3672552    
   3893000   1.0011737      16.712191      5.3844819    
   3894000   0.98538531     16.529322      5.3938968    
   3895000   1.0640532      17.469095      5.4091493    
   3896000   1.0084362      16.430291      5.3875719    
   3897000   1.026354       16.64351       5.3660545    
   3898000   0.9502159      16.18883       5.3907892    
   3899000   0.97157907     16.334919      5.3907649    
   3900000   0.9891926      16.52213       5.3717015    
   3901000   1.0177379      16.907445      5.3898874    
   3902000   1.0162661      16.338366      5.3900162    
   3903000   1.016097       16.327391      5.423616     
   3904000   1.0036904      16.590413      5.4164098    
   3905000   0.99829797     16.850514      5.4169452    
   3906000   1.0188273      16.988406      5.3700578    
   3907000   0.98690854     16.500396      5.4029698    
   3908000   1.0393528      16.657438      5.3830472    
   3909000   0.95848014     16.605664      5.4028634    
   3910000   0.97609721     16.582736      5.3909052    
   3911000   0.97672696     16.321852      5.3664451    
   3912000   0.9985888      16.770961      5.368519     
   3913000   0.99775584     16.522077      5.4109618    
   3914000   1.0133415      16.057072      5.3973933    
   3915000   0.96024673     16.391209      5.3836177    
   3916000   0.99517711     17.017694      5.3765203    
   3917000   0.99464738     16.750338      5.3712232    
   3918000   1.0026708      16.689721      5.384478     
   3919000   1.0485891      17.192588      5.3611722    
   3920000   0.99604833     16.580211      5.3807152    
   3921000   0.99357512     16.226195      5.393723     
   3922000   0.98765805     16.408662      5.4328007    
   3923000   0.98516751     16.374371      5.4081696    
   3924000   0.99315279     16.996942      5.4384236    
   3925000   1.0070963      16.877601      5.392354     
   3926000   0.97401791     17.155935      5.3931722    
   3927000   1.0089252      16.612178      5.4178305    
   3928000   1.0290087      16.334501      5.3986674    
   3929000   1.0064608      16.635297      5.3703487    
   3930000   1.0542805      17.269673      5.3974519    
   3931000   1.0276601      16.325012      5.3981445    
   3932000   0.98808829     16.714703      5.3951259    
   3933000   0.99495799     16.958222      5.4295131    
   3934000   0.99287753     16.413656      5.3980973    
   3935000   1.033636       16.708804      5.3800125    
   3936000   0.98017544     16.785801      5.3770842    
   3937000   0.98472523     16.866201      5.4096668    
   3938000   0.98527233     16.261639      5.4005898    
   3939000   0.98433539     16.78026       5.4293139    
   3940000   0.97604315     16.745161      5.4561633    
   3941000   1.0091131      17.128224      5.4161964    
   3942000   0.98855982     16.815054      5.4035412    
   3943000   0.98473832     16.933518      5.4065818    
   3944000   1.0353607      16.486252      5.4004474    
   3945000   0.96507855     16.873893      5.4204615    
   3946000   0.98713882     16.997208      5.3824359    
   3947000   1.0004351      16.32625       5.3798276    
   3948000   1.0192826      17.101457      5.4112139    
   3949000   0.98635102     16.368783      5.4057718    
   3950000   1.0522517      16.995818      5.3958754    
   3951000   0.96473773     17.347065      5.400211     
   3952000   0.99356301     16.23348       5.3657696    
   3953000   0.96560374     17.112186      5.3635193    
   3954000   0.96699001     16.912883      5.3726596    
   3955000   0.98061464     16.963752      5.4024548    
   3956000   1.0377419      17.000291      5.4097077    
   3957000   1.0110112      16.771671      5.3599168    
   3958000   1.0305777      16.844897      5.3698721    
   3959000   0.97274902     16.583755      5.3782069    
   3960000   0.99052823     16.533969      5.3590271    
   3961000   0.97589349     16.170755      5.3868892    
   3962000   1.0099479      15.947607      5.3450419    
   3963000   1.0063707      16.44427       5.3769702    
   3964000   0.97405526     16.939118      5.3465484    
   3965000   0.98281789     16.45045       5.3711543    
   3966000   1.0341579      16.728515      5.3784804    
   3967000   0.97453273     16.772774      5.3793919    
   3968000   1.0282948      16.870596      5.3993689    
   3969000   1.0133651      16.468386      5.4235282    
   3970000   0.97400094     16.908697      5.407709     
   3971000   0.99190012     17.311094      5.4202305    
   3972000   1.0108249      16.850862      5.402223     
   3973000   1.0184143      16.724751      5.3999777    
   3974000   1.0162653      16.901429      5.3806676    
   3975000   0.99431555     16.129869      5.4151216    
   3976000   0.99874855     16.459671      5.3991432    
   3977000   1.0318764      16.869549      5.4130656    
   3978000   1.0246645      16.713862      5.3840756    
   3979000   0.97303329     16.289811      5.4182902    
   3980000   1.0124414      16.726002      5.4231382    
   3981000   1.0303203      17.338111      5.4213138    
   3982000   0.97166097     17.006882      5.3853817    
   3983000   0.99131492     16.95757       5.4007827    
   3984000   1.0388608      16.76474       5.4055349    
   3985000   0.9976634      16.40649       5.426471     
   3986000   0.99021956     16.797599      5.3842617    
   3987000   1.0208837      16.535815      5.3904023    
   3988000   1.0370056      16.783553      5.3858136    
   3989000   1.0078994      16.369611      5.4168651    
   3990000   1.0060259      17.17204       5.3888131    
   3991000   1.0153004      16.74317       5.3953632    
   3992000   0.99675995     16.690752      5.3975963    
   3993000   1.0358783      16.93385       5.4007015    
   3994000   1.0050895      17.012123      5.4040845    
   3995000   1.0049041      16.814655      5.4259246    
   3996000   1.0207543      16.91169       5.434291     
   3997000   1.0037597      17.371024      5.3976136    
   3998000   1.0102219      16.414449      5.395706     
   3999000   1.0073925      16.646563      5.3789133    
   4000000   0.98280191     16.811717      5.4152774    
   4001000   1.0343897      16.82802       5.4000974    
   4002000   1.0102098      16.757263      5.4122885    
   4003000   0.98099939     16.916648      5.3891289    
   4004000   0.98364555     17.048327      5.3977465    
   4005000   1.0313457      16.352624      5.3950437    
   4006000   1.0204322      16.74651       5.3703796    
   4007000   1.0018169      16.694095      5.3994076    
   4008000   1.0134125      16.924988      5.3994341    
   4009000   0.97984063     16.330024      5.3699698    
   4010000   0.99127734     16.693021      5.3598297    
   4011000   0.97088262     16.841613      5.3569193    
   4012000   1.0480694      16.710707      5.3840165    
   4013000   0.9873725      16.105757      5.3911594    
   4014000   0.97274502     16.199859      5.3702816    
   4015000   0.97376212     16.035118      5.3914635    
   4016000   1.0370465      16.465984      5.3957309    
   4017000   0.97541184     16.763009      5.3814214    
   4018000   1.016684       17.041648      5.3762515    
   4019000   0.99931418     16.237879      5.3929939    
   4020000   0.9467098      16.949326      5.424412     
   4021000   1.0029833      16.871347      5.4247633    
   4022000   1.0245133      16.480919      5.4395197    
   4023000   1.0272132      16.777664      5.409793     
   4024000   0.99917349     16.378351      5.4089287    
   4025000   1.0142848      17.041486      5.4487824    
   4026000   1.010495       16.307012      5.452515     
   4027000   1.0216296      17.195584      5.3850648    
   4028000   0.98901969     16.839783      5.425945     
   4029000   0.97950611     16.592071      5.418575     
   4030000   1.0124065      16.595646      5.3861281    
   4031000   0.9899699      16.855765      5.3678217    
   4032000   0.9833036      16.771028      5.3790182    
   4033000   1.0005576      16.194344      5.3817967    
   4034000   1.0401642      16.877706      5.3736212    
   4035000   1.0091026      16.45897       5.364967     
   4036000   1.0003034      16.940042      5.3670951    
   4037000   1.0062854      16.965378      5.4117555    
   4038000   1.0020161      16.949099      5.4280218    
   4039000   1.0004043      16.836504      5.3494169    
   4040000   1.0203243      17.014862      5.3796563    
   4041000   0.98658984     16.627469      5.3969605    
   4042000   0.9672482      16.829321      5.4008851    
   4043000   0.982328       16.692449      5.4066079    
   4044000   1.024645       16.757455      5.3972877    
   4045000   0.99496932     16.707891      5.3662123    
   4046000   0.96898357     16.921805      5.3246384    
   4047000   1.0086891      16.296163      5.3383875    
   4048000   1.0069502      16.64365       5.40011      
   4049000   0.9956415      16.489771      5.3900591    
   4050000   0.99330597     17.225766      5.4201053    
   4051000   0.98333982     16.877962      5.3857734    
   4052000   0.97079963     16.759365      5.3751287    
   4053000   1.0244905      17.285749      5.3831148    
   4054000   1.0175541      16.851418      5.3791487    
   4055000   1.0330128      16.976555      5.4061001    
   4056000   0.99778218     17.024263      5.4063828    
   4057000   1.0211969      16.600756      5.3695822    
   4058000   0.99885238     16.585707      5.4137492    
   4059000   0.9783302      16.907147      5.4045482    
   4060000   0.99957208     16.741422      5.3843899    
   4061000   1.0324758      16.869469      5.3921488    
   4062000   1.0096739      16.03614       5.37325      
   4063000   0.95618407     16.79127       5.3857904    
   4064000   0.99707498     16.829532      5.3958825    
   4065000   1.0084133      16.068819      5.4284173    
   4066000   0.99842541     16.848877      5.3708683    
   4067000   0.96095386     16.768856      5.3705089    
   4068000   1.0295403      16.316493      5.3903948    
   4069000   0.97092844     16.596052      5.4420405    
   4070000   1.000643       16.952304      5.4217596    
   4071000   1.0254783      16.727721      5.4663009    
   4072000   1.0024843      17.115941      5.4002663    
   4073000   0.98763176     16.945916      5.3896013    
   4074000   1.0129362      16.549547      5.4038645    
   4075000   0.98752889     16.504565      5.3872492    
   4076000   1.0279192      16.908677      5.4094042    
   4077000   0.94087515     16.414748      5.4275837    
   4078000   1.0141977      16.539748      5.3975514    
   4079000   1.0182443      16.442155      5.3881612    
   4080000   1.0565187      16.450237      5.38568      
   4081000   1.0355152      16.956898      5.4039961    
   4082000   0.98977836     16.767457      5.3657887    
   4083000   1.0211117      16.889922      5.4086012    
   4084000   0.98994886     17.136229      5.3558839    
   4085000   0.97183283     16.516586      5.3738142    
   4086000   1.007029       16.917913      5.3728808    
   4087000   0.98159152     16.787998      5.3582117    
   4088000   0.9636503      16.887035      5.3780801    
   4089000   0.98136618     16.254758      5.3587245    
   4090000   0.98501922     17.253171      5.364964     
   4091000   1.0760432      16.901555      5.356071     
   4092000   0.98649363     16.524491      5.3623541    
   4093000   0.97256435     16.667201      5.4125257    
   4094000   1.0072992      16.580781      5.4021686    
   4095000   1.0001665      17.054187      5.3784461    
   4096000   1.0054507      16.630041      5.390877     
   4097000   0.99046556     16.412847      5.4312279    
   4098000   0.99129936     16.74371       5.3892642    
   4099000   1.0115375      17.063217      5.3960372    
   4100000   1.0101264      17.168354      5.3616208    
   4101000   1.0233339      17.136588      5.3730928    
   4102000   1.0002805      17.03152       5.3787903    
   4103000   0.99896494     16.825437      5.3920219    
   4104000   0.99498655     15.678987      5.3894392    
   4105000   1.0165441      17.302302      5.4427777    
   4106000   0.95157117     16.23214       5.4387385    
   4107000   0.99713015     16.786839      5.4037829    
   4108000   0.99278926     16.828318      5.3754744    
   4109000   1.0383554      16.959363      5.400093     
   4110000   0.99287307     16.614434      5.4164822    
   4111000   1.0354129      17.06066       5.3776026    
   4112000   0.9988272      16.494144      5.4123079    
   4113000   1.0179496      16.766607      5.40481      
   4114000   1.0201154      16.737471      5.3933497    
   4115000   1.0046468      16.818723      5.3924132    
   4116000   1.0066019      16.592442      5.4132444    
   4117000   1.0110461      16.605142      5.4030303    
   4118000   0.97867818     16.723984      5.391041     
   4119000   1.0243786      16.628348      5.4011617    
   4120000   0.99175599     16.394534      5.3719497    
   4121000   0.96190037     16.661138      5.3713954    
   4122000   0.99845338     17.096798      5.3664203    
   4123000   0.96711448     16.032628      5.4028722    
   4124000   1.041763       16.487384      5.3342564    
   4125000   0.9673618      16.466454      5.3840013    
   4126000   0.98793812     16.728779      5.4015434    
   4127000   1.0059955      16.660949      5.4298058    
   4128000   1.045479       16.589353      5.3779585    
   4129000   1.0072431      16.8698        5.380514     
   4130000   1.0125542      17.104683      5.3567752    
   4131000   1.0190537      16.940607      5.4118542    
   4132000   0.98012587     17.061034      5.4269585    
   4133000   0.97720686     16.730628      5.3943764    
   4134000   0.99581697     16.430914      5.3875141    
   4135000   0.97102858     16.937883      5.3948919    
   4136000   1.0202936      16.165374      5.3879824    
   4137000   1.00456        17.02027       5.3723576    
   4138000   1.0154353      16.475802      5.3786415    
   4139000   1.0038735      17.415847      5.3849315    
   4140000   0.94169811     17.339572      5.4122029    
   4141000   0.9713572      16.302422      5.4021768    
   4142000   1.000913       16.79555       5.390172     
   4143000   0.979195       16.41874       5.3937973    
   4144000   1.0020008      16.814174      5.3661369    
   4145000   0.98406955     16.459959      5.4145133    
   4146000   1.0168929      16.880147      5.406576     
   4147000   1.0179449      17.050299      5.3693287    
   4148000   1.0036846      16.610606      5.3721268    
   4149000   0.98653565     16.505393      5.3639105    
   4150000   1.0289444      17.070595      5.378214     
   4151000   0.97283622     16.23554       5.3848991    
   4152000   1.0136044      16.569152      5.3579953    
   4153000   1.0095886      16.568531      5.3841737    
   4154000   1.0400867      16.978775      5.3953864    
   4155000   0.99894149     16.650349      5.3793758    
   4156000   0.99698444     16.673021      5.4188431    
   4157000   1.0097931      16.257754      5.427434     
   4158000   0.96977369     16.900047      5.4039161    
   4159000   1.0253204      16.377467      5.405714     
   4160000   1.0010128      16.788805      5.3880293    
   4161000   0.97720141     16.169768      5.4050656    
   4162000   1.0439362      16.68139       5.415645     
   4163000   0.99793674     16.596213      5.4069437    
   4164000   1.0013485      16.756794      5.3941289    
   4165000   1.0077624      16.922829      5.3982996    
   4166000   1.0205918      16.283336      5.4196563    
   4167000   0.97938935     16.918725      5.3777059    
   4168000   1.0062802      16.707071      5.4104264    
   4169000   1.003556       16.239229      5.4379836    
   4170000   1.0311696      17.258505      5.4412979    
   4171000   1.0253419      16.612237      5.4132417    
   4172000   1.0027534      17.027061      5.4055658    
   4173000   1.0166412      16.701212      5.3791761    
   4174000   1.0187502      17.016778      5.4125675    
   4175000   0.99249974     17.02697       5.3915102    
   4176000   1.0103681      16.942642      5.4168178    
   4177000   1.007553       16.612718      5.3732713    
   4178000   0.93542071     16.311497      5.3744732    
   4179000   0.97488791     16.110982      5.3753662    
   4180000   1.0503557      16.853316      5.3824273    
   4181000   1.0012728      16.807141      5.3769265    
   4182000   0.98169258     16.467994      5.3940684    
   4183000   0.98128314     16.871225      5.4404669    
   4184000   0.98838804     16.525346      5.4126221    
   4185000   0.99832931     16.406         5.4287693    
   4186000   0.97041541     16.370707      5.4256722    
   4187000   0.96675533     16.699142      5.4080678    
   4188000   1.0206698      16.816915      5.3676632    
   4189000   1.0196392      16.688753      5.3953593    
   4190000   0.97103142     16.496586      5.3907552    
   4191000   1.0228693      16.937254      5.3902386    
   4192000   1.0471403      15.911081      5.4115293    
   4193000   1.0026269      16.371162      5.3709576    
   4194000   1.0111872      16.97708       5.3728829    
   4195000   0.94991517     16.521697      5.3563642    
   4196000   1.0307907      16.803802      5.3610498    
   4197000   0.99904444     16.22007       5.408692     
   4198000   0.97294556     16.615443      5.3636136    
   4199000   0.99808416     16.562191      5.3883802    
   4200000   1.0238224      17.018799      5.3477994    
   4201000   1.0076529      16.200974      5.3569786    
   4202000   1.0058751      16.87353       5.4158913    
   4203000   0.97300051     16.808086      5.4037479    
   4204000   1.0336876      16.895215      5.379089     
   4205000   0.99342863     15.961393      5.4177772    
   4206000   1.0106885      16.623978      5.366481     
   4207000   0.98967511     16.911451      5.3653606    
   4208000   1.0112076      16.907089      5.3872475    
   4209000   1.0016514      16.978573      5.3700099    
   4210000   0.96573072     17.113008      5.360745     
   4211000   0.99271967     16.831299      5.3529907    
   4212000   1.0061186      16.208236      5.3995348    
   4213000   1.0052407      16.870888      5.4177829    
   4214000   1.0156501      16.667221      5.396585     
   4215000   0.97185851     16.311537      5.4007649    
   4216000   1.0162489      17.030802      5.3555612    
   4217000   1.0273779      16.7946        5.3631546    
   4218000   1.0462936      17.241052      5.3799881    
   4219000   0.98635363     16.975467      5.3799754    
   4220000   0.98100524     16.266938      5.4059917    
   4221000   1.0346503      17.088715      5.3677511    
   4222000   0.99897225     16.864713      5.3847378    
   4223000   1.0355681      17.195802      5.3700302    
   4224000   0.99065143     17.248172      5.3776989    
   4225000   0.99928396     17.197223      5.3946206    
   4226000   1.0080421      16.549188      5.3939623    
   4227000   0.98786212     16.532755      5.3997922    
   4228000   1.0178877      16.280269      5.3764652    
   4229000   0.95978144     17.318748      5.3877448    
   4230000   1.032537       16.972629      5.3700218    
   4231000   0.99612093     16.934886      5.3848083    
   4232000   1.0059108      16.584633      5.3737001    
   4233000   1.0181536      16.735453      5.4063993    
   4234000   1.0468271      17.215842      5.3921804    
   4235000   1.0328575      16.78716       5.3846723    
   4236000   1.006169       17.033619      5.4047954    
   4237000   1.0243717      16.365371      5.4127113    
   4238000   1.0366295      16.873324      5.3725159    
   4239000   0.96270497     16.407321      5.3894788    
   4240000   1.0048785      15.966956      5.3627246    
   4241000   0.9812935      16.723595      5.4137389    
   4242000   1.0150794      16.617318      5.4123344    
   4243000   0.97986882     17.015581      5.3994075    
   4244000   1.0109898      16.494784      5.3849175    
   4245000   1.0196051      17.055891      5.3711362    
   4246000   1.0084288      16.630031      5.3991341    
   4247000   0.97779628     16.902693      5.4182463    
   4248000   0.98178361     16.798767      5.3589155    
   4249000   0.96305947     15.907862      5.3521989    
   4250000   1.0081894      16.918171      5.3837558    
   4251000   0.98702505     16.736115      5.3635186    
   4252000   1.0062789      16.487492      5.3797594    
   4253000   0.95883512     16.377863      5.3747133    
   4254000   1.0223201      17.287184      5.3514618    
   4255000   1.0108379      16.708215      5.3900215    
   4256000   1.0039182      17.41498       5.3855661    
   4257000   0.9965543      16.595005      5.3859667    
   4258000   1.0094524      17.026338      5.3516372    
   4259000   1.0206727      16.652797      5.3840915    
   4260000   0.9497499      16.553741      5.3910435    
   4261000   0.96243921     16.723851      5.348429     
   4262000   1.0084626      16.978814      5.3571772    
   4263000   1.0272524      16.981931      5.3970381    
   4264000   1.0188561      16.817272      5.3963816    
   4265000   1.0062186      16.192285      5.4030271    
   4266000   0.98838694     16.499119      5.3870069    
   4267000   1.025174       16.763161      5.4437021    
   4268000   0.97829778     16.778146      5.4038086    
   4269000   0.98531852     16.698094      5.448385     
   4270000   1.0079474      16.268549      5.425981     
   4271000   0.98029162     16.68644       5.4223775    
   4272000   0.97445765     16.601346      5.4189766    
   4273000   1.0247509      17.106606      5.4103265    
   4274000   1.0281935      17.184596      5.3972707    
   4275000   0.9761139      16.857211      5.4347955    
   4276000   0.9785439      16.282354      5.4321428    
   4277000   1.0023309      17.065167      5.4255843    
   4278000   0.98494682     16.761202      5.4012663    
   4279000   1.0061192      16.472099      5.431282     
   4280000   1.042255       16.76448       5.4214957    
   4281000   0.93588394     16.440602      5.3807062    
   4282000   0.98871816     16.707952      5.4261792    
   4283000   0.9679978      16.460683      5.4211399    
   4284000   1.0113066      16.502387      5.3998721    
   4285000   0.99118585     16.477335      5.420318     
   4286000   1.032371       16.779061      5.3759221    
   4287000   0.97502554     16.731274      5.3960345    
   4288000   1.0398822      16.936504      5.3818013    
   4289000   1.0228492      16.498248      5.3814821    
   4290000   1.0199326      17.328479      5.3790868    
   4291000   1.0330631      17.001456      5.4087553    
   4292000   1.0324985      16.817278      5.3939044    
   4293000   1.0150335      16.924582      5.3664484    
   4294000   1.0014822      16.633149      5.3889869    
   4295000   1.0682807      17.149057      5.3369725    
   4296000   0.9909426      17.222465      5.3602009    
   4297000   1.0272088      16.801114      5.432761     
   4298000   1.0061674      16.391636      5.3789477    
   4299000   0.97266281     16.940477      5.3534327    
   4300000   1.0020202      17.230099      5.3957819    
   4301000   0.98369        16.450294      5.4184538    
   4302000   0.98105612     16.795644      5.3667207    
   4303000   0.986048       16.845158      5.3620433    
   4304000   1.0081141      16.510346      5.384568     
   4305000   0.99080328     16.875009      5.3872581    
   4306000   1.0044031      16.866487      5.362687     
   4307000   0.97521285     16.675454      5.4019248    
   4308000   0.96630613     16.941975      5.3995457    
   4309000   1.0201308      17.269969      5.3965801    
   4310000   0.99786873     17.065034      5.4073348    
   4311000   0.96866601     16.597776      5.3893501    
   4312000   1.0367485      16.868034      5.3935384    
   4313000   0.99887564     16.674509      5.3721074    
   4314000   1.0134505      16.337683      5.3845302    
   4315000   1.039726       16.626926      5.4331208    
   4316000   1.0155177      16.830803      5.4308465    
   4317000   0.99185845     16.283731      5.414646     
   4318000   0.98614355     16.709322      5.41956      
   4319000   1.025123       16.550577      5.3608313    
   4320000   1.0138774      16.979907      5.354273     
   4321000   0.98928271     16.608647      5.3618438    
   4322000   1.0276916      16.641567      5.3833402    
   4323000   0.98832076     16.747733      5.3731987    
   4324000   0.99922356     16.253463      5.4294242    
   4325000   1.0007299      16.321262      5.4068181    
   4326000   0.98913125     16.482157      5.3905429    
   4327000   1.0283831      16.682439      5.41611      
   4328000   0.99002571     16.880871      5.3570045    
   4329000   1.0402164      16.817248      5.363003     
   4330000   1.0224294      16.79254       5.3600538    
   4331000   0.98627469     16.425483      5.3695906    
   4332000   1.0325239      16.943113      5.3628136    
   4333000   0.98003995     16.153405      5.3630438    
   4334000   0.99992461     16.765167      5.3727206    
   4335000   0.98866867     17.209414      5.3581462    
   4336000   1.0083328      16.937173      5.398963     
   4337000   0.95727898     16.698324      5.3741568    
   4338000   0.99876841     16.760274      5.3763797    
   4339000   1.0209837      16.605076      5.370572     
   4340000   1.014185       16.282548      5.3649615    
   4341000   1.0188661      16.501472      5.3862698    
   4342000   1.021501       16.778793      5.409107     
   4343000   1.042332       16.911512      5.4016427    
   4344000   0.99603159     16.278375      5.400168     
   4345000   0.98278326     16.732569      5.3533518    
   4346000   0.99465714     16.815811      5.3591293    
   4347000   0.96044964     16.783674      5.388514     
   4348000   1.0284911      16.901461      5.3854336    
   4349000   1.0019463      17.113008      5.3937893    
   4350000   0.97622675     16.410347      5.3653695    
   4351000   0.98868877     16.690967      5.392902     
   4352000   1.0433822      16.779678      5.4041528    
   4353000   0.97864774     16.659674      5.4099751    
   4354000   1.0261898      16.885038      5.3729447    
   4355000   1.0056691      16.562951      5.3969274    
   4356000   1.0016092      16.944726      5.4538614    
   4357000   1.0153306      16.43611       5.3970518    
   4358000   0.97952312     16.69989       5.3586186    
   4359000   0.96387826     16.911978      5.374097     
   4360000   1.0018719      16.442764      5.4209894    
   4361000   1.0219003      17.006537      5.3958298    
   4362000   1.0203052      16.85051       5.3884254    
   4363000   1.0233416      17.411247      5.4130791    
   4364000   1.0070604      16.77964       5.426953     
   4365000   1.0362475      17.036551      5.3849757    
   4366000   0.99158732     16.352597      5.4051302    
   4367000   0.99085435     16.477182      5.4111664    
   4368000   1.024717       16.434948      5.3949974    
   4369000   0.973273       16.537467      5.3778227    
   4370000   1.0228137      16.182022      5.4150795    
   4371000   0.99319534     16.48435       5.3989981    
   4372000   0.9585761      16.715929      5.4166107    
   4373000   1.0181768      16.80081       5.4088259    
   4374000   1.0225355      17.026133      5.4450259    
   4375000   0.97801055     16.679581      5.4344033    
   4376000   1.0085186      16.93567       5.4256248    
   4377000   0.97207204     16.817116      5.4210058    
   4378000   1.0190369      17.133995      5.4127672    
   4379000   1.0166077      16.710555      5.4249716    
   4380000   1.0102596      16.89271       5.3648897    
   4381000   1.0088039      16.68837       5.3810256    
   4382000   0.97780292     16.555978      5.3893293    
   4383000   1.0345393      16.474445      5.3984235    
   4384000   1.0291342      16.693249      5.4086013    
   4385000   1.0385229      16.660831      5.3637067    
   4386000   0.99048401     17.424684      5.3750095    
   4387000   0.95921851     16.281198      5.4186313    
   4388000   1.0211762      16.436214      5.358099     
   4389000   0.99787025     16.795875      5.3798883    
   4390000   1.0009247      16.641293      5.3902511    
   4391000   0.97184553     16.44515       5.3956679    
   4392000   1.0006937      16.579365      5.3794625    
   4393000   1.0064995      16.824173      5.4145903    
   4394000   0.98783769     16.889759      5.3979752    
   4395000   1.0443266      16.848853      5.3920671    
   4396000   1.0013505      16.843587      5.399729     
   4397000   1.0093179      16.862581      5.3990038    
   4398000   0.93161764     16.886434      5.4361165    
   4399000   0.9856149      16.577702      5.3649276    
   4400000   1.0122723      17.135934      5.3739052    
   4401000   1.0121434      16.970483      5.3807761    
   4402000   0.98888514     16.965237      5.3880521    
   4403000   0.99378123     17.232474      5.3797836    
   4404000   1.008835       16.081921      5.4129091    
   4405000   0.96680378     17.085976      5.3932423    
   4406000   1.0143709      17.496215      5.3803908    
   4407000   1.005022       16.496885      5.3936018    
   4408000   1.0045171      16.990861      5.4202121    
   4409000   0.98525758     16.967494      5.3626732    
   4410000   1.019093       16.563126      5.3779949    
   4411000   0.98253954     16.449046      5.4071807    
   4412000   1.0512037      16.904514      5.4173595    
   4413000   1.0200444      16.462511      5.4242489    
   4414000   0.9891583      16.572764      5.4179621    
   4415000   0.97652015     16.501544      5.4003144    
   4416000   0.98431144     16.594987      5.3982487    
   4417000   1.0126378      16.850028      5.4142009    
   4418000   0.97252633     16.612977      5.3909898    
   4419000   0.95100024     16.831366      5.3915296    
   4420000   1.0185495      17.065158      5.3867156    
   4421000   0.97368666     16.876307      5.3683393    
   4422000   1.0079348      16.164739      5.3899083    
   4423000   1.0173889      16.434584      5.4169768    
   4424000   0.98880097     16.703323      5.3739987    
   4425000   0.98718923     16.031056      5.392514     
   4426000   1.0213226      17.392414      5.4285747    
   4427000   0.97055504     16.826164      5.3876936    
   4428000   1.0236912      16.915201      5.3412642    
   4429000   0.97650818     17.077951      5.3628088    
   4430000   1.0151522      16.569468      5.3916327    
   4431000   1.0331033      17.034803      5.3848844    
   4432000   1.0202718      16.705612      5.3784332    
   4433000   0.96899995     16.502763      5.3889341    
   4434000   1.0172679      16.910968      5.3813622    
   4435000   0.97299646     17.070952      5.3699422    
   4436000   0.96419516     16.770801      5.3697086    
   4437000   0.97297165     16.626953      5.3788584    
   4438000   0.98794575     16.571996      5.4007359    
   4439000   1.0027659      16.838705      5.362367     
   4440000   1.0251283      16.965952      5.385851     
   4441000   1.0007268      17.022897      5.3693102    
   4442000   0.98023093     17.09593       5.3712027    
   4443000   1.0239369      16.635164      5.3656133    
   4444000   1.0230995      17.285744      5.3933789    
   4445000   1.0353429      16.843123      5.3708753    
   4446000   0.99174092     16.697916      5.3582342    
   4447000   0.99240884     16.586397      5.3641487    
   4448000   0.97484082     17.178221      5.3509049    
   4449000   1.00165        16.355393      5.3878516    
   4450000   1.0354188      17.332334      5.3329064    
   4451000   1.0030912      16.774764      5.4044292    
   4452000   1.0044717      16.271842      5.4031311    
   4453000   0.97712669     16.520389      5.3913039    
   4454000   0.97747345     16.511695      5.3746156    
   4455000   1.0329654      17.293144      5.3637152    
   4456000   1.0019958      16.826515      5.3775821    
   4457000   1.0403464      16.674264      5.4032886    
   4458000   0.9919086      16.749302      5.3944929    
   4459000   1.0365879      16.296504      5.3818651    
   4460000   0.99847262     17.000195      5.3969665    
   4461000   0.98033971     16.362643      5.3717502    
   4462000   1.0193683      16.852985      5.3554922    
   4463000   1.0143068      16.875993      5.3792972    
   4464000   0.98768411     16.188121      5.3929041    
   4465000   1.0024235      16.568341      5.399649     
   4466000   0.97692575     16.030819      5.4114773    
   4467000   0.99880896     16.095159      5.4048583    
   4468000   0.98075712     16.388868      5.4047913    
   4469000   0.95261862     16.557123      5.3544943    
   4470000   1.0039716      16.206622      5.3702586    
   4471000   1.0270033      17.129088      5.4005382    
   4472000   0.98897332     16.70721       5.3736742    
   4473000   0.95669833     16.656343      5.3793916    
   4474000   0.98160179     16.687649      5.3808288    
   4475000   0.99540459     16.238535      5.3774008    
   4476000   1.002509       16.238123      5.4017878    
   4477000   1.0064908      16.020126      5.4210111    
   4478000   1.0203972      17.027996      5.4107132    
   4479000   1.0292809      16.525786      5.3842038    
   4480000   1.0504223      16.833594      5.3565636    
   4481000   1.0095055      16.624974      5.3814236    
   4482000   0.99885689     17.079954      5.3849236    
   4483000   1.0177804      16.829415      5.392625     
   4484000   1.0230086      16.786327      5.4412776    
   4485000   0.98060343     16.211329      5.4197169    
   4486000   0.99411116     16.11563       5.4040998    
   4487000   1.0234251      16.368367      5.4186416    
   4488000   1.0052992      17.164945      5.3737239    
   4489000   1.0156582      16.239581      5.4561895    
   4490000   0.97667016     16.546311      5.4058499    
   4491000   1.0213013      16.977384      5.3910218    
   4492000   1.0081208      16.438265      5.3754659    
   4493000   1.0146257      16.844693      5.3798399    
   4494000   0.99927872     16.808594      5.4033418    
   4495000   1.0300711      16.822882      5.4064431    
   4496000   1.0044067      16.849773      5.3803205    
   4497000   1.0135868      16.395442      5.3853699    
   4498000   1.0340394      17.264222      5.3245737    
   4499000   1.0038949      16.424953      5.3682158    
   4500000   1.014785       16.568026      5.3652519    
   4501000   1.0176708      16.643796      5.3476216    
   4502000   1.010624       17.119211      5.3724802    
   4503000   0.96856115     16.289604      5.3767755    
   4504000   0.97943939     15.715136      5.3866435    
   4505000   0.96131325     16.643162      5.4002673    
   4506000   0.97250381     16.528542      5.3916203    
   4507000   1.0280405      16.926507      5.3495459    
   4508000   1.0222678      17.254117      5.3911285    
   4509000   0.99652483     16.951336      5.3506469    
   4510000   1.0052865      16.653022      5.4085283    
   4511000   1.048301       16.837172      5.4383186    
   4512000   0.97435179     16.341954      5.4300591    
   4513000   0.96902449     16.707228      5.3911486    
   4514000   1.0269738      16.591255      5.3902042    
   4515000   1.0524731      16.616264      5.4030447    
   4516000   1.0289384      16.990913      5.4002578    
   4517000   1.0055509      16.600283      5.3782155    
   4518000   1.0051452      16.719322      5.3939616    
   4519000   0.97939394     16.196626      5.3907466    
   4520000   0.95672744     16.586943      5.4006629    
   4521000   1.0232579      16.482968      5.4176987    
   4522000   0.98096944     16.641259      5.4033368    
   4523000   1.0551291      16.915379      5.3853416    
   4524000   1.0255689      16.888681      5.4309708    
   4525000   0.96114024     16.537913      5.4159623    
   4526000   0.99646542     16.996826      5.3942962    
   4527000   1.0252158      16.651181      5.369062     
   4528000   1.0139914      16.482002      5.3690096    
   4529000   1.0195362      16.595081      5.4396366    
   4530000   0.9678935      16.642989      5.4275233    
   4531000   1.0500936      16.649066      5.4259207    
   4532000   1.0089498      16.736813      5.447313     
   4533000   1.0543976      17.665803      5.410971     
   4534000   1.0053005      17.281922      5.4239757    
   4535000   0.99961602     16.723149      5.394059     
   4536000   0.99236753     17.3906        5.3642157    
   4537000   1.0084012      16.735861      5.3799195    
   4538000   0.9907091      16.626879      5.3708086    
   4539000   1.0234701      17.037416      5.3840651    
   4540000   1.0396838      16.839832      5.375233     
   4541000   0.93364534     16.505332      5.3934497    
   4542000   1.0090191      17.124604      5.3960229    
   4543000   0.99231494     17.309701      5.4252213    
   4544000   0.98554508     16.9099        5.3922768    
   4545000   0.95959159     16.780586      5.4052576    
   4546000   0.99426501     16.856703      5.4075541    
   4547000   1.0134159      16.655835      5.4442768    
   4548000   0.95283358     16.2372        5.3716144    
   4549000   1.0056371      16.323759      5.3887936    
   4550000   1.0006212      16.296873      5.3929621    
   4551000   0.95708699     17.028444      5.3912406    
   4552000   0.99257397     17.266911      5.3878649    
   4553000   1.0116518      16.542303      5.3766256    
   4554000   0.96742748     17.0639        5.4022016    
   4555000   1.0047157      16.80357       5.414096     
   4556000   1.0071008      17.016305      5.4098166    
   4557000   1.0391355      16.745631      5.3898365    
   4558000   1.0292955      16.353646      5.3784844    
   4559000   0.95044851     16.683872      5.3827491    
   4560000   1.0197336      16.518552      5.3811932    
   4561000   0.98237579     17.198391      5.422598     
   4562000   0.99303591     17.014144      5.3958349    
   4563000   0.99953438     16.953813      5.410092     
   4564000   1.0271759      16.698441      5.401915     
   4565000   0.96826923     16.552604      5.4171071    
   4566000   0.96388432     16.650336      5.4249684    
   4567000   1.0162923      16.588087      5.4374318    
   4568000   1.0037518      17.280191      5.4248971    
   4569000   0.98173738     16.838004      5.4180934    
   4570000   1.0220954      16.948186      5.3857439    
   4571000   0.99918965     16.703423      5.3926841    
   4572000   0.92455138     16.256242      5.3677902    
   4573000   1.0272306      16.983408      5.384205     
   4574000   0.99031542     16.631873      5.3854133    
   4575000   0.99542746     16.46325       5.4346012    
   4576000   1.0369624      16.808325      5.3816246    
   4577000   1.0202942      17.051353      5.3989833    
   4578000   0.97637325     16.504058      5.4186656    
   4579000   0.97873227     16.544243      5.4076561    
   4580000   1.007811       16.774038      5.3756595    
   4581000   1.0252598      16.733934      5.4023109    
   4582000   1.0049221      16.611763      5.3867774    
   4583000   0.99495653     15.967073      5.4164593    
   4584000   0.97117214     16.396548      5.375312     
   4585000   1.0311533      16.721689      5.3607371    
   4586000   0.99535805     17.087673      5.3594732    
   4587000   0.97205477     16.468636      5.3801243    
   4588000   1.0148606      16.779687      5.388816     
   4589000   1.0012892      17.123353      5.3717102    
   4590000   0.99460302     16.666849      5.381751     
   4591000   0.99671623     16.531359      5.3761349    
   4592000   0.99220981     16.453086      5.404131     
   4593000   1.0280032      16.340716      5.3962121    
   4594000   1.0227896      16.291424      5.3998443    
   4595000   1.0202708      16.965759      5.4290748    
   4596000   1.0096953      16.576659      5.3722416    
   4597000   0.97730032     16.638478      5.3673552    
   4598000   0.99179062     16.737315      5.4154367    
   4599000   0.98915312     16.952791      5.3967703    
   4600000   0.98075645     16.823883      5.4042394    
   4601000   0.97309085     16.946917      5.3870519    
   4602000   1.0236216      16.066796      5.3996605    
   4603000   1.0190996      16.910274      5.3922113    
   4604000   0.97491276     16.089005      5.3952328    
   4605000   0.96956278     16.739254      5.4439527    
   4606000   1.0533667      17.585231      5.4110966    
   4607000   0.99298856     16.429992      5.4007743    
   4608000   0.97605843     16.53087       5.4172846    
   4609000   0.96698416     16.381493      5.4357573    
   4610000   1.0363917      16.400873      5.4474916    
   4611000   0.95337473     16.766528      5.4047913    
   4612000   0.94912535     16.627947      5.4320576    
   4613000   0.98146661     16.522522      5.4619569    
   4614000   1.0177285      16.751814      5.4619681    
   4615000   1.0029702      17.129762      5.4299205    
   4616000   0.98495681     16.30797       5.4865898    
   4617000   1.021068       17.025932      5.4441075    
   4618000   1.0131226      16.639918      5.4461131    
   4619000   1.025678       16.512415      5.3992866    
   4620000   0.96733703     15.975673      5.3975333    
   4621000   0.96901403     16.892945      5.387867     
   4622000   0.99330432     16.549255      5.4088735    
   4623000   1.0181735      16.610539      5.4227308    
   4624000   1.0202743      16.781804      5.4270569    
   4625000   1.0244618      16.514055      5.420849     
   4626000   0.94392885     16.169573      5.4219567    
   4627000   0.99479576     16.907312      5.4012955    
   4628000   1.0019519      16.482847      5.4032349    
   4629000   1.0006816      16.331333      5.3983729    
   4630000   0.99144382     17.052528      5.3665944    
   4631000   1.0100892      16.389217      5.3708026    
   4632000   1.0458544      17.094453      5.3428307    
   4633000   1.0143743      16.774837      5.4027286    
   4634000   1.0139621      16.823577      5.4021463    
   4635000   0.99335246     16.648896      5.379862     
   4636000   1.0205687      17.076896      5.3543364    
   4637000   0.94667046     16.289695      5.355529     
   4638000   1.0164964      16.48219       5.4011849    
   4639000   1.0374569      17.383703      5.4153745    
   4640000   1.0447804      16.01693       5.3957201    
   4641000   1.0128499      16.545741      5.3803657    
   4642000   0.9686214      16.848467      5.3925553    
   4643000   1.0153834      16.792202      5.4248323    
   4644000   0.97009259     16.463031      5.4041145    
   4645000   1.0042155      16.373644      5.4280184    
   4646000   0.95131174     17.11258       5.4247635    
   4647000   0.98804389     17.168907      5.4501145    
   4648000   1.0049567      16.356967      5.426955     
   4649000   1.0102839      16.86513       5.3940341    
   4650000   1.0120637      16.899137      5.4295917    
   4651000   1.0438994      16.837985      5.3745737    
   4652000   0.99723501     16.728773      5.4072091    
   4653000   0.97870503     16.372594      5.4140695    
   4654000   1.0084772      16.553006      5.4211691    
   4655000   1.0025974      17.30218       5.4358286    
   4656000   0.97830556     16.816846      5.4100804    
   4657000   0.9994811      17.061045      5.4072463    
   4658000   1.0329088      17.104303      5.3921953    
   4659000   1.0406111      17.087855      5.4031615    
   4660000   1.0360721      17.584239      5.4036063    
   4661000   0.94650844     16.638208      5.4223611    
   4662000   1.0152378      17.246819      5.4112352    
   4663000   1.0101346      16.851146      5.4083842    
   4664000   0.97424901     15.866034      5.3945165    
   4665000   0.98619638     16.693899      5.430315     
   4666000   1.0672077      16.809966      5.4053815    
   4667000   0.980082       16.182452      5.4340995    
   4668000   0.98116272     16.990095      5.4286207    
   4669000   1.0410997      16.446359      5.3860894    
   4670000   0.99576237     16.574325      5.4129616    
   4671000   1.0184436      16.498813      5.3919136    
   4672000   1.0477496      16.604977      5.4037256    
   4673000   1.0459841      17.112151      5.4103965    
   4674000   1.0170282      16.715066      5.3806485    
   4675000   0.98916555     16.731825      5.4177184    
   4676000   0.98775254     17.399185      5.418894     
   4677000   1.0201474      16.791079      5.3841995    
   4678000   0.94762842     16.37857       5.3840347    
   4679000   0.96461733     16.650315      5.4211128    
   4680000   0.99443572     16.78798       5.4183218    
   4681000   1.0016329      17.01666       5.3932644    
   4682000   1.024528       17.249315      5.3904876    
   4683000   1.0198271      16.896602      5.4106799    
   4684000   1.0651508      16.428808      5.3802078    
   4685000   1.0096689      16.726834      5.3766342    
   4686000   0.98158952     16.766973      5.4129041    
   4687000   1.0543254      16.573151      5.4035076    
   4688000   0.9926036      16.294033      5.3895567    
   4689000   0.97638136     17.095237      5.4282595    
   4690000   0.98562864     16.943667      5.3960259    
   4691000   0.98169379     16.407441      5.3628916    
   4692000   0.9789421      17.006746      5.3933609    
   4693000   1.0042523      16.714824      5.3834534    
   4694000   1.0036544      16.754112      5.3796548    
   4695000   1.0162592      16.919086      5.3740668    
   4696000   0.99332773     17.094892      5.3687992    
   4697000   0.9444921      16.472408      5.3624653    
   4698000   1.0043617      16.674158      5.3745358    
   4699000   0.97953314     17.000493      5.3594374    
   4700000   1.050902       16.837809      5.352509     
   4701000   1.012158       15.750149      5.3678255    
   4702000   1.0259524      17.114266      5.3800424    
   4703000   0.94385887     16.25307       5.4010965    
   4704000   1.0098664      16.957346      5.3555088    
   4705000   0.94612763     16.228669      5.379017     
   4706000   0.99250981     16.954815      5.3914119    
   4707000   0.99833387     16.662561      5.388339     
   4708000   0.99343734     15.629937      5.3818898    
   4709000   1.0132878      16.503905      5.3916568    
   4710000   0.99942645     17.233841      5.3965273    
   4711000   1.0326644      16.685717      5.3979512    
   4712000   0.96581016     16.410907      5.3699012    
   4713000   0.98833398     16.667454      5.3852624    
   4714000   1.0003592      16.612108      5.3964355    
   4715000   0.97627593     16.544195      5.3754543    
   4716000   1.043636       16.971788      5.3560859    
   4717000   0.98408534     16.597379      5.4087976    
   4718000   0.99301721     17.081818      5.3666108    
   4719000   0.99584986     16.453906      5.3733943    
   4720000   0.96909343     16.698102      5.3705442    
   4721000   1.0238969      17.564056      5.3445893    
   4722000   1.0067622      16.708116      5.3774859    
   4723000   1.016156       16.704654      5.404624     
   4724000   0.98572861     16.676146      5.3847959    
   4725000   0.98505249     16.840942      5.3760751    
   4726000   1.0083576      16.926848      5.3971627    
   4727000   0.99360036     16.671019      5.415666     
   4728000   0.97908407     16.915738      5.3749696    
   4729000   0.97902617     16.607145      5.3996038    
   4730000   0.98290754     15.960512      5.3688012    
   4731000   1.0064881      17.013538      5.3897529    
   4732000   0.96420796     17.11834       5.3960441    
   4733000   0.94410831     16.7665        5.406298     
   4734000   1.0271998      16.508654      5.414271     
   4735000   1.0227576      16.761066      5.4437889    
   4736000   1.0459627      16.613158      5.4714732    
   4737000   0.9956904      16.366311      5.4474357    
   4738000   1.0087264      16.882365      5.4293364    
   4739000   1.0108257      16.450658      5.4111844    
   4740000   0.98463343     16.406681      5.4231736    
   4741000   0.98550164     16.492968      5.3992749    
   4742000   0.99446327     16.204907      5.3978232    
   4743000   0.9626724      16.592927      5.3845614    
   4744000   1.0112181      16.735565      5.4003547    
   4745000   1.0008538      16.325023      5.4017317    
   4746000   1.0319887      16.928994      5.3821185    
   4747000   0.97091388     16.36575       5.3849671    
   4748000   0.98685043     16.563496      5.4293715    
   4749000   1.0082852      16.536301      5.3986409    
   4750000   0.98703216     16.159701      5.4289417    
   4751000   1.0344943      17.02286       5.3687213    
   4752000   0.97368999     16.813079      5.4091429    
   4753000   0.98626872     16.257279      5.3998451    
   4754000   1.0094814      16.978253      5.4036053    
   4755000   1.011386       16.328322      5.4052704    
   4756000   1.0204261      17.212099      5.3820247    
   4757000   1.0086179      16.91011       5.4010334    
   4758000   0.96051366     16.853064      5.4055701    
   4759000   1.0384078      16.274906      5.423333     
   4760000   1.0100132      16.272278      5.4315874    
   4761000   0.98826377     16.053489      5.3978226    
   4762000   1.0098184      16.666415      5.3845887    
   4763000   0.98719918     17.053955      5.4172036    
   4764000   0.98468173     17.014278      5.3991866    
   4765000   1.0223995      17.202079      5.388417     
   4766000   0.96806085     16.774209      5.406275     
   4767000   0.96062452     16.198175      5.4161193    
   4768000   0.99191037     16.694551      5.4154407    
   4769000   0.96973072     16.361475      5.4698909    
   4770000   1.0039366      16.555386      5.411159     
   4771000   0.99046855     15.952609      5.4369374    
   4772000   0.99374692     15.91805       5.4694853    
   4773000   1.0000014      16.511485      5.4054633    
   4774000   0.98955798     16.539284      5.387722     
   4775000   0.99349963     16.804497      5.3770703    
   4776000   0.99474272     16.238176      5.3868581    
   4777000   0.98613423     16.423413      5.4063063    
   4778000   1.0024801      16.673906      5.3892019    
   4779000   1.0309473      17.237566      5.389623     
   4780000   1.0128343      17.626195      5.3652618    
   4781000   0.99042853     16.474161      5.3868339    
   4782000   0.9586975      16.435938      5.405726     
   4783000   1.0114767      16.906889      5.4169283    
   4784000   1.00674        16.458764      5.3864178    
   4785000   0.99523521     16.673383      5.3914869    
   4786000   0.99906717     16.743223      5.3650321    
   4787000   1.0651068      17.009473      5.4000847    
   4788000   1.0581526      16.711997      5.3541638    
   4789000   1.0149288      17.026144      5.3616867    
   4790000   1.0084343      16.690585      5.386865     
   4791000   1.0418513      16.969329      5.3874436    
   4792000   0.99446662     16.360889      5.3876085    
   4793000   0.99475141     16.607826      5.373111     
   4794000   1.0019826      16.723207      5.3809461    
   4795000   0.98514638     16.529988      5.3702254    
   4796000   0.99218954     16.419326      5.3965033    
   4797000   1.0195265      16.530478      5.3535216    
   4798000   1.0074326      17.11921       5.3557593    
   4799000   1.0164833      16.750571      5.3721818    
   4800000   1.0523051      17.040431      5.3813213    
   4801000   1.0024432      17.033368      5.3720002    
   4802000   1.0084476      16.522838      5.3996224    
   4803000   1.0205122      16.963694      5.3990339    
   4804000   0.96633743     16.80218       5.3903245    
   4805000   1.0238237      17.034055      5.4062419    
   4806000   1.0186352      16.691717      5.3924376    
   4807000   0.98226726     16.225647      5.4130173    
   4808000   1.0293909      16.73234       5.4402543    
   4809000   0.94705591     16.974125      5.3934091    
   4810000   1.0160621      16.322708      5.3820086    
   4811000   0.97747738     16.685888      5.3991582    
   4812000   0.97294235     16.669551      5.3870548    
   4813000   1.0090878      16.412406      5.3908206    
   4814000   0.98525118     16.462001      5.3792555    
   4815000   1.0023021      16.662246      5.4411962    
   4816000   0.96571126     16.822617      5.4333447    
   4817000   1.0466713      16.569308      5.4098545    
   4818000   0.99583374     16.628885      5.3949656    
   4819000   1.0114677      16.373041      5.4204846    
   4820000   0.99451898     16.806598      5.3942416    
   4821000   1.021894       16.806291      5.392505     
   4822000   1.0105455      17.163457      5.3895655    
   4823000   0.97269592     16.328007      5.4158576    
   4824000   0.98596154     16.863799      5.3897719    
   4825000   0.99356808     17.110329      5.3869801    
   4826000   0.99528862     17.070099      5.3526705    
   4827000   0.97287251     16.538971      5.3738866    
   4828000   1.0497972      17.083765      5.4051093    
   4829000   0.98621641     16.855968      5.3541651    
   4830000   1.0071019      17.262679      5.367963     
   4831000   0.99920902     16.596318      5.3730457    
   4832000   0.99169329     16.680584      5.395529     
   4833000   0.98314784     16.703571      5.3652367    
   4834000   1.005719       16.557121      5.389761     
   4835000   0.97400632     16.728716      5.3904851    
   4836000   0.98433987     16.611074      5.3859802    
   4837000   0.97236053     16.205915      5.4066995    
   4838000   1.0043752      16.403976      5.4319598    
   4839000   1.0117836      17.250159      5.4207241    
   4840000   0.95238871     17.132393      5.4117661    
   4841000   0.98210988     16.955692      5.4671275    
   4842000   1.0011205      16.390407      5.5104245    
   4843000   0.97348523     16.187154      5.4637521    
   4844000   0.97330165     16.351709      5.4160612    
   4845000   0.97732506     16.961097      5.3892275    
   4846000   0.99851779     17.126992      5.3895629    
   4847000   0.99553743     16.741812      5.3573636    
   4848000   0.97934052     16.863273      5.3896413    
   4849000   1.0006189      16.870093      5.3607627    
   4850000   1.0369337      17.381197      5.401071     
   4851000   1.0409959      17.260219      5.3563935    
   4852000   1.0016548      16.753063      5.3696761    
   4853000   0.98310304     16.354833      5.3947074    
   4854000   1.0077407      17.505159      5.3596701    
   4855000   1.0172058      16.72449       5.3817514    
   4856000   1.0421041      16.463936      5.407127     
   4857000   0.95676482     16.671331      5.4160704    
   4858000   1.0148706      16.424792      5.434807     
   4859000   1.0138829      16.939429      5.3851151    
   4860000   1.039587       17.116943      5.401037     
   4861000   1.0133954      16.435477      5.446485     
   4862000   1.0115961      16.534019      5.3953438    
   4863000   1.048297       16.785947      5.3754119    
   4864000   0.98179772     16.88586       5.3389267    
   4865000   0.96550532     16.542659      5.3776212    
   4866000   0.96862643     16.861027      5.3996058    
   4867000   0.99497839     16.446998      5.4078144    
   4868000   1.0289937      16.490512      5.3534295    
   4869000   1.0513563      16.521325      5.3624043    
   4870000   1.017772       16.562782      5.4076385    
   4871000   1.0103772      16.690984      5.4376349    
   4872000   1.0309033      16.684025      5.4171296    
   4873000   0.98027979     16.705345      5.3956436    
   4874000   1.0252953      17.441725      5.4141422    
   4875000   1.0026143      16.603176      5.3890419    
   4876000   1.0215521      17.203798      5.3577573    
   4877000   1.0095317      16.919838      5.330882     
   4878000   0.99463584     16.897295      5.3719999    
   4879000   0.98600088     16.926952      5.3695624    
   4880000   1.0095434      16.580816      5.3982566    
   4881000   1.0005325      16.148145      5.4044883    
   4882000   0.98885852     17.061242      5.3654211    
   4883000   1.0320607      16.208939      5.4026387    
   4884000   0.98269198     16.585447      5.4208617    
   4885000   1.0013093      17.165647      5.39863      
   4886000   0.95800969     16.711879      5.3967165    
   4887000   0.99973318     16.610994      5.3900321    
   4888000   0.98952041     16.707156      5.4205227    
   4889000   1.0225214      16.347674      5.3898997    
   4890000   0.99702809     16.60124       5.3928569    
   4891000   1.0091626      16.732826      5.4004342    
   4892000   1.0020127      17.063288      5.3764014    
   4893000   1.0068796      16.636089      5.397442     
   4894000   0.9927676      16.955922      5.3858885    
   4895000   1.0292993      16.907998      5.391925     
   4896000   0.99245785     16.599359      5.4048488    
   4897000   1.0242156      17.1043        5.3888243    
   4898000   1.0420645      16.687043      5.3931024    
   4899000   1.0143262      17.31572       5.3845352    
   4900000   0.97856445     16.478647      5.4024666    
   4901000   0.9983638      16.862929      5.3625783    
   4902000   1.0000345      16.810805      5.3790371    
   4903000   1.0244756      17.002484      5.3630161    
   4904000   1.0234202      17.282162      5.3739091    
   4905000   0.9726825      16.276168      5.3731639    
   4906000   1.0203805      17.293864      5.3734238    
   4907000   0.99630287     16.953901      5.362537     
   4908000   0.97795381     16.821001      5.381911     
   4909000   1.0265585      16.7856        5.4231819    
   4910000   0.97707557     16.244843      5.3865972    
   4911000   0.97904452     16.865538      5.3948753    
   4912000   0.99012192     16.592721      5.397422     
   4913000   1.0234318      16.892693      5.3706997    
   4914000   1.021556       16.909549      5.3798352    
   4915000   0.96456939     16.887579      5.3872162    
   4916000   0.99279754     16.575068      5.3654652    
   4917000   1.004266       16.876959      5.3678614    
   4918000   0.95509588     17.164915      5.3649361    
   4919000   0.98588067     16.082973      5.3589068    
   4920000   1.0477018      16.920595      5.3807696    
   4921000   0.98464158     16.478395      5.3878974    
   4922000   1.0080317      16.84899       5.3532187    
   4923000   1.0210366      16.265899      5.3649189    
   4924000   0.9992036      17.464806      5.3553298    
   4925000   1.0389982      16.293814      5.4012158    
   4926000   0.98870994     16.775746      5.3667123    
   4927000   0.99770865     16.162467      5.3684928    
   4928000   0.95752658     16.797296      5.3925855    
   4929000   0.99331067     17.541678      5.3935535    
   4930000   1.036228       16.876619      5.4045616    
   4931000   1.0211978      17.145664      5.3774469    
   4932000   1.0061016      16.348136      5.3496302    
   4933000   0.97222055     17.219761      5.3826797    
   4934000   1.0141584      16.720496      5.3972135    
   4935000   0.99012387     16.706295      5.3843406    
   4936000   0.96023787     16.280976      5.4064218    
   4937000   1.0035463      16.389732      5.4202462    
   4938000   1.0055969      17.195494      5.390338     
   4939000   0.99752069     16.373691      5.3943479    
   4940000   1.0282082      16.976361      5.3865221    
   4941000   1.0182977      17.378977      5.4062207    
   4942000   0.9830788      16.969126      5.3965524    
   4943000   0.9590413      16.851919      5.3678553    
   4944000   0.9895095      16.44888       5.4232254    
   4945000   1.0044941      16.85542       5.40945      
   4946000   0.95062392     16.389773      5.3919211    
   4947000   0.95656772     16.786224      5.39091      
   4948000   1.0059         16.681023      5.428844     
   4949000   1.012406       17.11608       5.4141686    
   4950000   0.97694942     16.709491      5.4509218    
   4951000   0.98761045     16.616944      5.3994439    
   4952000   0.94554182     16.328046      5.4001673    
   4953000   1.0164986      16.260983      5.410883     
   4954000   0.93485573     16.508554      5.3988482    
   4955000   0.98294358     16.724552      5.3997881    
   4956000   1.0175471      17.320677      5.3593861    
   4957000   0.98626027     16.66719       5.3888247    
   4958000   0.98146352     16.870279      5.4011971    
   4959000   1.0511534      16.950734      5.347207     
   4960000   0.998696       16.86867       5.400076     
   4961000   0.96727572     16.47733       5.3677247    
   4962000   0.98535086     16.941932      5.3850814    
   4963000   0.97165457     16.919584      5.4330387    
   4964000   0.93689191     16.387501      5.4093326    
   4965000   0.98923134     17.013532      5.3832337    
   4966000   1.0169913      16.503732      5.384651     
   4967000   1.00382        16.337384      5.3846251    
   4968000   0.98384457     16.751442      5.3657295    
   4969000   1.0337223      17.088095      5.388198     
   4970000   0.97250781     16.987977      5.399172     
   4971000   0.99611488     16.582869      5.4000241    
   4972000   1.0217808      16.688958      5.3974658    
   4973000   1.0113189      16.985266      5.427924     
   4974000   0.99166917     16.306784      5.4013822    
   4975000   1.0169662      16.670086      5.4262397    
   4976000   1.0213458      17.02372       5.4478072    
   4977000   1.0534666      17.512332      5.4288886    
   4978000   0.99555958     16.876198      5.3880941    
   4979000   0.99645128     16.254592      5.4360155    
   4980000   0.97519485     16.490447      5.3818872    
   4981000   1.0455674      16.796221      5.3922307    
   4982000   0.99856117     17.083411      5.3829771    
   4983000   0.98207186     15.934177      5.3961076    
   4984000   0.97149818     16.207567      5.39883      
   4985000   0.97825608     17.167281      5.3889069    
   4986000   0.9998071      16.952271      5.36719      
   4987000   0.97615235     17.168731      5.3933363    
   4988000   1.0065217      16.688515      5.3856326    
   4989000   1.0144536      16.567124      5.4315786    
   4990000   0.97470868     16.807225      5.4032632    
   4991000   1.0068636      17.377861      5.3860592    
   4992000   0.99127049     16.297533      5.4056514    
   4993000   1.0264283      17.418576      5.3709686    
   4994000   0.98195544     16.644013      5.3935905    
   4995000   1.0048683      16.707071      5.3665375    
   4996000   1.0030358      16.504681      5.4237479    
   4997000   1.0038105      16.550534      5.3735453    
   4998000   1.0143967      15.947316      5.3783233    
   4999000   1.0023046      16.767369      5.3892801    
   5000000   0.95769913     16.794668      5.3858157    
   5001000   0.96978195     16.465598      5.3662734    
   5002000   1.0004142      16.315464      5.3643797    
   5003000   0.98928648     16.956841      5.3797976    
   5004000   1.0138372      16.259716      5.4116685    
   5005000   0.98333335     17.046393      5.3701829    
   5006000   1.0178989      16.536535      5.3720815    
   5007000   1.0047675      16.892646      5.4111068    
   5008000   0.99816357     16.364104      5.4053333    
   5009000   1.0503755      17.025511      5.3889998    
   5010000   1.0150772      16.472849      5.4062583    
   5011000   1.0058109      16.444556      5.3785926    
   5012000   1.0491623      17.261184      5.3824025    
   5013000   0.97935406     16.76709       5.3671788    
   5014000   0.97710224     16.252842      5.384456     
   5015000   0.97401012     16.118895      5.3564416    
   5016000   0.99718259     16.480489      5.3787681    
   5017000   1.0186002      17.113178      5.3833879    
   5018000   1.0025035      16.766996      5.3625053    
   5019000   0.99437957     16.787771      5.3931863    
   5020000   1.0199755      16.710518      5.4015464    
   5021000   0.99335594     15.970769      5.3681163    
   5022000   1.0050805      16.480784      5.3684625    
   5023000   0.9614904      16.441889      5.359202     
   5024000   0.98148917     16.693604      5.3633441    
   5025000   0.97812495     17.350872      5.3325247    
   5026000   0.97018479     17.005125      5.3771839    
   5027000   0.99063966     16.757871      5.3779763    
   5028000   1.0287471      16.971198      5.3628906    
   5029000   1.0258852      16.94455       5.3599169    
   5030000   1.0155129      16.788797      5.3609798    
   5031000   1.0202797      16.982926      5.3466914    
   5032000   0.98538288     16.807147      5.3794464    
   5033000   1.0314178      16.265156      5.3929413    
   5034000   0.99726547     17.099514      5.3666836    
   5035000   1.0234472      16.760951      5.4295945    
   5036000   1.0110661      16.791085      5.3953906    
   5037000   0.98546323     16.904278      5.4186938    
   5038000   0.97786761     16.500437      5.4248435    
   5039000   1.0119824      16.611868      5.3917832    
   5040000   1.0324718      17.403357      5.4024594    
   5041000   0.951761       16.635203      5.4166713    
   5042000   0.98987756     16.688156      5.420473     
   5043000   0.97778304     16.54745       5.4396923    
   5044000   1.0066841      16.391809      5.4136678    
   5045000   0.95349958     16.391866      5.4451594    
   5046000   0.98441053     17.392544      5.3698945    
   5047000   0.98379128     16.845029      5.3667014    
   5048000   1.0080495      16.744736      5.4092206    
   5049000   1.0073128      16.92768       5.4168853    
   5050000   1.0074479      16.685876      5.4239198    
   5051000   0.9829982      16.639438      5.4311667    
   5052000   0.96592509     16.667202      5.400119     
   5053000   0.99837793     16.576173      5.3933818    
   5054000   0.96848558     16.331536      5.4246643    
   5055000   0.99649648     16.691858      5.460325     
   5056000   0.98853499     16.763174      5.4126281    
   5057000   1.0015315      16.857223      5.3931629    
   5058000   0.99702504     16.527181      5.3850525    
   5059000   0.98318853     16.674004      5.3628754    
   5060000   0.96574943     16.684705      5.3858686    
   5061000   0.97564933     17.010127      5.4088864    
   5062000   1.018424       16.85382       5.3877066    
   5063000   0.99851899     16.74219       5.3582249    
   5064000   0.98518171     16.610343      5.384447     
   5065000   0.98344669     16.567823      5.4049365    
   5066000   0.99132776     17.652152      5.4115855    
   5067000   1.0077585      16.753866      5.3863447    
   5068000   1.001844       16.901492      5.3980019    
   5069000   1.05162        16.698285      5.3576126    
   5070000   1.0066141      16.708583      5.4136929    
   5071000   1.0124567      16.43832       5.3926916    
   5072000   1.0138924      16.470988      5.3835169    
   5073000   0.97344013     16.840435      5.3718209    
   5074000   1.0234878      17.113978      5.4064522    
   5075000   0.97779988     16.476609      5.4170456    
   5076000   0.99554309     16.757377      5.3946257    
   5077000   0.99260835     17.110549      5.37717      
   5078000   1.0135998      17.183451      5.3858686    
   5079000   1.0802611      16.783415      5.4171901    
   5080000   0.98430456     16.591661      5.4232441    
   5081000   1.0265909      16.433168      5.4230118    
   5082000   0.9828867      16.997494      5.4535875    
   5083000   0.98933407     16.405219      5.4744606    
   5084000   0.9664585      16.766849      5.4061401    
   5085000   1.008371       17.253787      5.4161791    
   5086000   0.99772277     16.578702      5.3908197    
   5087000   0.99275281     17.165834      5.3605045    
   5088000   0.98798362     16.480456      5.3916612    
   5089000   0.96901481     16.212371      5.382851     
   5090000   1.0126653      16.856584      5.3858736    
   5091000   1.0326863      17.264017      5.3666393    
   5092000   1.0009158      16.536546      5.3522163    
   5093000   1.0028069      16.40848       5.3727937    
   5094000   0.96512336     16.657523      5.3726708    
   5095000   1.0058741      16.895771      5.359822     
   5096000   1.0191439      17.23379       5.3440507    
   5097000   1.0086082      16.781638      5.3520361    
   5098000   1.0073751      16.890774      5.3754586    
   5099000   0.95971345     16.628571      5.3618687    
   5100000   1.000248       16.83998       5.3621481    
Loop time of 47618.1 on 1 procs for 5000000 steps with 1201 atoms

Performance: 90721.803 tau/day, 105.002 timesteps/s
173.8% CPU use with 1 MPI tasks x 1 OpenMP threads

MPI task timing breakdown:
Section |  min time  |  avg time  |  max time  |%varavg| %total
---------------------------------------------------------------
Pair    | 43336      | 43336      | 43336      |   0.0 | 91.01
Bond    | 272.42     | 272.42     | 272.42     |   0.0 |  0.57
Neigh   | 3655.9     | 3655.9     | 3655.9     |   0.0 |  7.68
Comm    | 3.0027     | 3.0027     | 3.0027     |   0.0 |  0.01
Output  | 15.104     | 15.104     | 15.104     |   0.0 |  0.03
Modify  | 299.18     | 299.18     | 299.18     |   0.0 |  0.63
Other   |            | 36.32      |            |       |  0.08

Nlocal:           1201 ave        1201 max        1201 min
Histogram: 1 0 0 0 0 0 0 0 0 0
Nghost:              0 ave           0 max           0 min
Histogram: 1 0 0 0 0 0 0 0 0 0
Neighs:         345533 ave      345533 max      345533 min
Histogram: 1 0 0 0 0 0 0 0 0 0

Total # of neighbors = 345533
Ave neighs/atom = 287.70441
Ave special neighs/atom = 1.9983347
Neighbor list builds = 35317
Dangerous builds = 0

# This simulation is done
# Move onto the next one
clear
OMP_NUM_THREADS environment is not set. Defaulting to 1 thread. (src/comm.cpp:98)
  using 1 OpenMP thread(s) per MPI task
next f
jump SELF

Total wall time: 22:21:59
