#atom_style bond #no stiffness
atom_style angle #with stiffness

boundary        p p p
###
# Pair interactions require lists of neighbours to be calculated
###

#neighbor 0.3 bin
neighbor 4 bin

neigh_modify every 1 delay 1 check yes
atom_modify sort 0 0
### Generate RESTART file, SPECIAL format, not a .txt file ###
### Useful if simulation crashes ###

restart 1000000 plusshaped/restarts/$f.restart
restart 1000000 plusshaped/restarts/bb501nuc1bl250bn4d30tot1000.restart
#############################



### READ "start" data file ###

read_data plusshaped/$f.dat
read_data plusshaped/bb501nuc1bl250bn4d30tot1000.dat
Reading data file ...
  orthogonal box = (-1000 -1000 -1000) to (1000 1000 1000)
  1 by 1 by 1 MPI processor grid
  reading atoms ...
  1001 atoms
  scanning bonds ...
  3 = max bonds/atom
  scanning angles ...
  6 = max angles/atom
  reading bonds ...
  1000 bonds
  reading angles ...
  1002 angles
Finding 1-2 1-3 1-4 neighbors ...
  special bond factors lj:    0        0        0       
  special bond factors coul:  0        0        0       
     4 = max # of 1-2 neighbors
     4 = max # of 1-3 neighbors
     8 = max # of 1-4 neighbors
    12 = max # of special neighbors
  special bonds CPU = 0.001 seconds
  read_data CPU = 0.080 seconds

######################

### READ "REstart" data file ###

######################



###
# Define groups (atom type 1 is group 'all')
###
group all type 1
1001 atoms in group all


###
# Dump configs - "simple dumpings"
###

###
# Dump configs + box coords
###

dump   1   all   custom   1000  plusshaped/trjs/$f.lammpstrj  id  x y z  ix iy iz
dump   1   all   custom   1000  plusshaped/trjs/bb501nuc1bl250bn4d30tot1000.lammpstrj  id  x y z  ix iy iz
dump_modify   1   format line "%d %.5f %.5f %.5f %d %d %d"

########################################################################


###################################################################
# Stiffness term
#
# E = K * (1+cos(theta)), K>0
#
angle_style   cosine
#change this coefficient to change stiffness (e.g. 1,5,10)
angle_coeff   1 1.0
###################################################################

###################################################################
# Pair interaction between non-bonded atoms
#
#  Lennard-Jones 12-6 potential with cutoff:
#  potential E=4epsilon[ (sigma/r)^12 - (sigma/r)^6]  for r<r_cut
#
#  1.12246 = 2^(1/6) is the minimum of the potential


pair_style      lj/cut 1.12246152962189
#pair_style      lj/cut 3

#
#  pair_modify shift yes adds a constant to the potential such

#  that E(r_cut)=0. Forces remains unchanged.
#

pair_modify     shift yes

#
#  pair_coeff for lj/cut, specify 4:
#    * atom type interacting with
#    * atom type
#    * epsilon (energy units)
#    * sigma (distance units)
#

pair_coeff      1 1 1.0 1.0
###################################################################

###################################################################
# Pair interaction between non-bonded atoms
#
#  soft potential, for PUSHING apart overlapping atoms
#  potential E=A*(1 + cos(pi*r/r_c))
#
#  1.12246 = 2^(1/6) is the cut-off r_c

#pair_style     soft 1.12246152962189

#
#  pair_coeff for soft, specify 3:
#    * atom type interacting with
#    * atom type
#    * A
#
#

#pair_coeff      1 1 100.0
###################################################################

###################################################################
# Pair interaction between bonded atoms
#
# Fene potential + Lennard Jones 12-6:

#
#  E= - 0.5 K R0^2 ln[ 1- (r/R0)^2]
#     + 4epsilon[ (sigma/r)^12 - (sigma/r)^6] + epsilon
#

bond_style   fene


#
# For style fene, specify:
#   * bond type
#   * K (energy/distance^2)
#   * R0 (distance)
#   * epsilon (energy)  (LJ component)
#   * sigma (distance)  (LJ component)
#


special_bonds fene #<=== I M P O R T A N T (new command)
Finding 1-2 1-3 1-4 neighbors ...
  special bond factors lj:    0        1        1       
  special bond factors coul:  0        1        1       
     4 = max # of 1-2 neighbors
    12 = max # of special neighbors
  special bonds CPU = 0.000 seconds

bond_coeff   1   30   2   1.0   1.0


###################################################

###################################################################
# Pair interaction between bonded atoms
#
# Harmonic potential:
#
#  E= K * (R-R0)^2
#

#bond_style   harmonic

#
# For style harmonic, specify:
#   * bond type
#   * K (energy/distance^2)
#   * R0 (distance)
#

#bond_coeff   1   60.0   1.0
#bond_coeff   2   harmonic 0.1   1.0

###################################################
compute 1 all gyration
variable rog equal c_1
#compute 2 all coord/atom cutoff 1.1

#dump 2 all custom 10000 contact_number.dump id c_2


###
# Set up fixes
###
thermo_style   custom   step  temp enthalpy c_1
fix 1 all nve   ###NVE ensemble

fix 2 all   langevin   1.0 1.0 1.0  100103   ###Langevin integrator Tstart Tstop 1/friction rndseed


##### Sample thermodynamic info  (temperature, energy, pressure, etc.) #####
thermo 1000









############################################################################

###
# set timestep of integrator

timestep 0.01

###
# run integration for a number of steps
###
#run 0
#variable r equal c_1
#if "$r < 63.1" then "quit 1"

# lj potential minimum, cause molecule to explore
run 100000
Generated 0 of 0 mixed pair_coeff terms from geometric mixing rule
Neighbor list info ...
  update: every = 1 steps, delay = 1 steps, check = yes
  max neighbors/atom: 2000, page size: 100000
  master list distance cutoff = 5.1224615
  ghost atom cutoff = 5.1224615
  binsize = 2.5612308, bins = 781 781 781
  1 neighbor lists, perpetual/occasional/extra = 1 0 0
  (1) pair lj/cut, perpetual
      attributes: half, newton on
      pair build: half/bin/newton
      stencil: half/bin/3d
      bin: standard
WARNING: Communication cutoff 5.12246152962189 is shorter than a bond length based estimate of 5.455. This may lead to errors. (src/comm.cpp:723)
Per MPI rank memory allocation (min/avg/max) = 1861 | 1861 | 1861 Mbytes
   Step          Temp         Enthalpy         c_1      
         0   0              13.219708      131.3837     
      1000   0.99482738     17.656428      130.92809    
      2000   0.98002356     18.014851      130.26502    
      3000   1.0039441      18.188202      129.34567    
      4000   0.9670193      17.708654      128.76428    
      5000   1.0020674      18.766921      128.42857    
      6000   1.0477077      18.318673      127.98058    
      7000   1.0275754      18.265137      127.39888    
      8000   0.95729694     18.701178      127.06232    
      9000   0.97390733     18.69171       126.73231    
     10000   0.99494345     18.731752      126.18298    
     11000   0.98749152     18.206906      125.82613    
     12000   1.0161513      18.517098      125.50105    
     13000   1.0369976      19.181064      125.00448    
     14000   0.98908838     18.880571      124.52363    
     15000   1.014992       19.301156      124.09288    
     16000   1.0166897      19.036522      123.83082    
     17000   0.97128001     18.946079      123.37383    
     18000   0.95253234     18.220957      123.03205    
     19000   1.0507814      19.016295      122.79315    
     20000   1.003982       19.043059      122.32921    
     21000   0.99432413     18.918004      121.95344    
     22000   0.97223386     19.255848      121.53145    
     23000   0.98626137     18.924963      121.22186    
     24000   1.004748       19.040235      121.05244    
     25000   1.0029521      19.151302      120.98613    
     26000   0.97810331     18.973377      120.79386    
     27000   0.98315703     19.181508      120.6119     
     28000   0.98187545     18.957106      120.28658    
     29000   0.99950434     19.505132      120.30613    
     30000   1.0000708      19.322575      119.99345    
     31000   1.0511087      19.96337       119.63841    
     32000   0.96494635     19.099617      119.11815    
     33000   0.9746724      19.719998      119.05763    
     34000   1.0096436      19.490892      118.76485    
     35000   1.0178056      19.47261       118.45025    
     36000   1.0015369      18.993993      118.05407    
     37000   1.0096452      19.436648      117.88015    
     38000   0.99809847     19.357897      117.59235    
     39000   1.0088352      19.269296      117.50542    
     40000   1.0250818      19.4207        117.45823    
     41000   1.042171       19.224312      117.28669    
     42000   1.0043876      19.170857      116.98703    
     43000   1.0274605      19.215094      116.58955    
     44000   1.012553       19.182011      116.21165    
     45000   0.98143502     18.883491      116.17858    
     46000   1.0163074      19.71957       115.8759     
     47000   1.0141327      19.516289      115.65767    
     48000   1.0508463      20.040196      115.54073    
     49000   1.0317263      19.336908      115.1767     
     50000   1.007503       19.529928      114.93186    
     51000   1.0094385      19.691248      115.01124    
     52000   1.0504355      19.749857      114.78328    
     53000   1.030373       19.478111      114.54555    
     54000   1.0276784      19.560249      114.25413    
     55000   0.99480445     19.86997       113.8505     
     56000   1.0198072      19.521509      113.70562    
     57000   1.0416924      20.293572      113.63072    
     58000   1.0178327      19.643119      113.42492    
     59000   0.99265808     20.165865      113.14731    
     60000   1.0085775      19.86813       112.86642    
     61000   0.95529001     19.373818      112.71743    
     62000   0.94344328     19.448555      112.38699    
     63000   1.0030114      19.743292      112.17216    
     64000   1.0169544      19.534592      111.94247    
     65000   0.98852082     20.117125      111.85061    
     66000   1.0436826      20.012187      111.96701    
     67000   1.0182856      19.400689      111.74226    
     68000   0.9725573      19.844223      111.7026     
     69000   0.99272583     19.820654      111.45572    
     70000   0.96455538     19.891362      111.21486    
     71000   1.0020374      20.256603      111.25003    
     72000   0.97648811     20.19898       111.26356    
     73000   0.9877203      19.419306      111.08701    
     74000   1.0600445      19.591311      111.00206    
     75000   1.0131339      19.995235      110.99218    
     76000   1.0032302      19.611063      110.70703    
     77000   1.0307227      19.684498      110.55619    
     78000   1.0035549      19.89141       110.20115    
     79000   0.98909011     19.687049      109.93465    
     80000   1.0133179      18.858636      109.89387    
     81000   1.0045888      19.714797      109.68553    
     82000   1.0358256      19.621946      109.62695    
     83000   0.9745158      19.727452      109.41836    
     84000   1.0116165      19.848917      109.11259    
     85000   1.017236       19.469575      108.72655    
     86000   1.0501979      20.241889      108.51195    
     87000   0.99525012     19.680402      108.36289    
     88000   1.0198571      20.320649      108.48475    
     89000   0.96989703     19.857638      108.41105    
     90000   0.95426198     19.260814      108.14897    
     91000   1.016573       20.045355      108.07581    
     92000   0.99092196     19.491747      107.90623    
     93000   0.95578777     19.860579      107.77604    
     94000   1.0497114      20.378811      107.57936    
     95000   1.0186454      20.409759      107.20816    
     96000   0.98523452     20.011505      107.23623    
     97000   0.99859891     19.52502       106.96203    
     98000   1.0077644      19.936572      106.76705    
     99000   1.0512418      19.51367       106.6335     
    100000   1.0100418      20.166455      106.29593    
Loop time of 378.569 on 1 procs for 100000 steps with 1001 atoms

Performance: 228228.162 tau/day, 264.153 timesteps/s
100.0% CPU use with 1 MPI tasks x 1 OpenMP threads

MPI task timing breakdown:
Section |  min time  |  avg time  |  max time  |%varavg| %total
---------------------------------------------------------------
Pair    | 1.8759     | 1.8759     | 1.8759     |   0.0 |  0.50
Bond    | 4.3102     | 4.3102     | 4.3102     |   0.0 |  1.14
Neigh   | 367.03     | 367.03     | 367.03     |   0.0 | 96.95
Comm    | 0.038549   | 0.038549   | 0.038549   |   0.0 |  0.01
Output  | 0.27451    | 0.27451    | 0.27451    |   0.0 |  0.07
Modify  | 4.6549     | 4.6549     | 4.6549     |   0.0 |  1.23
Other   |            | 0.3816     |            |       |  0.10

Nlocal:           1001 ave        1001 max        1001 min
Histogram: 1 0 0 0 0 0 0 0 0 0
Nghost:              0 ave           0 max           0 min
Histogram: 1 0 0 0 0 0 0 0 0 0
Neighs:           5537 ave        5537 max        5537 min
Histogram: 1 0 0 0 0 0 0 0 0 0

Total # of neighbors = 5537
Ave neighs/atom = 5.5314685
Ave special neighs/atom = 1.998002
Neighbor list builds = 1101
Dangerous builds = 0

# Replace lj potential, now collapse
pair_style      lj/cut 3

# Cutoff simul when gyration under 5
# Variable created with equal requires v_ + 'name'
fix 3 all halt 1000 v_rog < 5

run 5000000
Generated 0 of 0 mixed pair_coeff terms from geometric mixing rule
Per MPI rank memory allocation (min/avg/max) = 1861 | 1861 | 1861 Mbytes
   Step          Temp         Enthalpy         c_1      
    100000   1.0100418      19.562151      106.29593    
    101000   0.98259857     19.574465      106.12362    
    102000   1.0715908      18.997441      105.87126    
    103000   1.0208446      19.212312      105.78133    
    104000   0.99879499     19.376147      105.56352    
    105000   1.0333509      19.362223      105.14419    
    106000   1.0157548      19.182087      105.12695    
    107000   1.024923       19.727288      104.85276    
    108000   1.0348729      19.313808      104.65054    
    109000   1.0028931      19.408789      104.40132    
    110000   1.0014499      19.011449      104.50329    
    111000   1.0359134      19.804991      104.24753    
    112000   1.0435437      18.899939      104.21602    
    113000   0.98458457     19.052846      104.09958    
    114000   0.97353539     19.045684      103.90462    
    115000   1.0281921      19.354869      104.01272    
    116000   0.97195121     18.503795      103.99916    
    117000   1.0078346      19.37897       103.87618    
    118000   0.99160327     19.323629      103.84982    
    119000   1.0000686      19.349214      103.4129     
    120000   1.0237853      19.117428      102.9925     
    121000   1.0576601      19.714955      103.00485    
    122000   0.94419468     18.933351      102.95208    
    123000   1.0094091      19.240242      102.70444    
    124000   0.99270008     19.261527      102.55564    
    125000   0.95803396     19.76568       102.55047    
    126000   1.008618       19.10845       102.47394    
    127000   0.98848647     19.118234      102.03123    
    128000   0.98820952     19.455068      101.74488    
    129000   1.030832       18.676784      101.53079    
    130000   1.018823       19.026743      101.23091    
    131000   1.0327923      19.588423      100.98879    
    132000   1.0085597      19.573141      100.73344    
    133000   1.0074321      19.214355      100.52264    
    134000   0.99056474     19.214208      100.35379    
    135000   1.0189993      19.271165      100.26478    
    136000   0.94683828     19.312711      100.18532    
    137000   0.996421       18.740599      100.46614    
    138000   1.00858        18.92256       100.2008     
    139000   0.99373483     19.182956      100.07868    
    140000   0.97343747     18.604158      99.735127    
    141000   1.000385       18.997972      99.645717    
    142000   0.98177421     18.7647        99.426279    
    143000   1.0128302      19.427168      99.104949    
    144000   1.0418355      19.406879      98.923555    
    145000   1.0260072      18.91295       98.930092    
    146000   1.0208539      19.827276      98.660436    
    147000   0.99201741     19.944186      98.420088    
    148000   0.93198283     18.74204       97.982008    
    149000   0.99818328     19.530395      97.746462    
    150000   1.0000483      18.994005      97.633514    
    151000   1.0209146      18.877902      97.519329    
    152000   1.014699       19.291697      97.398422    
    153000   0.96864409     19.210844      96.859038    
    154000   0.98770255     18.97836       96.60293     
    155000   0.99193222     18.882216      96.455818    
    156000   0.98965911     19.017543      96.490753    
    157000   0.97566679     19.253678      96.382787    
    158000   0.98948499     19.249684      96.122524    
    159000   0.96686372     18.650293      96.140636    
    160000   1.0134685      18.582498      96.126465    
    161000   1.0202005      18.954468      95.817901    
    162000   1.020248       19.092508      95.644644    
    163000   0.99027402     19.020844      95.615406    
    164000   1.0129591      19.292832      95.53348     
    165000   1.0351556      19.163637      95.307363    
    166000   0.96345999     19.141304      95.05946     
    167000   0.98503512     18.879124      94.572465    
    168000   0.96346376     19.123152      94.399234    
    169000   0.97496291     18.534177      94.149612    
    170000   1.0223113      19.669363      93.870676    
    171000   1.040599       19.463075      93.807307    
    172000   0.95858385     18.755184      93.519134    
    173000   0.97495699     19.668665      93.31601     
    174000   0.99675715     18.885009      92.981093    
    175000   0.95975095     18.931655      92.94051     
    176000   0.99347064     18.586645      92.751795    
    177000   1.0086383      18.731167      92.628125    
    178000   1.0295867      18.586472      92.723397    
    179000   1.0087069      19.102714      92.848722    
    180000   0.98952836     18.89883       92.698384    
    181000   0.9731416      18.845853      92.642172    
    182000   0.99537097     19.185729      92.602943    
    183000   0.9817036      19.484517      92.486281    
    184000   1.0270602      19.074354      92.302235    
    185000   0.97322911     18.900109      91.907292    
    186000   0.96702737     19.190989      91.895603    
    187000   0.99948839     19.525257      91.565102    
    188000   0.98450565     19.054495      91.394899    
    189000   1.0082649      19.345144      91.358604    
    190000   1.0026605      18.539973      91.2603      
    191000   0.996013       18.886934      91.110843    
    192000   1.0149609      19.408554      90.886979    
    193000   0.96865731     19.077923      90.510107    
    194000   0.97946585     18.659974      90.657796    
    195000   0.98286449     19.395065      90.71166     
    196000   1.0303216      18.927758      90.587885    
    197000   0.98466587     18.40024       90.269429    
    198000   0.95887928     18.861503      90.141007    
    199000   0.99649274     19.134616      89.982138    
    200000   0.99229325     18.563691      89.7836      
    201000   1.0049756      18.471496      89.861301    
    202000   0.98712666     19.004515      89.7653      
    203000   1.016745       19.115719      89.552567    
    204000   1.0125158      18.681608      89.479073    
    205000   1.0740774      18.788309      89.189447    
    206000   1.0125248      18.618256      88.790755    
    207000   0.98115146     19.148261      88.6756      
    208000   1.0241494      18.509876      88.392459    
    209000   1.011127       18.632731      88.075854    
    210000   0.98275666     18.656377      87.78375     
    211000   1.0499122      18.987406      87.821643    
    212000   1.0142464      19.319114      87.496404    
    213000   1.0084004      18.67372       87.181096    
    214000   1.0027082      18.896458      86.650029    
    215000   1.026805       18.917598      86.365889    
    216000   0.97485356     18.509554      86.51124     
    217000   1.0589363      19.334217      86.490432    
    218000   0.99765945     19.110762      86.230244    
    219000   1.0297691      18.47371       85.987316    
    220000   1.0076622      19.160208      85.950419    
    221000   0.93883098     18.754742      85.793116    
    222000   1.0109361      19.054186      85.617937    
    223000   0.95788122     18.70378       85.560271    
    224000   1.0055274      18.598159      85.323109    
    225000   0.96678797     18.477556      85.040266    
    226000   1.0154488      19.151758      84.894763    
    227000   0.97241064     19.307856      84.702002    
    228000   1.0018942      18.898193      84.549027    
    229000   1.0017532      18.829857      84.354727    
    230000   0.97981684     19.106474      84.07192     
    231000   0.95132305     18.771003      83.929786    
    232000   1.0052104      18.761714      83.669227    
    233000   0.98154872     18.582054      83.723004    
    234000   0.96211775     18.91944       83.554682    
    235000   1.018364       19.079015      83.787883    
    236000   0.95022835     18.823509      83.656896    
    237000   0.98712776     19.051288      83.427032    
    238000   1.0026326      18.937497      83.277538    
    239000   1.0148773      18.728207      82.980898    
    240000   1.0474622      18.855394      82.740557    
    241000   1.0107339      18.426184      82.503511    
    242000   0.99483207     18.444561      82.246636    
    243000   0.97407926     18.154457      82.102259    
    244000   0.98871168     18.769864      81.775217    
    245000   0.98242371     18.551859      81.574376    
    246000   1.0249495      18.739997      81.339965    
    247000   0.98966559     19.301424      81.341322    
    248000   0.98180164     19.218374      81.077433    
    249000   0.98374785     18.773329      80.816953    
    250000   0.97922937     18.563463      81.023713    
    251000   1.0424609      18.496306      80.701365    
    252000   0.97695313     19.024709      80.490638    
    253000   0.9933822      18.152486      80.314923    
    254000   0.98869714     18.620603      80.301809    
    255000   0.97598001     18.350513      80.134922    
    256000   1.0389649      18.587455      79.969605    
    257000   1.0210772      18.574696      79.644917    
    258000   1.0042951      18.591649      79.665091    
    259000   0.98571021     18.630542      79.618554    
    260000   0.98222939     18.650149      79.39609     
    261000   1.0286981      19.40895       79.266919    
    262000   1.0300371      19.02529       79.291749    
    263000   1.049982       18.654893      79.037352    
    264000   1.0298586      18.766953      78.959176    
    265000   0.95850861     18.163103      78.943472    
    266000   0.98675513     18.541126      78.606239    
    267000   0.99615928     18.602988      78.570375    
    268000   0.99835342     18.771218      78.132958    
    269000   1.0327128      18.92023       78.013704    
    270000   1.0308431      18.765592      77.710683    
    271000   1.0156162      18.523342      77.567117    
    272000   0.99318988     18.295853      77.073685    
    273000   0.97287105     18.087831      77.144257    
    274000   0.97073412     18.576879      76.878642    
    275000   1.0209016      18.395267      76.71157     
    276000   0.96758643     18.799199      76.580482    
    277000   1.004327       18.856286      76.488296    
    278000   1.0412373      18.971609      76.574892    
    279000   0.99077713     18.4147        76.315992    
    280000   1.0373546      19.022265      76.089258    
    281000   1.0489274      18.650523      76.280454    
    282000   0.99302389     19.093134      76.234716    
    283000   0.96851154     18.604209      76.027179    
    284000   1.0041243      18.701726      76.036771    
    285000   0.98701101     18.570259      75.96282     
    286000   1.0391608      18.297617      75.852944    
    287000   1.0290245      18.780222      75.785135    
    288000   0.96078201     18.50403       75.899372    
    289000   0.99589528     18.5651        75.741697    
    290000   0.97931501     18.906713      75.592234    
    291000   0.99583097     18.302357      75.369051    
    292000   0.96401777     18.626252      75.0918      
    293000   1.0090033      19.128857      74.968182    
    294000   0.99513105     18.810466      74.793208    
    295000   0.97766781     18.058869      74.839373    
    296000   1.0128382      18.963738      74.640659    
    297000   0.98379768     18.200482      74.605313    
    298000   1.0279193      18.162874      74.4626      
    299000   1.0264307      18.969235      74.313687    
    300000   1.0229866      18.695103      74.127628    
    301000   1.030929       18.577057      74.088391    
    302000   1.0310782      18.144002      73.702392    
    303000   1.0044581      18.249375      73.683912    
    304000   0.9792603      18.556087      73.605637    
    305000   1.0312633      18.816226      73.466104    
    306000   0.98593772     18.234338      73.067433    
    307000   1.0379087      18.562099      72.862342    
    308000   0.99196269     18.290047      72.685629    
    309000   0.9713758      18.380977      72.31572     
    310000   0.97463872     17.957968      72.143869    
    311000   1.0260427      18.436938      71.904706    
    312000   1.0272783      18.718837      71.789306    
    313000   1.002025       18.383503      71.733928    
    314000   0.98935671     18.373171      71.648221    
    315000   0.98650065     19.073348      71.587434    
    316000   0.99469375     18.763876      71.429257    
    317000   1.0011679      18.666736      71.134694    
    318000   1.0367506      18.374224      70.777449    
    319000   0.98185512     18.095234      70.620423    
    320000   0.97167405     18.72784       70.193248    
    321000   1.0313398      18.444604      70.18322     
    322000   0.98755464     18.718049      70.140581    
    323000   0.94993856     17.705953      69.878928    
    324000   1.0185566      18.594941      69.720523    
    325000   1.0213624      18.541667      69.427961    
    326000   0.99740183     17.747707      69.301658    
    327000   1.0560013      18.41338       69.251588    
    328000   1.011174       18.378716      69.375115    
    329000   0.99740242     18.493996      69.310792    
    330000   0.9984888      18.094898      69.187317    
    331000   0.97706129     18.290399      68.989672    
    332000   1.0194782      18.006728      69.00189     
    333000   0.98263892     18.550198      68.736379    
    334000   0.99634311     18.53326       68.711674    
    335000   1.0052573      18.462167      68.657576    
    336000   0.99247912     17.844893      68.415592    
    337000   0.98255644     18.324102      68.278114    
    338000   1.0013653      18.282995      68.139685    
    339000   0.9944477      18.674551      68.03764     
    340000   1.0197586      18.245004      67.794863    
    341000   0.98078893     18.071261      67.520114    
    342000   1.00225        18.214414      67.445355    
    343000   0.98221015     18.147003      66.991837    
    344000   1.0076126      18.094312      66.778702    
    345000   0.98283672     18.270568      66.480154    
    346000   0.99314959     18.231146      66.277257    
    347000   0.99003448     18.037636      66.26454     
    348000   0.9965766      18.864943      66.369402    
    349000   1.0387924      18.464372      66.387518    
    350000   1.032112       18.912077      66.196362    
    351000   1.004684       18.542442      65.817338    
    352000   0.99026015     18.370275      65.652002    
    353000   1.0157879      18.214479      65.61505     
    354000   0.99937562     18.255216      65.509717    
    355000   1.0510548      18.320279      65.398557    
    356000   1.0154542      19.092621      64.931926    
    357000   0.99436451     18.565919      64.556832    
    358000   1.0045051      18.301794      64.505952    
    359000   1.0055907      18.307495      64.384529    
    360000   1.0308406      18.327734      64.161738    
    361000   1.0547366      18.508263      63.699419    
    362000   1.0128907      18.390706      63.518832    
    363000   1.0197946      18.411677      63.320809    
    364000   0.99713449     17.914548      63.452865    
    365000   0.98911835     18.563631      63.002137    
    366000   1.0153111      18.473701      63.058669    
    367000   0.98081595     18.142553      62.99055     
    368000   1.035067       17.801486      62.896729    
    369000   1.0385097      18.450182      62.641287    
    370000   1.0096077      17.997874      62.312852    
    371000   1.0155581      18.659432      62.274872    
    372000   1.0408623      18.923316      62.105992    
    373000   1.0081308      18.639366      62.041885    
    374000   0.97957476     18.016018      62.097722    
    375000   0.97943988     18.453917      61.762017    
    376000   0.99313217     17.471029      61.709155    
    377000   0.93590116     18.172759      61.37719     
    378000   1.0515719      18.213431      61.214274    
    379000   1.0121502      18.220259      61.274685    
    380000   0.99700892     18.146055      61.182139    
    381000   1.0015077      18.498283      61.049107    
    382000   1.0046926      18.202497      60.834455    
    383000   1.0403526      18.747958      60.748219    
    384000   0.99866201     17.881002      60.499639    
    385000   0.99104691     17.951013      60.600176    
    386000   0.99962457     18.241359      60.518138    
    387000   1.0214255      17.936393      60.387727    
    388000   0.96623703     17.961798      60.407296    
    389000   1.0057955      18.157468      60.425753    
    390000   1.0320099      17.938179      60.467776    
    391000   0.98862409     18.768972      60.288205    
    392000   0.99752352     18.873411      60.136565    
    393000   0.96896241     18.506655      60.005822    
    394000   0.99842861     18.718682      59.925842    
    395000   1.0221387      18.230425      59.716896    
    396000   1.0326466      18.511061      59.52859     
    397000   1.026594       17.886779      59.395915    
    398000   1.0193151      18.346992      59.356806    
    399000   0.97462158     18.417936      59.096358    
    400000   1.0107077      18.56028       59.066655    
    401000   1.0218726      18.378872      58.770926    
    402000   0.99448869     18.142097      58.729372    
    403000   1.0314607      18.270425      58.573429    
    404000   0.98286448     17.835238      58.475616    
    405000   0.9932207      18.354535      58.180811    
    406000   0.99624999     18.244149      57.956471    
    407000   0.98339249     18.63387       57.812141    
    408000   1.0231373      18.48191       57.522218    
    409000   0.9979974      18.016105      57.46077     
    410000   1.018029       18.373202      57.194371    
    411000   1.0395527      18.655476      57.121869    
    412000   0.98160226     17.649243      56.799197    
    413000   0.96054126     18.365139      56.605743    
    414000   1.0001432      18.605313      56.388531    
    415000   0.98388085     18.46745       56.332822    
    416000   0.99910389     18.361425      56.271096    
    417000   0.9627075      18.057003      56.327467    
    418000   0.96361498     18.216294      56.358255    
    419000   0.97430457     18.452068      56.394665    
    420000   1.0261438      18.542311      56.381182    
    421000   1.0273857      17.939234      56.281238    
    422000   0.94878461     18.603142      56.209179    
    423000   1.0162114      18.500689      56.037496    
    424000   1.0127252      18.311681      55.983766    
    425000   0.96913619     18.259027      55.771202    
    426000   1.018907       18.011674      55.70828     
    427000   0.99601771     18.260297      55.568913    
    428000   0.97875702     18.34939       55.512154    
    429000   0.95157524     17.949088      55.444629    
    430000   1.0019191      18.368534      55.334233    
    431000   0.98098339     18.331782      55.367235    
    432000   1.0036434      17.750322      55.109585    
    433000   1.0479778      17.437697      55.160672    
    434000   0.9888897      18.041486      55.285524    
    435000   1.0088754      17.848477      55.207127    
    436000   0.9837099      18.323326      55.197309    
    437000   1.0136569      18.342174      54.979767    
    438000   1.0224274      18.611913      54.658526    
    439000   1.0082219      18.192956      54.414127    
    440000   1.0095103      18.248084      54.052191    
    441000   0.9819443      18.191983      53.647381    
    442000   0.97685249     18.345535      53.401023    
    443000   1.0184825      18.37901       53.14416     
    444000   0.99415082     18.096433      53.047289    
    445000   1.0014325      18.099314      52.780831    
    446000   1.0003543      17.978852      52.626842    
    447000   1.0226532      18.426538      52.292587    
    448000   1.0187131      18.499252      52.054452    
    449000   1.0148698      18.18769       51.924739    
    450000   0.96401918     18.056931      51.798757    
    451000   1.0030091      17.496349      51.504976    
    452000   1.0303879      17.867777      51.553939    
    453000   0.95144424     17.567497      51.375636    
    454000   1.0323868      18.210121      51.15606     
    455000   1.0304172      18.795912      51.244951    
    456000   0.99473634     18.153688      51.049009    
    457000   1.0471714      17.771587      51.061643    
    458000   1.0225914      17.726092      51.175038    
    459000   0.96112406     18.142683      51.287262    
    460000   1.0172931      18.39107       51.345406    
    461000   1.0211935      17.953569      51.180552    
    462000   0.97934384     18.05435       51.334485    
    463000   0.99480788     17.845798      51.369232    
    464000   1.0049997      17.665749      51.419146    
    465000   1.0255552      17.797579      51.291316    
    466000   0.99103259     18.021779      51.188983    
    467000   0.98743882     17.70052       51.034703    
    468000   1.0232224      18.171082      50.873371    
    469000   0.94752798     18.01956       50.560582    
    470000   1.0112161      18.138762      50.578128    
    471000   1.0302041      18.020982      50.451989    
    472000   1.0126677      18.322923      50.414367    
    473000   0.97924054     17.991177      50.182201    
    474000   0.97331802     17.936149      50.046055    
    475000   0.94626461     17.774299      49.857875    
    476000   1.0315923      18.199661      49.606018    
    477000   1.0012337      18.080599      49.251805    
    478000   0.99091695     18.217221      49.272271    
    479000   1.0276932      18.68508       48.971347    
    480000   1.0224213      17.881638      48.779228    
    481000   0.97893249     17.88157       48.895094    
    482000   1.0205058      18.105288      48.760136    
    483000   1.0259941      18.246277      48.625541    
    484000   1.0096139      18.513276      48.373237    
    485000   1.0000357      18.075446      48.262903    
    486000   0.98323707     17.532798      48.168471    
    487000   0.98093427     17.939041      47.931711    
    488000   1.0429656      17.90647       47.824774    
    489000   0.99663979     17.832532      48.025322    
    490000   0.97119965     17.261139      47.96643     
    491000   1.0037913      17.975321      47.835645    
    492000   0.9811171      18.255829      47.746332    
    493000   1.0390265      18.015131      47.795002    
    494000   0.97521122     18.144123      47.605905    
    495000   0.98130138     17.700413      47.120967    
    496000   1.0215057      18.191795      46.787199    
    497000   0.9673404      18.386855      46.636622    
    498000   0.97888542     17.778885      46.52869     
    499000   1.027584       18.50917       46.584862    
    500000   1.003905       17.655679      46.730367    
    501000   1.0083561      18.183414      46.760438    
    502000   1.0279214      18.276976      46.534292    
    503000   1.0372565      17.790286      46.560337    
    504000   1.0034105      18.046504      46.377217    
    505000   1.0275051      17.976185      46.443842    
    506000   0.99153083     18.500034      46.430206    
    507000   0.98801429     17.793386      46.172952    
    508000   1.0177411      18.2709        46.055219    
    509000   1.0087792      17.77057       45.972591    
    510000   1.0218956      17.973398      45.970888    
    511000   1.0114715      18.269304      45.726389    
    512000   0.94934387     17.128272      45.549795    
    513000   1.0244481      18.221823      45.511596    
    514000   1.0072132      18.655204      45.478019    
    515000   1.0310942      17.80252       45.226187    
    516000   0.98272283     17.621415      44.934466    
    517000   1.0510851      18.191626      44.684167    
    518000   1.0171862      17.903706      44.560373    
    519000   0.99515395     17.907654      44.315727    
    520000   0.97222535     17.903285      43.996068    
    521000   0.96830079     18.138513      44.015269    
    522000   0.9781033      18.376249      43.816477    
    523000   0.99305251     17.763317      43.800574    
    524000   1.0559363      18.700528      43.632029    
    525000   1.0316181      17.889217      43.383049    
    526000   0.99847838     17.860621      43.216829    
    527000   0.97413253     17.957502      43.011185    
    528000   1.0193873      17.087427      43.027963    
    529000   0.96352946     17.735365      43.002253    
    530000   1.0059877      18.030372      42.847198    
    531000   0.99697978     17.469745      42.477583    
    532000   0.98444717     18.453835      42.218944    
    533000   0.98994646     17.86731       42.151104    
    534000   0.95755658     18.402584      42.137842    
    535000   0.98601569     17.542379      42.083992    
    536000   1.0044748      17.670532      41.834658    
    537000   0.99146429     18.257019      41.610956    
    538000   0.99882344     18.550363      41.58804     
    539000   1.0187105      18.031995      41.468215    
    540000   0.97566534     18.202088      41.594096    
    541000   1.0011492      17.673935      41.486446    
    542000   1.0194299      17.826021      41.151849    
    543000   1.0006026      17.916203      40.894072    
    544000   1.026503       18.118546      40.753072    
    545000   0.98134824     18.063236      40.387856    
    546000   1.0415202      18.342735      40.032752    
    547000   0.96212594     18.110662      39.769255    
    548000   0.99310777     17.856697      39.683635    
    549000   1.0101209      17.78697       39.816413    
    550000   1.0075163      18.335251      39.735796    
    551000   0.98608018     18.110898      39.536486    
    552000   0.98228505     17.387177      39.298856    
    553000   1.0380267      18.172234      39.081477    
    554000   0.99113807     17.922956      38.998831    
    555000   1.0073785      17.84592       38.618431    
    556000   0.98253904     17.573832      38.406571    
    557000   1.0612054      18.122855      38.28384     
    558000   0.97379083     17.343091      37.984991    
    559000   0.98907841     18.174125      37.68303     
    560000   1.0249772      17.890673      37.721137    
    561000   0.95705045     17.923823      37.543483    
    562000   1.0111678      17.907028      37.363843    
    563000   0.94979293     17.148394      37.47384     
    564000   1.0130693      17.75441       37.416131    
    565000   1.0144987      17.865121      37.108353    
    566000   1.0263715      17.36242       37.030093    
    567000   0.96089801     17.540864      36.703753    
    568000   1.017947       17.614824      36.564178    
    569000   0.97059944     17.635593      36.442483    
    570000   0.98959611     17.44283       36.093947    
    571000   1.0038912      17.97332       35.895254    
    572000   1.0347074      18.90139       35.856968    
    573000   0.97565932     18.139502      35.709921    
    574000   1.0141615      17.802098      35.556551    
    575000   1.0198568      17.748267      35.206649    
    576000   1.0102494      17.931708      35.236431    
    577000   1.0138032      17.934946      35.05094     
    578000   1.0144104      17.669232      34.951179    
    579000   1.0086187      17.727974      34.905451    
    580000   0.98674194     17.486128      34.964116    
    581000   0.98087828     17.403612      34.781195    
    582000   1.0171119      17.628872      34.836934    
    583000   1.0327033      17.653843      34.750554    
    584000   1.0579403      18.354113      34.623726    
    585000   1.0038351      17.422156      34.388057    
    586000   1.0052759      18.124947      34.123412    
    587000   0.98094678     17.762394      33.996295    
    588000   1.0020233      17.574603      33.796384    
    589000   1.0229301      17.717866      33.702922    
    590000   0.98577398     17.731657      33.455796    
    591000   1.0026733      17.752119      33.346034    
    592000   0.98553131     18.216305      33.199339    
    593000   1.0365494      18.095283      33.232485    
    594000   0.97174615     17.255608      33.037187    
    595000   0.97391453     17.801539      32.721079    
    596000   0.95907503     17.844826      32.635068    
    597000   1.0181896      17.994596      32.515773    
    598000   1.0094618      18.183525      32.52061     
    599000   1.0089545      18.386031      32.481987    
    600000   1.0052363      17.644588      32.382415    
    601000   0.97980549     17.955502      32.137552    
    602000   0.98468006     17.840938      32.113845    
    603000   0.9802993      17.664516      32.045558    
    604000   1.0233144      18.128931      32.034193    
    605000   0.98669548     17.968536      31.730085    
    606000   0.99814088     18.308872      31.538878    
    607000   1.0304253      17.846859      31.344166    
    608000   0.98944418     17.905456      31.049575    
    609000   1.0280016      17.917414      30.972122    
    610000   0.99566623     18.276014      30.729635    
    611000   0.99071595     18.017537      30.623039    
    612000   1.0554059      17.884666      30.412955    
    613000   1.0054573      17.478921      30.291627    
    614000   1.0130917      17.667019      30.176928    
    615000   1.0066829      17.271667      29.92418     
    616000   0.98557641     18.156794      29.754627    
    617000   1.030117       17.9823        29.748994    
    618000   0.97939989     17.343805      29.468308    
    619000   1.0080869      17.62311       29.344308    
    620000   0.96091258     18.043379      29.450693    
    621000   0.98207471     17.934675      29.336233    
    622000   1.0152377      17.757085      29.054528    
    623000   1.0243401      17.623807      28.706378    
    624000   1.0143798      17.908941      28.606225    
    625000   0.97143823     17.16127       28.544306    
    626000   0.99933411     17.936293      28.167535    
    627000   1.0013818      18.174127      28.005931    
    628000   0.99419062     17.527964      28.026305    
    629000   0.97495649     17.781037      27.886915    
    630000   1.0115637      17.911479      27.686563    
    631000   0.9990431      17.791687      27.44904     
    632000   1.0314369      17.564055      27.267733    
    633000   0.97606285     17.873057      26.949986    
    634000   1.020166       17.153851      26.734521    
    635000   1.046884       18.14493       26.651453    
    636000   1.0130791      17.538222      26.754777    
    637000   1.0203516      18.200314      26.627533    
    638000   1.0240193      17.483235      26.52007     
    639000   0.98074023     17.342616      26.367498    
    640000   1.012451       18.226503      26.295628    
    641000   0.96368457     17.547741      26.23767     
    642000   0.99568656     17.452076      26.17193     
    643000   1.0015894      17.485191      25.966816    
    644000   0.96734809     16.891561      25.779421    
    645000   0.97515854     17.302344      25.806499    
    646000   0.98017058     17.269472      25.582685    
    647000   0.99627305     17.608763      25.329762    
    648000   1.0077677      18.031544      25.334565    
    649000   1.0473192      17.556766      25.27297     
    650000   0.9552959      17.495897      25.415489    
    651000   0.98748313     17.599762      25.247578    
    652000   1.0122709      18.216122      25.028101    
    653000   1.0567833      17.265203      24.999667    
    654000   1.0002291      17.732039      24.711592    
    655000   0.98533654     17.42188       24.782793    
    656000   0.97837545     17.377928      24.773092    
    657000   1.0368085      17.733477      24.548739    
    658000   0.98354188     16.955061      24.254611    
    659000   0.96543058     17.78738       24.236481    
    660000   0.99983205     17.354303      24.218548    
    661000   0.99721319     17.748066      24.134899    
    662000   0.99262219     17.484047      23.94341     
    663000   1.0227309      17.283391      23.823494    
    664000   0.99171989     17.493215      23.661825    
    665000   1.0429965      17.731657      23.497737    
    666000   1.0044183      17.676151      23.452491    
    667000   0.99511353     17.453997      23.353525    
    668000   0.96617628     18.100395      23.200959    
    669000   1.0454177      17.729639      23.173724    
    670000   1.0058174      17.149598      23.084921    
    671000   1.0106579      17.451963      23.033533    
    672000   0.99757641     17.618624      22.684797    
    673000   0.97584982     18.189482      22.30013     
    674000   1.0202297      17.33602       22.286912    
    675000   0.99493996     17.811143      22.332854    
    676000   1.0044788      17.80197       22.217513    
    677000   1.0191306      17.536013      22.139826    
    678000   0.9873319      17.392912      22.039703    
    679000   1.0350815      17.837778      21.906408    
    680000   0.97550889     17.643101      21.770849    
    681000   1.0310384      17.733915      21.5102      
    682000   0.99035805     17.065197      21.5281      
    683000   0.9900236      17.130876      21.424378    
    684000   1.0076933      17.682998      21.348385    
    685000   1.0171106      17.509765      21.262662    
    686000   0.96368355     17.661317      21.035136    
    687000   0.99164661     17.446549      20.692856    
    688000   0.96104671     17.35823       20.678896    
    689000   1.019762       17.751783      20.423939    
    690000   0.96385654     18.047524      20.225405    
    691000   1.0506774      17.633044      19.91418     
    692000   1.0080415      17.501879      19.728538    
    693000   1.0070925      17.232514      19.645685    
    694000   1.0008053      16.831405      19.386888    
    695000   1.0233921      18.093896      19.352099    
    696000   1.0065975      17.104775      19.315292    
    697000   1.0002602      17.176671      19.328631    
    698000   0.97449464     17.342437      19.271462    
    699000   0.9954267      17.069629      19.229895    
    700000   0.95088462     16.902048      19.082329    
    701000   1.007091       17.802604      19.105346    
    702000   1.0026761      17.614362      18.823596    
    703000   0.97808181     17.352999      18.598899    
    704000   0.9775731      17.833418      18.425997    
    705000   0.99808194     17.023825      18.49349     
    706000   1.029647       17.454935      18.267068    
    707000   0.97177107     17.348011      18.374837    
    708000   0.9678129      17.510628      18.292008    
    709000   0.99987578     17.451291      18.259792    
    710000   1.0046431      16.965035      18.23935     
    711000   0.98887959     17.350945      18.185735    
    712000   0.9848176      17.010773      18.077496    
    713000   0.98089735     16.995128      18.148197    
    714000   1.0469707      17.299282      17.877391    
    715000   1.0092659      17.423558      17.698893    
    716000   1.0095081      17.441369      17.677948    
    717000   1.0176405      17.716558      17.790456    
    718000   1.029473       17.741123      18.012622    
    719000   1.0022004      17.670362      18.188451    
    720000   1.0251992      17.889208      17.874418    
    721000   1.0185023      17.720549      17.882339    
    722000   1.0188865      17.286235      17.758875    
    723000   0.98998899     17.652763      17.778089    
    724000   1.0270922      16.927507      17.557987    
    725000   0.99974867     17.688173      17.616181    
    726000   1.0105661      17.176501      17.295058    
    727000   0.98502008     17.15942       17.06293     
    728000   0.99572401     17.439885      16.744771    
    729000   1.032064       17.974929      16.478628    
    730000   1.0086835      17.082118      16.63312     
    731000   0.9874022      17.209876      16.376655    
    732000   0.99061837     17.874186      16.155429    
    733000   1.0200662      17.663249      15.998036    
    734000   1.0027734      17.179636      15.976616    
    735000   1.0293806      18.059766      15.850236    
    736000   1.0112101      16.907885      15.591164    
    737000   0.97682694     17.469475      15.255068    
    738000   1.0217499      17.467211      15.455522    
    739000   1.0906345      18.341605      15.256538    
    740000   0.99779356     17.011255      15.22832     
    741000   0.97636915     17.089963      14.965862    
    742000   1.0131627      17.793041      14.860441    
    743000   0.96073857     17.715893      14.828044    
    744000   1.0273256      17.24257       14.644822    
    745000   1.0012009      17.383091      14.487488    
    746000   0.98575123     17.290614      14.358403    
    747000   1.024407       17.240792      14.196493    
    748000   1.0283483      17.645552      13.934015    
    749000   0.97681012     17.401058      13.857976    
    750000   1.0590043      17.491884      13.827996    
    751000   0.98909256     16.986983      13.563862    
    752000   0.98839593     17.055177      13.365015    
    753000   0.98347186     17.542534      13.534523    
    754000   0.99875655     17.849875      13.390896    
    755000   0.97830441     18.041058      13.436849    
    756000   1.0185329      17.209316      13.462314    
    757000   1.0029181      17.301054      13.183365    
    758000   1.0124593      17.404519      12.929375    
    759000   0.98888954     17.263362      12.736728    
    760000   1.0282066      17.547577      12.667424    
    761000   0.96382536     17.26762       12.566521    
    762000   1.0010541      16.83776       12.307278    
    763000   0.9697748      17.068643      12.112743    
    764000   0.97110639     17.062262      11.933556    
    765000   0.98019647     17.14196       11.864974    
    766000   1.0646652      17.359653      11.746521    
    767000   1.0035382      17.720526      11.566597    
    768000   0.99705259     17.262278      11.423457    
    769000   0.98669595     17.238888      11.586031    
    770000   0.98767702     16.686147      11.302819    
    771000   0.96880237     17.66684       11.189715    
    772000   1.0061973      16.933365      11.356451    
    773000   1.0127889      17.288867      11.277173    
    774000   0.96044695     16.935419      11.13081     
    775000   1.0061243      18.178162      11.25543     
    776000   1.0557706      17.234434      11.202278    
    777000   1.0427289      17.607656      10.91888     
    778000   1.027956       16.790205      10.721255    
    779000   1.000453       16.827614      10.741748    
    780000   1.0265606      16.817138      10.778956    
    781000   0.95288367     17.0041        11.05065     
    782000   1.0188632      16.984692      10.931454    
    783000   1.0394882      17.461308      10.584961    
    784000   1.0004535      16.512103      10.376203    
    785000   0.96678085     16.57315       10.402629    
    786000   1.0149126      17.337332      10.173574    
    787000   1.0019111      17.501049      10.141004    
    788000   1.062534       16.69171       10.202457    
    789000   0.99958401     17.669376      9.8691842    
    790000   0.96446368     16.494891      9.7395644    
    791000   1.0101873      16.964595      9.4838863    
    792000   0.94395178     17.325125      9.4434494    
    793000   1.0038165      16.582167      9.2441175    
    794000   1.0349977      17.141702      9.1834561    
    795000   0.97683504     16.633664      9.0105275    
    796000   0.9866849      17.169944      8.9436148    
    797000   0.98290663     17.43507       8.697158     
    798000   0.97421945     17.174221      8.4926473    
    799000   1.0019863      16.651419      8.3908194    
    800000   1.0297937      17.117009      8.5963061    
    801000   0.96443795     16.686586      8.5610944    
    802000   0.98327601     16.95635       8.4632244    
    803000   1.0316327      16.786528      8.4432527    
    804000   0.96936379     16.961304      8.4290664    
    805000   1.0522419      17.420178      8.2635746    
    806000   1.0321089      17.53113       7.9884594    
    807000   0.99733047     17.40322       7.825305     
    808000   1.0170394      16.809464      7.5965277    
    809000   0.95117321     16.939522      7.3294464    
    810000   0.97022283     16.758131      7.2202531    
    811000   0.97884671     17.070955      7.1058489    
    812000   1.0016854      16.178346      7.1768799    
    813000   1.0038138      16.723473      6.995337     
    814000   1.0299295      17.470678      6.7709555    
    815000   1.006584       16.4221        6.5375784    
    816000   0.97578974     17.338816      6.3539846    
    817000   1.0404611      16.953273      6.1347521    
    818000   0.9879287      16.212701      5.9191832    
    819000   0.98761967     16.207938      5.8865718    
    820000   0.95171172     17.184067      5.7364763    
    821000   1.0186584      16.818668      5.4963251    
    822000   1.0170511      16.716398      5.3560358    
    823000   1.0035161      17.50042       5.3083054    
    824000   1.0287673      16.884203      5.2950543    
    825000   1.0129514      17.277142      5.2699002    
    826000   0.99336353     16.782034      5.3090776    
    827000   1.0015327      16.443178      5.3479289    
    828000   1.0466794      17.086436      5.2491725    
    829000   1.0327701      16.81777       5.2033044    
    830000   0.97732091     16.357735      5.2308113    
    831000   1.0004928      16.731822      5.1858549    
    832000   1.0232322      16.808378      5.2437062    
    833000   0.99809957     16.841643      5.2585068    
    834000   0.9871391      16.571079      5.2224331    
    835000   1.0089773      16.76681       5.2308897    
    836000   0.9825339      16.480162      5.190702     
    837000   1.0033607      16.672071      5.1940101    
    838000   1.0024393      16.815659      5.1281203    
    839000   1.0230024      16.618258      5.1135622    
    840000   1.0018154      16.940825      5.1346863    
    841000   0.99342418     16.856203      5.1170192    
    842000   0.99826556     17.306626      5.1352614    
    843000   1.0022159      16.994996      5.1574974    
    844000   1.0097861      16.190928      5.1438227    
    845000   1.0850119      16.843869      5.1521962    
    846000   1.0462059      16.480655      5.1250709    
    847000   0.96318722     16.781529      5.0874789    
    848000   0.97692118     16.68495       5.1264268    
    849000   0.9891757      16.708604      5.1302728    
    850000   1.0170662      16.602474      5.0950226    
    851000   0.99971744     16.846566      5.1022832    
    852000   1.0243594      16.826329      5.1139318    
    853000   0.99880996     17.500864      5.0795208    
    854000   1.0016868      16.544645      5.1241837    
    855000   1.0366762      16.921803      5.0579323    
    856000   0.96396617     16.646151      5.0725052    
    857000   0.99289533     16.590583      5.0958226    
    858000   0.98621606     17.025236      5.0861831    
    859000   1.0219679      16.205993      5.1133388    
    860000   1.0377488      17.307382      5.0732842    
    861000   1.0391345      17.052466      5.0436556    
    862000   1.034902       16.654505      5.032312     
    863000   1.0247695      16.878384      5.1009535    
    864000   1.0289365      17.168058      5.0621539    
    865000   1.0572971      16.843645      5.0499575    
    866000   1.0103222      17.125308      5.0778329    
    867000   1.0041244      16.634906      5.0623194    
    868000   0.99280809     16.887745      5.0885424    
    869000   0.99349899     16.729495      5.1068712    
    870000   0.98940643     16.437768      5.1240388    
    871000   1.0426652      16.520666      5.121529     
    872000   0.9776635      16.54308       5.1523093    
    873000   0.99198351     16.74983       5.1335105    
    874000   1.0439894      16.913431      5.1197628    
    875000   0.99555629     16.919204      5.0613639    
    876000   0.98731474     16.239718      5.0845404    
    877000   1.0003427      16.229555      5.0930274    
    878000   0.97933913     16.489091      5.1018769    
    879000   0.97751708     16.361896      5.0864277    
    880000   0.98234494     16.881014      5.1148965    
    881000   1.0070118      16.945363      5.1760114    
    882000   0.98849818     16.606504      5.171742     
    883000   1.0035041      16.948237      5.1371984    
    884000   0.98127983     16.693976      5.1378671    
    885000   1.0128077      16.504333      5.1529648    
    886000   0.98745683     16.475716      5.1319062    
    887000   0.9715657      16.989775      5.0945599    
    888000   1.0016754      16.788877      5.1072794    
    889000   1.0376292      17.435328      5.0764927    
    890000   1.0020747      16.433701      5.0763651    
    891000   1.0171215      16.815107      5.084791     
    892000   1.0570614      16.457         5.0862057    
    893000   1.0262159      17.142288      5.0771658    
    894000   1.0106562      16.270277      5.0837892    
    895000   0.98836587     16.719378      5.11277      
    896000   1.0153923      16.663914      5.1552311    
    897000   1.027173       17.162745      5.1080617    
    898000   1.0167569      17.077072      5.0632035    
    899000   0.97555006     16.736478      5.1306333    
    900000   0.98752032     16.40181       5.0940256    
    901000   1.0028553      16.6628        5.1209449    
    902000   1.0035332      16.927627      5.0883865    
    903000   1.0023785      16.991646      5.095018     
    904000   0.96392122     16.583013      5.0740047    
    905000   0.95884493     16.381706      5.0683594    
    906000   0.99693845     17.170888      5.0948771    
    907000   1.001015       16.324147      5.0991719    
    908000   1.0327026      16.645413      5.0813247    
    909000   0.99786453     16.651072      5.1038889    
    910000   1.0244843      16.969799      5.0974047    
    911000   0.98911954     16.769136      5.1007998    
    912000   1.0323694      16.988865      5.0751845    
    913000   1.0168334      17.87287       5.0635391    
    914000   1.0327871      16.74381       5.0666728    
    915000   1.0142095      16.446378      5.0750667    
    916000   0.98990208     17.072346      5.0732905    
    917000   0.99894626     16.947299      5.0768121    
    918000   1.0181561      16.876655      5.0705092    
    919000   0.96519434     16.677845      5.0605392    
    920000   1.0085605      16.638933      5.0561938    
    921000   0.98889782     16.409504      5.0549316    
    922000   1.0278174      16.792273      5.0756877    
    923000   1.0039704      16.70275       5.0901632    
    924000   1.0603647      16.810796      5.0785133    
    925000   1.0200114      16.730133      5.0348208    
    926000   1.0023683      16.430428      5.0759507    
    927000   0.95434469     17.621814      5.0637375    
    928000   0.97304802     16.519238      5.120795     
    929000   1.0304473      17.325034      5.1423418    
    930000   0.98072291     16.928525      5.0828344    
    931000   0.97933497     17.077255      5.0830535    
    932000   0.99097085     16.67406       5.0911813    
    933000   1.0284688      17.454445      5.0998912    
    934000   0.95989199     16.837723      5.1447356    
    935000   1.0208616      16.569456      5.1064854    
    936000   1.0005783      16.864737      5.1173114    
    937000   1.0470634      16.636981      5.0820818    
    938000   1.006173       16.174666      5.1064416    
    939000   0.96904228     16.28851       5.0881942    
    940000   0.96748392     16.092269      5.0604492    
    941000   1.0549154      17.079241      5.0628562    
    942000   0.98135443     16.654324      5.0697989    
    943000   0.96063316     17.326524      5.0683818    
    944000   1.0139802      16.37897       5.0897781    
    945000   1.0224492      16.741         5.1292266    
    946000   1.0447929      17.247394      5.0822329    
    947000   0.96601403     17.158094      5.1042913    
    948000   0.96156223     16.447517      5.0952347    
    949000   1.0271697      16.457991      5.1069427    
    950000   1.0371027      16.965533      5.1126641    
    951000   1.0037632      16.784813      5.1136916    
    952000   1.0073763      16.96676       5.1016532    
    953000   0.9966811      16.440555      5.10423      
    954000   0.96164324     15.965478      5.1073638    
    955000   0.9780269      16.211146      5.1000434    
    956000   1.0365284      17.141727      5.1181604    
    957000   0.99664946     17.729293      5.0603353    
    958000   1.0258348      16.860437      5.0891723    
    959000   0.9959535      16.772912      5.0603928    
    960000   1.0301656      17.094645      5.0887137    
    961000   0.99129324     16.739836      5.1066521    
    962000   0.96911232     16.790182      5.1071832    
    963000   1.006867       16.55902       5.0746283    
    964000   0.99787814     16.529523      5.0645203    
    965000   0.98078732     16.69254       5.0699726    
    966000   0.99603948     17.302258      5.0766045    
    967000   0.97333713     17.034562      5.0370351    
    968000   0.98062289     16.824309      5.0979533    
    969000   1.0441762      17.042103      5.1125507    
    970000   1.0208874      16.869125      5.1114495    
    971000   1.0144728      16.604969      5.1446982    
    972000   1.0371386      16.631487      5.086151     
    973000   1.0177577      16.825412      5.1210604    
    974000   0.98378833     16.1001        5.1082157    
    975000   0.98751694     16.999267      5.0984725    
    976000   1.0043935      16.432508      5.1047498    
    977000   1.0271985      16.743138      5.093944     
    978000   1.0172715      16.476021      5.1343747    
    979000   1.0048742      16.318867      5.1376275    
    980000   0.93841635     16.988376      5.0962603    
    981000   0.96962432     16.607991      5.1002723    
    982000   0.98674877     17.10293       5.0688862    
    983000   0.99792601     16.816321      5.0686502    
    984000   0.99888261     16.973241      5.0776518    
    985000   1.0271123      16.487723      5.0942174    
    986000   1.0304141      16.948193      5.118752     
    987000   0.99574899     16.841462      5.0865719    
    988000   1.0118755      17.084319      5.0970149    
    989000   0.99390221     16.816565      5.0777361    
    990000   0.95349665     16.038129      5.0950137    
    991000   1.0046554      16.477213      5.1317926    
    992000   0.99076025     16.392294      5.0806485    
    993000   1.0183691      17.075066      5.0498776    
    994000   1.0215738      16.429121      5.1010325    
    995000   1.0059974      17.072403      5.0849075    
    996000   0.99677955     17.061389      5.0960011    
    997000   1.0504539      17.012086      5.0652873    
    998000   0.96330714     17.303733      5.0753127    
    999000   0.97371837     16.352584      5.0964663    
   1000000   1.0180387      16.932227      5.0854881    
   1001000   1.0072505      16.58785       5.0912089    
   1002000   0.96523903     16.769235      5.1128796    
   1003000   1.0222104      16.576248      5.0734818    
   1004000   1.0331833      16.374388      5.124382     
   1005000   1.0554153      17.299043      5.0996068    
   1006000   0.93615932     17.167004      5.1115941    
   1007000   0.97445464     16.782323      5.1166612    
   1008000   0.94695205     16.409671      5.1098099    
   1009000   0.95026626     16.552941      5.1137359    
   1010000   0.97958252     16.564065      5.1202678    
   1011000   1.0164676      16.812874      5.1088087    
   1012000   1.0199793      17.128804      5.1107449    
   1013000   1.0183298      16.756513      5.1178887    
   1014000   0.95962157     17.148344      5.075692     
   1015000   1.0388737      16.994472      5.1081095    
   1016000   0.99042919     16.68022       5.0770002    
   1017000   1.0138722      17.191757      5.0826851    
   1018000   0.99586341     16.531936      5.0979125    
   1019000   0.9983338      17.002467      5.0794468    
   1020000   1.009212       16.992987      5.0924925    
   1021000   0.98155846     16.691891      5.1743389    
   1022000   1.0355457      16.99033       5.109852     
   1023000   1.0342822      16.973551      5.1172772    
   1024000   0.96673852     17.286856      5.1390637    
   1025000   0.97280262     16.47418       5.0845573    
   1026000   0.97736517     16.490466      5.0941888    
   1027000   1.0205491      16.615725      5.064838     
   1028000   0.98994658     16.629138      5.0754938    
   1029000   0.97731137     16.980118      5.0659054    
   1030000   1.0366654      17.124237      5.0421251    
   1031000   1.0180135      16.685701      5.0890845    
   1032000   0.9978231      17.582322      5.0981003    
   1033000   0.99778593     16.309615      5.1201715    
   1034000   0.95938046     16.44636       5.0931378    
   1035000   1.0021623      16.815957      5.0641231    
   1036000   1.0288195      17.075876      5.0686472    
   1037000   1.0593287      16.729815      5.0502586    
   1038000   1.0334828      17.292294      5.0568348    
   1039000   0.98138583     17.490331      5.0650146    
   1040000   1.0403628      17.235113      5.1036597    
   1041000   1.0451953      16.498749      5.0843189    
   1042000   1.0034275      16.616698      5.0962096    
   1043000   1.0817586      17.120481      5.0799109    
   1044000   1.0056576      16.447086      5.0861133    
   1045000   0.97493017     16.689814      5.0517926    
   1046000   0.99595143     17.003962      5.0401954    
   1047000   0.97808442     16.964508      5.0790507    
   1048000   1.017256       16.484023      5.0612899    
   1049000   1.0301087      17.402158      5.0549313    
   1050000   1.03646        16.753879      5.099434     
   1051000   0.99258623     16.695154      5.0824824    
   1052000   0.99747177     16.786307      5.1198182    
   1053000   1.0024807      16.794036      5.0873719    
   1054000   1.0077642      17.310333      5.0520686    
   1055000   0.97872138     17.147197      5.131493     
   1056000   0.97809377     17.090983      5.1279722    
   1057000   1.035073       17.450711      5.1355776    
   1058000   1.0423983      16.407831      5.1115978    
   1059000   1.0301494      17.097363      5.1217012    
   1060000   1.0428462      16.796301      5.0951432    
   1061000   0.98384893     16.718849      5.0484401    
   1062000   0.99332112     16.310015      5.0768086    
   1063000   0.98881806     16.698553      5.0537833    
   1064000   0.96356543     17.555335      5.0521639    
   1065000   1.0320846      16.58813       5.1069884    
   1066000   0.98901674     16.377474      5.0392849    
   1067000   1.0306303      16.800805      5.0934152    
   1068000   0.98533982     16.663222      5.0832192    
   1069000   1.0212383      16.872825      5.0898346    
   1070000   0.9844322      17.431153      5.0674254    
   1071000   0.94668068     16.958789      5.0563644    
   1072000   0.98273555     16.448852      5.046026     
   1073000   1.0009369      16.403845      5.0532424    
   1074000   0.97561098     16.865985      5.0705884    
   1075000   1.0559915      16.738173      5.0819496    
   1076000   1.0077163      16.323995      5.0997455    
   1077000   1.0257643      16.421311      5.0897007    
   1078000   0.97664607     16.678987      5.0936383    
   1079000   1.0140459      16.537544      5.0492225    
   1080000   0.99873116     17.427903      5.0810952    
   1081000   0.97706437     16.796444      5.09577      
   1082000   1.0047947      17.249036      5.1003708    
   1083000   1.0293638      16.702779      5.103393     
   1084000   1.01882        17.240902      5.0806158    
   1085000   1.0301727      16.867297      5.0791915    
   1086000   0.94615117     16.396244      5.1044832    
   1087000   0.97533224     16.892093      5.0720329    
   1088000   0.96352815     16.482168      5.0976936    
   1089000   0.96367208     16.372567      5.0684154    
   1090000   0.97671217     16.25115       5.0676365    
   1091000   1.029165       16.720605      5.0997831    
   1092000   0.98052117     16.675867      5.0859923    
   1093000   0.99486702     16.870936      5.0796878    
   1094000   0.97318182     16.416963      5.0793023    
   1095000   0.99875248     16.61867       5.0797622    
   1096000   1.0008171      16.526547      5.0744173    
   1097000   1.0193128      16.407648      5.0468812    
   1098000   0.99510547     17.558759      5.0828597    
   1099000   0.95400238     17.311837      5.0782855    
   1100000   1.0392156      16.703947      5.0753753    
   1101000   1.0278898      16.879173      5.039641     
   1102000   1.008456       16.665193      5.0570095    
   1103000   0.98376094     16.443924      5.0609668    
   1104000   0.95464765     16.208735      5.06257      
   1105000   0.99223385     16.587318      5.1166787    
   1106000   1.0579666      17.053871      5.1300436    
   1107000   0.98107924     16.734397      5.1176189    
   1108000   0.96752489     16.732628      5.0944057    
   1109000   1.0225319      16.839653      5.0815723    
   1110000   1.0070064      16.682157      5.0573646    
   1111000   0.99012433     16.601577      5.037445     
   1112000   0.99813994     17.109849      5.0496785    
   1113000   1.0024256      16.391309      5.0930507    
   1114000   0.99439572     16.550584      5.0883529    
   1115000   1.025841       16.649919      5.0591018    
   1116000   0.97729544     16.909746      5.1013691    
   1117000   1.0032297      16.794389      5.0646983    
   1118000   1.0089902      16.7799        5.0622635    
   1119000   1.040403       16.755493      5.0525403    
   1120000   1.0241677      16.949954      5.0640831    
   1121000   1.0043559      16.541699      5.0758476    
   1122000   1.0136188      16.73048       5.0587135    
   1123000   1.0188334      16.583831      5.0797105    
   1124000   1.0095329      16.471734      5.0604681    
   1125000   1.0194531      16.696483      5.0720882    
   1126000   1.0276573      16.487705      5.0732642    
   1127000   1.0203002      17.15571       5.0894505    
   1128000   1.0012266      16.998341      5.0863003    
   1129000   1.006106       16.100866      5.0589371    
   1130000   1.0034064      16.583482      5.1121628    
   1131000   0.9985893      16.413789      5.0529426    
   1132000   0.96477046     16.999681      5.0469839    
   1133000   0.99482548     16.633496      5.0590574    
   1134000   1.0435858      16.633201      5.0784095    
   1135000   1.0125648      16.754388      5.0600963    
   1136000   1.0260313      17.193519      5.0805898    
   1137000   0.99099695     16.586976      5.0598721    
   1138000   1.0169967      17.067179      5.0450862    
   1139000   0.9876663      15.781456      5.081517     
   1140000   0.97743716     16.885105      5.0575631    
   1141000   1.0476325      16.301554      5.0768316    
   1142000   0.95868051     16.486747      5.0584706    
   1143000   1.0115237      17.313057      5.0641648    
   1144000   1.0089364      16.761613      5.0946586    
   1145000   0.98658658     16.91728       5.0605477    
   1146000   0.99927518     17.861177      5.0295582    
   1147000   1.0205764      16.813073      5.1042048    
   1148000   1.0230058      16.689588      5.0390181    
   1149000   0.98855734     16.6714        5.0660065    
   1150000   1.039641       16.70978       5.051677     
   1151000   0.97208719     16.085783      5.0939289    
   1152000   0.98315312     16.218799      5.0931822    
   1153000   1.0032706      16.574129      5.0948139    
   1154000   1.0406665      16.024694      5.0942263    
   1155000   0.96356186     16.939352      5.0622465    
   1156000   0.96174766     16.893435      5.0642517    
   1157000   1.0138315      17.137482      5.1000641    
   1158000   0.9504651      16.196745      5.0640561    
   1159000   1.0080896      16.761264      5.107036     
   1160000   0.98871504     17.106834      5.0861258    
   1161000   0.99251451     16.720466      5.0930998    
   1162000   1.0038507      16.852311      5.1140093    
   1163000   0.96493242     16.36522       5.1247029    
   1164000   0.98424917     16.52983       5.1037013    
   1165000   1.0225316      17.240598      5.073617     
   1166000   1.0282586      16.595851      5.0890304    
   1167000   0.98377509     16.828631      5.0906846    
   1168000   0.98297937     16.719684      5.0676254    
   1169000   0.9987127      16.224658      5.0868425    
   1170000   1.0179556      17.241218      5.0844366    
   1171000   1.0241232      16.964063      5.0553806    
   1172000   0.9614416      17.421356      5.0601703    
   1173000   1.0020024      16.569047      5.0776786    
   1174000   0.9788756      17.115988      5.0603954    
   1175000   1.0277224      16.343449      5.0845439    
   1176000   0.99450985     17.289957      5.067843     
   1177000   0.98255632     16.75523       5.0705463    
   1178000   0.96891499     16.669425      5.0907357    
   1179000   1.0080153      16.538489      5.0808793    
   1180000   1.0284898      16.491522      5.0890465    
   1181000   1.0085693      17.272544      5.0906956    
   1182000   1.0122286      16.452702      5.1052525    
   1183000   0.97413739     17.094651      5.0901769    
   1184000   1.0173677      16.812381      5.0921089    
   1185000   1.0274201      16.619527      5.0859733    
   1186000   0.94356184     16.6           5.0546033    
   1187000   0.98201169     16.527414      5.073005     
   1188000   1.0297017      17.159978      5.0804979    
   1189000   0.97133704     16.65539       5.0813331    
   1190000   0.93480779     16.785452      5.0822228    
   1191000   0.99306351     16.560961      5.0680602    
   1192000   0.99684444     16.218828      5.0719558    
   1193000   1.0031068      16.394044      5.0644853    
   1194000   0.95026523     16.755037      5.0737689    
   1195000   1.0584188      17.048871      5.054729     
   1196000   0.96229728     16.436039      5.0497495    
   1197000   1.0034656      16.115653      5.0808864    
   1198000   1.0036923      16.943562      5.0600569    
   1199000   1.0078559      17.068044      5.0700835    
   1200000   0.99383445     16.711348      5.0763364    
   1201000   0.99116773     15.936327      5.0714903    
   1202000   1.0368151      16.421189      5.1024721    
   1203000   0.9628089      16.791839      5.0681806    
   1204000   0.98684054     17.098215      5.0612533    
   1205000   0.98808167     16.714211      5.0807913    
   1206000   0.94464304     16.692991      5.0997895    
   1207000   1.0288359      16.915545      5.1240569    
   1208000   0.97880831     16.498797      5.1104204    
   1209000   1.0161246      16.58571       5.0922892    
   1210000   1.0030946      16.712345      5.1232845    
   1211000   0.96767071     16.906072      5.0710047    
   1212000   0.97028392     16.4165        5.0764945    
   1213000   0.98185525     16.629162      5.0953497    
   1214000   1.0277799      16.702866      5.0797464    
   1215000   1.0071241      17.204418      5.0472696    
   1216000   1.0477604      16.671393      5.0567876    
   1217000   1.0012369      17.051763      5.0666573    
   1218000   1.0391326      17.102919      5.0835895    
   1219000   0.99819764     16.974609      5.0615964    
   1220000   0.99219055     16.762194      5.0942943    
   1221000   1.0543664      17.100606      5.0438589    
   1222000   1.006091       17.035294      5.0786187    
   1223000   1.0204459      17.252931      5.0620316    
   1224000   0.9924318      16.973469      5.0341815    
   1225000   0.95804167     16.129843      5.0798485    
   1226000   1.0077602      17.103993      5.0425959    
   1227000   0.98807363     16.789207      5.0865097    
   1228000   1.0051607      17.373383      5.0755531    
   1229000   1.0617736      17.507207      5.0685513    
   1230000   0.98081594     16.859826      5.1381751    
   1231000   1.009871       16.422672      5.1336335    
   1232000   0.97749664     16.821671      5.1059538    
   1233000   0.9797078      16.152761      5.1081605    
   1234000   1.00253        16.623071      5.0924046    
   1235000   0.98074218     16.514004      5.0747291    
   1236000   0.97983199     16.675958      5.0819359    
   1237000   1.0362751      17.000771      5.0297855    
   1238000   1.0365267      17.19715       5.0602024    
   1239000   1.0203294      16.896598      5.0704144    
   1240000   0.96315819     16.791768      5.066258     
   1241000   0.96654056     17.217807      5.0859849    
   1242000   1.0098991      17.07452       5.0726302    
   1243000   1.0269476      16.338786      5.1233351    
   1244000   1.0118509      16.942925      5.0863441    
   1245000   0.97933318     17.223383      5.1034881    
   1246000   0.98467514     16.696176      5.1232945    
   1247000   1.0074257      17.467026      5.111088     
   1248000   1.0047359      16.673863      5.1070123    
   1249000   1.0790181      17.276885      5.1052777    
   1250000   0.98467035     17.028466      5.0837165    
   1251000   0.94887249     16.969451      5.0850515    
   1252000   1.0111621      16.973907      5.0708245    
   1253000   0.99026801     16.282765      5.0738817    
   1254000   0.99409926     16.726445      5.0578103    
   1255000   0.98388121     16.729771      5.0361997    
   1256000   1.0189524      16.423144      5.1008793    
   1257000   1.021604       17.255738      5.054501     
   1258000   1.0002868      16.474526      5.0988803    
   1259000   1.0231779      16.637601      5.0954066    
   1260000   1.015          16.39623       5.0660245    
   1261000   0.99475724     16.879199      5.085917     
   1262000   0.97148498     16.737295      5.0953277    
   1263000   1.0044034      16.44039       5.1030022    
   1264000   1.0045267      16.208327      5.0788246    
   1265000   1.0300371      16.617485      5.0824097    
   1266000   1.0174598      16.518585      5.0755484    
   1267000   1.0224931      16.212027      5.0596381    
   1268000   0.98191877     16.889836      5.0626205    
   1269000   1.0180001      17.065146      5.0814254    
   1270000   1.0055426      16.223009      5.0797354    
   1271000   1.0028408      17.30748       5.0572742    
   1272000   1.0435101      17.128788      5.0831921    
   1273000   1.036456       17.339703      5.0470951    
   1274000   1.0140532      16.795918      5.0728283    
   1275000   0.95145362     16.638211      5.0440534    
   1276000   1.0082887      17.422702      5.0767101    
   1277000   0.98541286     16.36014       5.0709484    
   1278000   0.99044184     16.903349      5.078684     
   1279000   0.9765681      17.11567       5.0663244    
   1280000   0.97980427     16.709768      5.0807059    
   1281000   0.9989026      16.0226        5.0779801    
   1282000   1.0090265      16.325658      5.1055852    
   1283000   1.0106949      15.950849      5.0917083    
   1284000   1.0077484      16.670228      5.0993819    
   1285000   1.0248249      16.328291      5.1061273    
   1286000   1.0352049      16.520134      5.0819285    
   1287000   0.98083795     15.990076      5.1170327    
   1288000   0.99899093     16.906566      5.0918294    
   1289000   1.0213183      16.348205      5.0775171    
   1290000   0.99079062     16.467094      5.0908063    
   1291000   0.98364067     17.088262      5.1308686    
   1292000   0.94979805     16.546204      5.0469618    
   1293000   1.0184085      16.924211      5.0475896    
   1294000   0.98110331     16.611495      5.0626631    
   1295000   0.97414777     17.001266      5.0514862    
   1296000   0.97447591     17.326657      5.1241972    
   1297000   1.0451078      16.845869      5.0928585    
   1298000   1.0383297      16.527681      5.0897703    
   1299000   1.0090885      17.093285      5.0780991    
   1300000   0.98852988     16.871121      5.06386      
   1301000   0.98576226     16.620942      5.0899396    
   1302000   1.0056351      17.0192        5.0728005    
   1303000   0.93975529     17.26593       5.0572489    
   1304000   0.99024332     17.271816      5.0870418    
   1305000   1.0300658      16.585165      5.0987628    
   1306000   1.0207872      16.776941      5.0815096    
   1307000   1.0069102      17.078345      5.0571822    
   1308000   1.0009088      16.487287      5.0783657    
   1309000   1.0184135      16.748318      5.0566046    
   1310000   1.0113405      16.743588      5.0757893    
   1311000   0.9817311      16.789574      5.0684297    
   1312000   0.99570606     16.748445      5.0461251    
   1313000   0.98092373     16.98508       5.0791799    
   1314000   1.0578283      16.51042       5.0722936    
   1315000   1.0097733      16.484293      5.1149426    
   1316000   0.98794532     16.860331      5.1117348    
   1317000   1.0212185      16.672916      5.0941868    
   1318000   1.0227847      17.07114       5.1121365    
   1319000   0.95969004     16.421332      5.0742553    
   1320000   1.005784       17.323041      5.0617398    
   1321000   0.99902185     16.938469      5.0888591    
   1322000   1.0882629      17.053502      5.0848676    
   1323000   0.98904294     16.63363       5.0621951    
   1324000   1.0002481      16.782074      5.0388238    
   1325000   1.0261339      17.168295      5.0946345    
   1326000   0.97818768     16.292761      5.0735728    
   1327000   0.97174357     16.537809      5.090412     
   1328000   1.0480532      16.446857      5.0816144    
   1329000   0.96200992     16.116369      5.0815379    
   1330000   1.0320765      16.668209      5.0957841    
   1331000   1.0440397      16.344184      5.078043     
   1332000   0.97761614     16.611562      5.1031546    
   1333000   0.99242411     16.604195      5.0823759    
   1334000   1.0261578      17.248364      5.0965728    
   1335000   1.0169225      17.391721      5.0421412    
   1336000   0.98643104     16.351233      5.0714996    
   1337000   1.0100482      16.225376      5.0846669    
   1338000   0.99912408     16.873176      5.0476845    
   1339000   1.017987       16.954818      5.0581144    
   1340000   0.98549329     16.099         5.0961608    
   1341000   0.96280835     16.546092      5.0874031    
   1342000   1.0129655      16.763608      5.0450437    
   1343000   0.99826586     16.635996      5.0691675    
   1344000   1.0031997      16.442789      5.0837095    
   1345000   1.0019236      17.071579      5.0716351    
   1346000   1.0413211      16.814685      5.066138     
   1347000   1.027356       16.920265      5.0740326    
   1348000   1.0135655      17.405978      5.0730291    
   1349000   0.98669228     17.077076      5.086437     
   1350000   1.0182502      17.101325      5.0461439    
   1351000   1.0005934      17.418492      5.1194245    
   1352000   1.0726657      16.75574       5.0734021    
   1353000   1.0277653      17.297277      5.0619898    
   1354000   0.98458721     16.900729      5.0682993    
   1355000   1.0331253      16.705036      5.0648436    
   1356000   1.0044702      16.292588      5.0732979    
   1357000   0.96999856     16.566848      5.0607186    
   1358000   0.98914713     17.001483      5.0701702    
   1359000   0.98972703     17.095832      5.0493114    
   1360000   0.97259537     16.156462      5.0752043    
   1361000   1.0318559      16.96076       5.0711467    
   1362000   1.0088081      16.438528      5.096002     
   1363000   1.0001998      16.609169      5.1203362    
   1364000   0.97704568     17.052125      5.0969938    
   1365000   1.0024554      16.847134      5.1301225    
   1366000   1.0072089      16.79013       5.0940207    
   1367000   0.93357384     16.854313      5.0844987    
   1368000   0.98105494     16.84024       5.0868432    
   1369000   0.9899579      17.07538       5.114116     
   1370000   1.0422294      17.060005      5.0490915    
   1371000   0.98737029     16.934784      5.0749091    
   1372000   0.98787502     16.47302       5.1127828    
   1373000   0.97721719     16.759715      5.1339247    
   1374000   1.0155313      17.240085      5.1665901    
   1375000   1.0124586      16.711104      5.1445077    
   1376000   0.98245122     16.913762      5.1004558    
   1377000   1.0248609      16.734393      5.0942952    
   1378000   0.99758805     16.705547      5.1045383    
   1379000   1.0224374      17.238547      5.1003537    
   1380000   1.0180936      16.42438       5.1203065    
   1381000   1.0055578      17.45428       5.1007024    
   1382000   1.0048562      17.444977      5.0992486    
   1383000   0.99266131     17.126889      5.1194261    
   1384000   1.0118554      16.676598      5.1151181    
   1385000   0.99588339     16.700896      5.0987706    
   1386000   0.98706667     16.651504      5.0812573    
   1387000   1.0284338      16.773534      5.1237453    
   1388000   1.0117436      16.777164      5.1251241    
   1389000   0.99910522     16.844569      5.100992     
   1390000   0.96217382     16.594118      5.0962508    
   1391000   0.97560702     16.942453      5.08084      
   1392000   0.95448207     16.371741      5.1184863    
   1393000   1.0556838      16.719276      5.0986388    
   1394000   0.9595967      16.558247      5.0952517    
   1395000   0.97563968     16.776707      5.1232855    
   1396000   0.99293488     16.62421       5.0560438    
   1397000   0.9721773      16.754563      5.0712956    
   1398000   1.0214012      16.459602      5.0975342    
   1399000   0.9755869      16.479632      5.0972201    
   1400000   1.0186056      16.689239      5.1229551    
   1401000   1.0363339      16.435732      5.1020863    
   1402000   1.0360467      16.622867      5.1009424    
   1403000   0.98047331     16.675227      5.0717507    
   1404000   1.0147226      16.988919      5.0446636    
   1405000   1.0212876      16.970226      5.0610255    
   1406000   1.0093335      17.527582      5.0477128    
   1407000   1.0050357      16.8452        5.0688897    
   1408000   1.002505       16.87983       5.0426872    
   1409000   1.0091265      17.510634      5.0821703    
   1410000   0.97604561     17.057377      5.0807514    
   1411000   0.9560927      16.041083      5.0777768    
   1412000   1.0050405      16.24232       5.0213396    
   1413000   1.053618       17.034025      5.0531239    
   1414000   1.0586085      16.735179      5.0783519    
   1415000   0.99631613     16.552654      5.0693658    
   1416000   0.99423992     16.883374      5.0796469    
   1417000   0.9931595      16.974005      5.0841571    
   1418000   1.0082608      16.732311      5.0733884    
   1419000   0.97750429     17.618835      5.06096      
   1420000   1.0094068      16.719231      5.0847825    
   1421000   1.0290299      17.012815      5.0813476    
   1422000   1.0187365      16.849002      5.0505991    
   1423000   0.96383194     16.425775      5.0617412    
   1424000   0.95953098     15.875392      5.0641773    
   1425000   1.0401179      17.215438      5.0701772    
   1426000   0.98740989     16.574342      5.0517684    
   1427000   0.98562071     17.051919      5.0530935    
   1428000   0.96308134     16.116024      5.0772283    
   1429000   1.013983       17.315098      5.024991     
   1430000   0.98303403     16.287596      5.0674908    
   1431000   0.97022368     16.519281      5.0827095    
   1432000   0.98313859     16.825177      5.1229388    
   1433000   1.0020836      16.494131      5.1064858    
   1434000   0.97996432     16.697493      5.1167534    
   1435000   1.0271862      16.964369      5.099197     
   1436000   1.0259915      16.824658      5.0872222    
   1437000   0.99876628     16.905397      5.0943395    
   1438000   0.99042891     17.098538      5.0743549    
   1439000   1.008646       17.033697      5.0531051    
   1440000   0.95011961     15.806544      5.085632     
   1441000   0.9688386      16.91975       5.0783589    
   1442000   0.99404575     17.084161      5.1139713    
   1443000   1.0170962      16.912794      5.122893     
   1444000   1.0261491      17.098974      5.0691513    
   1445000   1.0092198      16.95988       5.056218     
   1446000   0.9983861      16.871455      5.0666596    
   1447000   0.97699991     17.13451       5.0869435    
   1448000   0.99770667     16.845774      5.0780271    
   1449000   0.99202086     17.48239       5.0799685    
   1450000   0.99029506     16.824697      5.0645541    
   1451000   1.0602894      17.002918      5.0336047    
   1452000   1.0451464      17.531964      5.0758359    
   1453000   0.97804672     16.644969      5.1180388    
   1454000   1.0282712      17.030558      5.0842773    
   1455000   0.98578875     16.638248      5.1042506    
   1456000   0.98731048     17.31356       5.0646611    
   1457000   0.9942797      16.129807      5.1060091    
   1458000   0.96960341     17.125728      5.057385     
   1459000   0.96917972     16.214588      5.1166758    
   1460000   1.0115425      17.283561      5.1018708    
   1461000   0.99818058     16.738407      5.0633859    
   1462000   0.96194413     16.968679      5.0560184    
   1463000   0.98689133     16.257661      5.0518845    
   1464000   1.0101599      16.901689      5.0498322    
   1465000   1.0135553      16.82816       5.0928317    
   1466000   0.98049293     17.07424       5.0728288    
   1467000   0.95037497     16.518441      5.0565934    
   1468000   0.97247003     16.734568      5.0502481    
   1469000   0.99845397     16.522731      5.0899091    
   1470000   0.9822049      16.464372      5.0732808    
   1471000   1.0399083      16.740665      5.1025595    
   1472000   1.0119483      17.32215       5.0706443    
   1473000   1.0196074      16.754356      5.0734873    
   1474000   0.99183523     16.270531      5.0741922    
   1475000   0.94674961     16.401507      5.0890584    
   1476000   0.9850868      17.332911      5.0311686    
   1477000   0.97051195     16.928969      5.0670964    
   1478000   1.0610068      16.684287      5.0989742    
   1479000   1.0049019      16.952092      5.0435769    
   1480000   1.0266721      17.069401      5.0774936    
   1481000   0.99298024     16.917296      5.0496666    
   1482000   1.0166426      16.787246      5.0664439    
   1483000   0.98358392     16.344332      5.0807505    
   1484000   0.9616444      16.389405      5.0771576    
   1485000   0.95072937     16.432442      5.0647784    
   1486000   0.99353028     16.526756      5.1189967    
   1487000   0.96325928     16.821269      5.0983779    
   1488000   1.0558899      16.895328      5.103686     
   1489000   0.97397659     16.485402      5.1065005    
   1490000   1.0002919      16.408275      5.094868     
   1491000   0.99507264     16.472854      5.1133785    
   1492000   0.99966517     16.83922       5.0762631    
   1493000   0.99341893     16.941511      5.0904053    
   1494000   0.96309388     17.09555       5.0623485    
   1495000   1.0277235      16.790402      5.069884     
   1496000   1.0102609      16.319249      5.0872912    
   1497000   0.99035095     16.466242      5.0635886    
   1498000   1.0257217      16.452137      5.0794474    
   1499000   0.99817964     16.667179      5.0879952    
   1500000   0.97133234     16.554499      5.0734905    
   1501000   0.95236777     16.552333      5.0347891    
   1502000   1.0000945      16.581497      5.1006826    
   1503000   1.0237189      16.945931      5.0827453    
   1504000   0.96574743     16.138464      5.0780531    
   1505000   1.0038282      17.288635      5.0677524    
   1506000   0.99650439     16.076572      5.101241     
   1507000   1.0064981      16.65838       5.0943777    
   1508000   1.0161815      16.247484      5.0915441    
   1509000   1.0266622      17.271283      5.0968786    
   1510000   1.0431375      16.354105      5.0894266    
   1511000   1.0083063      17.135492      5.0778764    
   1512000   0.9786584      16.963328      5.0864551    
   1513000   0.96643721     16.297946      5.1501077    
   1514000   0.97117515     16.931193      5.0739197    
   1515000   0.96028959     16.362646      5.0747724    
   1516000   0.99264265     16.300631      5.107317     
   1517000   1.0142207      16.579673      5.0854055    
   1518000   1.0187698      16.754577      5.0782064    
   1519000   1.0077546      16.587704      5.0949519    
   1520000   0.98436797     17.87911       5.0376789    
   1521000   1.0139278      17.120057      5.0993523    
   1522000   1.0146057      16.778861      5.0622901    
   1523000   0.97647822     16.619505      5.0836601    
   1524000   1.0256965      17.041452      5.0828087    
   1525000   0.98313236     16.676235      5.1056164    
   1526000   0.97725412     17.05085       5.0760997    
   1527000   1.0364692      17.158885      5.1550094    
   1528000   0.93628102     16.946287      5.0924471    
   1529000   0.98015024     16.548906      5.0999856    
   1530000   1.0031937      17.244763      5.0900943    
   1531000   1.0035844      16.437344      5.0843159    
   1532000   1.0151157      16.421495      5.0874056    
   1533000   1.0267147      16.934709      5.0949285    
   1534000   1.0140262      16.83924       5.1023021    
   1535000   0.97284971     17.181115      5.0600824    
   1536000   0.9816429      17.035367      5.0934336    
   1537000   1.022211       16.832343      5.0929468    
   1538000   0.98575935     16.311085      5.0630729    
   1539000   1.0173114      16.641838      5.0594914    
   1540000   1.0595226      16.628984      5.0868118    
   1541000   1.0247495      16.393792      5.0509741    
   1542000   1.012001       17.238451      5.070572     
   1543000   0.99421237     17.278225      5.0517037    
   1544000   1.0353121      16.676023      5.0805172    
   1545000   1.015737       17.016382      5.0883296    
   1546000   1.0273313      16.522112      5.0930894    
   1547000   0.98249188     17.26466       5.0557133    
   1548000   0.97154003     16.662329      5.0750388    
   1549000   1.027364       16.911391      5.0667032    
   1550000   1.0073144      16.646604      5.0891618    
   1551000   1.0077729      16.28118       5.1224364    
   1552000   1.0015299      16.849029      5.0972491    
   1553000   0.98465539     16.854532      5.0857577    
   1554000   0.96169825     16.458184      5.1008914    
   1555000   1.0198117      16.59771       5.0332209    
   1556000   0.97022959     16.959359      5.0746409    
   1557000   1.0418556      16.832001      5.0563377    
   1558000   0.96802615     17.222829      5.0497888    
   1559000   1.0126664      17.144956      5.0445524    
   1560000   0.99156146     16.119458      5.0441123    
   1561000   0.9982066      16.795748      5.054647     
   1562000   1.0399108      16.529928      5.07446      
   1563000   1.0114668      16.885436      5.0754579    
   1564000   1.0056589      16.353287      5.0736476    
   1565000   1.0200898      17.08996       5.0911514    
   1566000   1.0025405      16.215074      5.0929682    
   1567000   0.99267549     16.502463      5.0879376    
   1568000   0.9300544      16.846119      5.111931     
   1569000   1.0039422      16.990629      5.0884645    
   1570000   0.9855684      16.56513       5.067018     
   1571000   0.9981097      17.047538      5.1152959    
   1572000   1.0135292      16.779455      5.0843312    
   1573000   0.99822226     16.83831       5.0625677    
   1574000   1.0279314      16.729606      5.0564042    
   1575000   1.0121139      17.077675      5.0595055    
   1576000   1.0443         16.337733      5.0399794    
   1577000   1.0666957      16.592013      5.06535      
   1578000   1.0097375      16.709859      5.0864053    
   1579000   1.0155746      16.624182      5.0792427    
   1580000   1.0489079      16.540793      5.0844267    
   1581000   0.96018272     16.40377       5.0495272    
   1582000   0.98006008     17.050662      5.0746377    
   1583000   0.99930708     16.747759      5.0970541    
   1584000   0.96952057     16.733412      5.0869034    
   1585000   0.96313579     16.66278       5.1132963    
   1586000   0.99539922     17.157469      5.1164188    
   1587000   1.0524151      17.340748      5.0999275    
   1588000   1.0191832      17.005698      5.0829028    
   1589000   1.0244609      16.529234      5.0724347    
   1590000   1.0275344      16.694737      5.0223965    
   1591000   1.0029815      16.269764      5.058258     
   1592000   0.99564175     16.807039      5.059803     
   1593000   0.98941617     16.87627       5.0649948    
   1594000   1.0450213      16.776884      5.0793102    
   1595000   0.98964762     16.571121      5.1064205    
   1596000   0.96026171     16.918971      5.1185845    
   1597000   0.99495158     16.958542      5.1185568    
   1598000   1.0240954      16.397583      5.1285348    
   1599000   0.95223338     17.124948      5.1168376    
   1600000   1.0281979      16.951221      5.0867668    
   1601000   0.96585484     16.377257      5.1065473    
   1602000   0.98123934     16.602387      5.1466353    
   1603000   1.0043278      16.980303      5.0881127    
   1604000   1.0187806      16.777321      5.0817719    
   1605000   1.0155834      17.17422       5.0646366    
   1606000   1.0278503      17.021156      5.0826625    
   1607000   1.0280478      17.18592       5.0899545    
   1608000   0.9659288      16.393919      5.0473689    
   1609000   1.0092545      17.334509      5.077979     
   1610000   1.0200349      16.723252      5.082702     
   1611000   1.0388851      16.592406      5.0613007    
   1612000   0.98853868     16.446129      5.1028928    
   1613000   0.98396        17.071648      5.1354734    
   1614000   0.96232023     16.324141      5.1219869    
   1615000   0.97857895     17.073658      5.0622139    
   1616000   1.000166       16.28792       5.14012      
   1617000   0.99472677     16.540767      5.1163079    
   1618000   1.0193429      17.232109      5.1087166    
   1619000   0.96974465     16.882165      5.1001179    
   1620000   1.0206733      16.698675      5.1091545    
   1621000   1.0453733      17.335812      5.091693     
   1622000   0.99786768     16.759185      5.0634678    
   1623000   0.99996212     16.378381      5.0680384    
   1624000   1.0120506      16.447845      5.0653227    
   1625000   1.0076292      16.808717      5.0842951    
   1626000   1.0528823      16.835825      5.0965679    
   1627000   1.0126136      16.594459      5.0796424    
   1628000   0.96546149     15.997367      5.0767931    
   1629000   1.0022006      16.635586      5.0700692    
   1630000   0.9555786      16.835691      5.0637991    
   1631000   1.0054768      16.75712       5.0629488    
   1632000   0.9905315      16.785069      5.0903802    
   1633000   1.026756       16.935941      5.0497956    
   1634000   1.0098152      16.592782      5.0855997    
   1635000   1.0401181      17.470168      5.0537659    
   1636000   0.9869906      16.589087      5.0596081    
   1637000   0.98285515     16.824458      5.0743758    
   1638000   1.0052338      17.064483      5.077152     
   1639000   1.0154845      17.348163      5.0780754    
   1640000   0.99808785     15.847579      5.097559     
   1641000   1.0043017      16.708887      5.0423979    
   1642000   1.0002844      16.923006      5.0733971    
   1643000   0.99303777     16.852251      5.1110042    
   1644000   0.98245545     16.435146      5.123781     
   1645000   0.96976779     16.673753      5.137794     
   1646000   1.0196237      16.665107      5.0883609    
   1647000   1.0050111      16.688566      5.125226     
   1648000   0.98900026     17.183418      5.1210177    
   1649000   0.98158833     16.980071      5.0848572    
   1650000   0.95417668     16.947467      5.057302     
   1651000   0.97556062     16.807878      5.0614498    
   1652000   1.0166375      17.436595      5.0593894    
   1653000   1.0064535      16.91405       5.0395775    
   1654000   1.0284879      16.680685      5.0938851    
   1655000   0.99048807     16.775679      5.0648257    
   1656000   0.99960745     17.225906      5.0931267    
   1657000   1.0117091      16.802274      5.0589454    
   1658000   1.002912       17.000167      5.0813282    
   1659000   1.0303225      16.039654      5.1130093    
   1660000   0.99504569     16.851661      5.0664438    
   1661000   0.98761627     17.252464      5.056088     
   1662000   1.0023579      17.158209      5.0691901    
   1663000   0.98945201     16.782641      5.1136782    
   1664000   1.0142629      16.772386      5.074122     
   1665000   1.0175355      17.100529      5.0900253    
   1666000   0.98895212     16.829354      5.0478085    
   1667000   0.98215208     17.092125      5.076645     
   1668000   0.98694144     17.359526      5.0597964    
   1669000   1.0499678      16.823934      5.0578607    
   1670000   0.95211513     16.629102      5.0845725    
   1671000   1.0025589      16.181147      5.0837181    
   1672000   1.0119357      16.842895      5.1060572    
   1673000   1.0089007      16.860041      5.0537647    
   1674000   0.99831555     17.116698      5.091212     
   1675000   0.97061489     16.710042      5.1470132    
   1676000   0.9154494      16.436995      5.0895361    
   1677000   1.0148829      16.251811      5.1113826    
   1678000   1.019855       16.436043      5.0811489    
   1679000   0.98526851     16.394357      5.0698145    
   1680000   0.99855422     16.660905      5.0882157    
   1681000   1.0131426      17.128513      5.0656484    
   1682000   1.044781       16.940245      5.118872     
   1683000   1.0226815      17.071071      5.0721429    
   1684000   0.99536206     16.6709        5.0934131    
   1685000   1.0050149      16.723419      5.0715508    
   1686000   1.0073341      16.867215      5.0923132    
   1687000   1.0001281      16.173379      5.0787318    
   1688000   0.97539432     16.814563      5.0694095    
   1689000   1.0119304      16.124258      5.0695976    
   1690000   1.0074047      16.073099      5.101076     
   1691000   0.99020625     17.190958      5.1031224    
   1692000   0.98006665     17.458502      5.0933031    
   1693000   0.96588645     16.225467      5.0957704    
   1694000   0.99483831     17.346129      5.1200644    
   1695000   0.99101387     17.074816      5.0961988    
   1696000   0.94749069     16.352169      5.109914     
   1697000   0.99111865     16.862005      5.1069666    
   1698000   0.99783857     16.762148      5.0616419    
   1699000   1.0100369      17.007894      5.0453107    
   1700000   1.0161112      16.799449      5.0537448    
   1701000   0.98253025     16.814332      5.0553066    
   1702000   0.99692857     16.559998      5.0633733    
   1703000   1.0134395      16.78091       5.0713392    
   1704000   1.0253756      16.966992      5.0517591    
   1705000   0.97150331     16.088849      5.0841126    
   1706000   0.9724736      17.314993      5.0665534    
   1707000   1.0039454      16.721788      5.0750376    
   1708000   1.0171455      16.409241      5.1112606    
   1709000   0.97221291     17.37142       5.0871992    
   1710000   0.96413058     16.820577      5.101372     
   1711000   0.96953505     17.184281      5.1138541    
   1712000   0.9906135      16.304404      5.1000877    
   1713000   0.9936503      16.428219      5.0996644    
   1714000   0.99092036     16.622231      5.1436946    
   1715000   0.9897325      16.80201       5.1001436    
   1716000   0.98563561     16.196601      5.1048164    
   1717000   1.0043527      17.631562      5.0675164    
   1718000   1.0803051      17.055593      5.0670602    
   1719000   1.0620759      17.353793      5.0646397    
   1720000   0.97964688     16.731082      5.0669457    
   1721000   0.98584183     16.975522      5.0997348    
   1722000   1.0040355      16.67291       5.0918346    
   1723000   1.0036372      16.487361      5.1325361    
   1724000   0.92744288     17.055677      5.0817587    
   1725000   1.0105112      16.86674       5.0941892    
   1726000   1.0183143      17.247488      5.1009074    
   1727000   1.0081779      17.151257      5.0671298    
   1728000   0.98303115     16.888815      5.0963408    
   1729000   0.98471998     17.319686      5.0805431    
   1730000   1.0288387      16.902167      5.0651647    
   1731000   0.99174318     16.767518      5.0528842    
   1732000   0.99968935     16.905758      5.0690054    
   1733000   1.029237       16.998086      5.092003     
   1734000   0.98689866     16.537727      5.0913625    
   1735000   1.0078458      16.85134       5.0914262    
   1736000   1.0192324      17.335739      5.1200924    
   1737000   1.0056345      16.392742      5.111364     
   1738000   1.0633264      16.972909      5.1190479    
   1739000   1.0411915      16.486013      5.104943     
   1740000   1.0101979      16.402648      5.1010678    
   1741000   0.97460009     15.762886      5.1054308    
   1742000   0.98334575     16.976703      5.0727434    
   1743000   1.0110159      16.785108      5.0569498    
   1744000   0.99402706     16.651961      5.0696406    
   1745000   1.029148       17.623613      5.059144     
   1746000   1.0253367      16.802122      5.0719082    
   1747000   1.0136876      17.155883      5.053069     
   1748000   0.97655177     16.930435      5.0741847    
   1749000   1.0190888      16.782312      5.078599     
   1750000   1.0099176      16.275087      5.0767702    
   1751000   0.98920554     16.842086      5.0547868    
   1752000   0.97487868     16.736211      5.087406     
   1753000   1.0004218      16.595197      5.073659     
   1754000   0.99128419     16.625919      5.1015754    
   1755000   0.95777187     16.701094      5.099074     
   1756000   0.99934029     17.128199      5.1417087    
   1757000   0.96360286     16.267858      5.0992156    
   1758000   1.0268136      16.402683      5.1014426    
   1759000   1.0122883      16.053165      5.1364955    
   1760000   1.00504        16.546146      5.1065488    
   1761000   0.97937634     16.816539      5.1456945    
   1762000   1.0413222      17.162349      5.1003324    
   1763000   1.0104444      16.40065       5.1054113    
   1764000   0.95604314     15.654512      5.1183305    
   1765000   0.99164386     17.257585      5.1125497    
   1766000   0.98216896     16.160972      5.1062354    
   1767000   1.004666       16.231885      5.0878452    
   1768000   0.98666855     16.70026       5.0846598    
   1769000   0.98013955     16.478576      5.0609006    
   1770000   0.99941618     16.700487      5.0735322    
   1771000   0.98114483     16.506033      5.0668345    
   1772000   0.97484917     16.269442      5.075843     
   1773000   1.0032948      16.494062      5.1027942    
   1774000   1.0262957      17.228652      5.0654426    
   1775000   0.97968514     16.577688      5.0878272    
   1776000   1.0156414      17.452571      5.0906309    
   1777000   0.9741786      16.647951      5.084764     
   1778000   1.0133018      16.831626      5.067652     
   1779000   0.97592274     16.835016      5.0676028    
   1780000   0.98394454     16.885568      5.0877222    
   1781000   0.95560406     16.780173      5.0762833    
   1782000   0.9962375      16.696225      5.0691186    
   1783000   1.0321219      16.361449      5.0877678    
   1784000   1.0226519      17.132171      5.0798511    
   1785000   1.0137245      16.109177      5.1001651    
   1786000   0.99216604     16.119808      5.1284135    
   1787000   1.0096732      16.993351      5.1058029    
   1788000   0.96543926     16.732023      5.0979262    
   1789000   1.0116378      16.949004      5.1405774    
   1790000   1.0152948      16.742212      5.0799862    
   1791000   0.97148582     17.052434      5.1068038    
   1792000   1.0008624      16.814215      5.1221063    
   1793000   1.0089319      16.725177      5.1000997    
   1794000   0.9886352      16.900058      5.0914725    
   1795000   1.0279135      16.862752      5.0756978    
   1796000   1.0020796      16.823462      5.0807442    
   1797000   0.94453569     16.948905      5.0657969    
   1798000   0.9671178      16.443731      5.0230845    
   1799000   0.97876316     16.745116      5.0895925    
   1800000   1.0288911      17.375584      5.050861     
   1801000   1.025233       16.953643      5.0665829    
   1802000   1.0009803      17.036436      5.0745319    
   1803000   1.0183947      16.466183      5.0764819    
   1804000   1.0020425      16.807494      5.0316939    
   1805000   1.0189489      16.822837      5.1074473    
   1806000   0.99815422     16.395964      5.0959649    
   1807000   0.99626594     16.675833      5.1260166    
   1808000   1.0154093      16.259221      5.1389653    
   1809000   1.0380426      17.46718       5.1310325    
   1810000   0.9928186      16.746618      5.1120432    
   1811000   0.97227747     16.563946      5.1036182    
   1812000   0.97735744     16.905321      5.0678377    
   1813000   1.0079815      17.456068      5.0471025    
   1814000   1.0064022      16.556388      5.0825732    
   1815000   1.0320549      16.8168        5.0719328    
   1816000   0.98475552     16.406601      5.1273988    
   1817000   1.0241105      17.358948      5.0714186    
   1818000   0.97834509     17.328426      5.0758106    
   1819000   1.0203378      17.038848      5.0652284    
   1820000   1.0211735      17.44291       5.1056351    
   1821000   1.0210026      16.584893      5.0919761    
   1822000   0.96499598     16.520055      5.0716067    
   1823000   1.0066042      17.183829      5.0829574    
   1824000   0.99404415     16.813695      5.0774748    
   1825000   1.017481       16.831831      5.094621     
   1826000   0.97602187     16.662705      5.0657802    
   1827000   0.98604882     16.27347       5.1005313    
   1828000   0.99814149     16.311154      5.1378235    
   1829000   1.0146453      16.698647      5.0996252    
   1830000   1.0433886      15.996483      5.1355725    
   1831000   1.0278514      16.858642      5.1047649    
   1832000   1.0300035      17.399078      5.1466826    
   1833000   0.97052116     16.616296      5.1013791    
   1834000   1.0550344      17.008503      5.1050613    
   1835000   0.98375572     16.782924      5.0733049    
   1836000   0.98902965     17.019922      5.0764591    
   1837000   1.0287236      16.644641      5.0897863    
   1838000   1.0445063      16.647577      5.0475629    
   1839000   1.0030817      16.608791      5.0959004    
   1840000   0.99140663     16.490927      5.1066767    
   1841000   1.0198821      16.948329      5.0636783    
   1842000   1.0387253      17.259606      5.0790454    
   1843000   0.98236768     16.713662      5.0737177    
   1844000   0.97897586     16.744003      5.0561967    
   1845000   1.0037859      16.415137      5.0501801    
   1846000   1.0221054      17.028137      5.0755543    
   1847000   0.96832599     16.704533      5.0783323    
   1848000   0.99574531     16.656663      5.1287138    
   1849000   0.98727493     16.527509      5.0900838    
   1850000   0.96675735     16.113772      5.0803635    
   1851000   1.0113381      16.976873      5.0892736    
   1852000   0.95719328     16.764522      5.0965446    
   1853000   0.98745553     16.64714       5.0981234    
   1854000   1.0199783      17.561262      5.1044187    
   1855000   0.9988502      16.783778      5.0545499    
   1856000   0.99688276     16.595179      5.0724571    
   1857000   1.0027428      17.057235      5.0611953    
   1858000   0.95702446     16.779133      5.0683081    
   1859000   1.0157115      16.719929      5.0713981    
   1860000   0.97259594     16.925709      5.0708406    
   1861000   1.0160146      16.574484      5.0926996    
   1862000   1.0346317      17.019623      5.0787943    
   1863000   0.96659153     16.713063      5.0710135    
   1864000   0.98670096     16.81653       5.1044218    
   1865000   1.0180051      16.458051      5.0809137    
   1866000   0.99699329     16.111855      5.0836196    
   1867000   0.99622379     16.698561      5.0812802    
   1868000   1.0391002      17.017385      5.0512178    
   1869000   0.96915376     16.682906      5.0891862    
   1870000   0.99993591     17.041865      5.0673439    
   1871000   1.0136386      16.362647      5.1115683    
   1872000   1.0020749      16.742798      5.0657687    
   1873000   1.007258       16.833458      5.1003881    
   1874000   0.98632368     16.442672      5.0714555    
   1875000   1.0041807      16.051617      5.0496128    
   1876000   1.0387513      16.555051      5.057824     
   1877000   1.0331866      17.207835      5.0687994    
   1878000   0.95531157     17.232674      5.0498788    
   1879000   1.0238403      16.281614      5.0873452    
   1880000   0.96389407     17.035805      5.0798906    
   1881000   0.99401203     16.683816      5.1180259    
   1882000   0.97958659     17.053603      5.1118267    
   1883000   0.95908489     16.682668      5.0891041    
   1884000   0.99378848     16.582994      5.1573207    
   1885000   0.98465043     16.650963      5.1703333    
   1886000   1.0745147      16.71101       5.1249239    
   1887000   1.0020804      16.39677       5.1014063    
   1888000   0.99969371     17.021672      5.0798321    
   1889000   0.98192246     16.558021      5.0922431    
   1890000   0.95807339     16.687474      5.0900331    
   1891000   1.0074132      16.910368      5.0919963    
   1892000   0.97160123     16.416321      5.1168186    
   1893000   0.98523056     16.982704      5.0854784    
   1894000   0.98458177     16.871029      5.1371948    
   1895000   1.0229839      16.981036      5.0434492    
   1896000   1.0476415      16.550952      5.0923945    
   1897000   1.0066023      16.71734       5.0876456    
   1898000   0.95699735     17.510511      5.0769452    
   1899000   0.97495187     16.699875      5.074849     
   1900000   1.0139065      16.588421      5.0820792    
   1901000   0.9789611      17.063901      5.1226569    
   1902000   1.0045191      17.059433      5.0933732    
   1903000   0.98184051     16.787571      5.0823414    
   1904000   0.99438545     16.454855      5.1183309    
   1905000   0.98935462     16.066597      5.0831511    
   1906000   1.0167781      16.52834       5.1213675    
   1907000   0.97411284     16.244326      5.1084161    
   1908000   0.99583055     17.014471      5.0864901    
   1909000   1.022028       17.197383      5.104725     
   1910000   0.99493823     16.832594      5.10826      
   1911000   1.0438238      16.814545      5.1069179    
   1912000   1.0010053      16.628585      5.1664357    
   1913000   1.0191369      16.286713      5.1082995    
   1914000   1.0423382      17.183421      5.070899     
   1915000   0.96634403     16.30979       5.0686497    
   1916000   1.0002558      16.471783      5.0949753    
   1917000   0.99667918     17.037482      5.0490063    
   1918000   0.98511653     16.903697      5.0704399    
   1919000   1.0429751      16.816015      5.0747618    
   1920000   0.9918473      16.958033      5.0804912    
   1921000   1.0065908      16.328202      5.107748     
   1922000   0.99283036     17.449965      5.1783064    
   1923000   1.0043246      16.464747      5.1268433    
   1924000   0.98404948     16.910471      5.0760841    
   1925000   1.0151347      16.695479      5.1034592    
   1926000   0.98144044     16.774261      5.0802014    
   1927000   0.97476549     16.862758      5.1287191    
   1928000   0.97942874     16.9005        5.0948829    
   1929000   0.96047693     16.987998      5.1298338    
   1930000   0.99496406     16.686111      5.0619665    
   1931000   1.0006994      16.275848      5.0650682    
   1932000   0.99202607     17.194768      5.078595     
   1933000   0.99799268     16.235161      5.0713726    
   1934000   1.0143659      16.685206      5.0550584    
   1935000   0.94676414     16.891142      5.077865     
   1936000   0.9617882      17.051299      5.0371132    
   1937000   1.0192896      17.173277      5.0521311    
   1938000   1.0444866      16.217702      5.0917429    
   1939000   1.0249527      16.349194      5.0863496    
   1940000   0.98972675     16.20099       5.0927402    
   1941000   1.0260348      16.414739      5.0781675    
   1942000   0.99988604     16.836694      5.0820808    
   1943000   0.98932691     17.296741      5.0792783    
   1944000   1.0028858      16.538053      5.0689279    
   1945000   1.0595716      16.444184      5.0740484    
   1946000   1.0263048      16.282829      5.0371688    
   1947000   1.0234234      16.358123      5.0891298    
   1948000   0.96109088     16.939525      5.0750678    
   1949000   0.94633049     16.35447       5.122916     
   1950000   1.0095536      16.626738      5.1263558    
   1951000   0.96241175     16.506351      5.1452444    
   1952000   1.0265276      17.146759      5.1066855    
   1953000   1.0089207      16.822801      5.11462      
   1954000   1.0390053      17.265349      5.1114095    
   1955000   1.0436656      16.661182      5.1146836    
   1956000   0.9598977      16.763801      5.0779506    
   1957000   0.96689517     16.301515      5.0623949    
   1958000   1.0291153      16.644851      5.053778     
   1959000   1.0012145      17.192613      5.0566075    
   1960000   1.0516332      16.577241      5.0548288    
   1961000   1.0366142      16.939876      5.08892      
   1962000   1.0154449      16.981717      5.080418     
   1963000   1.0254043      16.609304      5.1301368    
   1964000   0.99455258     16.804324      5.1013517    
   1965000   1.0078017      17.164203      5.105134     
   1966000   0.9668764      16.350313      5.0917157    
   1967000   1.0204148      16.880364      5.0902377    
   1968000   0.98557992     16.64619       5.1225604    
   1969000   1.053847       17.205398      5.1076389    
   1970000   0.99258625     16.791715      5.1377139    
   1971000   1.0230945      17.485281      5.0856374    
   1972000   0.9501475      16.408855      5.0669094    
   1973000   1.0075686      16.545368      5.0955906    
   1974000   1.0434185      16.848757      5.0556191    
   1975000   0.98678698     16.403428      5.079839     
   1976000   1.0044689      16.674415      5.0625786    
   1977000   0.98055639     16.758818      5.0974272    
   1978000   1.0261494      16.568148      5.1036591    
   1979000   1.0000628      17.097078      5.0420945    
   1980000   0.97449577     16.23608       5.068061     
   1981000   1.0155332      17.248333      5.0813942    
   1982000   0.9591217      16.215091      5.0863402    
   1983000   1.0246038      17.025915      5.0349747    
   1984000   0.96107564     16.634711      5.0508831    
   1985000   0.95529263     17.073943      5.0653671    
   1986000   0.98984311     16.776054      5.0799444    
   1987000   0.99821816     16.886042      5.0992667    
   1988000   1.0219064      16.382072      5.0907432    
   1989000   0.99214613     16.896218      5.0672671    
   1990000   1.0302782      16.722774      5.0411261    
   1991000   1.0168344      16.519644      5.0867002    
   1992000   1.0359752      17.104729      5.0534119    
   1993000   0.95754247     16.735975      5.081647     
   1994000   0.95121724     16.792763      5.0819801    
   1995000   1.0188793      16.713625      5.1101582    
   1996000   1.0266004      16.447693      5.1024139    
   1997000   0.92142656     17.294346      5.0879225    
   1998000   0.99950245     16.301998      5.158844     
   1999000   1.0444554      17.331897      5.1006145    
   2000000   0.96853955     16.721452      5.1179722    
   2001000   0.95237754     16.743386      5.0796288    
   2002000   1.0399279      16.975442      5.1044579    
   2003000   0.98749373     17.017294      5.0568972    
   2004000   0.97109292     16.715172      5.0550685    
   2005000   0.99056796     16.8144        5.0841724    
   2006000   0.99015872     16.701374      5.1098435    
   2007000   0.96774808     16.968176      5.1007487    
   2008000   1.0037013      17.09393       5.0938374    
   2009000   0.99886369     16.806723      5.0595077    
   2010000   0.96354008     16.87018       5.0921354    
   2011000   0.9980722      17.191158      5.0933042    
   2012000   1.0143779      17.395345      5.0606527    
   2013000   0.99446988     16.990174      5.0571308    
   2014000   0.98402131     17.525087      5.128248     
   2015000   1.019357       16.726485      5.1116757    
   2016000   1.0183725      16.941172      5.1027744    
   2017000   1.0186153      16.640812      5.1375555    
   2018000   1.051609       17.277856      5.1145101    
   2019000   0.97356286     17.225163      5.1084336    
   2020000   0.99851614     17.083048      5.0867849    
   2021000   1.0070843      16.417555      5.0844762    
   2022000   0.9820686      16.37439       5.1213713    
   2023000   0.97120441     16.518978      5.1219711    
   2024000   1.008501       16.533553      5.1069372    
   2025000   1.0314743      17.282363      5.0920933    
   2026000   1.0428623      17.150848      5.1039666    
   2027000   0.98918484     16.085014      5.1161904    
   2028000   1.0512449      17.313586      5.0898178    
   2029000   0.98860315     17.038541      5.0846164    
   2030000   0.97393933     17.017029      5.0890515    
   2031000   1.0278596      17.128484      5.0946573    
   2032000   1.0128933      17.18989       5.0972222    
   2033000   0.99755189     16.61641       5.0611277    
   2034000   1.0087424      17.86218       5.0710724    
   2035000   0.99475658     16.426936      5.12514      
   2036000   0.96114827     16.882167      5.0617953    
   2037000   0.9850843      16.666106      5.066749     
   2038000   1.0310624      17.187422      5.1090813    
   2039000   0.98126359     16.502264      5.069914     
   2040000   0.97456267     16.479274      5.0743177    
   2041000   0.98064817     17.184682      5.0947623    
   2042000   0.97797564     17.509662      5.0587583    
   2043000   0.9941396      16.33141       5.1092307    
   2044000   0.93153832     16.613952      5.1173933    
   2045000   0.98102951     17.049931      5.0792327    
   2046000   0.97576367     16.88461       5.1577118    
   2047000   0.99468503     16.584829      5.1221492    
   2048000   1.0104858      16.562993      5.0689953    
   2049000   1.0239138      17.029853      5.1113523    
   2050000   0.9871075      16.228895      5.0572902    
   2051000   0.97158578     16.357737      5.0759559    
   2052000   1.0253172      16.792021      5.0804806    
   2053000   1.0098757      17.002997      5.0479687    
   2054000   1.0507118      17.572578      5.0720366    
   2055000   0.9961736      16.576829      5.0836044    
   2056000   1.0010557      16.508952      5.0753128    
   2057000   0.99986257     16.636506      5.1093044    
   2058000   1.0024243      16.901703      5.0827324    
   2059000   1.0297244      17.246592      5.0607726    
   2060000   1.0199191      16.664084      5.0929491    
   2061000   0.96428756     16.809349      5.0951672    
   2062000   1.0611893      16.441914      5.1124685    
   2063000   0.96957624     17.375795      5.0868269    
   2064000   0.97041186     16.494826      5.0869408    
   2065000   1.0390396      17.137445      5.1013963    
   2066000   1.0043082      16.903029      5.0826209    
   2067000   0.96870883     16.473283      5.1255964    
   2068000   1.0077967      16.505662      5.057542     
   2069000   0.99225173     17.58204       5.0948055    
   2070000   0.97025055     16.920338      5.0970147    
   2071000   1.0252171      17.234448      5.095312     
   2072000   1.0304253      16.500971      5.0791488    
   2073000   1.0177428      16.732597      5.1003078    
   2074000   0.99460364     16.519509      5.1092384    
   2075000   0.97741022     16.605406      5.0867155    
   2076000   1.0120609      16.694847      5.1036637    
   2077000   1.0642457      16.837606      5.0574962    
   2078000   0.98146386     16.354376      5.0649899    
   2079000   0.99817422     17.366604      5.1065365    
   2080000   1.0267273      16.808643      5.0882611    
   2081000   1.0016446      17.282055      5.1014182    
   2082000   0.99675478     16.673481      5.0778851    
   2083000   1.0101051      16.304419      5.0566506    
   2084000   1.0187718      17.479574      5.0449305    
   2085000   1.0327718      17.235144      5.0691705    
   2086000   1.0128134      16.481505      5.0662124    
   2087000   0.99508524     16.921975      5.073423     
   2088000   0.9665281      17.144706      5.066112     
   2089000   1.025696       16.82399       5.0735494    
   2090000   0.96928581     16.84492       5.0669714    
   2091000   0.98574755     16.570526      5.1034173    
   2092000   0.99701846     17.002318      5.0975021    
   2093000   1.0135774      17.614762      5.1245491    
   2094000   1.0310838      16.887897      5.0941176    
   2095000   1.0388137      17.158296      5.1266013    
   2096000   0.9888505      17.460518      5.0767477    
   2097000   0.97886698     16.121684      5.0977544    
   2098000   1.0046658      16.585288      5.1149556    
   2099000   0.9637137      16.854079      5.063344     
   2100000   1.0348236      16.914877      5.0938341    
   2101000   1.0065454      16.686298      5.0793774    
   2102000   1.0000379      16.892487      5.0731928    
   2103000   1.0260523      16.303949      5.0732064    
   2104000   0.97436819     16.659729      5.0405409    
   2105000   1.0124197      16.517672      5.0760182    
   2106000   0.97027936     17.15614       5.0618164    
   2107000   1.0133124      16.918675      5.070778     
   2108000   0.98191586     15.953281      5.0625957    
   2109000   0.98711567     16.994918      5.0823823    
   2110000   0.99461082     16.917086      5.093714     
   2111000   1.0107584      16.984638      5.0623383    
   2112000   1.0081913      16.219725      5.1157805    
   2113000   0.99572371     16.863816      5.0540842    
   2114000   1.0068375      17.01917       5.0699152    
   2115000   0.97071763     16.388026      5.0627499    
   2116000   0.99678194     16.725703      5.0654065    
   2117000   1.0046706      16.955949      5.0673284    
   2118000   0.99176622     16.954647      5.0771023    
   2119000   1.0260913      17.581596      5.0559648    
   2120000   0.97680052     16.451991      5.075875     
   2121000   1.0321553      16.872804      5.0542786    
   2122000   1.0098369      17.140947      5.0406351    
   2123000   1.0703651      16.764082      5.0983559    
   2124000   1.0241368      16.970061      5.0751638    
   2125000   0.96359248     16.186056      5.0438957    
   2126000   0.97630242     16.919811      5.058287     
   2127000   0.98390647     16.279829      5.0577503    
   2128000   0.99101371     16.889896      5.0535608    
   2129000   1.0450123      16.998375      5.0512811    
   2130000   1.0372963      17.361004      5.0930143    
   2131000   0.98738065     16.909394      5.0917772    
   2132000   1.0141181      16.83127       5.061652     
   2133000   1.0191721      16.915895      5.0687298    
   2134000   0.98173239     16.497033      5.1057636    
   2135000   1.0192653      17.023105      5.0596713    
   2136000   1.0174232      16.957505      5.0817875    
   2137000   0.98330486     16.81797       5.0782955    
   2138000   1.0094351      16.716794      5.0935977    
   2139000   0.99687858     16.886816      5.0736299    
   2140000   1.0165045      16.940276      5.0733059    
   2141000   0.9691898      17.050108      5.1077244    
   2142000   1.0304547      17.190421      5.0872029    
   2143000   1.0492582      16.529509      5.054377     
   2144000   1.0105521      16.961615      5.0863566    
   2145000   0.9653633      16.431945      5.0937675    
   2146000   0.97573276     16.672401      5.0611327    
   2147000   1.0339727      17.375924      5.0898484    
   2148000   1.0212568      16.503912      5.0730967    
   2149000   0.99578271     16.826736      5.0846898    
   2150000   0.98996322     16.489723      5.0663734    
   2151000   1.0348112      16.40324       5.0717275    
   2152000   1.0190322      17.465153      5.0653114    
   2153000   1.0491982      17.183725      5.06558      
   2154000   0.99944177     16.78433       5.0899632    
   2155000   0.98706372     16.554319      5.062064     
   2156000   0.97533623     16.62309       5.0592049    
   2157000   0.97788645     16.460879      5.066066     
   2158000   1.0450245      16.899168      5.0642152    
   2159000   1.028291       16.884867      5.0735569    
   2160000   0.98572963     16.296103      5.1225757    
   2161000   1.0011397      16.59495       5.1013936    
   2162000   1.0566957      16.617253      5.0931242    
   2163000   0.99726486     17.415673      5.0490777    
   2164000   1.0113963      16.986448      5.0182164    
   2165000   1.0236468      17.303295      5.068878     
   2166000   1.0153667      17.076747      5.0390607    
   2167000   0.9904056      16.909704      5.062137     
   2168000   1.0202218      16.964999      5.0712285    
   2169000   0.94929081     16.799475      5.0760222    
   2170000   1.0187294      16.675898      5.0812991    
   2171000   0.99967314     16.522269      5.0691274    
   2172000   1.0114738      16.459139      5.1000259    
   2173000   0.9904952      16.369933      5.1045091    
   2174000   0.9919211      16.695801      5.090538     
   2175000   1.0380167      17.331411      5.0895172    
   2176000   1.0164073      16.978486      5.0913228    
   2177000   1.0092125      17.302597      5.0823945    
   2178000   1.0245457      16.655189      5.0894867    
   2179000   0.99104344     16.965704      5.0998467    
   2180000   1.0437555      16.407424      5.1142806    
   2181000   0.96066789     17.01827       5.1146933    
   2182000   1.0501583      16.639556      5.0984375    
   2183000   1.0376746      17.136177      5.0782146    
   2184000   0.98223037     16.548288      5.080706     
   2185000   0.99618727     16.42802       5.0750136    
   2186000   0.98120544     16.873025      5.0614311    
   2187000   1.0108278      16.473659      5.0600221    
   2188000   1.0137396      17.007769      5.101239     
   2189000   0.99350768     16.347402      5.1002225    
   2190000   0.9860841      17.584152      5.1054143    
   2191000   0.97174399     17.30902       5.1233257    
   2192000   1.0329257      16.840083      5.071556     
   2193000   0.97426052     16.602118      5.1049171    
   2194000   1.0030428      17.047298      5.1178118    
   2195000   0.98971575     16.946623      5.0608934    
   2196000   0.97082533     16.268903      5.0786658    
   2197000   1.0114281      17.258495      5.0773498    
   2198000   0.98514377     16.540965      5.0706838    
   2199000   1.0246703      16.595797      5.0600831    
   2200000   1.0189119      16.706766      5.0702437    
   2201000   1.0103985      16.807296      5.0652881    
   2202000   0.9955226      16.814569      5.1059704    
   2203000   0.99645345     16.741617      5.0847359    
   2204000   0.99173805     17.142053      5.0562254    
   2205000   0.96817089     16.368143      5.0658843    
   2206000   1.0078607      16.886377      5.0885091    
   2207000   0.99450989     16.739332      5.0685441    
   2208000   1.0057269      17.136531      5.0778488    
   2209000   0.95248732     16.919445      5.0981381    
   2210000   1.0378796      16.692817      5.1025286    
   2211000   1.015086       16.65008       5.0895525    
   2212000   0.99708233     16.43514       5.1215057    
   2213000   1.0032591      16.702681      5.0900806    
   2214000   1.0038638      16.116977      5.0760548    
   2215000   0.95482544     16.183563      5.0543952    
   2216000   1.0151237      16.733745      5.0577251    
   2217000   1.0078504      16.868363      5.0774466    
   2218000   0.98652212     16.862059      5.0635552    
   2219000   0.99024051     16.786632      5.0826579    
   2220000   0.99218732     17.718188      5.0637219    
   2221000   0.98913348     16.217549      5.0823154    
   2222000   0.95741837     17.454391      5.0919518    
   2223000   1.0366783      17.135187      5.089831     
   2224000   1.0338799      16.971728      5.0929856    
   2225000   0.95181715     16.777231      5.0733952    
   2226000   0.97922093     16.196997      5.1030701    
   2227000   1.009528       16.575407      5.057066     
   2228000   1.0363253      16.695764      5.077982     
   2229000   1.0060736      17.090548      5.0622628    
   2230000   1.0318424      16.398599      5.0843877    
   2231000   1.0235412      16.344396      5.0773941    
   2232000   0.94087135     17.196427      5.1115601    
   2233000   0.98207524     17.022467      5.1058219    
   2234000   0.97484852     16.371816      5.0772174    
   2235000   1.0035844      17.035675      5.1093699    
   2236000   1.0227859      16.633581      5.0718054    
   2237000   0.98992293     17.111826      5.049155     
   2238000   1.0429926      16.945785      5.0726198    
   2239000   1.0319635      17.128973      5.0688189    
   2240000   0.98363479     16.824517      5.0848732    
   2241000   1.0092573      17.199756      5.0931574    
   2242000   1.0265065      16.496978      5.1326115    
   2243000   1.0434951      16.387896      5.0845843    
   2244000   1.0344558      17.117487      5.0747783    
   2245000   0.9938502      16.221686      5.0739777    
   2246000   0.99428686     17.325097      5.0894637    
   2247000   1.0499674      17.522631      5.0824103    
   2248000   0.98864549     16.705373      5.0595305    
   2249000   1.0209655      16.442268      5.0519977    
   2250000   0.99717646     15.900506      5.0321357    
   2251000   0.97659573     16.897741      5.0770474    
   2252000   0.97063638     16.501812      5.0762994    
   2253000   0.9683216      16.569132      5.0743965    
   2254000   0.98365387     16.665999      5.0801546    
   2255000   0.98854782     16.234211      5.0384304    
   2256000   1.0166097      16.935108      5.0453048    
   2257000   1.0011772      16.22655       5.0519624    
   2258000   1.0140165      17.003695      5.1021704    
   2259000   1.0279994      16.044354      5.1352144    
   2260000   1.0409993      16.630018      5.0892926    
   2261000   0.96206685     16.272716      5.131171     
   2262000   0.97722407     16.794611      5.0687982    
   2263000   1.0405139      17.603562      5.0597715    
   2264000   0.97718191     16.721211      5.0684657    
   2265000   0.98984562     17.110067      5.0907093    
   2266000   0.99751246     16.649676      5.1151665    
   2267000   1.0241175      17.062522      5.1253737    
   2268000   1.020863       17.361754      5.0623913    
   2269000   1.0068048      17.086578      5.0886006    
   2270000   0.97248053     16.463039      5.0765997    
   2271000   1.0567692      17.950853      5.0929508    
   2272000   1.0422425      16.794345      5.103006     
   2273000   0.9681976      16.646727      5.1221771    
   2274000   0.9798482      16.733594      5.1426731    
   2275000   1.0138852      16.686851      5.0845567    
   2276000   0.98096957     16.413915      5.09575      
   2277000   1.0317848      16.037673      5.1236241    
   2278000   0.98339383     16.846285      5.0941591    
   2279000   1.0069453      17.048657      5.0940452    
   2280000   0.95938884     16.463293      5.0693048    
   2281000   1.0041155      16.083746      5.0812358    
   2282000   0.98210226     16.408833      5.0422702    
   2283000   1.026824       17.606063      5.0653496    
   2284000   1.0443308      16.832577      5.0690531    
   2285000   0.97098929     16.6105        5.0865254    
   2286000   0.99826392     16.955618      5.0480051    
   2287000   1.0296916      16.366526      5.0854377    
   2288000   1.0285319      17.069998      5.0535016    
   2289000   1.0129263      16.466054      5.0704687    
   2290000   1.0400053      16.468067      5.0803044    
   2291000   0.99608323     17.187074      5.0715724    
   2292000   0.96912392     16.363472      5.1142175    
   2293000   0.98592953     16.222488      5.1025022    
   2294000   1.0221185      16.473793      5.095253     
   2295000   0.97325715     16.822355      5.0428048    
   2296000   1.0188354      16.823237      5.0958268    
   2297000   1.025504       16.534821      5.1107303    
   2298000   1.0133011      16.763422      5.1059157    
   2299000   0.96023116     16.687071      5.1161841    
   2300000   0.9960146      17.334545      5.1047538    
   2301000   0.96823439     16.189449      5.0914277    
   2302000   1.0072438      16.516035      5.0497696    
   2303000   1.0001249      16.385693      5.0947171    
   2304000   1.0133417      16.523326      5.0815189    
   2305000   0.99603137     17.621697      5.0408186    
   2306000   0.99113794     16.603579      5.1075971    
   2307000   1.00572        16.428926      5.0705669    
   2308000   0.99405103     17.743781      5.0469317    
   2309000   1.0159141      16.547111      5.0715511    
   2310000   1.0282868      16.940215      5.0454494    
   2311000   0.9757809      16.752762      5.0832632    
   2312000   1.0251597      16.794661      5.0530198    
   2313000   1.0289295      17.351394      5.0758733    
   2314000   1.0592762      17.410724      5.0373813    
   2315000   0.95386615     16.633053      5.0847166    
   2316000   1.0191904      16.717753      5.039328     
   2317000   0.99204031     16.547405      5.1138477    
   2318000   1.0054735      16.556448      5.0762067    
   2319000   1.0447647      16.812962      5.0621461    
   2320000   1.0372724      16.776245      5.0747344    
   2321000   0.99767552     16.43294       5.0926587    
   2322000   0.96096456     17.273667      5.0566703    
   2323000   0.98821285     17.211426      5.0710405    
   2324000   1.0170793      16.619511      5.0685289    
   2325000   1.0330345      16.926884      5.0874395    
   2326000   1.0353687      16.909677      5.0801051    
   2327000   0.97807739     16.64638       5.0900152    
   2328000   1.008294       16.950723      5.0894981    
   2329000   1.0189264      16.867915      5.0829849    
   2330000   0.98928269     16.49703       5.0981778    
   2331000   0.99817319     16.391837      5.0700954    
   2332000   1.0113215      16.675844      5.0863351    
   2333000   0.9846387      16.858304      5.1139718    
   2334000   1.0034875      17.141982      5.1165595    
   2335000   0.96478333     17.09296       5.1262097    
   2336000   1.0018851      16.453323      5.0933273    
   2337000   0.93642536     17.098988      5.1040955    
   2338000   0.97467158     16.523004      5.1226958    
   2339000   1.0482109      17.221027      5.0740893    
   2340000   0.98711259     16.66266       5.0901958    
   2341000   1.0079103      16.60686       5.0744861    
   2342000   0.98969556     16.211391      5.0895828    
   2343000   0.98583368     16.671849      5.0886157    
   2344000   1.0029952      16.399795      5.0831193    
   2345000   0.96827857     16.338248      5.1014946    
   2346000   0.98500807     17.127913      5.1364066    
   2347000   1.0120873      16.644749      5.1464382    
   2348000   0.98572316     17.3276        5.134655     
   2349000   0.98959165     16.372818      5.1165634    
   2350000   0.96926701     17.065995      5.1096654    
   2351000   1.0234805      16.768766      5.1212451    
   2352000   1.0099684      16.258504      5.1057053    
   2353000   0.97943258     17.217616      5.0984926    
   2354000   1.0171446      17.140834      5.1034641    
   2355000   1.0147096      16.912516      5.0670735    
   2356000   0.98831213     16.860713      5.0859637    
   2357000   1.0312256      16.914936      5.1154652    
   2358000   1.0108697      16.186225      5.1111844    
   2359000   1.0272639      16.310201      5.106104     
   2360000   1.0495554      16.532284      5.116011     
   2361000   0.99591589     17.074651      5.1498364    
   2362000   1.0059098      16.20945       5.10582      
   2363000   1.0227106      16.623621      5.084825     
   2364000   1.013682       16.424229      5.1165574    
   2365000   1.0297786      17.568626      5.0748099    
   2366000   0.99546624     16.444869      5.0764068    
   2367000   1.0298347      16.188882      5.0757781    
   2368000   1.0151355      16.411404      5.0942034    
   2369000   0.98362087     16.81979       5.1215415    
   2370000   1.0110619      16.886583      5.0748061    
   2371000   1.0100493      17.079758      5.0828085    
   2372000   0.98671981     16.760017      5.0783016    
   2373000   1.0355514      16.928928      5.1030848    
   2374000   1.0163033      16.962329      5.1153497    
   2375000   0.98687453     16.251821      5.0963734    
   2376000   1.0058587      16.669627      5.1065017    
   2377000   0.98711987     16.803782      5.0823407    
   2378000   1.0494642      16.91291       5.0774971    
   2379000   1.0526523      17.174586      5.1025448    
   2380000   0.98985245     16.689018      5.0596335    
   2381000   0.95575796     16.155987      5.0703717    
   2382000   0.98870701     17.223132      5.0931593    
   2383000   1.0123959      16.74595       5.083031     
   2384000   0.98093836     16.802934      5.0904159    
   2385000   1.0034474      16.357413      5.0721981    
   2386000   0.98465413     16.837226      5.1039082    
   2387000   1.0056478      17.064055      5.0463688    
   2388000   1.014738       16.806203      5.0829022    
   2389000   1.0101293      16.390086      5.0579785    
   2390000   1.0536902      16.792235      5.0678525    
   2391000   1.0096577      16.401297      5.07035      
   2392000   1.0164041      15.934472      5.0894254    
   2393000   0.95492644     16.330508      5.0892678    
   2394000   0.99646372     17.022025      5.0756679    
   2395000   1.0557598      16.584981      5.0972765    
   2396000   0.97884002     16.585035      5.1186399    
   2397000   1.0464977      16.797782      5.0667853    
   2398000   0.97918993     16.771941      5.0685894    
   2399000   1.044829       16.176207      5.1061698    
   2400000   1.0582752      16.491415      5.1061024    
   2401000   0.97926157     16.523593      5.0349039    
   2402000   0.99076365     17.077609      5.0569106    
   2403000   0.95137065     16.382467      5.0780252    
   2404000   0.96167424     16.723563      5.1039886    
   2405000   0.99541244     16.712915      5.0881149    
   2406000   0.98438178     17.121758      5.0637184    
   2407000   0.98740173     16.622236      5.0445104    
   2408000   1.0091102      16.701901      5.0525872    
   2409000   1.0334307      17.171793      5.1031523    
   2410000   1.0344965      16.550362      5.1309673    
   2411000   0.99864869     16.282354      5.0994379    
   2412000   1.0086578      16.79759       5.0929061    
   2413000   1.0549847      17.048429      5.0945062    
   2414000   0.98792193     16.696196      5.0706376    
   2415000   0.97003492     17.195578      5.065494     
   2416000   0.99657675     16.710351      5.0392524    
   2417000   0.97573827     16.959106      5.080593     
   2418000   1.0172337      16.735603      5.0886065    
   2419000   0.97837308     17.049221      5.0836097    
   2420000   1.0254384      16.910331      5.0977436    
   2421000   0.99437631     16.926658      5.0797683    
   2422000   1.0538555      16.95355       5.0593833    
   2423000   1.0291981      16.834108      5.0696459    
   2424000   0.98150061     16.872297      5.0800319    
   2425000   0.97661907     16.385445      5.1016815    
   2426000   1.0162177      16.76024       5.0990734    
   2427000   0.98604667     16.60767       5.0969172    
   2428000   1.0093166      16.964907      5.059641     
   2429000   1.0153634      16.362136      5.0815041    
   2430000   0.95404311     17.488456      5.1124494    
   2431000   1.0169783      16.592352      5.0666168    
   2432000   0.99293697     17.45625       5.0829473    
   2433000   1.0089167      16.427974      5.0704196    
   2434000   1.0384152      17.471949      5.0570853    
   2435000   1.0113733      16.457197      5.0667755    
   2436000   0.98151926     16.627113      5.0673413    
   2437000   0.99838236     16.31014       5.102385     
   2438000   0.99549006     16.923184      5.0925516    
   2439000   0.97308683     16.686382      5.0803669    
   2440000   1.0092655      17.122324      5.0928136    
   2441000   1.0159015      17.130482      5.0515466    
   2442000   0.9974328      17.165199      5.0718392    
   2443000   0.95820147     16.247407      5.0812951    
   2444000   0.99565456     16.54728       5.0889671    
   2445000   0.97289791     16.34898       5.0699794    
   2446000   1.0118325      16.97808       5.0695238    
   2447000   1.0035588      16.813969      5.0786976    
   2448000   0.95850514     16.806425      5.0686946    
   2449000   0.99375105     16.639334      5.0394956    
   2450000   0.96949457     17.227389      5.0941906    
   2451000   0.99667547     16.656481      5.0726885    
   2452000   0.98962028     16.030115      5.0668869    
   2453000   1.00896        16.285521      5.0610371    
   2454000   1.0141079      16.434023      5.0486157    
   2455000   1.0365769      16.29464       5.0729587    
   2456000   1.010523       16.693684      5.081159     
   2457000   1.0147655      16.927523      5.0269638    
   2458000   0.97967063     16.498951      5.0561393    
   2459000   1.0071045      16.449688      5.0603565    
   2460000   0.98771606     17.066637      5.0595661    
   2461000   0.99784526     17.102118      5.0938539    
   2462000   1.0079534      16.814113      5.0791316    
   2463000   0.97364725     16.517004      5.1109626    
   2464000   0.99485771     16.90912       5.0765666    
   2465000   0.99536844     16.769254      5.0539585    
   2466000   1.0055752      17.387517      5.0789533    
   2467000   0.99181857     16.737057      5.0776505    
   2468000   1.0043988      17.238859      5.0817592    
   2469000   1.0016547      16.722865      5.0674914    
   2470000   1.0001157      17.338843      5.0852168    
   2471000   1.048132       17.214859      5.0816913    
   2472000   0.99779949     17.344861      5.1047294    
   2473000   0.99985302     17.078053      5.0709856    
   2474000   1.0018083      17.032342      5.0550042    
   2475000   0.98471238     16.780304      5.0791445    
   2476000   0.9946208      16.873206      5.0594679    
   2477000   0.98418389     16.516993      5.0611642    
   2478000   0.98855127     16.3875        5.0824042    
   2479000   1.0227594      16.369445      5.1000847    
   2480000   0.99757002     16.954845      5.0741808    
   2481000   1.0044505      17.078968      5.0720497    
   2482000   1.0605255      16.913131      5.0811399    
   2483000   0.98038796     17.108316      5.0438953    
   2484000   0.98097887     16.622436      5.0328829    
   2485000   1.0083614      16.852311      5.0564183    
   2486000   1.0021792      17.237841      5.0864667    
   2487000   0.96568702     17.174242      5.0744121    
   2488000   0.99512245     16.415769      5.0600004    
   2489000   1.0034098      16.147386      5.0696358    
   2490000   1.0188337      16.856191      5.0752822    
   2491000   1.016993       16.813732      5.0974763    
   2492000   1.0192679      17.072613      5.0659351    
   2493000   0.9735068      16.790425      5.1097558    
   2494000   0.98418107     17.018456      5.0948447    
   2495000   1.0068115      16.641427      5.0904586    
   2496000   1.0219538      16.794423      5.104302     
   2497000   0.99543781     16.850714      5.0918472    
   2498000   0.9654346      16.995106      5.0945451    
   2499000   1.016983       17.046361      5.1032136    
   2500000   1.0117661      17.094929      5.1106431    
   2501000   0.97426309     16.80634       5.0808845    
   2502000   0.95340661     17.035886      5.0661416    
   2503000   0.96766659     16.425609      5.0786188    
   2504000   1.0047112      16.591616      5.0911759    
   2505000   0.96427346     16.382573      5.0531791    
   2506000   1.0403496      16.687193      5.0701638    
   2507000   1.0328372      17.108915      5.0771077    
   2508000   1.0133517      16.626792      5.0647158    
   2509000   1.0498384      16.254169      5.0738386    
   2510000   0.9793381      16.330498      5.1154094    
   2511000   1.0118218      17.194143      5.0771562    
   2512000   1.0230449      16.384478      5.106858     
   2513000   1.0051909      17.217287      5.1008677    
   2514000   1.0140791      16.734037      5.0756734    
   2515000   0.98435553     16.482108      5.0618874    
   2516000   1.0369619      16.920675      5.057978     
   2517000   0.9617493      16.436893      5.0720674    
   2518000   1.0128469      16.64757       5.0981334    
   2519000   1.0039432      16.874423      5.0632028    
   2520000   1.0375354      17.644751      5.0634579    
   2521000   1.0444545      17.039566      5.0412118    
   2522000   0.95857823     16.372473      5.066719     
   2523000   0.99933296     16.678083      5.086863     
   2524000   0.99358663     16.546298      5.0770626    
   2525000   0.99323951     17.097291      5.0769421    
   2526000   1.0046334      17.159926      5.0593304    
   2527000   1.0368952      16.84546       5.0608176    
   2528000   0.98573449     16.722764      5.0642548    
   2529000   1.0032304      16.64306       5.0432757    
   2530000   0.98686169     16.856809      5.0380665    
   2531000   1.0054724      16.423266      5.0643821    
   2532000   1.000885       16.555083      5.0598077    
   2533000   1.0096208      17.082552      5.072347     
   2534000   1.0286781      16.724658      5.1127478    
   2535000   1.0158736      16.939088      5.1146006    
   2536000   0.96958087     16.848414      5.0965133    
   2537000   0.99788653     16.973851      5.0572312    
   2538000   1.0086912      16.596456      5.1118903    
   2539000   0.97853564     16.95058       5.1003329    
   2540000   0.97729306     17.193399      5.1127861    
   2541000   0.94295359     16.43223       5.1071479    
   2542000   1.02763        17.257031      5.1262951    
   2543000   1.0241016      17.206158      5.0468755    
   2544000   1.0232159      16.885937      5.1061849    
   2545000   1.0023938      16.324704      5.1030417    
   2546000   0.94569057     16.921656      5.054221     
   2547000   0.95920208     16.317103      5.0677684    
   2548000   0.9984234      17.504304      5.0699823    
   2549000   0.97725388     16.936859      5.0312762    
   2550000   1.0061031      16.545919      5.0633682    
   2551000   1.0403979      17.57136       5.0935548    
   2552000   0.99449346     17.388402      5.1047534    
   2553000   0.97026539     16.972764      5.0829624    
   2554000   0.98473263     16.456755      5.1306629    
   2555000   0.97401509     16.762301      5.1003024    
   2556000   1.0130616      16.517135      5.1149199    
   2557000   1.0088532      16.533987      5.0811884    
   2558000   1.0051981      16.687324      5.0650412    
   2559000   1.0009936      16.678321      5.1080918    
   2560000   0.98738978     16.93151       5.0922278    
   2561000   0.96954979     16.681144      5.0971828    
   2562000   1.0035068      16.990094      5.0901634    
   2563000   1.0419943      16.511992      5.0916055    
   2564000   0.98593549     17.300176      5.0931987    
   2565000   0.99551846     16.701816      5.0819457    
   2566000   1.0077279      16.917518      5.0895965    
   2567000   0.99910129     16.469927      5.1279292    
   2568000   1.0723511      17.114414      5.1018397    
   2569000   0.98743479     17.116179      5.1049602    
   2570000   0.98229839     17.10991       5.0691575    
   2571000   0.98308083     15.987717      5.0846937    
   2572000   1.018895       16.785047      5.0501572    
   2573000   1.0036223      16.981066      5.0735464    
   2574000   0.98396559     16.987715      5.0894317    
   2575000   0.97510218     16.952382      5.1036471    
   2576000   1.0057166      16.635495      5.1019997    
   2577000   1.0346404      17.674221      5.0768069    
   2578000   0.97520636     16.448681      5.0831567    
   2579000   0.95819724     16.160323      5.0420571    
   2580000   0.99312444     16.58056       5.097765     
   2581000   1.0394244      16.548632      5.1442742    
   2582000   1.0520172      17.371188      5.089788     
   2583000   1.0215767      16.584473      5.1203462    
   2584000   0.98024731     16.509296      5.0508792    
   2585000   0.96843547     16.735957      5.0786837    
   2586000   0.97422015     17.243696      5.057414     
   2587000   0.98920793     16.961489      5.0875136    
   2588000   1.0233917      16.951258      5.101569     
   2589000   1.0631643      17.151981      5.0845829    
   2590000   1.0071946      16.636351      5.1113551    
   2591000   1.018571       16.769605      5.0989763    
   2592000   0.99801365     16.929884      5.098066     
   2593000   1.0306551      17.211404      5.0984085    
   2594000   0.9893877      16.696287      5.0870224    
   2595000   1.0215489      16.968736      5.1113905    
   2596000   0.98553962     17.022739      5.1039549    
   2597000   0.98270615     16.599732      5.101428     
   2598000   0.98275206     16.419487      5.1424494    
   2599000   0.97415161     16.805661      5.134036     
   2600000   0.99598434     16.928027      5.0666035    
   2601000   0.97962894     17.270398      5.0660679    
   2602000   1.0027371      16.182345      5.0799972    
   2603000   1.0061568      16.496829      5.094201     
   2604000   0.95998225     16.411826      5.1096002    
   2605000   0.96956079     16.888935      5.0892883    
   2606000   1.0256879      16.800198      5.0918633    
   2607000   0.96631389     16.658299      5.0553289    
   2608000   0.99492278     16.881203      5.0931097    
   2609000   0.9930159      16.610029      5.0738037    
   2610000   1.0410027      16.853848      5.0133028    
   2611000   1.0194006      17.234037      5.0487562    
   2612000   0.97195626     16.478982      5.0996949    
   2613000   0.99920031     16.093666      5.062737     
   2614000   1.0387531      17.006009      5.0835822    
   2615000   0.96816501     17.087827      5.0547022    
   2616000   0.98741907     16.982666      5.0620099    
   2617000   0.99584579     16.933158      5.0615417    
   2618000   0.99280838     17.020891      5.0911991    
   2619000   1.0095983      17.176411      5.0957812    
   2620000   1.0109679      16.755458      5.0907625    
   2621000   0.98587492     16.33189       5.0982125    
   2622000   0.98899361     16.912225      5.092848     
   2623000   0.98996524     17.182517      5.0280553    
   2624000   1.0290024      16.826516      5.0603158    
   2625000   1.0164442      16.52942       5.055775     
   2626000   1.0150977      16.34849       5.0732545    
   2627000   1.0044643      16.65253       5.0910849    
   2628000   1.0318899      17.075836      5.0807355    
   2629000   0.98019294     16.809583      5.0922265    
   2630000   1.032633       17.083149      5.0736906    
   2631000   1.0185351      16.924134      5.0331306    
   2632000   1.0562752      16.812696      5.0615945    
   2633000   1.0116308      16.498297      5.1004278    
   2634000   0.97205218     17.08302       5.0662817    
   2635000   1.0316547      17.198732      5.0532409    
   2636000   1.0527507      17.089931      5.0957157    
   2637000   1.0145579      16.541373      5.0840069    
   2638000   0.98123312     16.945299      5.0858545    
   2639000   1.0155335      16.552542      5.1093169    
   2640000   0.98676995     16.114974      5.1000036    
   2641000   0.9842262      16.663224      5.1235101    
   2642000   1.0084891      16.756086      5.0624358    
   2643000   1.0279704      16.702563      5.1016369    
   2644000   1.018932       16.655444      5.0850332    
   2645000   1.0329953      16.433117      5.098915     
   2646000   1.0131584      17.749499      5.1345065    
   2647000   1.0478989      17.229094      5.0914783    
   2648000   0.97738257     16.828521      5.1142295    
   2649000   1.0354328      16.609743      5.1227912    
   2650000   1.0086107      17.222307      5.0950901    
   2651000   1.0034506      16.308883      5.0815969    
   2652000   0.97522633     16.440545      5.0496405    
   2653000   1.0612473      17.171991      5.0835504    
   2654000   1.0224274      16.173351      5.0948867    
   2655000   0.97579883     15.867469      5.11979      
   2656000   1.0294027      16.805545      5.0778177    
   2657000   1.0166129      16.576002      5.0848994    
   2658000   0.99660272     16.317739      5.1209574    
   2659000   1.0239174      16.476947      5.0923219    
   2660000   1.0094279      17.149591      5.0999894    
   2661000   0.99489372     16.913787      5.1039735    
   2662000   1.0157882      16.145708      5.079481     
   2663000   1.0303662      16.860846      5.067347     
   2664000   1.0006863      16.374798      5.0823157    
   2665000   0.96497914     16.605163      5.0966771    
   2666000   1.0040135      16.982802      5.0677022    
   2667000   0.99780105     16.926347      5.0894065    
   2668000   1.0007855      16.860746      5.1100859    
   2669000   1.0100386      17.352592      5.0545506    
   2670000   0.99096528     16.927854      5.0798864    
   2671000   1.0068272      16.887801      5.081135     
   2672000   0.99907045     16.220016      5.0841771    
   2673000   0.96852709     16.655728      5.0978591    
   2674000   1.0003759      16.538876      5.0853943    
   2675000   1.0005577      16.795332      5.1353116    
   2676000   1.0042772      16.719833      5.1103899    
   2677000   1.0257791      16.72558       5.094167     
   2678000   1.0260424      17.26262       5.0485325    
   2679000   0.98489924     17.148779      5.0326727    
   2680000   0.98093589     15.863741      5.0552253    
   2681000   1.0326254      16.501602      5.0400425    
   2682000   1.0167171      16.844594      5.0741231    
   2683000   0.99630954     16.590299      5.0484015    
   2684000   1.0067937      16.981221      5.059866     
   2685000   0.98674649     16.698559      5.0824434    
   2686000   1.032126       17.460579      5.0733426    
   2687000   1.0283429      16.868824      5.0904155    
   2688000   0.97357909     16.204834      5.0966283    
   2689000   1.004869       16.848923      5.1181285    
   2690000   1.0297892      16.827252      5.0907946    
   2691000   1.0370443      16.948405      5.1040809    
   2692000   1.0229749      16.278114      5.1352548    
   2693000   0.97215974     16.505169      5.0856768    
   2694000   0.98198417     17.094866      5.0756797    
   2695000   1.0287765      16.34985       5.070312     
   2696000   1.0138866      16.908805      5.0797748    
   2697000   1.0056521      16.629923      5.0402935    
   2698000   1.0414755      17.69923       5.0541661    
   2699000   1.0439529      16.983168      5.0675812    
   2700000   0.96153916     16.905718      5.0842506    
   2701000   1.0001657      17.090914      5.0787391    
   2702000   1.006841       16.425313      5.1018909    
   2703000   1.0343875      17.042357      5.1388782    
   2704000   0.99035095     16.912321      5.0963557    
   2705000   0.9838961      16.715811      5.0965004    
   2706000   0.97755692     16.612642      5.0959196    
   2707000   0.9731342      16.291182      5.0674725    
   2708000   1.0186978      16.84446       5.0830541    
   2709000   1.0134647      16.192287      5.1109547    
   2710000   1.0218438      16.558065      5.0924837    
   2711000   0.97231709     16.261922      5.069088     
   2712000   0.97001211     16.783649      5.062917     
   2713000   0.97582039     16.023479      5.1151443    
   2714000   1.0078297      17.051759      5.1429661    
   2715000   1.035859       16.133578      5.1289134    
   2716000   1.0045461      16.388614      5.1436477    
   2717000   0.98255143     17.254024      5.0987408    
   2718000   0.98921789     16.604038      5.0766207    
   2719000   0.98496027     16.120052      5.1341273    
   2720000   1.0510196      16.909003      5.0875047    
   2721000   0.98872353     16.999621      5.13047      
   2722000   1.0113801      17.466262      5.1155433    
   2723000   0.98486587     16.833158      5.1265617    
   2724000   0.99947035     17.039035      5.0820399    
   2725000   1.0262882      16.962679      5.1081619    
   2726000   0.99820922     16.422593      5.1459406    
   2727000   1.0089256      16.862825      5.091737     
   2728000   0.99602991     16.823534      5.1281155    
   2729000   0.96085253     16.662323      5.10471      
   2730000   1.0348502      16.141529      5.0868669    
   2731000   0.97920717     16.527526      5.0785856    
   2732000   1.0331403      17.270434      5.1125049    
   2733000   0.95446803     16.887872      5.070404     
   2734000   0.99315145     17.062831      5.1152781    
   2735000   0.99701724     16.361674      5.0653865    
   2736000   1.0049725      16.504574      5.1538791    
   2737000   0.98761415     16.723059      5.1638303    
   2738000   0.9759123      16.560587      5.1314733    
   2739000   1.0045109      16.819961      5.0492077    
   2740000   1.0322585      16.74217       5.0328573    
   2741000   1.0079699      16.763129      5.0404616    
   2742000   0.98193194     16.549911      5.0321953    
   2743000   0.9987219      16.826492      5.0714202    
   2744000   1.0112876      16.735708      5.0447503    
   2745000   1.0133301      16.926171      5.0695986    
   2746000   0.97638447     16.102212      5.0821145    
   2747000   0.96641012     16.312055      5.0826566    
   2748000   0.96869911     16.318266      5.078252     
   2749000   1.0322939      16.943746      5.0682226    
   2750000   1.0145013      15.97016       5.0632158    
   2751000   1.0412442      16.892421      5.0618281    
   2752000   0.9739582      17.147934      5.0944608    
   2753000   0.95247072     17.206213      5.0669712    
   2754000   0.98255465     17.161491      5.0835159    
   2755000   0.99114765     16.957634      5.0302114    
   2756000   0.97527666     16.692094      5.0698007    
   2757000   0.9705334      16.625974      5.0802888    
   2758000   1.0513253      16.841338      5.0766121    
   2759000   0.98141382     17.102225      5.0332645    
   2760000   1.0543567      17.249774      5.095023     
   2761000   0.98342138     16.980766      5.0619789    
   2762000   0.98796212     16.270465      5.0788301    
   2763000   0.94723741     16.075222      5.1010426    
   2764000   0.95923264     16.921178      5.1241475    
   2765000   1.0119375      17.159078      5.1134843    
   2766000   1.0051152      16.630912      5.0835054    
   2767000   0.9955249      16.515073      5.0819157    
   2768000   1.0243449      17.197361      5.1113545    
   2769000   0.99555917     16.624359      5.0932184    
   2770000   1.0071212      17.071232      5.1353001    
   2771000   0.96317379     17.009057      5.1006888    
   2772000   1.0314998      16.769384      5.1307959    
   2773000   1.0152193      16.926079      5.1173223    
   2774000   1.0183535      17.171079      5.0989546    
   2775000   0.97561936     16.828183      5.0572614    
   2776000   1.0074379      16.611575      5.0700392    
   2777000   0.99370483     16.602695      5.083656     
   2778000   0.97223631     16.687         5.1183828    
   2779000   1.0122101      16.724861      5.1238757    
   2780000   1.020296       16.816576      5.1292293    
   2781000   1.0432108      16.450323      5.079727     
   2782000   0.95913712     16.443384      5.0969644    
   2783000   0.9835271      17.24345       5.1182184    
   2784000   0.99294108     16.294375      5.046154     
   2785000   1.0011179      16.788467      5.0794748    
   2786000   0.96367599     16.112185      5.1222006    
   2787000   1.0025763      16.675715      5.1384022    
   2788000   1.0140553      16.996845      5.1351718    
   2789000   1.021338       16.844371      5.1361288    
   2790000   0.97792606     16.581303      5.0941653    
   2791000   1.0062974      16.694511      5.0332314    
   2792000   0.96749422     17.187087      5.0784896    
   2793000   0.9615271      16.679311      5.0922696    
   2794000   1.0117244      16.542175      5.0889154    
   2795000   0.96475544     16.617629      5.0974783    
   2796000   0.98965893     16.816422      5.0948126    
   2797000   1.0004741      16.602365      5.1189331    
   2798000   1.0340804      16.778709      5.1405923    
   2799000   1.0017135      16.977875      5.0798805    
   2800000   0.98150618     17.071351      5.1063156    
   2801000   1.0003017      16.398742      5.0923488    
   2802000   1.0367837      15.946617      5.1031896    
   2803000   0.94462701     16.246344      5.1421618    
   2804000   1.0142868      16.93013       5.1081245    
   2805000   1.0348019      16.798193      5.1359071    
   2806000   0.99572024     16.704705      5.1258833    
   2807000   0.9826535      17.423918      5.091007     
   2808000   1.0031071      16.923277      5.1086512    
   2809000   0.99648228     16.971354      5.104422     
   2810000   1.0194819      16.59868       5.1459712    
   2811000   0.99433835     16.756172      5.0841874    
   2812000   1.0111116      16.576865      5.0856681    
   2813000   1.0087789      16.290732      5.0706495    
   2814000   1.0417132      16.390278      5.0674536    
   2815000   0.98794683     16.406439      5.0854869    
   2816000   0.9617409      16.337547      5.0844987    
   2817000   1.0026714      16.857389      5.111572     
   2818000   0.97920171     16.88815       5.129571     
   2819000   1.0243748      17.105023      5.1302411    
   2820000   0.9801042      16.016544      5.1140011    
   2821000   0.96461341     16.061157      5.0970097    
   2822000   1.0101519      17.163753      5.0739449    
   2823000   0.97622752     16.640281      5.0750154    
   2824000   0.99584901     16.955326      5.11725      
   2825000   0.9484158      17.113474      5.0845993    
   2826000   1.0058497      16.898036      5.0984518    
   2827000   1.0150424      16.708493      5.0809673    
   2828000   1.0711071      17.112972      5.0669124    
   2829000   1.039166       16.607482      5.0941834    
   2830000   0.99819801     16.731191      5.0956694    
   2831000   0.98694678     16.626346      5.0932894    
   2832000   0.97814228     16.462421      5.0996922    
   2833000   1.0112937      17.429648      5.0678736    
   2834000   0.99969056     17.289134      5.0976964    
   2835000   1.048564       16.689541      5.0997399    
   2836000   1.045678       17.201707      5.1090063    
   2837000   1.0213147      17.582383      5.0999768    
   2838000   0.97322582     16.826209      5.095993     
   2839000   0.99226605     16.896443      5.1042599    
   2840000   0.94478548     17.128632      5.0872254    
   2841000   1.0269219      17.008976      5.0805703    
   2842000   1.0217977      16.959777      5.1106412    
   2843000   1.0242121      16.866429      5.1065753    
   2844000   0.96722649     16.331184      5.0899567    
   2845000   0.98818444     16.350891      5.1139186    
   2846000   1.0002596      16.876359      5.0681156    
   2847000   0.99153692     16.88669       5.0853161    
   2848000   1.0052989      17.404975      5.0588717    
   2849000   0.96467973     16.484843      5.0649453    
   2850000   0.96599269     17.123795      5.0519652    
   2851000   1.0109884      17.141719      5.0983478    
   2852000   0.95604412     16.304466      5.0881577    
   2853000   0.97874968     17.348283      5.1114943    
   2854000   0.97172876     16.576033      5.1352539    
   2855000   0.98808562     16.84095       5.1156412    
   2856000   1.0211971      15.936612      5.1088643    
   2857000   0.97728005     16.385813      5.0907127    
   2858000   0.98692023     17.030441      5.1027241    
   2859000   1.0455838      16.625186      5.0971032    
   2860000   0.97151912     16.359199      5.1033938    
   2861000   0.97336916     16.270038      5.107095     
   2862000   1.0140175      16.491678      5.1082286    
   2863000   1.0208411      16.680386      5.1038165    
   2864000   1.0505658      16.773835      5.1382748    
   2865000   0.95546474     16.364258      5.0930444    
   2866000   1.0102369      16.216125      5.0900936    
   2867000   0.95471658     16.343036      5.0711861    
   2868000   0.98937284     16.524427      5.0626157    
   2869000   0.97450107     16.668528      5.1054091    
   2870000   1.0054205      16.903552      5.0627016    
   2871000   0.98933092     16.336964      5.092125     
   2872000   1.0207402      16.519384      5.0707367    
   2873000   1.0035276      16.909489      5.0832226    
   2874000   1.0268458      16.922793      5.0863817    
   2875000   0.99567312     16.979231      5.0883667    
   2876000   1.0087661      16.729074      5.0898744    
   2877000   1.011292       16.424962      5.0882316    
   2878000   0.99620053     16.74018       5.0341122    
   2879000   0.96769019     16.543151      5.0726471    
   2880000   0.94969216     16.905322      5.0674647    
   2881000   0.99509447     16.821542      5.0751633    
   2882000   1.0119971      16.584448      5.0629516    
   2883000   0.96891199     16.729271      5.0852228    
   2884000   0.9641745      16.971978      5.1026948    
   2885000   1.0004197      16.696538      5.1089505    
   2886000   0.99543834     17.248084      5.0554489    
   2887000   1.0264892      17.058405      5.1073217    
   2888000   0.96912291     16.490491      5.0651528    
   2889000   1.0409636      17.230619      5.0755742    
   2890000   0.96554684     16.552397      5.1217312    
   2891000   1.0040703      16.724625      5.0820078    
   2892000   0.99112221     17.023229      5.0950075    
   2893000   0.99963424     16.866192      5.1003612    
   2894000   0.99478036     16.678527      5.0612821    
   2895000   1.001424       16.61355       5.0749692    
   2896000   0.96838686     17.063308      5.0418684    
   2897000   0.96889486     16.359349      5.1296504    
   2898000   1.0071113      16.944593      5.1355898    
   2899000   0.96160054     16.455663      5.0816966    
   2900000   0.9745583      16.337254      5.1124405    
   2901000   0.98548004     16.731359      5.0813114    
   2902000   0.97679424     16.650047      5.0835248    
   2903000   0.94868927     17.131228      5.0972517    
   2904000   0.97742915     16.385375      5.0644503    
   2905000   1.0003091      17.0724        5.0714749    
   2906000   1.0251248      16.817121      5.1188604    
   2907000   1.0183401      16.863003      5.1418938    
   2908000   0.99650346     16.933978      5.147103     
   2909000   1.019992       16.936973      5.0941008    
   2910000   1.0343964      16.948909      5.072568     
   2911000   1.0201646      16.482078      5.0661989    
   2912000   0.94781732     16.679443      5.0804549    
   2913000   0.93237531     16.805104      5.0755237    
   2914000   1.0054567      16.639275      5.0942271    
   2915000   0.99226447     16.933206      5.0880044    
   2916000   0.98430058     16.019329      5.0996448    
   2917000   1.0049407      16.535257      5.1231719    
   2918000   1.0493612      17.400552      5.1329715    
   2919000   1.0265862      16.654556      5.1268978    
   2920000   1.0092589      16.519298      5.1457244    
   2921000   1.0173873      17.11087       5.1419569    
   2922000   0.98470136     16.926466      5.0947894    
   2923000   1.0283329      16.779618      5.0890737    
   2924000   1.0296018      16.582619      5.1130322    
   2925000   1.0056841      16.71604       5.0838018    
   2926000   1.0370068      17.209173      5.1151946    
   2927000   1.0214973      16.541281      5.1267359    
   2928000   0.98593871     16.678245      5.0760084    
   2929000   0.94302893     17.085887      5.0465458    
   2930000   0.98645592     16.33686       5.080776     
   2931000   0.97537477     16.670056      5.0821166    
   2932000   0.99288694     16.262769      5.0886193    
   2933000   0.97296823     16.388741      5.0914136    
   2934000   1.0145088      16.217253      5.0881784    
   2935000   1.002523       17.324469      5.064231     
   2936000   1.0080188      16.428145      5.0577582    
   2937000   1.0067905      17.225082      5.0688742    
   2938000   1.003094       16.714892      5.0564022    
   2939000   0.98688139     16.98471       5.0589518    
   2940000   0.97063206     16.449667      5.0750632    
   2941000   1.0200032      16.541193      5.0851438    
   2942000   1.0076196      16.768612      5.1076526    
   2943000   0.99454023     16.968477      5.1094513    
   2944000   1.0185753      17.027242      5.0999234    
   2945000   0.99317742     16.88055       5.0946873    
   2946000   0.99749082     16.998803      5.0972663    
   2947000   1.0592804      16.476115      5.097385     
   2948000   1.0503014      17.433491      5.0541738    
   2949000   1.0125643      16.40346       5.074743     
   2950000   0.95944123     16.512784      5.0986078    
   2951000   0.99791827     16.431007      5.0665909    
   2952000   0.99939299     16.903257      5.066323     
   2953000   1.0200573      16.775532      5.0658867    
   2954000   0.94846344     16.41418       5.1055337    
   2955000   1.0237548      16.744725      5.0730577    
   2956000   0.96488444     16.549553      5.116151     
   2957000   0.9759534      16.668207      5.1252279    
   2958000   0.99804063     16.727814      5.0837609    
   2959000   0.92996003     16.916461      5.1122101    
   2960000   1.0020647      17.207519      5.0838487    
   2961000   0.97362007     16.493937      5.0473055    
   2962000   0.96219964     15.948016      5.1011332    
   2963000   1.0379422      16.507131      5.0883926    
   2964000   1.0174638      16.869716      5.1087574    
   2965000   0.96968398     17.168677      5.0968873    
   2966000   0.9894073      16.980469      5.0979884    
   2967000   0.97832571     16.650724      5.0712888    
   2968000   0.99391937     16.406964      5.0527999    
   2969000   1.005406       16.795527      5.065828     
   2970000   0.98906582     16.785188      5.0807295    
   2971000   1.0346036      16.802546      5.1249579    
   2972000   1.0044727      16.790154      5.1229073    
   2973000   1.0144702      16.674343      5.1402846    
   2974000   0.99038571     16.992688      5.0701197    
   2975000   1.0353658      17.497135      5.0964123    
   2976000   1.006936       16.784073      5.1209446    
   2977000   1.036115       16.890131      5.0749323    
   2978000   1.0078468      16.950813      5.0691064    
   2979000   1.023385       16.15877       5.0901804    
   2980000   0.98834357     16.507875      5.0770779    
   2981000   1.0230832      16.479944      5.081903     
   2982000   0.99744717     17.24786       5.1087586    
   2983000   1.0118911      16.933631      5.093977     
   2984000   0.99350813     16.77308       5.0599773    
   2985000   1.0245578      16.65614       5.0827703    
   2986000   0.99608279     17.357083      5.0726368    
   2987000   1.0088996      16.534165      5.0625564    
   2988000   1.0124684      16.39052       5.0950694    
   2989000   1.0044864      17.47749       5.063925     
   2990000   0.99812145     16.593527      5.0902459    
   2991000   0.97856705     16.783022      5.0816886    
   2992000   1.0248181      16.49764       5.0851122    
   2993000   1.0018247      16.889977      5.0832362    
   2994000   1.0089921      17.129515      5.0387819    
   2995000   0.998193       17.122158      5.0489668    
   2996000   1.0186769      16.794612      5.0763991    
   2997000   1.0500791      16.865962      5.0564546    
   2998000   1.0005095      16.746639      5.0752503    
   2999000   0.97556758     16.755524      5.0642447    
   3000000   0.99488834     17.358959      5.0739602    
   3001000   0.99494775     17.03617       5.0263152    
   3002000   0.98283059     16.518947      5.082893     
   3003000   0.97933488     16.982411      5.085051     
   3004000   1.0205118      17.172649      5.0570017    
   3005000   1.0169447      17.292413      5.0342085    
   3006000   1.008163       16.149171      5.1117063    
   3007000   0.96877109     16.595588      5.0755007    
   3008000   1.0137727      17.057983      5.0832276    
   3009000   0.96136039     17.167895      5.0798112    
   3010000   1.0624463      16.520694      5.0483402    
   3011000   1.0184155      17.154168      5.0415069    
   3012000   0.97177085     16.709576      5.0537856    
   3013000   0.95855103     16.673674      5.0842139    
   3014000   0.96465986     16.781252      5.0883419    
   3015000   1.0122666      16.870082      5.0872151    
   3016000   0.95913108     16.970244      5.0830294    
   3017000   1.0160103      16.40796       5.0732284    
   3018000   1.0130194      16.33331       5.0784987    
   3019000   0.99671561     17.078533      5.1027289    
   3020000   1.0172902      16.886759      5.0781055    
   3021000   0.99500738     16.827732      5.0708377    
   3022000   1.0145225      16.446931      5.1057683    
   3023000   0.95261849     16.284126      5.1051668    
   3024000   1.0336321      16.608573      5.0653984    
   3025000   0.97264718     16.623721      5.0828574    
   3026000   0.99242034     17.271857      5.0477986    
   3027000   0.98760707     16.951976      5.0672271    
   3028000   0.98722341     16.287759      5.0706367    
   3029000   0.96652134     16.254348      5.057618     
   3030000   0.96998942     16.920851      5.1012826    
   3031000   0.99097156     17.112152      5.0713049    
   3032000   1.0690287      16.988753      5.0643105    
   3033000   0.99731676     16.722788      5.0376684    
   3034000   1.0280242      16.564655      5.0795493    
   3035000   1.0180797      16.980954      5.0822984    
   3036000   0.99981692     16.767315      5.0809494    
   3037000   0.9908552      16.15664       5.0973933    
   3038000   0.99233255     17.330516      5.0621414    
   3039000   1.0106322      17.046603      5.0696739    
   3040000   1.0501722      17.387867      5.0899593    
   3041000   0.97553661     17.303691      5.0945059    
   3042000   1.0294863      16.75605       5.090742     
   3043000   0.99650322     17.278352      5.1078189    
   3044000   0.96449701     16.393002      5.1205805    
   3045000   1.0200435      16.846439      5.1246537    
   3046000   0.96133667     16.687298      5.1353187    
   3047000   1.0343856      17.179419      5.0937221    
   3048000   1.0422065      16.412283      5.1357337    
   3049000   1.0158621      17.477194      5.0620275    
   3050000   0.97404165     17.265468      5.114276     
   3051000   0.99980886     17.159514      5.0867016    
   3052000   0.96731428     16.870433      5.118942     
   3053000   1.0238329      17.0406        5.1191586    
   3054000   1.0042375      17.201865      5.1169013    
   3055000   1.0274886      16.768399      5.0968447    
   3056000   1.0203486      17.468087      5.098008     
   3057000   0.99619826     16.684423      5.0795302    
   3058000   0.97751525     16.232947      5.0475402    
   3059000   1.0031774      16.732909      5.0771602    
   3060000   0.98220233     17.126466      5.0857286    
   3061000   1.0289615      17.435713      5.0349099    
   3062000   1.019486       16.534444      5.0705055    
   3063000   1.0274463      17.485457      5.0884774    
   3064000   0.95509315     16.853719      5.0743775    
   3065000   0.99990111     16.708718      5.1092006    
   3066000   0.97780667     16.434243      5.1344494    
   3067000   1.0019156      16.217569      5.1002093    
   3068000   0.96549726     17.20081       5.090016     
   3069000   0.98669922     16.863987      5.1000766    
   3070000   1.0585366      17.274108      5.1122713    
   3071000   1.0232662      16.867867      5.1205016    
   3072000   0.9974005      16.751952      5.0712393    
   3073000   0.97349158     17.07992       5.1213772    
   3074000   0.97748104     17.15642       5.0611497    
   3075000   1.0161837      16.728886      5.0779736    
   3076000   0.96167905     16.953534      5.0551695    
   3077000   0.99604112     16.700998      5.0730435    
   3078000   0.99780252     16.859247      5.0847432    
   3079000   1.0312756      17.404901      5.0877702    
   3080000   0.97272523     16.254622      5.1014815    
   3081000   0.97637643     16.624831      5.0823454    
   3082000   0.92955761     17.082238      5.0689044    
   3083000   0.99580858     16.908095      5.1199209    
   3084000   0.99720505     17.047053      5.102049     
   3085000   0.98683995     16.316315      5.1271356    
   3086000   1.0126286      17.083687      5.0891046    
   3087000   1.0397377      16.959555      5.1237075    
   3088000   1.0226477      16.755104      5.0766959    
   3089000   1.0254005      17.039604      5.0694708    
   3090000   1.0070799      16.868674      5.0761312    
   3091000   0.9656472      16.017788      5.0928942    
   3092000   1.0037107      17.314146      5.0782837    
   3093000   0.9743178      17.169843      5.0733885    
   3094000   1.0187987      17.480778      5.1016274    
   3095000   0.99828483     16.545588      5.0789649    
   3096000   0.99125128     16.903752      5.0790475    
   3097000   1.0260208      16.834831      5.0843228    
   3098000   1.0076511      16.31702       5.0643207    
   3099000   0.96478339     17.433553      5.0486063    
   3100000   1.053079       16.466616      5.0564178    
   3101000   0.99061195     16.978383      5.037792     
   3102000   0.99297771     16.437778      5.0878399    
   3103000   1.0149972      16.792331      5.0652891    
   3104000   0.97146217     16.797262      5.0950135    
   3105000   1.0034907      17.0954        5.086708     
   3106000   0.98619019     16.578575      5.0915899    
   3107000   1.0615293      17.120617      5.0883215    
   3108000   0.99703189     17.426348      5.0765416    
   3109000   1.0062358      16.708076      5.089211     
   3110000   1.0036148      16.115498      5.090946     
   3111000   0.98499874     16.91842       5.0841203    
   3112000   1.0606918      17.022194      5.0786278    
   3113000   0.97198512     16.813064      5.0766765    
   3114000   0.97258556     16.186001      5.1110264    
   3115000   1.0355999      16.831498      5.099896     
   3116000   1.0012736      16.944878      5.1019572    
   3117000   1.0110463      16.348977      5.0514339    
   3118000   1.01671        16.758458      5.0627347    
   3119000   1.0187654      16.793098      5.0604742    
   3120000   0.97756383     17.044384      5.1048525    
   3121000   1.0376366      16.83016       5.0943783    
   3122000   0.97459637     16.502521      5.1050506    
   3123000   1.0125774      17.175036      5.0756409    
   3124000   0.97629948     16.517071      5.0779468    
   3125000   0.99522671     16.643478      5.0696356    
   3126000   0.97366205     17.005361      5.1056604    
   3127000   1.0242935      16.394078      5.0853868    
   3128000   1.0304119      16.414341      5.0846365    
   3129000   0.99164332     17.038625      5.0764012    
   3130000   1.0347417      17.328558      5.0644717    
   3131000   1.0198139      17.25686       5.0741447    
   3132000   0.99936785     16.623814      5.1088775    
   3133000   1.004735       16.892264      5.0918921    
   3134000   1.0321247      16.666649      5.1080585    
   3135000   0.98642292     16.781354      5.1237999    
   3136000   1.0036502      16.817102      5.1205124    
   3137000   0.98903324     16.403685      5.0985454    
   3138000   1.0330986      16.972444      5.0890924    
   3139000   1.0008709      17.229479      5.0957338    
   3140000   1.0028734      17.330556      5.089683     
   3141000   0.97355284     16.410839      5.0784396    
   3142000   1.0302997      16.619755      5.0832231    
   3143000   0.95682307     17.046398      5.0846068    
   3144000   1.0070572      16.92094       5.0736543    
   3145000   0.96842822     16.52375       5.1259069    
   3146000   1.0343602      16.744607      5.0893196    
   3147000   0.95787799     17.046825      5.0662448    
   3148000   1.0075793      16.617634      5.0824676    
   3149000   0.97570452     16.793025      5.1209453    
   3150000   1.0376623      16.959078      5.111193     
   3151000   1.0025378      17.010987      5.0831178    
   3152000   1.032005       17.286635      5.0658071    
   3153000   1.0132789      17.249553      5.1009608    
   3154000   0.98192245     16.458356      5.0961078    
   3155000   0.9355841      16.801174      5.0962892    
   3156000   0.99176519     16.46653       5.0875127    
   3157000   1.0015498      16.532886      5.1252919    
   3158000   0.99372049     16.63652       5.119765     
   3159000   1.0472827      17.432732      5.1154749    
   3160000   1.0412998      16.732139      5.0742831    
   3161000   0.99289517     16.845918      5.1080544    
   3162000   0.99925034     16.400018      5.1130225    
   3163000   1.029345       17.32717       5.0604421    
   3164000   0.9737279      17.221227      5.1026033    
   3165000   1.0184043      16.638781      5.1318947    
   3166000   0.99672085     16.503665      5.1246875    
   3167000   0.96726206     16.284973      5.1338298    
   3168000   0.99040659     16.734138      5.1044274    
   3169000   1.023799       16.395891      5.0758828    
   3170000   0.99737576     16.331466      5.1047171    
   3171000   1.0311327      17.160736      5.0743076    
   3172000   1.0007382      16.65777       5.075191     
   3173000   0.99138079     16.821431      5.1013011    
   3174000   1.0068285      16.412772      5.1225986    
   3175000   0.99667983     17.043056      5.1104846    
   3176000   0.93031577     17.009267      5.0799704    
   3177000   1.0267854      17.692034      5.0883358    
   3178000   0.95570791     16.708963      5.0759282    
   3179000   1.0132599      16.721419      5.0813421    
   3180000   1.0074657      17.058472      5.0705016    
   3181000   1.0570779      16.789068      5.0733742    
   3182000   1.0202193      16.322102      5.0893037    
   3183000   1.0213804      16.973033      5.0729567    
   3184000   1.0161586      16.884452      5.1051423    
   3185000   0.97398033     17.20115       5.0171255    
   3186000   0.97636834     16.326773      5.0710399    
   3187000   1.0002667      16.816357      5.0558493    
   3188000   1.025161       16.956594      5.0802235    
   3189000   1.0107374      17.077165      5.057059     
   3190000   1.0302905      16.847535      5.0797259    
   3191000   0.99038521     16.910151      5.0685337    
   3192000   0.98976601     16.620568      5.0479143    
   3193000   0.97849139     17.167315      5.0476594    
   3194000   1.0288275      16.764539      5.08235      
   3195000   1.0122831      16.635565      5.0642579    
   3196000   0.99195495     16.737261      5.0848493    
   3197000   0.97971805     17.185899      5.0890723    
   3198000   1.0072193      16.681072      5.0951897    
   3199000   1.0188243      16.909688      5.0441299    
   3200000   0.97296258     17.177065      5.058529     
   3201000   0.99195751     16.491563      5.1033368    
   3202000   0.98871832     16.783621      5.0861676    
   3203000   1.0234923      16.853468      5.0908129    
   3204000   0.98685408     17.476489      5.098721     
   3205000   1.053245       17.24541       5.0817589    
   3206000   0.99180695     17.017615      5.0740878    
   3207000   1.0266391      17.082382      5.0959932    
   3208000   0.99542926     16.80357       5.0861383    
   3209000   0.98311653     16.631113      5.0755072    
   3210000   1.0063426      16.659449      5.088192     
   3211000   0.93699511     16.447276      5.0554021    
   3212000   1.046854       17.220076      5.0881784    
   3213000   1.0243965      17.318052      5.0393409    
   3214000   1.0178666      16.692776      5.0519402    
   3215000   1.0427675      17.080031      5.0491714    
   3216000   0.98959018     16.772739      5.0629796    
   3217000   1.042376       16.771808      5.0878338    
   3218000   0.98634387     16.556017      5.0848652    
   3219000   1.0260979      16.862372      5.0798675    
   3220000   0.99446805     16.312961      5.0946389    
   3221000   0.95043406     15.969632      5.0776916    
   3222000   1.0180528      16.848286      5.0710606    
   3223000   0.94033954     16.580431      5.0835566    
   3224000   0.9933379      16.721533      5.1367524    
   3225000   0.9686122      16.53149       5.1090654    
   3226000   0.97610451     16.82847       5.0937147    
   3227000   0.98627524     16.594512      5.0808412    
   3228000   0.97666046     16.892184      5.1001903    
   3229000   1.0315431      16.210123      5.0728872    
   3230000   0.99134828     16.270126      5.1063031    
   3231000   1.0358446      16.51149       5.0842369    
   3232000   1.0301831      16.459773      5.1257396    
   3233000   0.99641512     17.463585      5.1015623    
   3234000   0.9786827      16.989221      5.1032996    
   3235000   0.98503378     16.937031      5.1186758    
   3236000   1.0106296      17.260064      5.1229565    
   3237000   1.0236167      16.326481      5.0958603    
   3238000   0.96877274     16.727872      5.1275584    
   3239000   1.0125998      16.380492      5.0881617    
   3240000   1.0358262      17.286893      5.0739585    
   3241000   0.99789573     16.080715      5.1194504    
   3242000   0.9715013      16.539864      5.1073004    
   3243000   1.0246864      17.335564      5.0846388    
   3244000   1.0312637      16.962201      5.0908197    
   3245000   1.0427451      16.596352      5.1144997    
   3246000   0.97690337     16.970011      5.051937     
   3247000   1.0310713      17.188094      5.0980556    
   3248000   1.0284761      17.347907      5.0905224    
   3249000   0.96275179     16.656171      5.1557662    
   3250000   1.0067399      16.503682      5.0496341    
   3251000   0.98355622     16.650925      5.0604009    
   3252000   0.99894827     16.784609      5.0991249    
   3253000   1.0096563      16.374909      5.0926417    
   3254000   1.0136798      16.603828      5.0656108    
   3255000   0.97654801     17.419533      5.1097138    
   3256000   1.0050884      16.413775      5.0859156    
   3257000   1.0277435      17.040771      5.0596562    
   3258000   1.0497621      16.747126      5.0721201    
   3259000   0.98420371     16.581111      5.056052     
   3260000   1.0282801      17.018428      5.0298736    
   3261000   0.97351282     16.559856      5.0617019    
   3262000   1.0270971      16.938679      5.0479191    
   3263000   1.019823       16.88214       5.0274481    
   3264000   1.0359946      16.447638      5.0710552    
   3265000   1.0313928      17.27971       5.0496735    
   3266000   0.99040464     17.04003       5.0536095    
   3267000   1.014454       16.836505      5.0400965    
   3268000   1.0069896      16.481218      5.0916942    
   3269000   0.96322776     16.016467      5.074049     
   3270000   0.99202643     16.971705      5.0834585    
   3271000   0.99139984     16.81454       5.0898346    
   3272000   1.0418259      16.846192      5.1135856    
   3273000   0.93888425     15.957005      5.0691081    
   3274000   1.0238199      17.089625      5.1007754    
   3275000   1.0082392      16.955135      5.0842516    
   3276000   1.0342922      16.8974        5.0956435    
   3277000   0.98851003     16.738822      5.102772     
   3278000   0.99193303     16.555686      5.0863381    
   3279000   1.0225495      16.464159      5.0970448    
   3280000   0.99794901     16.585647      5.0853908    
   3281000   0.94126566     16.775992      5.0670341    
   3282000   1.0204306      16.538136      5.1063929    
   3283000   1.0136376      16.980696      5.0503905    
   3284000   1.0284716      17.078128      5.1316412    
   3285000   0.97611794     16.595522      5.0976942    
   3286000   0.97833786     17.081153      5.0659564    
   3287000   0.98542425     16.467705      5.1211101    
   3288000   0.96922149     16.532598      5.0914563    
   3289000   0.97134428     16.156657      5.1024722    
   3290000   1.0367568      16.774737      5.086864     
   3291000   1.0065337      16.315677      5.0578923    
   3292000   0.99100004     16.831914      5.0437167    
   3293000   0.98539281     16.820167      5.0849105    
   3294000   1.0150063      16.767046      5.1259357    
   3295000   0.9787217      16.245135      5.1138119    
   3296000   1.0148522      17.211882      5.0945156    
   3297000   0.96171768     16.552627      5.087272     
   3298000   1.0017614      16.452703      5.0779413    
   3299000   0.95702056     16.551312      5.1068841    
   3300000   0.99059247     16.647217      5.0599521    
   3301000   1.0141221      16.421591      5.0599522    
   3302000   1.0141862      16.702619      5.0825653    
   3303000   0.97725715     17.088121      5.0757694    
   3304000   1.0002993      16.630829      5.088101     
   3305000   0.9778067      16.953053      5.0731058    
   3306000   0.98147255     17.005395      5.0752444    
   3307000   1.0278138      16.996863      5.0879777    
   3308000   1.0453149      16.540028      5.112461     
   3309000   0.98419902     16.813266      5.0945892    
   3310000   0.97171497     16.497568      5.0781463    
   3311000   1.0064154      16.725805      5.0932669    
   3312000   1.0023634      17.040422      5.0938376    
   3313000   1.0146113      16.78394       5.1139888    
   3314000   1.0030499      17.112704      5.0857376    
   3315000   0.97024892     16.965046      5.0880877    
   3316000   1.0098852      17.024461      5.0620292    
   3317000   1.0070866      16.610566      5.0605355    
   3318000   0.99573703     16.715584      5.1142248    
   3319000   1.0342233      16.589088      5.084719     
   3320000   0.98719165     16.041421      5.0556337    
   3321000   1.0159915      16.483943      5.0527825    
   3322000   1.0021169      16.841445      5.0633512    
   3323000   0.97605658     17.073919      5.0754882    
   3324000   1.0035641      16.895653      5.0678795    
   3325000   0.97614815     17.275078      5.0874916    
   3326000   0.99806107     17.110584      5.0966856    
   3327000   0.95535077     17.070129      5.0637583    
   3328000   1.0319003      16.505614      5.0985482    
   3329000   1.0378566      16.799671      5.1299046    
   3330000   0.99433871     16.503135      5.0727704    
   3331000   0.98757553     16.924696      5.0573716    
   3332000   0.96582009     17.222895      5.0870835    
   3333000   0.95014399     16.526879      5.1104676    
   3334000   1.0046042      16.613469      5.1007307    
   3335000   1.0049635      16.442545      5.0812503    
   3336000   1.0028728      16.507384      5.1158796    
   3337000   1.0202295      17.031302      5.0969274    
   3338000   0.97845599     17.047433      5.0535251    
   3339000   0.9920428      15.94513       5.0954166    
   3340000   1.0123582      16.763129      5.1017777    
   3341000   0.99662759     17.014742      5.0630851    
   3342000   1.0509677      16.570844      5.071841     
   3343000   1.0018308      16.473139      5.0883758    
   3344000   0.9923044      16.802566      5.0710812    
   3345000   0.95349851     16.401288      5.0702226    
   3346000   0.97693095     16.793326      5.0605706    
   3347000   1.0019105      17.059702      5.083898     
   3348000   0.99549617     16.640209      5.064398     
   3349000   1.0335337      17.250862      5.1276477    
   3350000   1.0038452      16.715758      5.100654     
   3351000   1.0089326      16.789226      5.0677614    
   3352000   0.98199254     17.26321       5.0860657    
   3353000   1.0307994      16.716214      5.0759192    
   3354000   1.0084483      17.261358      5.0791832    
   3355000   1.0173653      17.250754      5.0805145    
   3356000   1.0281036      17.242024      5.0883165    
   3357000   0.98745967     16.507314      5.102821     
   3358000   1.0033826      16.70846       5.0861093    
   3359000   0.96867112     16.966855      5.1310794    
   3360000   0.98778726     16.481041      5.1152283    
   3361000   1.0144445      16.758065      5.1026638    
   3362000   1.0097915      17.192298      5.090699     
   3363000   1.006132       16.428665      5.1631937    
   3364000   0.99892835     16.903031      5.1065877    
   3365000   0.97694609     16.794805      5.1116962    
   3366000   1.0180747      16.562875      5.0951761    
   3367000   0.98043886     16.934622      5.0798078    
   3368000   1.016578       17.103009      5.082132     
   3369000   1.0316082      16.603673      5.0668942    
   3370000   1.0184566      16.924094      5.0758904    
   3371000   0.97983019     16.910051      5.0690899    
   3372000   1.0045015      16.756622      5.0539285    
   3373000   0.97450568     16.673897      5.0670427    
   3374000   0.95815605     16.565698      5.0779099    
   3375000   1.0278045      16.931459      5.0743191    
   3376000   1.029748       16.718671      5.076095     
   3377000   0.99267857     16.553351      5.0711601    
   3378000   1.0577478      17.062518      5.0342901    
   3379000   1.0258765      17.563435      5.0326554    
   3380000   1.0366008      16.972478      5.0591286    
   3381000   1.0545391      16.988371      5.0816063    
   3382000   1.0360967      16.759442      5.0770417    
   3383000   1.0005968      17.075505      5.0863514    
   3384000   1.016942       16.831771      5.0914771    
   3385000   1.0090348      16.001468      5.0668648    
   3386000   0.98043312     16.348124      5.0968696    
   3387000   0.98616785     16.754217      5.0767329    
   3388000   0.97518839     16.921433      5.0342517    
   3389000   1.0014757      16.718578      5.0470002    
   3390000   1.0059254      16.502031      5.0521156    
   3391000   1.0018903      16.670728      5.0665961    
   3392000   1.0161944      16.823254      5.0494605    
   3393000   1.0193218      17.06862       5.0780761    
   3394000   1.0289882      16.640375      5.0898611    
   3395000   1.0399181      16.472828      5.0701838    
   3396000   1.0166894      17.076996      5.080644     
   3397000   0.99586829     16.690866      5.0838092    
   3398000   1.0229574      17.320038      5.0722279    
   3399000   1.0126424      17.276288      5.0369738    
   3400000   1.0019609      16.528463      5.0529437    
   3401000   0.99473827     16.500073      5.0728393    
   3402000   0.98950458     16.705398      5.1158452    
   3403000   1.0609589      16.757745      5.0980149    
   3404000   0.97061789     16.571225      5.1015738    
   3405000   1.0276028      16.710361      5.0938366    
   3406000   0.98491289     16.734685      5.0546513    
   3407000   1.0015126      17.021389      5.0690021    
   3408000   1.0036811      16.946123      5.0523746    
   3409000   0.95437068     16.860397      5.0566215    
   3410000   1.055067       16.858461      5.0591231    
   3411000   1.0560805      17.198315      5.0702122    
   3412000   0.99447542     17.285754      5.078416     
   3413000   0.99764241     16.788296      5.072323     
   3414000   0.97240094     16.166277      5.0556934    
   3415000   1.0002772      16.220529      5.0655478    
   3416000   0.9523402      16.829721      5.0943743    
   3417000   1.0514777      16.758141      5.0579145    
   3418000   0.9599959      16.767427      5.0411831    
   3419000   0.9757834      17.056152      5.0568985    
   3420000   0.95137413     16.569205      5.1007521    
   3421000   0.96692411     17.748664      5.0731093    
   3422000   1.0068454      16.765142      5.0629727    
   3423000   1.029274       16.361801      5.0864633    
   3424000   0.96687059     16.372144      5.1069951    
   3425000   1.0422484      16.874841      5.0922079    
   3426000   1.0351142      16.954081      5.1014118    
   3427000   1.0043623      17.006763      5.0740759    
   3428000   1.0057346      16.662057      5.0890436    
   3429000   1.0052106      16.880423      5.0744774    
   3430000   0.99950648     17.079199      5.0600964    
   3431000   1.0187431      16.895658      5.0986345    
   3432000   1.016152       16.747174      5.0665149    
   3433000   0.98084741     16.663677      5.0798161    
   3434000   0.95223872     16.262646      5.0800431    
   3435000   1.0215528      17.18178       5.075227     
   3436000   1.0204539      16.697377      5.0814779    
   3437000   0.98239659     16.546522      5.1060729    
   3438000   0.9815814      16.564213      5.145197     
   3439000   0.99893894     16.986027      5.1238202    
   3440000   1.0099305      16.504067      5.1110749    
   3441000   1.0280342      16.559403      5.1184744    
   3442000   1.0039122      16.384021      5.1311847    
   3443000   1.0154148      16.677918      5.1018548    
   3444000   1.0026899      17.112527      5.1412205    
   3445000   1.0137476      17.065185      5.0782098    
   3446000   0.99595314     16.969985      5.1428026    
   3447000   0.99821803     17.082121      5.0953163    
   3448000   1.0355535      16.433824      5.0958352    
   3449000   0.97519603     16.839633      5.112046     
   3450000   1.0235358      16.972783      5.0826957    
   3451000   1.0039984      16.920751      5.0694793    
   3452000   1.0039523      17.057385      5.0945847    
   3453000   0.97921026     16.279207      5.0841193    
   3454000   1.004403       16.46161       5.0539359    
   3455000   0.97142595     16.602502      5.0794031    
   3456000   1.0152889      16.869227      5.1641799    
   3457000   1.0148313      16.401571      5.0980859    
   3458000   1.0002255      16.712503      5.0698199    
   3459000   1.0273088      16.567273      5.0660815    
   3460000   1.0329879      16.792026      5.1352942    
   3461000   1.0472677      16.755166      5.1011588    
   3462000   0.963985       16.426164      5.1607374    
   3463000   0.96817116     16.933869      5.0912674    
   3464000   1.0013961      17.36256       5.0589806    
   3465000   1.0008472      17.140159      5.0631793    
   3466000   1.0019975      16.575341      5.0989469    
   3467000   0.9916111      17.321952      5.0883601    
   3468000   0.99605372     17.032219      5.1136884    
   3469000   1.0491154      16.614322      5.1257687    
   3470000   0.97774227     17.021217      5.1474117    
   3471000   1.0096023      16.500011      5.1241718    
   3472000   0.97154236     17.046521      5.1329693    
   3473000   0.99139755     17.085978      5.0978997    
   3474000   0.99513538     16.435174      5.1374287    
   3475000   1.0031057      16.744431      5.1573913    
   3476000   0.9963739      16.58181       5.122217     
   3477000   1.0162095      17.160608      5.1048619    
   3478000   0.99037825     16.995752      5.0980831    
   3479000   1.0081945      16.119505      5.1022318    
   3480000   0.99285181     17.05877       5.119144     
   3481000   1.016864       16.392617      5.1044001    
   3482000   0.98368058     16.975014      5.0694396    
   3483000   0.9978582      16.280002      5.1384053    
   3484000   1.0254078      16.531453      5.1324496    
   3485000   1.0267081      16.47108       5.1652088    
   3486000   1.0166737      16.529426      5.0894048    
   3487000   1.0257321      17.292042      5.0907536    
   3488000   0.99039623     16.435639      5.0788767    
   3489000   0.97988939     16.210093      5.1251167    
   3490000   0.95679768     16.930566      5.0708778    
   3491000   0.97479874     17.05393       5.1082992    
   3492000   1.0252388      17.536093      5.0937892    
   3493000   1.0070098      16.509358      5.1024212    
   3494000   0.98842052     17.285691      5.0915176    
   3495000   1.0126312      17.55095       5.0898326    
   3496000   0.97808124     17.12041       5.0724556    
   3497000   0.97684295     17.093599      5.0759974    
   3498000   1.0274053      16.978704      5.0694957    
   3499000   1.0240573      16.572251      5.0614016    
   3500000   0.96571234     16.583708      5.0727576    
   3501000   0.99715567     16.702179      5.081263     
   3502000   0.97868689     16.651064      5.1025726    
   3503000   0.96633953     16.388466      5.0964112    
   3504000   1.0036547      16.48701       5.0722319    
   3505000   0.99743827     16.621003      5.1224071    
   3506000   1.0102603      16.981225      5.1282059    
   3507000   1.0259809      16.317247      5.0824988    
   3508000   1.0110246      17.128692      5.0766633    
   3509000   0.93524262     16.677935      5.0770092    
   3510000   0.98341032     16.574233      5.1069534    
   3511000   0.979222       16.911498      5.0665086    
   3512000   1.0139497      16.882154      5.0828301    
   3513000   1.0133421      17.130327      5.1319107    
   3514000   1.0002259      16.153631      5.104792     
   3515000   1.0514721      16.65592       5.1291864    
   3516000   1.05199        16.934448      5.0802793    
   3517000   0.96211311     16.694488      5.0731901    
   3518000   0.97774678     16.796445      5.0618482    
   3519000   0.9953757      16.882925      5.0579292    
   3520000   1.0239947      17.285645      5.0726449    
   3521000   0.9789853      16.577346      5.0739725    
   3522000   0.99497634     17.444417      5.0732205    
   3523000   1.0074557      16.764944      5.0643363    
   3524000   1.0398712      17.124397      5.0444205    
   3525000   1.0019721      16.593365      5.0710165    
   3526000   1.0174785      16.800247      5.0733094    
   3527000   0.97579836     16.804035      5.0569377    
   3528000   1.0346332      17.484341      5.0402336    
   3529000   0.98137773     16.595181      5.09749      
   3530000   1.01023        17.521553      5.0868975    
   3531000   0.98011156     16.569052      5.0617558    
   3532000   0.96043315     16.640199      5.0644008    
   3533000   0.97208179     16.60203       5.1006668    
   3534000   1.0135872      16.865786      5.0449419    
   3535000   1.013185       16.847313      5.0505974    
   3536000   0.9985354      17.220773      5.1008602    
   3537000   1.0012674      16.410049      5.1103209    
   3538000   0.95160257     16.463736      5.0925859    
   3539000   0.9856078      16.752613      5.1149834    
   3540000   0.99767059     16.776919      5.0949189    
   3541000   0.94595031     17.046284      5.089571     
   3542000   1.0002749      16.983809      5.0842423    
   3543000   0.98434615     16.674996      5.0896727    
   3544000   1.0121601      16.012798      5.1166533    
   3545000   1.0009723      16.424435      5.0694457    
   3546000   1.028648       17.420587      5.0734273    
   3547000   0.98530183     16.379887      5.1028042    
   3548000   1.0325049      16.729776      5.0580572    
   3549000   1.025767       17.252104      5.0799623    
   3550000   0.98649183     16.814957      5.0624767    
   3551000   0.99647685     17.121006      5.0786548    
   3552000   1.0615312      16.36833       5.0942517    
   3553000   0.98663011     16.45982       5.0922181    
   3554000   1.0527599      16.696836      5.0563389    
   3555000   0.96733404     16.470838      5.1255619    
   3556000   0.99331348     16.758165      5.0442629    
   3557000   0.97077294     16.646615      5.0714212    
   3558000   1.0518226      17.211266      5.0513876    
   3559000   0.98522392     16.669275      5.0732009    
   3560000   1.0132395      16.996156      5.0431344    
   3561000   1.006824       16.870944      5.0964771    
   3562000   1.0053437      16.845614      5.0873879    
   3563000   1.0259924      16.686178      5.0924563    
   3564000   1.0047887      16.991929      5.0766024    
   3565000   0.98399061     16.958088      5.093517     
   3566000   0.97657216     16.569022      5.0648832    
   3567000   0.98439282     17.073938      5.0582894    
   3568000   0.98432767     16.96914       5.0686502    
   3569000   0.99604305     16.42617       5.0533539    
   3570000   0.973339       16.631588      5.0683074    
   3571000   0.99055151     16.472978      5.0392822    
   3572000   1.0096529      16.831455      5.0439464    
   3573000   0.9898327      17.068388      5.0501934    
   3574000   1.0009784      17.00021       5.0319315    
   3575000   0.99733573     17.033273      5.0664621    
   3576000   0.96940305     16.843211      5.084665     
   3577000   0.97564707     16.265082      5.1165429    
   3578000   0.97689528     16.336651      5.1553869    
   3579000   0.98104178     16.339866      5.1137103    
   3580000   0.98819323     15.982751      5.0840659    
   3581000   1.0043606      16.535819      5.0800042    
   3582000   0.96361359     16.415857      5.0935971    
   3583000   1.009818       16.636986      5.0732492    
   3584000   0.97023337     16.765854      5.0698662    
   3585000   0.97977366     16.323485      5.0662565    
   3586000   0.94631248     16.760563      5.0450134    
   3587000   0.9543975      17.260881      5.0656411    
   3588000   1.0708224      17.243709      5.0973238    
   3589000   0.99876737     16.566308      5.1262313    
   3590000   1.0326808      16.728554      5.0854851    
   3591000   1.0019596      17.280713      5.1019085    
   3592000   0.99617748     16.318353      5.0902412    
   3593000   1.0051767      17.067754      5.1056689    
   3594000   0.9757014      16.874778      5.0798194    
   3595000   1.0529616      17.214675      5.0916472    
   3596000   1.0522302      17.130827      5.1060808    
   3597000   0.9664676      16.92367       5.087022     
   3598000   0.98121248     16.892002      5.1100195    
   3599000   0.99830611     17.120639      5.1080542    
   3600000   0.96623252     16.889325      5.140732     
   3601000   0.99714397     16.884633      5.1302693    
   3602000   0.98340335     16.439419      5.0873636    
   3603000   0.98191128     17.054747      5.0764839    
   3604000   1.0238231      16.931231      5.0774103    
   3605000   1.0083869      16.39379       5.1031731    
   3606000   1.0289895      17.30353       5.0927077    
   3607000   0.99172889     16.99224       5.0914406    
   3608000   1.0305979      16.568428      5.0825825    
   3609000   1.0224725      16.717832      5.0292221    
   3610000   0.97290064     17.342765      5.0432706    
   3611000   1.0030543      16.643453      5.0404115    
   3612000   1.0287152      16.259935      5.0828767    
   3613000   1.0288805      16.510067      5.0668546    
   3614000   1.0038533      17.369236      5.0780526    
   3615000   0.93273317     16.428597      5.070584     
   3616000   0.9999651      16.582742      5.1062255    
   3617000   0.98732587     16.679723      5.0756832    
   3618000   0.99801526     17.100596      5.0717471    
   3619000   0.96603705     17.109538      5.0868949    
   3620000   1.0335184      16.766131      5.0706712    
   3621000   1.0044492      16.191202      5.0938321    
   3622000   1.0102344      16.352271      5.0755962    
   3623000   1.0100525      17.085107      5.0621475    
   3624000   1.0044955      16.90038       5.0674563    
   3625000   1.0320746      16.300255      5.0984133    
   3626000   0.97100437     16.919164      5.0984215    
   3627000   1.0179931      17.446093      5.0858029    
   3628000   1.0028049      16.859012      5.0773358    
   3629000   0.97142622     16.287776      5.1174289    
   3630000   0.99345816     16.338103      5.0702334    
   3631000   0.95596381     17.060172      5.092342     
   3632000   1.0117302      16.302642      5.0845351    
   3633000   0.9578608      17.080234      5.0600504    
   3634000   1.0164979      16.597838      5.0695999    
   3635000   1.0130158      16.828076      5.093013     
   3636000   1.0404738      17.090033      5.0664645    
   3637000   0.99091803     17.265204      5.0669666    
   3638000   0.98152741     16.626205      5.0649813    
   3639000   0.98392888     16.772639      5.0660473    
   3640000   1.0224048      16.966771      5.1012672    
   3641000   0.99339076     17.139039      5.094098     
   3642000   0.97131423     17.244372      5.0508009    
   3643000   1.0080507      16.893979      5.111052     
   3644000   0.98105987     16.558515      5.0618379    
   3645000   1.0234205      16.728414      5.0771153    
   3646000   0.9959521      17.002701      5.0665462    
   3647000   1.009588       16.343476      5.0771009    
   3648000   1.0258304      17.191992      5.0552579    
   3649000   1.0012229      16.977868      5.0599261    
   3650000   1.0016343      17.009531      5.0736646    
   3651000   1.0062902      16.508825      5.1153162    
   3652000   1.0070283      16.852731      5.0798809    
   3653000   1.0081964      16.504316      5.0789857    
   3654000   0.97559338     16.644672      5.0529232    
   3655000   0.9868637      17.346605      5.0379951    
   3656000   1.0008117      16.792003      5.0833413    
   3657000   0.99531752     16.646133      5.0745583    
   3658000   0.99477046     16.157193      5.0807222    
   3659000   1.0124498      17.348983      5.0651427    
   3660000   1.0075692      17.219673      5.0618503    
   3661000   0.99631731     16.875653      5.0899804    
   3662000   0.97557302     16.299964      5.1072973    
   3663000   1.0117004      16.097497      5.0428656    
   3664000   0.960823       16.397174      5.0534771    
   3665000   0.99782692     16.847591      5.0670831    
   3666000   0.94389091     16.261536      5.0695753    
   3667000   0.99309309     16.401514      5.0472398    
   3668000   0.98224497     16.764311      5.0495374    
   3669000   1.0171897      17.038252      5.0540737    
   3670000   0.98771575     16.279164      5.0736075    
   3671000   1.0521371      16.923614      5.0879937    
   3672000   1.0336679      16.389681      5.0612638    
   3673000   0.96025175     16.85306       5.0611141    
   3674000   1.003213       16.789482      5.0788971    
   3675000   1.0290884      17.014937      5.0719357    
   3676000   0.97927274     16.636212      5.1402803    
   3677000   0.98479546     16.469353      5.0924372    
   3678000   0.96144639     15.857031      5.1143583    
   3679000   1.0099156      16.883211      5.0894979    
   3680000   0.99083309     16.609544      5.0575321    
   3681000   0.96472764     16.968299      5.107538     
   3682000   0.97413001     16.707642      5.0878719    
   3683000   0.98786828     16.861287      5.0532097    
   3684000   1.0179106      17.451         5.0674088    
   3685000   0.99216583     16.779226      5.0955584    
   3686000   0.99052101     16.315564      5.0775147    
   3687000   0.97764386     17.045571      5.0820308    
   3688000   1.0087914      16.248028      5.0617634    
   3689000   0.98982076     16.842686      5.0577489    
   3690000   1.0076368      17.112176      5.0594191    
   3691000   1.0072984      16.606881      5.0679538    
   3692000   1.067891       16.45443       5.0866578    
   3693000   0.99447306     16.997295      5.082084     
   3694000   0.98456928     16.333288      5.0963432    
   3695000   0.9868615      16.892988      5.0600726    
   3696000   1.0184275      16.916884      5.0615779    
   3697000   0.95746092     16.821503      5.0389176    
   3698000   1.0473338      16.933141      5.0633403    
   3699000   0.99187987     16.197772      5.0791124    
   3700000   0.96015567     16.586881      5.081085     
   3701000   1.0056922      16.328641      5.0990811    
   3702000   0.95268056     16.779339      5.0761836    
   3703000   1.0014397      17.167656      5.0609345    
   3704000   0.97626338     16.387205      5.0880352    
   3705000   0.98654912     16.34333       5.0994708    
   3706000   0.99098498     16.519161      5.0928803    
   3707000   0.97051482     16.875816      5.0915432    
   3708000   0.99006775     17.423202      5.0486335    
   3709000   1.0017631      16.906463      5.0802978    
   3710000   0.97253367     16.372794      5.0876053    
   3711000   0.9803035      16.096728      5.0824122    
   3712000   1.0073737      16.807367      5.0975139    
   3713000   1.0351259      17.411386      5.0798985    
   3714000   1.0221781      16.782884      5.0914936    
   3715000   1.0057908      16.979965      5.0470743    
   3716000   0.98381614     17.207493      5.0761895    
   3717000   0.99439371     16.040514      5.0504131    
   3718000   0.99664537     16.706809      5.0634221    
   3719000   1.0280822      17.50875       5.072233     
   3720000   0.97210302     15.757558      5.0805564    
   3721000   0.95566061     17.047327      5.0492936    
   3722000   0.9604914      17.111717      5.0218694    
   3723000   1.0287722      17.22543       5.0522926    
   3724000   0.99327846     16.912235      5.0776488    
   3725000   0.97804743     16.382346      5.0691536    
   3726000   0.94369505     16.533392      5.1012942    
   3727000   0.98971661     16.486489      5.0909374    
   3728000   1.0028268      16.837491      5.0524591    
   3729000   0.99760575     17.494412      5.0620788    
   3730000   1.0270162      16.145045      5.1175506    
   3731000   1.0082416      16.452977      5.1024087    
   3732000   0.99162085     16.632903      5.0936256    
   3733000   1.0351035      16.152019      5.0865915    
   3734000   1.0053898      16.223021      5.0627612    
   3735000   1.0048613      16.710861      5.06915      
   3736000   1.0016671      16.817515      5.0953391    
   3737000   0.95794901     16.735561      5.0958313    
   3738000   1.0291662      16.645633      5.0849812    
   3739000   1.0321413      16.932138      5.0492701    
   3740000   0.98126624     16.569519      5.1357913    
   3741000   0.99985456     17.535976      5.0793086    
   3742000   1.036385       16.862595      5.113369     
   3743000   0.98078209     17.327371      5.0694291    
   3744000   1.0122314      17.078226      5.0512318    
   3745000   1.0505735      16.773732      5.0574042    
   3746000   1.0058779      17.06176       5.0678799    
   3747000   1.0004905      16.344741      5.0739129    
   3748000   0.96369251     16.803085      5.1142713    
   3749000   1.0184048      16.892823      5.0661852    
   3750000   0.98309901     16.845983      5.1239255    
   3751000   1.009152       16.398518      5.0968446    
   3752000   0.98387429     16.770978      5.1348469    
   3753000   0.98225725     16.662377      5.0815223    
   3754000   1.0015443      17.281567      5.0928181    
   3755000   0.97545633     17.056132      5.0826825    
   3756000   1.0032013      17.029066      5.0917329    
   3757000   1.0162269      16.562865      5.0794101    
   3758000   1.0096734      16.317194      5.031607     
   3759000   1.0119349      16.904585      5.0773009    
   3760000   1.0254042      16.70988       5.0869085    
   3761000   0.97311234     16.421286      5.1009007    
   3762000   0.99585452     16.082676      5.0930776    
   3763000   0.98181947     17.112776      5.0847764    
   3764000   1.0148131      16.824283      5.0535355    
   3765000   0.93679979     16.978553      5.0536354    
   3766000   1.0386385      16.701853      5.0631462    
   3767000   1.0338338      17.151151      5.0822776    
   3768000   0.97281245     16.953168      5.0685678    
   3769000   0.97013263     16.768533      5.0875695    
   3770000   1.0155876      16.737296      5.135752     
   3771000   1.0253969      16.23731       5.1085326    
   3772000   1.0091152      16.702146      5.0750945    
   3773000   1.005539       16.631076      5.1035886    
   3774000   0.96621442     16.521128      5.0603224    
   3775000   1.0081551      16.706656      5.0704846    
   3776000   1.0246397      16.771407      5.1175062    
   3777000   0.99920626     16.884694      5.0939361    
   3778000   0.96697657     16.924947      5.1070486    
   3779000   1.0070442      16.97838       5.106247     
   3780000   1.0213167      17.184828      5.0522223    
   3781000   1.0189077      16.386832      5.0794758    
   3782000   1.0133448      16.701349      5.1190248    
   3783000   0.997593       16.818729      5.0918217    
   3784000   1.0429977      17.079601      5.0893425    
   3785000   1.0223643      17.169513      5.0739865    
   3786000   1.0157569      16.164071      5.1087027    
   3787000   1.0016661      17.013858      5.0775111    
   3788000   0.98833822     15.976418      5.1128535    
   3789000   0.98225062     16.80294       5.0938715    
   3790000   0.99049556     16.972443      5.0707016    
   3791000   0.98002973     16.478217      5.0946429    
   3792000   1.0040341      16.485019      5.1040073    
   3793000   0.96057861     16.419879      5.0675905    
   3794000   0.99363585     16.762088      5.0899473    
   3795000   0.96258189     16.788251      5.1132735    
   3796000   1.0578661      16.726458      5.1047524    
   3797000   0.99008885     16.676578      5.1133789    
   3798000   0.92235751     16.257621      5.1022941    
   3799000   1.0242875      16.484795      5.0943395    
   3800000   1.016085       16.925298      5.0927125    
   3801000   0.99828191     16.985023      5.1012682    
   3802000   0.98128314     16.693859      5.0843053    
   3803000   0.98282587     16.623551      5.0929213    
   3804000   1.011914       16.599677      5.106071     
   3805000   0.99491304     16.796612      5.0969742    
   3806000   0.98474194     17.051919      5.0710052    
   3807000   1.0609397      16.184948      5.0693088    
   3808000   0.98723174     17.101029      5.0960406    
   3809000   0.97663647     17.027631      5.0935928    
   3810000   1.049686       16.688815      5.0585087    
   3811000   0.99532167     16.893029      5.0666846    
   3812000   0.97938552     17.40278       5.0990993    
   3813000   0.98490224     16.555085      5.0530517    
   3814000   1.0673781      16.91958       5.0779405    
   3815000   1.0380398      16.485901      5.0867023    
   3816000   1.0215336      17.0472        5.0694675    
   3817000   1.0281005      16.38856       5.0754154    
   3818000   0.99256241     16.916739      5.0620996    
   3819000   0.99694005     16.300622      5.0585517    
   3820000   1.0206185      17.28728       5.0718555    
   3821000   1.0326954      16.562107      5.0458853    
   3822000   1.0109933      16.698299      5.0430687    
   3823000   0.93491892     16.894572      5.0521459    
   3824000   0.98921643     16.940953      5.0603763    
   3825000   0.98826667     16.613987      5.0893139    
   3826000   1.0177815      16.871883      5.0832226    
   3827000   0.98238746     16.402603      5.0648216    
   3828000   0.98858918     16.395939      5.0733141    
   3829000   0.98994687     16.907885      5.0929813    
   3830000   0.97172439     16.946346      5.0684723    
   3831000   0.97692311     16.924137      5.0697828    
   3832000   0.96831788     16.786536      5.0656653    
   3833000   0.97294999     17.638786      5.0615373    
   3834000   1.0470616      16.777512      5.1076463    
   3835000   1.000211       16.476142      5.0499532    
   3836000   0.99452064     16.749193      5.0813625    
   3837000   1.02414        17.058022      5.0800814    
   3838000   1.0377119      16.467361      5.0665971    
   3839000   0.97298686     16.105071      5.0742243    
   3840000   0.99660076     16.349504      5.0696143    
   3841000   0.98926981     16.517813      5.0525394    
   3842000   0.99971533     16.329842      5.1136128    
   3843000   1.0048028      16.781372      5.0819249    
   3844000   1.0107822      16.666434      5.0988801    
   3845000   1.0401452      16.434221      5.0873745    
   3846000   1.0000791      16.619875      5.0967565    
   3847000   0.98720435     16.878787      5.0665994    
   3848000   1.0116356      16.544151      5.1042331    
   3849000   1.0518376      17.213049      5.10861      
   3850000   1.0483859      16.676222      5.0923356    
   3851000   0.97978316     16.851818      5.1037708    
   3852000   0.97113478     17.010955      5.0791854    
   3853000   1.0069521      16.705134      5.1255016    
   3854000   1.0671716      16.550962      5.1350911    
   3855000   0.99461534     16.448085      5.1138609    
   3856000   1.008048       16.466367      5.0948015    
   3857000   0.96675755     16.447931      5.0956895    
   3858000   1.009731       17.281333      5.0897415    
   3859000   1.0276669      16.653382      5.0898118    
   3860000   0.98910417     16.751802      5.0788197    
   3861000   1.009346       16.87254       5.0695152    
   3862000   0.99443542     16.683896      5.0446621    
   3863000   1.0133632      16.062166      5.0773982    
   3864000   0.9876287      16.995733      5.0836879    
   3865000   0.98688941     16.635372      5.063178     
   3866000   1.0282021      17.534996      5.06907      
   3867000   0.98689542     15.988593      5.0861201    
   3868000   0.98884037     17.174343      5.0905023    
   3869000   1.0025263      16.797168      5.0900187    
   3870000   0.98861998     16.806432      5.0767273    
   3871000   1.0125143      17.053606      5.0858203    
   3872000   1.034648       17.493203      5.0661028    
   3873000   0.99013938     16.999508      5.0554135    
   3874000   1.0277235      16.096267      5.0901881    
   3875000   1.0266096      17.194612      5.0909745    
   3876000   0.98560676     16.598324      5.0981268    
   3877000   0.97446893     16.659969      5.0599097    
   3878000   0.96940288     16.781135      5.1011996    
   3879000   1.0000767      17.135355      5.0873297    
   3880000   1.0209951      17.164657      5.0725077    
   3881000   1.0553218      16.875906      5.076334     
   3882000   1.0155354      16.671801      5.0832554    
   3883000   0.95839063     16.22588       5.0863596    
   3884000   0.99295926     16.754198      5.1366372    
   3885000   1.009667       16.93201       5.1259656    
   3886000   0.97688404     15.739971      5.1339602    
   3887000   0.991104       16.925613      5.0909931    
   3888000   1.0061417      16.142307      5.1126921    
   3889000   1.0106517      17.178321      5.0754093    
   3890000   0.99404598     16.272243      5.1142454    
   3891000   0.99952734     16.924406      5.0812872    
   3892000   0.98024151     16.834154      5.0663272    
   3893000   0.98508876     16.689698      5.0435882    
   3894000   0.97122297     16.86255       5.060683     
   3895000   1.0249189      17.094403      5.0597645    
   3896000   1.0031623      16.616603      5.0715799    
   3897000   0.98786676     16.420523      5.0704765    
   3898000   0.97868646     17.095287      5.0929825    
   3899000   0.9992219      16.960719      5.0772935    
   3900000   1.0219136      17.252539      5.0945404    
   3901000   1.0042143      16.838679      5.1088923    
   3902000   1.0268         16.470424      5.0829931    
   3903000   0.92549346     16.086603      5.0970806    
   3904000   1.0149256      16.695339      5.0734951    
   3905000   1.0119238      16.490765      5.101502     
   3906000   0.9821659      16.852963      5.0770197    
   3907000   0.97244704     17.106559      5.0738523    
   3908000   1.0096222      16.239706      5.0833029    
   3909000   0.98199936     17.138414      5.0567438    
   3910000   0.98524781     16.636739      5.094967     
   3911000   1.0193256      16.793217      5.0732447    
   3912000   1.0074963      16.877566      5.0770622    
   3913000   0.98474603     16.214905      5.1176941    
   3914000   0.97694008     16.98673       5.0914024    
   3915000   0.98182454     15.986147      5.103818     
   3916000   1.0219142      16.540801      5.0925778    
   3917000   0.96348584     16.320667      5.1082004    
   3918000   0.95580918     17.397772      5.0922189    
   3919000   0.99774025     17.07947       5.0953773    
   3920000   1.0387535      16.476328      5.0874612    
   3921000   0.95777982     16.358203      5.1175783    
   3922000   0.99664923     17.071708      5.0849316    
   3923000   0.99269736     16.747163      5.0914648    
   3924000   1.0432513      16.880564      5.0933768    
   3925000   1.0389558      16.58459       5.1130472    
   3926000   0.98061114     16.69051       5.0729305    
   3927000   0.97214247     16.552094      5.0754474    
   3928000   1.0420443      17.236624      5.1377464    
   3929000   1.0229268      16.851205      5.0753718    
   3930000   1.0271286      16.676808      5.0852313    
   3931000   0.96564571     16.753346      5.0733466    
   3932000   1.0244474      16.733673      5.1053714    
   3933000   0.99626385     16.731866      5.0832944    
   3934000   0.97622694     16.476646      5.1026995    
   3935000   0.96725592     16.622247      5.1135794    
   3936000   0.98788022     16.609236      5.0810202    
   3937000   0.98539313     16.720935      5.0886847    
   3938000   1.0285527      16.916598      5.0954343    
   3939000   0.99474991     17.114495      5.075437     
   3940000   0.9792171      16.991183      5.0513743    
   3941000   1.0459313      16.717418      5.0906731    
   3942000   1.0030083      17.253327      5.0562504    
   3943000   0.97080255     16.759908      5.078644     
   3944000   1.0115453      16.427202      5.0873937    
   3945000   0.95770195     16.765018      5.0559282    
   3946000   1.0020813      16.953356      5.0770108    
   3947000   0.95960296     17.033433      5.0344427    
   3948000   1.0168424      16.5591        5.0849588    
   3949000   0.99141535     16.663673      5.0693392    
   3950000   1.0029221      16.543327      5.072229     
   3951000   1.0146667      17.547756      5.0948373    
   3952000   0.97723214     16.651188      5.0574977    
   3953000   1.006765       16.902305      5.1168913    
   3954000   1.0671945      17.151806      5.0725238    
   3955000   0.99043871     16.998394      5.0821475    
   3956000   1.0034881      16.628182      5.0632982    
   3957000   0.99419617     17.356803      5.0673812    
   3958000   1.0518536      16.559196      5.0884291    
   3959000   1.0059483      16.829607      5.0884492    
   3960000   1.0261882      17.19898       5.0742579    
   3961000   0.9962243      16.973058      5.1170681    
   3962000   0.99461309     16.740719      5.0972163    
   3963000   0.99504783     17.024759      5.1120693    
   3964000   1.0273169      16.794272      5.0781005    
   3965000   0.98104774     16.738943      5.1180143    
   3966000   0.97727174     16.414208      5.0786259    
   3967000   0.99451472     16.634575      5.0705038    
   3968000   0.99833501     16.07741       5.0709336    
   3969000   0.98370429     16.741217      5.0629407    
   3970000   0.92725774     16.59723       5.0952953    
   3971000   1.038947       16.836073      5.0551856    
   3972000   0.97532154     16.111561      5.0437709    
   3973000   1.0597143      16.550534      5.1400987    
   3974000   1.0200109      16.146462      5.1023365    
   3975000   0.99364908     16.539819      5.1029413    
   3976000   1.0271829      17.252812      5.1458044    
   3977000   1.0111976      16.801924      5.1102839    
   3978000   0.98151301     17.456118      5.0576393    
   3979000   1.0261945      16.628182      5.058624     
   3980000   1.0032175      16.517247      5.0927203    
   3981000   1.0148879      16.807957      5.0872048    
   3982000   0.97135009     16.865671      5.0507279    
   3983000   0.9526378      17.034844      5.0850601    
   3984000   1.0141276      16.7117        5.0532961    
   3985000   0.99716672     16.586848      5.0560878    
   3986000   0.97140216     16.5338        5.0914934    
   3987000   0.9726623      16.839643      5.0469642    
   3988000   0.97183734     17.14826       5.0347365    
   3989000   0.95975973     16.771647      5.0635797    
   3990000   1.0279175      17.297267      5.0404681    
   3991000   1.006198       16.685276      5.0353999    
   3992000   0.99813018     16.41885       5.0663302    
   3993000   0.97996324     16.181073      5.082436     
   3994000   1.0104676      16.471679      5.0768249    
   3995000   1.0146776      16.803656      5.0649631    
   3996000   1.0123767      16.49104       5.1022466    
   3997000   0.98207298     16.118777      5.098286     
   3998000   1.0393356      16.973793      5.0638753    
   3999000   1.0314359      16.802306      5.0683161    
   4000000   1.0322602      16.300761      5.0728472    
   4001000   1.0084094      16.606482      5.0812751    
   4002000   1.0226796      16.495339      5.0827579    
   4003000   1.0296         17.004578      5.0856434    
   4004000   0.98791643     17.30646       5.0430559    
   4005000   1.0479321      17.020574      5.0461844    
   4006000   0.97540023     16.916379      5.0650176    
   4007000   0.9452756      16.071189      5.0807003    
   4008000   1.0501832      17.179182      5.1049332    
   4009000   0.99832659     16.546151      5.0853963    
   4010000   0.99296417     16.487534      5.0820602    
   4011000   0.97966487     16.756555      5.0696572    
   4012000   0.97790998     16.865772      5.0662573    
   4013000   1.037389       16.773036      5.074303     
   4014000   0.96983057     16.725369      5.0961029    
   4015000   0.9967318      16.279247      5.088687     
   4016000   0.99250316     16.316356      5.0500048    
   4017000   0.9858265      16.604178      5.0311314    
   4018000   1.0029717      16.277248      5.0708992    
   4019000   0.98870401     16.61922       5.0824659    
   4020000   0.95263782     16.657308      5.0843298    
   4021000   1.0175435      16.880767      5.0780972    
   4022000   0.96594525     16.417299      5.1240216    
   4023000   0.98656738     17.129696      5.0774635    
   4024000   0.98901228     16.714117      5.1007469    
   4025000   1.0194543      16.92987       5.0843437    
   4026000   0.99469107     16.786276      5.0913376    
   4027000   0.99303019     16.627667      5.1026669    
   4028000   0.99768003     16.989753      5.1100876    
   4029000   1.013221       17.288351      5.1104426    
   4030000   1.0574074      16.943732      5.0489188    
   4031000   1.005502       16.960433      5.0578181    
   4032000   1.0109815      16.648546      5.0844523    
   4033000   0.96323136     16.578827      5.087892     
   4034000   1.0054236      17.246891      5.1572539    
   4035000   0.99059876     16.757119      5.1094959    
   4036000   1.0323597      16.765188      5.0859521    
   4037000   1.0385917      16.781803      5.1292951    
   4038000   0.98384285     16.797721      5.1202025    
   4039000   0.98259279     16.322873      5.1395886    
   4040000   1.0260152      16.822419      5.1404137    
   4041000   1.0461431      16.881079      5.1362139    
   4042000   0.98138244     16.5783        5.0769357    
   4043000   0.97655186     16.708421      5.0599254    
   4044000   1.0351044      16.863295      5.0472303    
   4045000   1.01576        16.843284      5.086841     
   4046000   1.035413       16.952664      5.1080633    
   4047000   0.99786352     16.841575      5.0783478    
   4048000   1.0102708      16.835382      5.0345272    
   4049000   1.0334345      17.10373       5.0689678    
   4050000   0.96748349     16.664792      5.1033931    
   4051000   1.0512516      16.75224       5.0712041    
   4052000   0.98715761     17.100351      5.0843363    
   4053000   0.9629545      17.021979      5.0720236    
   4054000   0.98039665     16.21343       5.0775898    
   4055000   0.98422992     16.774368      5.1013189    
   4056000   1.0255213      16.432979      5.0615278    
   4057000   1.0032239      16.808396      5.06024      
   4058000   0.97492067     16.809688      5.0678104    
   4059000   1.0028304      16.682572      5.0853598    
   4060000   1.0125828      17.096296      5.0875938    
   4061000   1.0057391      16.948093      5.1259795    
   4062000   1.0344658      16.420982      5.1062401    
   4063000   1.0110974      16.798579      5.0880945    
   4064000   0.98952436     17.002348      5.0881606    
   4065000   1.0367057      16.451371      5.1080981    
   4066000   0.94714716     16.544717      5.0987673    
   4067000   1.045523       16.64248       5.0897831    
   4068000   0.99629339     16.505236      5.0598985    
   4069000   0.94161028     16.855971      5.061373     
   4070000   0.96307773     16.327938      5.077627     
   4071000   0.99847949     15.71189       5.0876061    
   4072000   0.96188656     16.942557      5.052477     
   4073000   1.0464271      16.484786      5.0760772    
   4074000   1.0597463      17.42406       5.0407258    
   4075000   0.98230026     16.756935      5.0816083    
   4076000   0.97166995     16.791982      5.0631087    
   4077000   0.99669773     17.119841      5.0995089    
   4078000   1.0270011      17.021055      5.0658547    
   4079000   1.0120651      17.208045      5.0559707    
   4080000   0.98442014     17.058111      5.0933052    
   4081000   1.0384789      16.754874      5.1245393    
   4082000   0.99215344     16.249868      5.1006729    
   4083000   0.99930506     16.350373      5.0795017    
   4084000   0.99611057     17.088966      5.073512     
   4085000   1.0466154      17.067085      5.0885094    
   4086000   0.99536107     16.824373      5.0617957    
   4087000   1.0176316      16.746871      5.1177545    
   4088000   1.0387933      17.021906      5.0856837    
   4089000   0.98151044     16.607706      5.0863063    
   4090000   0.97148692     16.053914      5.0796955    
   4091000   1.0219722      16.79784       5.0702701    
   4092000   0.98721838     17.079562      5.0856329    
   4093000   1.0773472      17.216635      5.0772922    
   4094000   0.96293641     16.478509      5.0873053    
   4095000   0.97911824     16.588362      5.0652382    
   4096000   1.0020958      17.1432        5.0555494    
   4097000   1.0253932      16.89911       5.0483024    
   4098000   0.95963247     16.933264      5.079058     
   4099000   0.96658171     16.841524      5.0674285    
   4100000   1.0079626      16.711459      5.1063391    
   4101000   0.99858313     16.711663      5.0841627    
   4102000   1.0154567      16.583548      5.0801044    
   4103000   1.0010202      16.15441       5.073642     
   4104000   1.0365001      17.024999      5.0792632    
   4105000   1.0026703      16.854309      5.071186     
   4106000   1.0059253      16.949052      5.0756959    
   4107000   0.99835408     16.255344      5.0615243    
   4108000   0.95207596     16.795273      5.0964709    
   4109000   0.97368809     16.950358      5.1023476    
   4110000   1.004581       16.4928        5.0578684    
   4111000   1.0139558      17.148086      5.1127215    
   4112000   0.98007945     16.727445      5.068543     
   4113000   0.99670892     17.059655      5.1002864    
   4114000   1.0266873      16.98193       5.1038895    
   4115000   0.95121341     16.866911      5.1160318    
   4116000   1.0126455      16.799074      5.1046038    
   4117000   1.0204904      16.282272      5.0472704    
   4118000   1.005294       16.829053      5.0977961    
   4119000   1.0007287      16.541164      5.0800843    
   4120000   0.97027521     16.609485      5.135267     
   4121000   1.0122345      16.619307      5.1149165    
   4122000   1.0018314      16.810352      5.0985344    
   4123000   0.9802419      15.890446      5.0853096    
   4124000   1.0271596      16.278044      5.0892043    
   4125000   1.0387321      16.78163       5.108973     
   4126000   1.0229205      16.780354      5.1087627    
   4127000   1.0107592      17.014006      5.0950936    
   4128000   1.0018419      16.638187      5.1411105    
   4129000   1.0408269      16.877885      5.1169526    
   4130000   1.0199554      16.833521      5.0740561    
   4131000   0.98357248     16.340628      5.0665487    
   4132000   0.98978961     16.529308      5.1182696    
   4133000   0.96222592     16.910218      5.0800131    
   4134000   0.98340349     16.195214      5.0846219    
   4135000   1.0491089      17.091512      5.0839196    
   4136000   1.0571845      16.662028      5.0796211    
   4137000   1.0369154      16.833112      5.0455735    
   4138000   1.0016256      16.272847      5.0781057    
   4139000   0.97480012     16.540562      5.0744003    
   4140000   0.97322449     16.906966      5.085457     
   4141000   1.0180634      17.048601      5.1231554    
   4142000   0.98028597     16.591915      5.0870768    
   4143000   1.0209631      16.623563      5.0945575    
   4144000   0.98765503     16.703541      5.0926666    
   4145000   0.96539143     17.301412      5.0832935    
   4146000   1.0026013      16.116998      5.1404412    
   4147000   0.97574829     17.303722      5.0985558    
   4148000   0.975554       16.95207       5.0639336    
   4149000   0.98128664     16.379767      5.1090611    
   4150000   0.98144983     16.06332       5.149312     
   4151000   1.0497536      16.761287      5.0788908    
   4152000   1.0096246      16.552632      5.1058556    
   4153000   1.0273074      16.413977      5.1445927    
   4154000   1.0133288      16.608531      5.120469     
   4155000   0.99977461     16.391331      5.1151334    
   4156000   1.0026073      17.085742      5.1082317    
   4157000   1.0208443      16.83393       5.0544804    
   4158000   0.99452207     16.934551      5.0887904    
   4159000   0.99497855     16.512334      5.1119858    
   4160000   1.0142256      17.299161      5.0610658    
   4161000   0.97675686     16.885516      5.094791     
   4162000   1.0044741      16.886867      5.1016402    
   4163000   1.0021927      16.612072      5.1035427    
   4164000   0.98785614     16.768391      5.1081185    
   4165000   1.0003865      16.471369      5.1223016    
   4166000   0.9916893      16.979396      5.0941083    
   4167000   1.0606693      17.273867      5.1080183    
   4168000   1.0403568      16.739389      5.0928868    
   4169000   1.000459       17.079115      5.0845797    
   4170000   0.92986789     16.104289      5.0913058    
   4171000   0.99276308     16.94013       5.0548063    
   4172000   1.0114896      17.041512      5.1098534    
   4173000   1.0139794      16.644828      5.0871668    
   4174000   1.050956       16.622988      5.0979895    
   4175000   0.99341139     16.688828      5.1117128    
   4176000   0.99841395     16.959675      5.1288203    
   4177000   1.0129416      17.213373      5.1542206    
   4178000   0.98018738     16.756744      5.0921925    
   4179000   1.0342355      16.487136      5.1496883    
   4180000   1.0004592      17.163412      5.070391     
   4181000   0.99355183     16.119937      5.1028642    
   4182000   1.0080607      17.017486      5.1003543    
   4183000   0.99555754     16.238879      5.1560188    
   4184000   0.96094876     16.358374      5.162748     
   4185000   0.99118988     17.034914      5.1139639    
   4186000   1.0109379      16.150243      5.1302377    
   4187000   0.96903377     16.296462      5.1750593    
   4188000   0.99596051     16.831649      5.1591795    
   4189000   1.0051251      16.767207      5.106125     
   4190000   1.0380179      16.483637      5.0736645    
   4191000   1.0852899      17.450901      5.085305     
   4192000   1.0234191      17.049992      5.1107647    
   4193000   1.0262449      16.500902      5.0773711    
   4194000   0.97373738     16.752598      5.0636082    
   4195000   0.97105734     16.468029      5.0797626    
   4196000   1.0033817      16.473249      5.0515874    
   4197000   1.0043221      16.716924      5.0994608    
   4198000   0.98064192     16.895788      5.1055171    
   4199000   1.0056297      16.939999      5.0618103    
   4200000   0.96541393     16.453585      5.0910772    
   4201000   0.9903272      16.827528      5.0892423    
   4202000   0.98336794     17.123097      5.101067     
   4203000   0.9920153      16.422682      5.1087476    
   4204000   0.96889829     16.26337       5.1145551    
   4205000   1.0021597      16.692568      5.1056793    
   4206000   0.99054657     16.501463      5.1029845    
   4207000   1.0259654      16.739461      5.0449175    
   4208000   1.0143943      16.619852      5.0667539    
   4209000   1.0215069      15.925928      5.1174264    
   4210000   0.97652201     16.283865      5.1239067    
   4211000   1.0058168      16.626244      5.1088459    
   4212000   0.9729704      16.919157      5.0875285    
   4213000   0.98021816     16.004372      5.0781955    
   4214000   0.99831943     16.736474      5.0573691    
   4215000   1.0313268      17.033309      5.0839186    
   4216000   1.0186024      16.625583      5.0881271    
   4217000   1.0321629      16.462787      5.084945     
   4218000   1.0134106      16.354584      5.0951785    
   4219000   0.94204525     16.542785      5.0776256    
   4220000   0.99943161     16.242812      5.1242297    
   4221000   1.0191701      17.16205       5.0783967    
   4222000   1.0078467      16.624272      5.0658794    
   4223000   0.9811385      16.812416      5.0804094    
   4224000   1.0048518      17.18394       5.0455413    
   4225000   0.94418338     15.772156      5.0647747    
   4226000   1.0161341      16.363129      5.1009032    
   4227000   0.98875041     16.430037      5.0860073    
   4228000   0.99630411     17.086658      5.0444432    
   4229000   0.98913337     16.335419      5.0842414    
   4230000   1.0108807      17.197884      5.0491355    
   4231000   1.0069205      16.743173      5.0443238    
   4232000   0.99393932     17.234502      5.0774931    
   4233000   1.0320353      17.112394      5.032528     
   4234000   1.0510251      17.043533      5.0514243    
   4235000   0.96524365     16.461202      5.0535764    
   4236000   1.0452179      16.741221      5.0838094    
   4237000   0.99798682     16.602115      5.0615366    
   4238000   0.98151173     16.57301       5.1188475    
   4239000   1.0156853      16.998803      5.1113113    
   4240000   1.0037906      17.201888      5.0634887    
   4241000   1.0055502      16.364466      5.0975712    
   4242000   1.0170342      16.363797      5.082143     
   4243000   1.0124497      17.295753      5.0845991    
   4244000   1.016941       17.725487      5.108127     
   4245000   1.0036195      16.286374      5.1412609    
   4246000   0.97174154     16.280752      5.0821898    
   4247000   1.0256645      16.505682      5.1240954    
   4248000   0.9980372      16.78452       5.1562777    
   4249000   1.0069909      17.029825      5.1013009    
   4250000   1.0217604      17.17336       5.0844931    
   4251000   1.0240323      16.232307      5.1217935    
   4252000   0.99688904     16.992032      5.0604864    
   4253000   0.98288284     16.744744      5.0655722    
   4254000   0.97813521     16.889938      5.0737761    
   4255000   0.96021986     16.567472      5.0675141    
   4256000   0.94522553     17.014332      5.0668025    
   4257000   1.0323461      16.170153      5.1002361    
   4258000   1.0388512      17.13488       5.1149978    
   4259000   0.97913787     16.426106      5.1521631    
   4260000   1.0404305      17.418975      5.0845966    
   4261000   1.0178243      17.010979      5.124735     
   4262000   0.99780011     16.759465      5.1120617    
   4263000   1.0037258      16.853092      5.15205      
   4264000   1.0318153      17.410133      5.1587442    
   4265000   0.98651099     16.68247       5.1466346    
   4266000   1.0282868      16.653668      5.113381     
   4267000   0.97459411     16.518697      5.1198922    
   4268000   1.0099223      17.135975      5.1250272    
   4269000   0.99490436     16.817239      5.1119754    
   4270000   1.0216647      16.840006      5.0639145    
   4271000   1.0035042      16.433223      5.0977043    
   4272000   1.0745689      17.232776      5.0635729    
   4273000   1.0199182      17.055975      5.0676476    
   4274000   0.96697677     16.456758      5.1149019    
   4275000   1.0365175      16.768744      5.0922592    
   4276000   0.97654591     16.697877      5.0523443    
   4277000   1.0023847      16.893571      5.0510052    
   4278000   1.0245128      17.315841      5.0464825    
   4279000   0.9889601      16.584567      5.0429075    
   4280000   0.9713743      16.804434      5.0782862    
   4281000   1.0388194      16.666374      5.0778228    
   4282000   1.0069069      16.915376      5.0717312    
   4283000   0.97753583     16.264523      5.0892259    
   4284000   1.0211086      16.732215      5.0828355    
   4285000   1.0114442      17.081387      5.0913745    
   4286000   1.0288942      17.139911      5.0930563    
   4287000   0.98225968     17.000275      5.0852953    
   4288000   0.9745031      16.746389      5.0942694    
   4289000   1.000904       16.347408      5.0707907    
   4290000   0.95000123     17.051563      5.0850962    
   4291000   0.95634672     16.535344      5.0614078    
   4292000   1.006595       17.112257      5.0557867    
   4293000   0.99295221     16.549507      5.067503     
   4294000   1.0493942      17.189464      5.0685954    
   4295000   1.0030609      16.665406      5.0637426    
   4296000   0.99702213     16.451957      5.084002     
   4297000   0.99586343     17.147479      5.0520307    
   4298000   0.97130148     16.168255      5.0880643    
   4299000   1.0598306      17.055813      5.0633991    
   4300000   0.97691363     16.562129      5.096431     
   4301000   0.96691984     16.522966      5.0789735    
   4302000   0.99434538     16.595301      5.0538773    
   4303000   0.99806956     16.254978      5.0675815    
   4304000   1.0422385      16.725048      5.0647628    
   4305000   1.027144       16.790461      5.0888165    
   4306000   1.0065823      16.454881      5.0582514    
   4307000   0.99700731     16.140134      5.1188097    
   4308000   0.99265369     17.060073      5.0810854    
   4309000   0.99714234     16.348788      5.0907718    
   4310000   0.99499634     16.893063      5.0958937    
   4311000   1.00172        17.007219      5.0597496    
   4312000   1.0180713      16.926655      5.0823687    
   4313000   0.98362123     16.742501      5.0730966    
   4314000   1.0104762      16.572319      5.0352819    
   4315000   1.0039723      17.461223      5.1049995    
   4316000   1.0035028      16.626509      5.0778129    
   4317000   0.99257334     16.912162      5.1172603    
   4318000   1.0344409      16.966792      5.1254567    
   4319000   0.99758962     17.296245      5.07438      
   4320000   1.0067333      17.443481      5.1299501    
   4321000   1.0153381      16.435715      5.1412789    
   4322000   1.0043858      16.717121      5.0836195    
   4323000   0.96566206     17.11312       5.0751056    
   4324000   1.0098663      16.02599       5.1139663    
   4325000   0.9562158      16.781648      5.085905     
   4326000   0.99109398     16.40423       5.1130082    
   4327000   1.0040687      16.586213      5.1114207    
   4328000   1.0062213      16.997108      5.10771      
   4329000   1.0382692      17.320098      5.0867829    
   4330000   1.0648619      16.999883      5.0924857    
   4331000   1.0161523      16.329819      5.0794604    
   4332000   1.0161123      17.408133      5.0744958    
   4333000   1.0328616      17.377774      5.0829767    
   4334000   1.0116175      16.777566      5.1022231    
   4335000   1.0279213      17.122453      5.1128174    
   4336000   0.99381929     16.454557      5.096222     
   4337000   1.0223016      16.836884      5.0814031    
   4338000   1.008275       16.981536      5.0815607    
   4339000   0.94496887     16.681548      5.1193995    
   4340000   0.94882525     16.965923      5.1163465    
   4341000   0.99421638     15.752389      5.1017382    
   4342000   1.021365       17.254563      5.0763977    
   4343000   1.0374809      17.029699      5.1059778    
   4344000   1.0170374      16.787624      5.0772976    
   4345000   1.0108258      17.230837      5.1110544    
   4346000   0.97343874     16.568174      5.108564     
   4347000   0.97913254     16.474522      5.1066392    
   4348000   1.0567301      17.019318      5.1050932    
   4349000   0.98784272     16.612493      5.0981336    
   4350000   1.0097884      16.946661      5.0827985    
   4351000   0.99617658     16.274406      5.0809486    
   4352000   0.94150303     16.517956      5.0558878    
   4353000   1.0205906      16.670089      5.1063721    
   4354000   1.0275428      16.467214      5.1203374    
   4355000   1.0466198      16.952858      5.1254328    
   4356000   1.0625013      17.108228      5.0889288    
   4357000   1.0187994      17.122394      5.0925019    
   4358000   1.0092688      17.392044      5.0731057    
   4359000   1.0162027      16.340814      5.1399913    
   4360000   0.99102345     16.989516      5.0619769    
   4361000   0.97975244     16.524759      5.120187     
   4362000   1.0381662      16.997271      5.1784442    
   4363000   1.0039523      17.425428      5.1033171    
   4364000   0.97327308     16.421483      5.1659634    
   4365000   0.99923281     17.094246      5.120462     
   4366000   0.97006587     16.171561      5.118194     
   4367000   0.97411914     16.886618      5.0953016    
   4368000   0.99349994     16.373672      5.1031909    
   4369000   1.0005681      16.935988      5.116105     
   4370000   0.97924896     16.915959      5.1087875    
   4371000   0.9904112      16.332884      5.1356176    
   4372000   0.97480288     17.193528      5.0712886    
   4373000   1.0426245      16.968262      5.0982118    
   4374000   0.98830088     16.240886      5.1513141    
   4375000   0.99582474     16.498972      5.140426     
   4376000   0.98295693     16.32973       5.1069112    
   4377000   0.98018459     16.316142      5.1246078    
   4378000   0.99490644     17.300609      5.1070889    
   4379000   1.0443594      16.782808      5.1281133    
   4380000   1.0164911      16.636949      5.1095246    
   4381000   0.97761994     16.522552      5.067227     
   4382000   0.99671558     16.917922      5.0491513    
   4383000   1.0465998      17.021482      5.0657533    
   4384000   0.97134985     16.305187      5.1053393    
   4385000   1.0483309      16.701273      5.1231446    
   4386000   1.028968       16.662341      5.0992764    
   4387000   1.0331995      17.179343      5.0679845    
   4388000   0.98970361     16.736327      5.1227698    
   4389000   1.0130796      16.306949      5.084738     
   4390000   0.96137834     16.729755      5.0777754    
   4391000   1.0230186      16.418286      5.1032511    
   4392000   0.97626486     16.451994      5.1500211    
   4393000   0.98287365     16.45749       5.1479341    
   4394000   0.97150439     16.816043      5.0972765    
   4395000   0.99970744     16.487701      5.1270218    
   4396000   1.0028787      16.030181      5.0910746    
   4397000   0.97685581     17.085787      5.0860284    
   4398000   1.0043476      16.677954      5.1068154    
   4399000   1.0080649      16.238464      5.0889396    
   4400000   0.94409177     16.380609      5.081834     
   4401000   0.98573705     17.022585      5.0907832    
   4402000   0.98739987     16.875943      5.0719374    
   4403000   0.98291453     16.190841      5.124232     
   4404000   1.0322069      16.834601      5.1107471    
   4405000   0.98152748     16.826795      5.1189404    
   4406000   0.9970847      17.078532      5.096561     
   4407000   0.98753151     17.141213      5.0559925    
   4408000   0.99981366     17.135267      5.0712314    
   4409000   1.0298664      16.557297      5.1036624    
   4410000   0.986701       16.440567      5.0600878    
   4411000   0.96702689     17.183676      5.0930135    
   4412000   1.052667       16.560083      5.0712869    
   4413000   0.97567441     16.463318      5.0582623    
   4414000   1.0359645      16.649296      5.1101812    
   4415000   1.0161012      16.770705      5.0947979    
   4416000   1.0292952      16.568216      5.0793844    
   4417000   1.0458956      16.740795      5.0606252    
   4418000   1.0318715      17.453775      5.0313896    
   4419000   0.97559918     16.514659      5.0857501    
   4420000   0.97644647     16.555329      5.0954781    
   4421000   1.0479563      16.716189      5.0650444    
   4422000   0.96207294     17.164361      5.0520816    
   4423000   0.98274627     16.481422      5.0935546    
   4424000   1.0702811      17.017369      5.06386      
   4425000   1.0060166      16.094668      5.07573      
   4426000   0.96467343     16.426143      5.0584912    
   4427000   0.98418158     16.957811      5.0755217    
   4428000   0.98133874     16.839274      5.0530391    
   4429000   0.9805013      16.704976      5.0600793    
   4430000   1.0117666      16.568467      5.0587938    
   4431000   0.98966301     16.978617      5.0441066    
   4432000   1.0137917      16.75153       5.0658763    
   4433000   0.96642674     16.679153      5.1017755    
   4434000   0.99417601     16.793313      5.0755291    
   4435000   0.95321666     16.1738        5.0491712    
   4436000   0.98486436     16.508438      5.1408477    
   4437000   1.0131283      16.070695      5.0873038    
   4438000   1.0030897      16.785153      5.1109511    
   4439000   1.0094706      17.365532      5.0735022    
   4440000   0.97633062     17.101592      5.0861856    
   4441000   0.97060802     16.621853      5.0660449    
   4442000   0.99213858     16.075747      5.0697788    
   4443000   1.0446572      17.140334      5.0628674    
   4444000   0.99420402     16.283906      5.0605335    
   4445000   0.96197183     15.811234      5.1206689    
   4446000   1.0329271      17.159762      5.0696196    
   4447000   1.031253       16.185667      5.1022512    
   4448000   0.98771381     16.630092      5.1157009    
   4449000   1.0136167      16.463336      5.0880894    
   4450000   0.96314563     16.04944       5.0799271    
   4451000   0.9955048      17.382627      5.0290781    
   4452000   1.0307119      16.761606      5.0482157    
   4453000   0.98017248     17.007398      5.070802     
   4454000   1.0039495      16.780989      5.0484179    
   4455000   1.0180003      17.205966      5.0522489    
   4456000   0.96948966     16.657311      5.054036     
   4457000   1.0048181      16.558649      5.0653621    
   4458000   0.99697178     16.679924      5.0772158    
   4459000   0.99252393     16.279071      5.0955138    
   4460000   1.0001432      16.939821      5.0748251    
   4461000   1.0174585      17.032549      5.0652331    
   4462000   1.0585008      16.361678      5.0617462    
   4463000   0.98211853     16.243073      5.0654211    
   4464000   1.0175013      16.870657      5.0864253    
   4465000   1.0620453      16.732028      5.0996971    
   4466000   1.0509847      16.836132      5.0469611    
   4467000   1.0293622      17.119553      5.077228     
   4468000   0.99551116     16.958118      5.058349     
   4469000   0.99388868     16.797113      5.0592999    
   4470000   1.0435328      16.612681      5.0983018    
   4471000   1.028428       17.242041      5.0380169    
   4472000   0.95202365     16.674627      5.0569793    
   4473000   1.0064795      16.875927      5.0603072    
   4474000   0.99700235     17.216447      5.0544034    
   4475000   1.008021       16.728799      5.087401     
   4476000   1.0172585      17.329643      5.1220868    
   4477000   1.0558142      16.986521      5.0702598    
   4478000   1.030291       17.268966      5.0744409    
   4479000   0.97892458     16.547867      5.0301984    
   4480000   1.0099288      16.768172      5.0804849    
   4481000   0.98606239     16.482425      5.0824124    
   4482000   0.98065305     16.727286      5.0741821    
   4483000   0.99365121     16.465473      5.0705931    
   4484000   0.97718263     16.307307      5.0764295    
   4485000   0.97276852     16.841859      5.0559908    
   4486000   0.97979995     16.123411      5.0540062    
   4487000   1.0389474      17.307351      5.0447833    
   4488000   1.0204449      16.921758      5.066459     
   4489000   0.99603361     16.530417      5.0292576    
   4490000   1.028685       17.059066      5.0363361    
   4491000   0.98832117     16.818036      5.0632547    
   4492000   0.9888887      16.824721      5.0437722    
   4493000   0.97829221     17.427745      5.0496108    
   4494000   0.98729047     16.794941      5.0638702    
   4495000   0.98934088     17.031113      5.0804296    
   4496000   0.98750103     17.212769      5.086052     
   4497000   0.97770942     16.848214      5.0561302    
   4498000   0.99722489     16.987296      5.0766426    
   4499000   0.9930532      16.595336      5.0403072    
   4500000   1.0216618      16.863381      5.0618442    
   4501000   0.99447134     16.990744      5.0602613    
   4502000   0.99204103     16.772986      5.0928195    
   4503000   1.0134259      16.478778      5.1074654    
   4504000   1.0571047      16.829321      5.0897977    
   4505000   1.0237012      16.225787      5.0989056    
   4506000   1.002589       16.633128      5.1301852    
   4507000   1.0506282      16.56849       5.0781767    
   4508000   0.95712278     16.110732      5.132511     
   4509000   1.0168589      17.157782      5.0756301    
   4510000   1.001138       16.996595      5.0829223    
   4511000   0.96891997     16.741737      5.0466883    
   4512000   0.9668907      16.796754      5.0484221    
   4513000   1.0052294      16.604713      5.0543317    
   4514000   1.008864       16.976562      5.0621988    
   4515000   0.97276546     16.866482      5.0687925    
   4516000   1.0069708      17.544692      5.0447657    
   4517000   1.0045335      16.955901      5.0769964    
   4518000   0.99423509     16.245319      5.0521143    
   4519000   0.98343737     16.400617      5.0922       
   4520000   1.0221619      17.617377      5.0810302    
   4521000   1.0107936      17.152132      5.0773061    
   4522000   1.0017503      17.677672      5.0581564    
   4523000   1.0606055      16.898801      5.0913163    
   4524000   0.97829261     16.625339      5.0828658    
   4525000   0.94698677     16.902162      5.0603971    
   4526000   0.97946145     17.216541      5.0466633    
   4527000   1.0229947      16.712885      5.0995488    
   4528000   0.99618544     16.568478      5.0734152    
   4529000   0.98435392     16.415666      5.0723404    
   4530000   0.99382734     16.56277       5.0490069    
   4531000   0.98370172     16.49921       5.0495507    
   4532000   0.97363234     16.720682      5.0606165    
   4533000   0.98670522     16.521534      5.074518     
   4534000   1.0223519      16.863227      5.0423772    
   4535000   0.99703404     16.179966      5.070188     
   4536000   1.0089741      16.622541      5.0979263    
   4537000   0.98196054     16.906911      5.0590289    
   4538000   1.0146066      17.174187      5.0479509    
   4539000   1.0263507      16.990715      5.0676019    
   4540000   0.98517355     16.55201       5.0600811    
   4541000   1.0211323      17.108578      5.0701528    
   4542000   1.0131776      16.943124      5.0913982    
   4543000   0.99415871     16.868832      5.0917479    
   4544000   0.97898993     16.792812      5.0700894    
   4545000   0.98192494     17.026126      5.0383154    
   4546000   1.013371       16.598163      5.1005088    
   4547000   0.99275323     17.055582      5.1268459    
   4548000   1.0394367      17.342947      5.1189122    
   4549000   1.0204146      16.436812      5.1276221    
   4550000   1.0165749      16.674162      5.1410916    
   4551000   0.99780108     17.104567      5.1178787    
   4552000   0.96775566     16.519699      5.1174872    
   4553000   1.0275604      16.923755      5.0850089    
   4554000   0.99767784     16.453937      5.0790646    
   4555000   1.0463322      16.899159      5.0700411    
   4556000   1.0247918      17.185395      5.1291805    
   4557000   1.0452204      17.246199      5.0501766    
   4558000   1.0297159      16.629577      5.0793017    
   4559000   0.97598137     16.410701      5.0933693    
   4560000   0.99212458     16.857405      5.0721235    
   4561000   1.0111535      17.045535      5.0693327    
   4562000   1.005349       16.540779      5.0735643    
   4563000   0.97511842     16.858509      5.0660368    
   4564000   1.0184222      17.005123      5.0804029    
   4565000   1.0010572      16.768657      5.0763641    
   4566000   1.0068858      17.008003      5.0155819    
   4567000   1.0240777      17.042343      5.0275458    
   4568000   1.0411645      16.847781      5.0873753    
   4569000   1.0207122      16.985801      5.0829239    
   4570000   0.98856009     17.262968      5.0439296    
   4571000   1.0291586      17.07053       5.0679784    
   4572000   1.00404        16.716724      5.0640707    
   4573000   0.92950387     16.603901      5.0753444    
   4574000   1.0145229      16.756411      5.0928949    
   4575000   1.0258887      17.189788      5.0626331    
   4576000   1.0357595      16.231705      5.0979658    
   4577000   1.0353988      16.514305      5.1041921    
   4578000   0.99282811     16.819301      5.0935521    
   4579000   0.98160794     16.670244      5.0827369    
   4580000   1.0242093      17.320538      5.0994548    
   4581000   1.0106501      16.781249      5.0634899    
   4582000   0.98049105     16.224347      5.0802398    
   4583000   0.99526439     16.891694      5.0658536    
   4584000   1.0221753      16.923954      5.0722348    
   4585000   1.0218129      16.974027      5.0637689    
   4586000   0.97908018     16.443105      5.0746105    
   4587000   1.0233859      16.854889      5.1275811    
   4588000   0.98371117     16.822818      5.0728695    
   4589000   0.97925069     15.802302      5.054509     
   4590000   1.0007228      16.509796      5.0559475    
   4591000   1.0381817      16.341245      5.0570508    
   4592000   1.0076029      16.637964      5.0709927    
   4593000   0.9810231      16.872424      5.0294672    
   4594000   1.0461139      16.356623      5.0808654    
   4595000   1.031105       16.850124      5.0828338    
   4596000   1.0246164      16.847877      5.0442016    
   4597000   1.0452468      16.519994      5.0508949    
   4598000   1.0072301      16.547707      5.0398705    
   4599000   0.97289225     16.714248      5.0477642    
   4600000   0.95976416     16.500622      5.0747515    
   4601000   0.97759021     17.103465      5.0499826    
   4602000   1.0362762      16.163809      5.0827816    
   4603000   1.0225257      16.832554      5.0795738    
   4604000   0.96968733     16.716606      5.0580865    
   4605000   1.0108659      16.59194       5.0571253    
   4606000   1.0252758      16.610737      5.0931522    
   4607000   1.0051541      16.89476       5.0897491    
   4608000   1.0222148      16.768399      5.071879     
   4609000   0.97169772     16.454352      5.1125679    
   4610000   1.0156365      16.432379      5.0927949    
   4611000   1.0270724      17.104303      5.0977135    
   4612000   0.99464717     16.416774      5.0731046    
   4613000   1.012279       17.033759      5.0369277    
   4614000   0.97794193     16.665867      5.0647775    
   4615000   0.95745313     16.757768      5.059516     
   4616000   1.0462111      16.84981       5.0841484    
   4617000   1.0164398      16.990264      5.1001674    
   4618000   1.0155011      17.068859      5.0722028    
   4619000   1.0589466      17.068459      5.0628365    
   4620000   0.99550212     16.776588      5.0477602    
   4621000   1.0296494      17.017552      5.063976     
   4622000   0.95442377     16.898439      5.0586431    
   4623000   1.0114952      16.223601      5.0806268    
   4624000   0.99414189     16.804         5.0703132    
   4625000   0.96333789     16.70699       5.0513209    
   4626000   0.98316345     16.641217      5.0713627    
   4627000   1.0023837      16.877831      5.0813239    
   4628000   0.96298137     16.59407       5.0811872    
   4629000   0.98165936     16.916398      5.0685617    
   4630000   0.9988303      16.882281      5.0591246    
   4631000   1.0170372      17.022147      5.074182     
   4632000   1.0308776      16.997511      5.0803183    
   4633000   1.0148669      16.658869      5.0862105    
   4634000   0.99321025     17.252809      5.1024713    
   4635000   1.0062473      16.726441      5.0963767    
   4636000   0.98994058     16.852876      5.0647505    
   4637000   1.0042029      16.460898      5.0832555    
   4638000   1.016782       17.344758      5.0452043    
   4639000   0.98337268     16.870047      5.1069949    
   4640000   1.0025741      16.207895      5.0976574    
   4641000   1.0115553      16.959506      5.0628607    
   4642000   0.99642586     16.575932      5.0786561    
   4643000   1.0484056      16.52025       5.1281262    
   4644000   1.0367897      17.023012      5.1393978    
   4645000   0.97887323     16.909551      5.0676144    
   4646000   0.97344082     16.367165      5.0812467    
   4647000   1.0405001      17.084666      5.1008264    
   4648000   0.96667531     16.852252      5.0922372    
   4649000   0.97605834     16.552514      5.0723192    
   4650000   0.97555666     16.825964      5.0566429    
   4651000   0.99934813     16.9003        5.0921193    
   4652000   0.99283263     16.771189      5.059998     
   4653000   0.99086456     16.657306      5.072028     
   4654000   1.0326058      17.162744      5.0858345    
   4655000   0.98332098     16.04607       5.0958014    
   4656000   0.99758205     16.191374      5.0978342    
   4657000   0.99115236     16.578597      5.0556122    
   4658000   0.99160957     16.93109       5.0736102    
   4659000   1.0209399      17.066327      5.0883778    
   4660000   1.0156353      16.716012      5.0786501    
   4661000   0.99172502     16.562145      5.0859979    
   4662000   1.0213032      16.559837      5.1005316    
   4663000   1.0158831      16.460377      5.0576707    
   4664000   1.0481334      17.038507      5.0753152    
   4665000   0.98931517     16.915819      5.0853771    
   4666000   1.0106195      16.126598      5.0458101    
   4667000   1.0429942      16.264075      5.0796924    
   4668000   1.0226213      16.965793      5.049229     
   4669000   1.0028518      16.982183      5.0779662    
   4670000   0.96779501     16.889391      5.0613321    
   4671000   1.0364024      17.041985      5.0636079    
   4672000   1.0255456      16.514346      5.1000985    
   4673000   0.98075651     16.910984      5.0722105    
   4674000   1.0030485      15.937627      5.0989435    
   4675000   0.9714571      16.935991      5.0970475    
   4676000   0.96908964     15.997947      5.1098852    
   4677000   0.98569202     16.617863      5.1333648    
   4678000   0.99226274     16.649787      5.1309037    
   4679000   1.0035363      16.786956      5.143592     
   4680000   1.02245        16.625074      5.1186287    
   4681000   0.95451576     16.390551      5.1358463    
   4682000   0.98385707     16.328703      5.0966984    
   4683000   0.99430527     16.858602      5.1117348    
   4684000   0.97960309     16.56687       5.0946964    
   4685000   1.0092249      16.497953      5.0720571    
   4686000   1.0139643      16.517944      5.0700634    
   4687000   1.0422391      17.172544      5.0634071    
   4688000   1.0433926      16.99965       5.110845     
   4689000   0.95984701     16.648883      5.0941623    
   4690000   1.0142401      16.690884      5.1036193    
   4691000   0.94951614     17.31931       5.0491166    
   4692000   0.98357504     17.385747      5.1075048    
   4693000   1.0123893      16.570687      5.1178093    
   4694000   1.03523        16.615173      5.0806557    
   4695000   0.97918227     16.159138      5.0837594    
   4696000   0.99881059     17.368098      5.08776      
   4697000   1.016069       16.770273      5.0704646    
   4698000   1.0016571      16.684921      5.0971886    
   4699000   0.95443936     16.613583      5.0927406    
   4700000   0.97981437     16.598811      5.084523     
   4701000   0.98042592     16.779637      5.0760059    
   4702000   0.9745864      16.719159      5.1034121    
   4703000   1.0154408      16.869757      5.0946368    
   4704000   1.0117984      17.365771      5.1119471    
   4705000   0.96512518     16.630674      5.1024931    
   4706000   1.042855       17.031919      5.1295946    
   4707000   1.0209438      17.059454      5.1011662    
   4708000   0.98284216     16.417054      5.150425     
   4709000   1.0387146      16.85054       5.0810306    
   4710000   1.0141519      16.709352      5.108653     
   4711000   0.94755        16.427813      5.1159466    
   4712000   1.0187851      16.44114       5.0870559    
   4713000   0.94505159     16.574449      5.0749341    
   4714000   1.0050641      16.413618      5.0786115    
   4715000   0.9745753      16.822223      5.1117337    
   4716000   0.99623963     16.975977      5.1180347    
   4717000   0.98347867     16.700703      5.0856526    
   4718000   1.0298875      17.072127      5.0994278    
   4719000   0.96066416     16.829275      5.0945031    
   4720000   1.043712       17.047429      5.1272544    
   4721000   1.011826       16.964553      5.0807945    
   4722000   0.98459165     16.396662      5.0928135    
   4723000   0.96394787     16.194875      5.0969894    
   4724000   0.9612998      16.659248      5.0586716    
   4725000   0.98071551     16.718139      5.0786336    
   4726000   0.96360254     16.545351      5.0389324    
   4727000   1.0339931      16.276146      5.0723003    
   4728000   1.032102       16.78798       5.0577434    
   4729000   0.97516856     16.37774       5.0939901    
   4730000   1.0239247      16.716853      5.0679471    
   4731000   1.0197531      16.86581       5.064568     
   4732000   1.0547228      16.975478      5.048756     
   4733000   1.0173702      16.953903      5.0387628    
   4734000   0.97998364     16.462858      5.0719578    
   4735000   0.98219533     16.476317      5.0681713    
   4736000   0.99706549     16.337881      5.0820207    
   4737000   1.0154642      16.979248      5.1058408    
   4738000   0.99133551     16.631571      5.0797562    
   4739000   0.9964597      15.84272       5.0826504    
   4740000   0.97309855     17.186118      5.0622574    
   4741000   1.0297632      16.538111      5.0715781    
   4742000   1.0076492      16.501359      5.0692432    
   4743000   1.0123467      16.522426      5.075469     
   4744000   1.0323581      16.370024      5.0820696    
   4745000   0.99547797     16.524132      5.0916945    
   4746000   0.99209169     17.011439      5.0535558    
   4747000   1.0083038      16.570783      5.1541214    
   4748000   1.0132105      16.658459      5.1106196    
   4749000   0.99637419     16.79409       5.1082198    
   4750000   1.0381215      16.84302       5.1029935    
   4751000   1.002929       16.710862      5.1024088    
   4752000   1.029799       16.947189      5.0878249    
   4753000   1.0251663      17.116689      5.103079     
   4754000   1.0098066      16.255521      5.0748333    
   4755000   1.0067309      17.273912      5.0535554    
   4756000   1.0339626      17.202382      5.0689676    
   4757000   0.98700141     16.404539      5.0955318    
   4758000   1.0198153      16.299197      5.0786156    
   4759000   0.99066326     16.695701      5.0643053    
   4760000   0.98383624     16.719062      5.0599113    
   4761000   1.0266824      17.297554      5.089557     
   4762000   1.0012866      16.141722      5.0687319    
   4763000   0.98685946     15.886726      5.051603     
   4764000   1.0181975      17.372774      5.0756563    
   4765000   0.95443947     16.680087      5.0522081    
   4766000   0.98859145     17.581869      5.0375479    
   4767000   0.99375815     16.392143      5.0822247    
   4768000   1.0140234      16.688476      5.0802167    
   4769000   1.0095782      16.705202      5.0795394    
   4770000   0.99547774     16.501799      5.0992533    
   4771000   1.0153598      16.711374      5.1139564    
   4772000   1.0242529      17.047088      5.0877222    
   4773000   0.99089991     16.558788      5.0993171    
   4774000   1.0255432      16.181313      5.0816211    
   4775000   0.97820852     16.502644      5.1122247    
   4776000   0.97228038     16.277421      5.1377198    
   4777000   0.9848651      16.550246      5.1154211    
   4778000   1.0024356      16.930645      5.1170899    
   4779000   0.99717683     16.728831      5.1641061    
   4780000   1.0642786      16.919978      5.1225063    
   4781000   0.99146351     16.800617      5.1459668    
   4782000   1.035361       16.794697      5.0854998    
   4783000   1.0061899      17.057891      5.0909801    
   4784000   1.0034172      16.664615      5.1070332    
   4785000   1.0077894      16.365408      5.1126605    
   4786000   1.0032605      16.812189      5.0955898    
   4787000   1.0304782      17.079082      5.1020742    
   4788000   1.0601293      17.185579      5.0801822    
   4789000   1.0097341      16.444474      5.0927081    
   4790000   1.0127067      16.760622      5.0808239    
   4791000   1.0161627      16.91196       5.0706307    
   4792000   0.98635577     16.906749      5.0688551    
   4793000   1.0212871      16.332495      5.0999668    
   4794000   1.0475757      16.318091      5.1051294    
   4795000   0.997532       16.394504      5.0987745    
   4796000   0.97141509     16.468948      5.1058414    
   4797000   0.98660418     16.882801      5.0769285    
   4798000   1.0183034      17.100126      5.0386689    
   4799000   0.99548169     16.776572      5.0914089    
   4800000   0.99085896     17.191546      5.1033221    
   4801000   0.96635037     16.325246      5.0611273    
   4802000   0.99000651     16.525355      5.0605902    
   4803000   0.96485193     16.841688      5.094222     
   4804000   0.99968183     16.852698      5.1140424    
   4805000   1.0297571      16.264303      5.0851145    
   4806000   0.96424847     16.628128      5.091745     
   4807000   1.0326597      16.647631      5.103986     
   4808000   1.0060328      16.941538      5.0265512    
   4809000   0.9622193      16.615804      5.07315      
   4810000   0.97771326     16.317675      5.0696239    
   4811000   1.0073991      16.666938      5.082102     
   4812000   1.0077016      16.972738      5.079523     
   4813000   1.0005626      17.153782      5.0972704    
   4814000   1.004831       16.530856      5.1133496    
   4815000   1.0193066      16.628273      5.0929201    
   4816000   0.99991099     16.429985      5.0486876    
   4817000   1.0002934      16.920137      5.1015555    
   4818000   0.97121564     16.670413      5.0775022    
   4819000   0.97554311     16.747187      5.0548617    
   4820000   0.98602123     16.910188      5.1053502    
   4821000   1.0058829      17.31815       5.1068142    
   4822000   1.0304654      16.423452      5.0773107    
   4823000   1.0150081      16.583378      5.0556587    
   4824000   0.95417563     17.072056      5.0490691    
   4825000   1.0173639      16.726081      5.0786176    
   4826000   0.96787974     16.505894      5.0770632    
   4827000   0.99646737     17.167892      5.0462363    
   4828000   1.0149125      16.497182      5.0290384    
   4829000   0.96493229     16.894562      5.0510656    
   4830000   0.97925927     16.389041      5.0315608    
   4831000   0.97593406     16.760994      5.0720569    
   4832000   0.95711779     16.62625       5.0769225    
   4833000   0.97913821     16.269389      5.078312     
   4834000   1.0101511      16.557308      5.0580897    
   4835000   1.0057797      16.959989      5.0871331    
   4836000   1.02897        16.600152      5.0635363    
   4837000   0.96377022     16.932121      5.1034055    
   4838000   1.0223193      16.947294      5.1056602    
   4839000   1.0938714      16.839735      5.0780312    
   4840000   0.97476057     16.341479      5.1060233    
   4841000   0.99444096     17.003546      5.0827861    
   4842000   0.99246201     16.756593      5.1318195    
   4843000   0.99473741     16.138836      5.1117629    
   4844000   1.0052528      16.730006      5.0824209    
   4845000   1.0097502      16.895629      5.0662444    
   4846000   0.98644097     16.639091      5.0804806    
   4847000   0.96778602     16.811767      5.0869314    
   4848000   1.0346842      16.855593      5.0785576    
   4849000   1.0078817      16.736463      5.0713008    
   4850000   0.98980981     16.537437      5.1076441    
   4851000   1.0105192      16.687266      5.0443292    
   4852000   0.97290447     16.264928      5.107021     
   4853000   1.0346523      16.661956      5.0726329    
   4854000   1.0101447      17.041267      5.0711481    
   4855000   1.00441        16.518961      5.0794209    
   4856000   1.0148293      17.153718      5.04302      
   4857000   0.93616964     16.528656      5.0725654    
   4858000   0.97258262     16.226248      5.0526474    
   4859000   1.0351386      16.511248      5.0652727    
   4860000   1.0002296      17.052035      5.0727612    
   4861000   0.98789973     16.824214      5.0698986    
   4862000   0.99843457     17.08801       5.045749     
   4863000   0.99160704     16.984177      5.0514441    
   4864000   1.0350107      16.77394       5.0845076    
   4865000   1.0032457      17.090652      5.07704      
   4866000   0.94058719     17.471265      5.0715916    
   4867000   0.9686792      16.781666      5.0693773    
   4868000   1.004017       16.834287      5.1005199    
   4869000   1.0709973      16.977059      5.0759872    
   4870000   1.0128158      16.740016      5.0785648    
   4871000   1.000949       16.857834      5.0615339    
   4872000   0.98491984     16.831258      5.070108     
   4873000   1.0200137      16.746978      5.0816005    
   4874000   1.0209441      16.784075      5.0634737    
   4875000   1.0213137      16.494053      5.1087609    
   4876000   0.99187319     16.225418      5.0813494    
   4877000   0.94405462     16.167048      5.0927057    
   4878000   1.059237       16.738374      5.0883437    
   4879000   1.0297043      16.33859       5.0681584    
   4880000   1.0332508      17.168617      5.0738426    
   4881000   0.98127955     17.228427      5.0544476    
   4882000   1.0459072      16.437137      5.0440069    
   4883000   1.0843237      16.69474       5.082409     
   4884000   0.96867963     16.321149      5.100112     
   4885000   1.0144427      16.777963      5.079393     
   4886000   0.99076422     16.964999      5.0943166    
   4887000   0.97894263     16.858461      5.0751514    
   4888000   1.0303944      16.273537      5.1075429    
   4889000   1.0449723      16.52064       5.1062353    
   4890000   1.0065278      16.462427      5.0737976    
   4891000   0.99888603     16.284205      5.0907064    
   4892000   1.0373294      16.878899      5.0517208    
   4893000   1.0577329      16.90757       5.060526     
   4894000   0.93819291     16.624131      5.0936082    
   4895000   1.0107317      16.260797      5.1083199    
   4896000   1.0067797      16.653341      5.0968535    
   4897000   1.0044425      16.661192      5.0613713    
   4898000   0.98999468     16.66703       5.0356954    
   4899000   1.0271772      16.361919      5.0617073    
   4900000   1.0318767      16.73186       5.0454757    
   4901000   0.97473593     17.334842      5.0426745    
   4902000   1.0090005      17.24544       5.0544734    
   4903000   1.016826       16.718061      5.0586222    
   4904000   1.0407516      16.994122      5.0457552    
   4905000   0.95264792     17.287627      5.0689406    
   4906000   0.97208824     17.176947      5.0613696    
   4907000   1.0258214      16.803521      5.1335041    
   4908000   0.98007773     16.960539      5.0722821    
   4909000   0.96071622     16.177513      5.0976239    
   4910000   1.0175993      16.988848      5.0637126    
   4911000   1.0134403      16.282749      5.1012018    
   4912000   0.94611945     16.716852      5.0583649    
   4913000   0.97483338     16.640255      5.0761007    
   4914000   0.97964961     16.987175      5.0961566    
   4915000   1.0146361      16.562675      5.105467     
   4916000   0.95985006     16.64584       5.0659663    
   4917000   0.97960604     16.52246       5.0958044    
   4918000   1.0104939      16.621364      5.0805077    
   4919000   0.98514225     16.902481      5.1037187    
   4920000   1.0602427      17.155874      5.1245135    
   4921000   0.98803575     15.972025      5.0845228    
   4922000   1.0139961      16.4571        5.0800131    
   4923000   1.0180939      16.558825      5.0773979    
   4924000   0.99803571     16.894626      5.0794084    
   4925000   0.96988551     16.994159      5.0816467    
   4926000   0.96993395     16.73206       5.074443     
   4927000   1.0240394      16.539545      5.0989348    
   4928000   0.99051552     16.406649      5.094665     
   4929000   0.9936545      16.83353       5.104602     
   4930000   1.0149681      16.373168      5.0726622    
   4931000   0.97598286     16.157853      5.0619881    
   4932000   0.93250655     16.590424      5.0788219    
   4933000   1.0178868      17.238861      5.0646775    
   4934000   1.0531282      16.365535      5.0717429    
   4935000   1.0109502      16.420261      5.0744279    
   4936000   1.0548934      16.578606      5.0694352    
   4937000   1.0237892      16.219083      5.0931316    
   4938000   1.0332095      17.070193      5.0741206    
   4939000   1.0148336      16.742821      5.0451084    
   4940000   1.0060109      17.037845      5.067094     
   4941000   0.99547951     16.876249      5.0870972    
   4942000   0.9691825      17.520817      5.0566902    
   4943000   1.0087676      16.319029      5.0952469    
   4944000   1.0248947      17.079272      5.0799233    
   4945000   0.99319986     16.784083      5.0759138    
   4946000   1.0236455      16.736184      5.0823806    
   4947000   0.99400944     16.561278      5.1072925    
   4948000   0.99974928     16.900741      5.0864614    
   4949000   0.96928185     16.871833      5.0412765    
   4950000   1.0090758      17.177777      5.1021083    
   4951000   1.0019607      17.013984      5.0981341    
   4952000   0.99695657     16.768293      5.0706484    
   4953000   0.98788832     16.855202      5.1031906    
   4954000   1.050407       16.6582        5.0635361    
   4955000   1.028197       17.080139      5.0794621    
   4956000   0.97513639     16.5247        5.0874378    
   4957000   1.0351272      17.160001      5.0702955    
   4958000   1.0128837      16.780533      5.0934866    
   4959000   1.0122437      17.260363      5.1107557    
   4960000   1.0020614      17.018229      5.10178      
   4961000   0.99141717     17.400838      5.0877625    
   4962000   1.0063836      16.984265      5.1369151    
   4963000   0.99251352     16.907953      5.0755987    
   4964000   1.009942       16.856117      5.1008896    
   4965000   0.99264647     16.333825      5.0740832    
   4966000   0.96535794     16.741942      5.0499573    
   4967000   0.99400911     17.315797      5.0973925    
   4968000   1.010761       16.259085      5.0887028    
   4969000   1.0261507      16.956137      5.0896556    
   4970000   1.009722       16.661563      5.0839533    
   4971000   0.97242811     17.387654      5.0843584    
   4972000   1.0196907      16.544541      5.0962125    
   4973000   1.0050351      16.172056      5.0879883    
   4974000   1.0069382      16.28699       5.0670853    
   4975000   0.97330856     16.557745      5.0488403    
   4976000   0.99045762     16.967446      5.0991145    
   4977000   1.0155362      16.135156      5.0528575    
   4978000   1.0172463      16.899051      5.0678854    
   4979000   0.97981409     17.221035      5.0734614    
   4980000   1.0073545      16.695448      5.0870215    
   4981000   0.99899141     16.947717      5.0461112    
   4982000   0.98208336     15.951623      5.0617637    
   4983000   1.003313       16.637494      5.0874423    
   4984000   0.97180074     16.361015      5.0860997    
   4985000   0.99515053     16.488958      5.0767017    
   4986000   1.0217045      16.439963      5.0521681    
   4987000   0.96408505     16.593837      5.113546     
   4988000   1.0163708      16.271217      5.088865     
   4989000   1.0071439      17.02838       5.0960287    
   4990000   1.0187325      17.125841      5.0599557    
   4991000   0.97481326     16.89403       5.0403344    
   4992000   0.96541544     16.212069      5.0959436    
   4993000   1.0102763      16.751905      5.0607213    
   4994000   1.0366141      17.445535      5.0527008    
   4995000   1.0098752      16.277887      5.0626378    
   4996000   1.0345327      16.639708      5.0407085    
   4997000   0.97296237     17.141564      5.0637341    
   4998000   0.99430098     16.617712      5.0586694    
   4999000   1.0172105      16.961351      5.0799996    
   5000000   1.0268356      16.572339      5.0894096    
   5001000   1.0088115      16.829728      5.0554679    
   5002000   0.96718157     16.618807      5.1025858    
   5003000   0.9707889      16.591231      5.0802884    
   5004000   1.0069579      16.095963      5.1036137    
   5005000   1.031771       16.805555      5.0843262    
   5006000   1.0486472      16.40961       5.1055918    
   5007000   1.0322099      16.934604      5.057843     
   5008000   0.99989817     16.950599      5.0451016    
   5009000   1.0024876      16.631807      5.0644629    
   5010000   0.98357156     16.980433      5.0577355    
   5011000   1.0400228      16.316556      5.0865844    
   5012000   1.0300801      16.644899      5.0666281    
   5013000   0.98207034     16.593715      5.0590014    
   5014000   1.0082289      16.702756      5.0858765    
   5015000   1.0163516      17.440543      5.0743721    
   5016000   1.005463       16.705376      5.1084871    
   5017000   0.96171736     16.80263       5.0922712    
   5018000   0.96287546     16.571413      5.1016323    
   5019000   1.0311784      17.069163      5.0836232    
   5020000   1.0120412      17.33848       5.1012678    
   5021000   1.0141327      15.911607      5.1484699    
   5022000   1.0176921      17.053107      5.1443104    
   5023000   1.0419713      16.641743      5.103618     
   5024000   1.0043657      16.814052      5.0884648    
   5025000   1.0034246      16.798118      5.0935554    
   5026000   1.0178782      17.292966      5.1010124    
   5027000   1.060122       17.234029      5.123312     
   5028000   1.0625372      17.053837      5.1368705    
   5029000   0.99114437     17.007887      5.0613078    
   5030000   0.98780355     16.820773      5.0834775    
   5031000   0.97938405     16.438199      5.0903634    
   5032000   0.99950321     16.745889      5.0812382    
   5033000   0.97610576     16.890233      5.0322223    
   5034000   0.98953092     16.760812      5.0834489    
   5035000   1.004704       16.608282      5.0729728    
   5036000   1.0223971      16.70775       5.0909559    
   5037000   0.99498614     17.298373      5.0899193    
   5038000   0.96272091     16.749515      5.1017916    
   5039000   1.0086924      16.919293      5.0608148    
   5040000   0.98201933     17.069138      5.1053339    
   5041000   1.0102527      16.950089      5.0645877    
   5042000   1.0031035      16.254173      5.0649264    
   5043000   0.97701722     16.300693      5.0646852    
   5044000   1.034686       16.851918      5.0532455    
   5045000   0.9867997      16.298351      5.0866807    
   5046000   1.0007387      16.479957      5.094988     
   5047000   0.97587807     16.547754      5.0609338    
   5048000   1.0428122      16.971159      5.0717119    
   5049000   0.97529638     16.998422      5.0792483    
   5050000   1.0309326      16.314743      5.1033032    
   5051000   1.0101211      16.773783      5.0608336    
   5052000   1.013015       15.835896      5.0930392    
   5053000   0.9882038      16.684092      5.0848871    
   5054000   1.0324467      16.600006      5.0659472    
   5055000   0.95159793     16.785071      5.0463152    
   5056000   1.043554       17.068627      5.093252     
   5057000   1.0265228      17.171318      5.049139     
   5058000   0.990892       16.014265      5.0865984    
   5059000   0.97085823     16.949368      5.0662799    
   5060000   1.0033838      16.947823      5.0854137    
   5061000   1.006825       16.979824      5.1098531    
   5062000   0.96317333     17.165116      5.0737187    
   5063000   1.0351687      16.98614       5.0805555    
   5064000   1.0118323      17.080702      5.1032539    
   5065000   1.0063779      16.137359      5.1034224    
   5066000   1.0284549      16.587303      5.0670707    
   5067000   0.95041602     16.812245      5.078522     
   5068000   1.0111953      17.117755      5.0875893    
   5069000   1.0326438      17.023118      5.0629779    
   5070000   1.0400077      17.05282       5.0508701    
   5071000   1.0314559      16.813784      5.0803986    
   5072000   1.0019483      16.204868      5.1066645    
   5073000   1.0244412      16.787907      5.0781335    
   5074000   0.98251232     16.493743      5.0612102    
   5075000   1.0339455      16.246872      5.0804245    
   5076000   1.0024041      16.607172      5.0651095    
   5077000   1.0114255      16.735449      5.0720882    
   5078000   0.99166065     16.349614      5.0743861    
   5079000   0.9860201      16.279736      5.0600353    
   5080000   1.0175971      16.525822      5.0551278    
   5081000   0.99741846     17.125002      5.106906     
   5082000   0.9880835      16.72941       5.0897825    
   5083000   1.0195458      16.625307      5.1159698    
   5084000   1.0139636      16.347389      5.1118041    
   5085000   1.0011824      16.964776      5.0702705    
   5086000   0.97656662     16.344812      5.0714835    
   5087000   0.94788231     16.439063      5.0533885    
   5088000   0.99155902     16.456264      5.0693633    
   5089000   0.98894052     17.285801      5.1021917    
   5090000   0.95943845     15.866871      5.1051512    
   5091000   0.95745951     17.064756      5.0421336    
   5092000   1.0246037      16.415585      5.0629281    
   5093000   0.99976951     16.84227       5.0679994    
   5094000   0.98307098     16.830753      5.0926358    
   5095000   0.99415194     17.070149      5.0611442    
   5096000   1.0075332      17.247449      5.102986     
   5097000   1.030181       16.836751      5.0774282    
   5098000   0.99872632     16.875541      5.0769772    
   5099000   0.99215323     16.854478      5.0607102    
   5100000   1.0241266      17.300339      5.0313223    
Loop time of 10334.2 on 1 procs for 5000000 steps with 1001 atoms

Performance: 418030.932 tau/day, 483.832 timesteps/s
100.0% CPU use with 1 MPI tasks x 1 OpenMP threads

MPI task timing breakdown:
Section |  min time  |  avg time  |  max time  |%varavg| %total
---------------------------------------------------------------
Pair    | 5968.1     | 5968.1     | 5968.1     |   0.0 | 57.75
Bond    | 228.01     | 228.01     | 228.01     |   0.0 |  2.21
Neigh   | 3847.6     | 3847.6     | 3847.6     |   0.0 | 37.23
Comm    | 2.549      | 2.549      | 2.549      |   0.0 |  0.02
Output  | 13.047     | 13.047     | 13.047     |   0.0 |  0.13
Modify  | 245.37     | 245.37     | 245.37     |   0.0 |  2.37
Other   |            | 29.57      |            |       |  0.29

Nlocal:           1001 ave        1001 max        1001 min
Histogram: 1 0 0 0 0 0 0 0 0 0
Nghost:              0 ave           0 max           0 min
Histogram: 1 0 0 0 0 0 0 0 0 0
Neighs:         271570 ave      271570 max      271570 min
Histogram: 1 0 0 0 0 0 0 0 0 0

Total # of neighbors = 271570
Ave neighs/atom = 271.2987
Ave special neighs/atom = 1.998002
Neighbor list builds = 33645
Dangerous builds = 0

# This simulation is done
# Move onto the next one
clear
OMP_NUM_THREADS environment is not set. Defaulting to 1 thread. (src/comm.cpp:98)
  using 1 OpenMP thread(s) per MPI task
next f
jump SELF

###
# Reference paper:
# K. Kremer and G. S. Grest
# Dynamics of entangled linear polymer melts: A molecular-dynamics simulation
# J Chem Phys 92, 5057 (1990)

##################################
# MIHIR: for branched polymers
# LJ minimum first to expand and explore, then collapse
###

###
# Looping through the various plusshaped polymers to simulate,
# define variables to switch through
variable f index bb51nuc1bl25bn4d30tot100 bb101nuc1bl50bn4d30tot200 bb151nuc1bl75bn4d30tot300 bb201nuc1bl100bn4d30tot400 bb251nuc1bl125bn4d30tot500 bb301nuc1bl150bn4d30tot600 bb351nuc1bl175bn4d30tot700 bb401nuc1bl200bn4d30tot800 bb451nuc1bl225bn4d30tot900 bb501nuc1bl250bn4d30tot1000 bb551nuc1bl275bn4d30tot1100 bb601nuc1bl300bn4d30tot1200
###


###
# Box and units  (use LJ units and periodic boundaries)
###

units lj
log plusshaped/logs/$f.log
log plusshaped/logs/bb551nuc1bl275bn4d30tot1100.log
