#atom_style bond #no stiffness
atom_style angle #with stiffness

boundary        p p p
###
# Pair interactions require lists of neighbours to be calculated
###

#neighbor 0.3 bin
neighbor 4 bin

neigh_modify every 1 delay 1 check yes
atom_modify sort 0 0
### Generate RESTART file, SPECIAL format, not a .txt file ###
### Useful if simulation crashes ###

restart 1000000 nuc5branch4/restarts2/$f.restart
restart 1000000 nuc5branch4/restarts2/bb225nuc5bl37bn4d30tot600.restart
#############################



### READ "start" data file ###

read_data nuc5branch4/$f.dat
read_data nuc5branch4/bb225nuc5bl37bn4d30tot600.dat
Reading data file ...
  orthogonal box = (-1000 -1000 -1000) to (1000 1000 1000)
  1 by 1 by 1 MPI processor grid
  reading atoms ...
  597 atoms
  scanning bonds ...
  3 = max bonds/atom
  scanning angles ...
  6 = max angles/atom
  reading bonds ...
  596 bonds
  reading angles ...
  610 angles
Finding 1-2 1-3 1-4 neighbors ...
  special bond factors lj:    0        0        0       
  special bond factors coul:  0        0        0       
     4 = max # of 1-2 neighbors
     4 = max # of 1-3 neighbors
     8 = max # of 1-4 neighbors
    12 = max # of special neighbors
  special bonds CPU = 0.001 seconds
  read_data CPU = 0.083 seconds

######################

### READ "REstart" data file ###

######################



###
# Define groups (atom type 1 is group 'all')
###
group all type 1
597 atoms in group all


###
# Dump configs - "simple dumpings"
###

###
# Dump configs + box coords
###

dump   1   all   custom   1000  nuc5branch4/trjs2/$f.lammpstrj  id  x y z  ix iy iz
dump   1   all   custom   1000  nuc5branch4/trjs2/bb225nuc5bl37bn4d30tot600.lammpstrj  id  x y z  ix iy iz
dump_modify   1   format line "%d %.5f %.5f %.5f %d %d %d"

########################################################################


###################################################################
# Stiffness term
#
# E = K * (1+cos(theta)), K>0
#
angle_style   cosine
#change this coefficient to change stiffness (e.g. 1,5,10)
angle_coeff   1 1.0
###################################################################

###################################################################
# Pair interaction between non-bonded atoms
#
#  Lennard-Jones 12-6 potential with cutoff:
#  potential E=4epsilon[ (sigma/r)^12 - (sigma/r)^6]  for r<r_cut
#
#  1.12246 = 2^(1/6) is the minimum of the potential


pair_style      lj/cut 1.12246152962189
#pair_style      lj/cut 3

#
#  pair_modify shift yes adds a constant to the potential such

#  that E(r_cut)=0. Forces remains unchanged.
#

pair_modify     shift yes

#
#  pair_coeff for lj/cut, specify 4:
#    * atom type interacting with
#    * atom type
#    * epsilon (energy units)
#    * sigma (distance units)
#

pair_coeff      1 1 1.0 1.0
###################################################################

###################################################################
# Pair interaction between non-bonded atoms
#
#  soft potential, for PUSHING apart overlapping atoms
#  potential E=A*(1 + cos(pi*r/r_c))
#
#  1.12246 = 2^(1/6) is the cut-off r_c

#pair_style     soft 1.12246152962189

#
#  pair_coeff for soft, specify 3:
#    * atom type interacting with
#    * atom type
#    * A
#
#

#pair_coeff      1 1 100.0
###################################################################

###################################################################
# Pair interaction between bonded atoms
#
# Fene potential + Lennard Jones 12-6:

#
#  E= - 0.5 K R0^2 ln[ 1- (r/R0)^2]
#     + 4epsilon[ (sigma/r)^12 - (sigma/r)^6] + epsilon
#

bond_style   fene


#
# For style fene, specify:
#   * bond type
#   * K (energy/distance^2)
#   * R0 (distance)
#   * epsilon (energy)  (LJ component)
#   * sigma (distance)  (LJ component)
#


special_bonds fene #<=== I M P O R T A N T (new command)
Finding 1-2 1-3 1-4 neighbors ...
  special bond factors lj:    0        1        1       
  special bond factors coul:  0        1        1       
     4 = max # of 1-2 neighbors
    12 = max # of special neighbors
  special bonds CPU = 0.000 seconds

bond_coeff   1   30   2   1.0   1.0


###################################################

###################################################################
# Pair interaction between bonded atoms
#
# Harmonic potential:
#
#  E= K * (R-R0)^2
#

#bond_style   harmonic

#
# For style harmonic, specify:
#   * bond type
#   * K (energy/distance^2)
#   * R0 (distance)
#

#bond_coeff   1   60.0   1.0
#bond_coeff   2   harmonic 0.1   1.0

###################################################
compute 1 all gyration
variable rog equal c_1
#compute 2 all coord/atom cutoff 1.1

#dump 2 all custom 10000 contact_number.dump id c_2


###
# Set up fixes
###
thermo_style   custom   step  temp enthalpy c_1
fix 1 all nve   ###NVE ensemble

fix 2 all   langevin   1.0 1.0 1.0  778655   ###Langevin integrator Tstart Tstop 1/friction rndseed


##### Sample thermodynamic info  (temperature, energy, pressure, etc.) #####
thermo 1000









############################################################################

###
# set timestep of integrator

timestep 0.01

###
# run integration for a number of steps
###
#run 0
#variable r equal c_1
#if "$r < 63.1" then "quit 1"

# lj potential minimum, cause molecule to explore
run 100000
Generated 0 of 0 mixed pair_coeff terms from geometric mixing rule
Last active /omp style is angle_style cosine/omp
Neighbor list info ...
  update: every = 1 steps, delay = 1 steps, check = yes
  max neighbors/atom: 2000, page size: 100000
  master list distance cutoff = 5.1224615
  ghost atom cutoff = 5.1224615
  binsize = 2.5612308, bins = 781 781 781
  1 neighbor lists, perpetual/occasional/extra = 1 0 0
  (1) pair lj/cut/omp, perpetual
      attributes: half, newton on, omp
      pair build: half/bin/newton/omp
      stencil: half/bin/3d
      bin: standard
WARNING: Communication cutoff 5.12246152962189 is shorter than a bond length based estimate of 5.455. This may lead to errors. (src/comm.cpp:723)
Per MPI rank memory allocation (min/avg/max) = 1861 | 1861 | 1861 Mbytes
   Step          Temp         Enthalpy         c_1      
         0   0              13.233278      46.672122    
      1000   0.98259028     18.632122      45.668115    
      2000   0.9716373      19.919056      44.856467    
      3000   0.96978805     19.139088      44.263512    
      4000   1.1158669      19.637513      43.617648    
      5000   0.99220466     20.2721        43.07628     
      6000   1.0088145      20.750828      42.673659    
      7000   0.98903076     19.481981      42.786318    
      8000   1.0322257      20.510556      42.167181    
      9000   1.0174754      20.451403      41.864805    
     10000   1.0521558      20.70058       41.695365    
     11000   0.98356527     20.52506       41.917454    
     12000   0.99841037     20.567317      41.867088    
     13000   1.024421       20.068008      41.635848    
     14000   1.0103185      20.859193      41.466048    
     15000   1.0529173      19.9591        41.308708    
     16000   1.0062978      20.345147      41.259286    
     17000   0.96309985     20.227317      41.001969    
     18000   1.0765645      19.968485      40.963158    
     19000   0.96786678     20.568814      41.205415    
     20000   1.0253999      20.109499      41.317006    
     21000   1.0010337      19.877707      41.40296     
     22000   0.97529114     20.062403      41.017374    
     23000   1.0136691      20.278582      40.684785    
     24000   1.0229254      20.274404      40.44717     
     25000   1.0522299      20.412952      40.291402    
     26000   0.98363802     20.450044      40.068249    
     27000   0.99485493     20.090195      40.039397    
     28000   1.0326642      20.640093      39.80466     
     29000   0.9613805      20.363174      39.575673    
     30000   1.0184282      19.839983      39.455679    
     31000   1.0197894      20.612033      39.399456    
     32000   1.0039475      20.702358      39.385061    
     33000   0.97556442     20.469967      39.483202    
     34000   1.0222155      20.189068      39.471326    
     35000   0.99845401     20.515285      39.336989    
     36000   0.94580173     19.606842      39.289031    
     37000   1.0021531      20.115469      39.381105    
     38000   1.0002345      20.511432      39.269194    
     39000   1.0206419      20.771084      39.325301    
     40000   0.97826755     19.861791      39.205721    
     41000   1.0000489      20.35457       39.206458    
     42000   0.98781602     20.273988      39.303141    
     43000   1.0116706      21.11384       39.084231    
     44000   0.98269313     20.806802      39.102498    
     45000   0.98890614     20.26517       38.879437    
     46000   1.0339968      20.580006      38.78086     
     47000   1.0428971      20.55815       38.589231    
     48000   1.0089086      20.706652      38.392322    
     49000   0.97518657     20.505495      37.955724    
     50000   1.0280607      20.760024      38.031095    
     51000   1.002341       20.501077      38.34242     
     52000   0.99789395     20.172753      38.435836    
     53000   0.96216019     20.574208      38.690703    
     54000   1.0352139      20.151098      38.90494     
     55000   0.94644718     19.968797      38.827423    
     56000   1.0330074      20.357617      38.899755    
     57000   0.95848925     20.31041       39.002804    
     58000   0.94489774     20.468449      39.188582    
     59000   0.95955278     20.536413      39.175732    
     60000   0.979334       20.693028      39.265367    
     61000   0.98867237     20.132496      38.997191    
     62000   0.97767979     20.604064      39.054811    
     63000   0.99850413     20.422891      38.997665    
     64000   0.96185418     20.313698      38.748421    
     65000   0.98720251     19.928843      38.663715    
     66000   0.95122812     20.239804      38.573638    
     67000   1.0350928      20.670612      38.441986    
     68000   1.0436157      19.949154      38.62619     
     69000   0.98755655     20.278457      38.752636    
     70000   1.020897       19.854129      38.625733    
     71000   1.0256403      20.803668      38.850105    
     72000   1.0146336      20.705307      38.897381    
     73000   0.98613742     19.923683      38.805804    
     74000   0.96261281     20.054896      38.347355    
     75000   1.0554037      20.579763      38.357123    
     76000   1.0231988      20.364522      38.020406    
     77000   0.97868618     20.906547      37.677169    
     78000   1.0365086      20.553924      37.655207    
     79000   1.0233691      19.832035      37.610074    
     80000   0.99194993     21.143784      37.5341      
     81000   1.0502472      20.236694      37.375712    
     82000   0.96902909     19.857655      37.348678    
     83000   0.99173262     20.688913      37.095278    
     84000   1.0206882      20.21965       37.17024     
     85000   0.98532604     20.900496      37.288152    
     86000   1.028058       21.239762      37.220048    
     87000   1.0030847      20.469981      37.043925    
     88000   1.0679108      20.690154      37.104397    
     89000   1.0240411      20.432178      37.000611    
     90000   1.044026       20.777119      37.064993    
     91000   1.0380889      20.509148      36.839198    
     92000   0.98932686     20.373952      36.872169    
     93000   0.9411166      20.839647      36.890078    
     94000   1.0294591      21.178219      37.003348    
     95000   1.0202214      20.972933      37.091395    
     96000   1.0383287      20.790291      37.335794    
     97000   0.91679784     20.311012      37.386997    
     98000   1.0107753      20.635195      37.524549    
     99000   0.98553016     20.583805      37.515308    
    100000   0.98263242     20.243654      37.592067    
Loop time of 403.412 on 2 procs for 100000 steps with 597 atoms

Performance: 214172.898 tau/day, 247.885 timesteps/s
102.3% CPU use with 1 MPI tasks x 2 OpenMP threads

MPI task timing breakdown:
Section |  min time  |  avg time  |  max time  |%varavg| %total
---------------------------------------------------------------
Pair    | 1.3725     | 1.3725     | 1.3725     |   0.0 |  0.34
Bond    | 1.812      | 1.812      | 1.812      |   0.0 |  0.45
Neigh   | 395.98     | 395.98     | 395.98     |   0.0 | 98.16
Comm    | 0.032781   | 0.032781   | 0.032781   |   0.0 |  0.01
Output  | 0.23675    | 0.23675    | 0.23675    |   0.0 |  0.06
Modify  | 3.7029     | 3.7029     | 3.7029     |   0.0 |  0.92
Other   |            | 0.2756     |            |       |  0.07

Nlocal:            597 ave         597 max         597 min
Histogram: 1 0 0 0 0 0 0 0 0 0
Nghost:              0 ave           0 max           0 min
Histogram: 1 0 0 0 0 0 0 0 0 0
Neighs:           6148 ave        6148 max        6148 min
Histogram: 1 0 0 0 0 0 0 0 0 0

Total # of neighbors = 6148
Ave neighs/atom = 10.298157
Ave special neighs/atom = 1.9966499
Neighbor list builds = 1147
Dangerous builds = 0

# Replace lj potential, now collapse
pair_style      lj/cut 3

# Cutoff simul when gyration under 10
# Variable created with equal requires v_ + 'name'
fix 3 all halt 1000 v_rog < 7

run 3000000
Generated 0 of 0 mixed pair_coeff terms from geometric mixing rule
Last active /omp style is angle_style cosine/omp
Per MPI rank memory allocation (min/avg/max) = 1861 | 1861 | 1861 Mbytes
   Step          Temp         Enthalpy         c_1      
    100000   0.98263242     19.338352      37.592067    
    101000   0.96853702     19.649017      37.244479    
    102000   1.0105706      19.283473      36.921434    
    103000   1.0345817      19.344165      36.983693    
    104000   0.9985666      19.454842      36.899171    
    105000   1.0441137      19.666693      36.667925    
    106000   0.96700157     18.865076      36.437602    
    107000   1.0072655      18.385731      36.184577    
    108000   0.98754933     18.967821      35.811419    
    109000   0.99171813     18.672244      35.651013    
    110000   1.063844       18.078163      35.585286    
    111000   0.99247006     17.802977      35.629142    
    112000   1.0200931      18.607169      35.389095    
    113000   1.0249231      18.251448      34.944533    
    114000   1.001442       17.790563      34.81386     
    115000   0.96523046     17.843597      34.705971    
    116000   1.0199786      18.210337      34.509609    
    117000   0.98517275     18.063483      34.209907    
    118000   0.98329985     17.144442      33.913873    
    119000   1.0008821      17.927082      33.493781    
    120000   1.0176031      18.361003      33.229733    
    121000   1.0411769      18.025922      33.254198    
    122000   1.0506064      17.994839      33.084809    
    123000   1.0039483      18.092252      32.72603     
    124000   1.0305543      18.422705      32.938883    
    125000   0.97037066     18.038107      33.287453    
    126000   1.0383738      17.800975      33.268595    
    127000   1.0021876      17.747328      33.189747    
    128000   1.0466189      18.207396      32.982989    
    129000   1.0067601      18.108047      32.898663    
    130000   0.96387356     18.268039      32.712845    
    131000   0.94425816     18.073469      32.519658    
    132000   0.94440937     18.011924      32.1979      
    133000   1.0230792      17.579999      31.907       
    134000   1.0070059      19.002214      31.738681    
    135000   0.97381094     18.602606      31.573908    
    136000   1.0550227      18.295282      31.654868    
    137000   0.9701638      17.858802      31.64629     
    138000   0.96082287     17.672562      31.695121    
    139000   1.0342029      18.141684      31.60512     
    140000   1.0224409      18.181064      31.606589    
    141000   0.99855967     17.419732      31.702252    
    142000   1.0017234      17.998583      31.612587    
    143000   1.0437249      17.342558      31.253873    
    144000   0.95938122     18.182521      31.283083    
    145000   0.99048896     17.980115      31.291059    
    146000   1.0147701      18.052342      31.105232    
    147000   1.0548259      18.683407      31.125394    
    148000   1.0026095      19.264354      30.78406     
    149000   0.97478775     17.357116      30.700102    
    150000   0.97242007     17.843289      30.612231    
    151000   1.0716384      18.518868      30.641697    
    152000   0.96386135     19.234771      30.450682    
    153000   0.96955217     18.018114      30.010963    
    154000   1.0030258      18.289771      29.787723    
    155000   0.99547989     17.824494      29.75542     
    156000   1.0098937      17.577968      29.640335    
    157000   1.0653252      18.046661      29.473216    
    158000   0.95905744     17.577992      29.445273    
    159000   1.0558874      18.199762      29.47298     
    160000   1.0142439      18.132614      29.719283    
    161000   1.0245228      17.835117      29.421956    
    162000   0.99100027     17.879792      29.220092    
    163000   0.99434195     18.286187      29.182694    
    164000   1.0066762      18.343118      28.699135    
    165000   1.0352713      18.585683      28.697084    
    166000   1.0343447      17.722268      28.672931    
    167000   0.99262979     18.381732      28.22946     
    168000   1.0240123      17.930244      28.261513    
    169000   1.0308711      17.806141      28.3606      
    170000   1.0108191      17.915242      28.282672    
    171000   0.99598485     17.603517      27.765231    
    172000   1.0406331      17.990101      27.746786    
    173000   1.0455661      17.723702      27.528392    
    174000   0.97022623     18.127852      27.56872     
    175000   0.93876528     17.867179      27.196716    
    176000   0.99860523     18.295559      27.194304    
    177000   1.0075711      17.853652      27.13867     
    178000   0.98650598     17.765862      27.219799    
    179000   1.0044915      17.502247      27.349713    
    180000   0.99771611     18.7084        27.403714    
    181000   1.0006891      17.440721      27.375834    
    182000   1.025736       17.857548      27.343708    
    183000   0.98713769     17.99462       27.241392    
    184000   1.0192759      17.582391      27.108848    
    185000   0.91119182     17.920109      27.219732    
    186000   0.99087837     17.286378      27.196675    
    187000   0.96816103     17.608928      27.349972    
    188000   1.0099678      18.403988      27.301891    
    189000   1.001815       17.712367      27.306704    
    190000   1.0567033      18.525137      27.28871     
    191000   1.0780762      17.112486      27.318272    
    192000   0.96078072     17.9853        27.391561    
    193000   0.97716928     17.629136      27.24284     
    194000   0.96848596     17.809708      27.397398    
    195000   0.99997007     17.176488      27.474095    
    196000   0.97919899     18.06152       27.453799    
    197000   1.0187588      17.980927      27.275486    
    198000   0.96340028     18.245926      26.864367    
    199000   0.9440217      17.707328      26.514072    
    200000   1.0201585      18.326546      26.704717    
    201000   0.97491577     18.071235      26.457969    
    202000   0.98661088     18.211387      26.338709    
    203000   0.9588839      17.66664       25.809362    
    204000   0.96066593     17.760673      25.721781    
    205000   1.0105727      17.671802      25.777339    
    206000   1.0283138      18.411789      25.522724    
    207000   1.0114738      17.954584      25.121118    
    208000   0.95932885     17.822231      24.775014    
    209000   1.0014847      17.771592      24.564096    
    210000   1.0175483      17.641269      24.203035    
    211000   1.0120627      17.446007      23.868703    
    212000   0.97673096     17.918493      23.868997    
    213000   0.97443186     17.909282      23.671846    
    214000   1.0330718      18.878007      23.555354    
    215000   0.96677243     17.885765      23.449105    
    216000   0.99878497     17.392184      23.688975    
    217000   1.0565841      18.262995      23.554429    
    218000   0.98438362     18.062921      23.055373    
    219000   0.95720342     17.685433      22.847431    
    220000   1.0524334      17.359503      22.680294    
    221000   0.96731892     17.770276      22.846107    
    222000   1.0191768      17.441804      22.732759    
    223000   1.013143       17.660608      22.839956    
    224000   1.02137        17.83193       22.819848    
    225000   1.0503207      17.849917      22.580525    
    226000   0.96637279     18.127753      22.386772    
    227000   0.99280176     18.197636      22.113162    
    228000   0.96989453     17.664883      21.803773    
    229000   0.98205297     17.348875      21.488426    
    230000   1.0259564      17.009257      21.49721     
    231000   1.0072235      17.504013      21.343533    
    232000   0.95805681     17.734015      21.250155    
    233000   0.98312475     18.029585      21.513691    
    234000   0.98232331     17.071692      21.219693    
    235000   0.95808036     17.590775      21.063702    
    236000   1.0090912      17.501375      20.615469    
    237000   0.99087382     17.331843      20.729627    
    238000   0.95777763     16.750107      20.604524    
    239000   0.92602539     17.655002      20.459134    
    240000   1.0830889      17.801509      20.3068      
    241000   0.91824706     17.325408      19.974817    
    242000   1.0223463      18.053047      19.802518    
    243000   0.91393826     17.845378      19.865103    
    244000   1.0449811      17.481353      19.848995    
    245000   0.95851916     17.008966      19.644801    
    246000   0.95308227     18.222359      19.382647    
    247000   1.0355947      17.029467      19.2345      
    248000   0.95807803     18.038192      18.721383    
    249000   0.9457525      16.832274      18.832601    
    250000   1.0188762      17.815958      18.639495    
    251000   1.0867985      17.551662      18.489885    
    252000   1.0015227      17.842476      18.05764     
    253000   1.0149909      17.322439      17.695913    
    254000   0.96752793     17.724706      17.551243    
    255000   1.0220828      17.700296      17.137227    
    256000   1.0129036      17.953106      16.714688    
    257000   1.0252997      17.956374      16.557994    
    258000   1.0107449      16.718615      16.404672    
    259000   0.98619451     18.354315      16.29594     
    260000   1.0303984      17.31088       16.114186    
    261000   0.99603767     16.72878       16.265504    
    262000   1.0591123      17.773442      16.025529    
    263000   1.0496154      17.644143      15.82385     
    264000   1.0007832      16.962983      15.77751     
    265000   1.0033574      16.998773      15.797904    
    266000   0.96718259     17.061055      15.392383    
    267000   0.99947947     17.595603      15.592138    
    268000   0.98103663     17.370259      15.527828    
    269000   0.97984382     16.609254      15.450258    
    270000   1.0175365      16.819237      15.391744    
    271000   0.99952442     16.973381      15.295711    
    272000   0.94101879     16.635548      15.245892    
    273000   1.0144004      16.535977      14.961069    
    274000   0.95670433     17.213139      14.882433    
    275000   1.0087893      17.896776      14.638526    
    276000   1.0311976      17.59921       14.360831    
    277000   0.98418388     16.587746      14.190838    
    278000   0.94972755     17.838905      13.968288    
    279000   0.97868529     16.78442       13.916329    
    280000   1.0058858      17.629331      13.86643     
    281000   0.96443358     17.433454      13.651308    
    282000   1.0289183      17.489626      13.351137    
    283000   1.0454423      17.804606      13.418684    
    284000   0.99487118     17.308146      13.383287    
    285000   0.96905213     17.933062      13.057896    
    286000   0.93686369     17.22495       12.999627    
    287000   1.0102709      17.690433      13.049666    
    288000   0.9610573      17.566562      12.967146    
    289000   1.0274031      17.766014      12.71061     
    290000   1.0179408      17.276867      12.970802    
    291000   1.0812362      17.340207      12.976309    
    292000   1.0570963      18.458662      12.651123    
    293000   0.98463477     17.069624      12.779776    
    294000   1.0380755      17.673473      12.671922    
    295000   1.0452882      17.66143       12.342473    
    296000   0.98907552     17.163846      12.524856    
    297000   0.96484208     17.545033      12.408512    
    298000   0.97233839     17.781528      12.098831    
    299000   1.053685       17.886143      12.123477    
    300000   0.98958244     16.618003      12.022123    
    301000   0.99740207     17.589217      12.236941    
    302000   1.0271124      17.465385      12.331787    
    303000   0.95521796     17.895409      12.42396     
    304000   1.0023171      17.286885      12.332542    
    305000   1.0458563      17.810509      12.008989    
    306000   1.0006109      17.668384      11.929666    
    307000   1.0313898      18.14006       11.749744    
    308000   0.97649955     18.017666      11.56399     
    309000   1.054556       16.929812      11.815345    
    310000   0.99713104     17.60495       11.732507    
    311000   1.0219925      17.419749      11.734606    
    312000   1.0072622      17.626833      11.490591    
    313000   0.98797452     18.037173      11.438976    
    314000   0.97438571     16.883133      11.392053    
    315000   0.96153154     17.057773      10.948564    
    316000   1.0109052      17.189044      10.903074    
    317000   0.96476094     17.139234      10.725971    
    318000   1.0166114      17.24253       10.718976    
    319000   0.95364468     17.92478       10.48642     
    320000   1.0294785      18.153336      10.737725    
    321000   1.0032566      17.436492      10.700752    
    322000   1.0186927      17.277878      10.557172    
    323000   0.97019627     17.226407      10.326295    
    324000   1.0194452      16.7288        10.111662    
    325000   1.0104155      17.314668      9.9242055    
    326000   1.0311032      16.952024      10.111482    
    327000   0.98566213     18.123332      10.057584    
    328000   1.0223765      17.516756      9.892408     
    329000   1.0017299      17.484085      9.7727937    
    330000   1.0111492      18.302542      9.9483327    
    331000   0.97118855     17.500081      9.9527433    
    332000   0.96037866     16.902063      9.9858032    
    333000   1.0348635      17.986055      9.5571877    
    334000   0.97403606     17.65273       9.4718366    
    335000   1.0371727      17.415991      9.4015191    
    336000   1.0462724      17.472543      9.4634763    
    337000   1.0158616      17.685699      9.249879     
    338000   1.0569795      17.240535      9.1460256    
    339000   1.0441515      16.738402      8.8689614    
    340000   1.0105852      18.076279      8.6156354    
    341000   0.9997695      16.849842      8.7963636    
    342000   1.0559527      18.531103      8.719091     
    343000   0.96807406     17.889469      8.9395557    
    344000   1.0361141      16.575512      9.0034665    
    345000   1.0222489      17.478863      8.8097181    
    346000   1.0088679      17.449797      8.5283536    
    347000   1.0592925      18.282578      8.4720008    
    348000   1.0406242      17.729693      8.19245      
    349000   1.0218262      17.671972      8.0485757    
    350000   0.95025211     16.481214      8.1043742    
    351000   1.0823627      17.702983      8.055542     
    352000   1.0133795      17.871349      7.8785204    
    353000   1.0038968      16.337933      7.8350583    
    354000   0.99607041     17.798082      7.7804784    
    355000   1.0081909      17.191073      7.7479429    
    356000   0.98309371     17.506727      7.3775077    
    357000   1.0753043      18.103234      7.3394846    
    358000   1.0085357      17.100959      7.3071355    
    359000   0.99182622     17.0106        7.1774089    
Fix halt condition for fix-id 3 met on step 360000 with value 6.831357460128262 (src/fix_halt.cpp:237)
    360000   0.99044883     16.96366       6.8313575    
Loop time of 391.291 on 2 procs for 260000 steps with 597 atoms

Performance: 574099.091 tau/day, 664.467 timesteps/s
123.1% CPU use with 1 MPI tasks x 2 OpenMP threads

MPI task timing breakdown:
Section |  min time  |  avg time  |  max time  |%varavg| %total
---------------------------------------------------------------
Pair    | 68.214     | 68.214     | 68.214     |   0.0 | 17.43
Bond    | 5.5392     | 5.5392     | 5.5392     |   0.0 |  1.42
Neigh   | 305.08     | 305.08     | 305.08     |   0.0 | 77.97
Comm    | 0.10795    | 0.10795    | 0.10795    |   0.0 |  0.03
Output  | 0.67165    | 0.67165    | 0.67165    |   0.0 |  0.17
Modify  | 10.807     | 10.807     | 10.807     |   0.0 |  2.76
Other   |            | 0.8696     |            |       |  0.22

Nlocal:            597 ave         597 max         597 min
Histogram: 1 0 0 0 0 0 0 0 0 0
Nghost:              0 ave           0 max           0 min
Histogram: 1 0 0 0 0 0 0 0 0 0
Neighs:          84040 ave       84040 max       84040 min
Histogram: 1 0 0 0 0 0 0 0 0 0

Total # of neighbors = 84040
Ave neighs/atom = 140.77052
Ave special neighs/atom = 1.9966499
Neighbor list builds = 2094
Dangerous builds = 0

# This simulation is done
# Move onto the next one
clear
  using 2 OpenMP thread(s) per MPI task
package omp 0
using multi-threaded neighbor list subroutines
next f
jump SELF

###
# Reference paper:
# K. Kremer and G. S. Grest
# Dynamics of entangled linear polymer melts: A molecular-dynamics simulation
# J Chem Phys 92, 5057 (1990)

##################################
# MIHIR: for branched polymers
# LJ minimum first to expand and explore, then collapse
###

###
# Looping through the various nuc5branch4 polymers to simulate,
# define variables to switch through
variable f index bb37nuc5bl6bn4d30tot100 bb75nuc5bl12bn4d30tot200 bb112nuc5bl18bn4d30tot300 bb150nuc5bl25bn4d30tot400 bb187nuc5bl31bn4d30tot500 bb225nuc5bl37bn4d30tot600 bb262nuc5bl43bn4d30tot700 bb300nuc5bl50bn4d30tot800 bb337nuc5bl56bn4d30tot900 bb375nuc5bl62bn4d30tot1000 bb412nuc5bl68bn4d30tot1100 bb450nuc5bl75bn4d30tot1200
# variable f index bb75nuc5bl12bn4d30tot200
# variable f index bb337nuc5bl56bn4d30tot900
###


###
# Box and units  (use LJ units and periodic boundaries)
###

units lj
log nuc5branch4/logs2/$f.log
log nuc5branch4/logs2/bb262nuc5bl43bn4d30tot700.log
