#atom_style bond #no stiffness
atom_style angle #with stiffness

boundary        p p p
###
# Pair interactions require lists of neighbours to be calculated
###

#neighbor 0.3 bin
neighbor 4 bin

neigh_modify every 1 delay 1 check yes
atom_modify sort 0 0
### Generate RESTART file, SPECIAL format, not a .txt file ###
### Useful if simulation crashes ###

restart 1000000 nuc5branch4/restarts2/$f.restart
restart 1000000 nuc5branch4/restarts2/bb262nuc5bl43bn4d30tot700.restart
#############################



### READ "start" data file ###

read_data nuc5branch4/$f.dat
read_data nuc5branch4/bb262nuc5bl43bn4d30tot700.dat
Reading data file ...
  orthogonal box = (-1000 -1000 -1000) to (1000 1000 1000)
  1 by 1 by 1 MPI processor grid
  reading atoms ...
  693 atoms
  scanning bonds ...
  3 = max bonds/atom
  scanning angles ...
  6 = max angles/atom
  reading bonds ...
  692 bonds
  reading angles ...
  706 angles
Finding 1-2 1-3 1-4 neighbors ...
  special bond factors lj:    0        0        0       
  special bond factors coul:  0        0        0       
     4 = max # of 1-2 neighbors
     4 = max # of 1-3 neighbors
     8 = max # of 1-4 neighbors
    12 = max # of special neighbors
  special bonds CPU = 0.001 seconds
  read_data CPU = 0.097 seconds

######################

### READ "REstart" data file ###

######################



###
# Define groups (atom type 1 is group 'all')
###
group all type 1
693 atoms in group all


###
# Dump configs - "simple dumpings"
###

###
# Dump configs + box coords
###

dump   1   all   custom   1000  nuc5branch4/trjs2/$f.lammpstrj  id  x y z  ix iy iz
dump   1   all   custom   1000  nuc5branch4/trjs2/bb262nuc5bl43bn4d30tot700.lammpstrj  id  x y z  ix iy iz
dump_modify   1   format line "%d %.5f %.5f %.5f %d %d %d"

########################################################################


###################################################################
# Stiffness term
#
# E = K * (1+cos(theta)), K>0
#
angle_style   cosine
#change this coefficient to change stiffness (e.g. 1,5,10)
angle_coeff   1 1.0
###################################################################

###################################################################
# Pair interaction between non-bonded atoms
#
#  Lennard-Jones 12-6 potential with cutoff:
#  potential E=4epsilon[ (sigma/r)^12 - (sigma/r)^6]  for r<r_cut
#
#  1.12246 = 2^(1/6) is the minimum of the potential


pair_style      lj/cut 1.12246152962189
#pair_style      lj/cut 3

#
#  pair_modify shift yes adds a constant to the potential such

#  that E(r_cut)=0. Forces remains unchanged.
#

pair_modify     shift yes

#
#  pair_coeff for lj/cut, specify 4:
#    * atom type interacting with
#    * atom type
#    * epsilon (energy units)
#    * sigma (distance units)
#

pair_coeff      1 1 1.0 1.0
###################################################################

###################################################################
# Pair interaction between non-bonded atoms
#
#  soft potential, for PUSHING apart overlapping atoms
#  potential E=A*(1 + cos(pi*r/r_c))
#
#  1.12246 = 2^(1/6) is the cut-off r_c

#pair_style     soft 1.12246152962189

#
#  pair_coeff for soft, specify 3:
#    * atom type interacting with
#    * atom type
#    * A
#
#

#pair_coeff      1 1 100.0
###################################################################

###################################################################
# Pair interaction between bonded atoms
#
# Fene potential + Lennard Jones 12-6:

#
#  E= - 0.5 K R0^2 ln[ 1- (r/R0)^2]
#     + 4epsilon[ (sigma/r)^12 - (sigma/r)^6] + epsilon
#

bond_style   fene


#
# For style fene, specify:
#   * bond type
#   * K (energy/distance^2)
#   * R0 (distance)
#   * epsilon (energy)  (LJ component)
#   * sigma (distance)  (LJ component)
#


special_bonds fene #<=== I M P O R T A N T (new command)
Finding 1-2 1-3 1-4 neighbors ...
  special bond factors lj:    0        1        1       
  special bond factors coul:  0        1        1       
     4 = max # of 1-2 neighbors
    12 = max # of special neighbors
  special bonds CPU = 0.000 seconds

bond_coeff   1   30   2   1.0   1.0


###################################################

###################################################################
# Pair interaction between bonded atoms
#
# Harmonic potential:
#
#  E= K * (R-R0)^2
#

#bond_style   harmonic

#
# For style harmonic, specify:
#   * bond type
#   * K (energy/distance^2)
#   * R0 (distance)
#

#bond_coeff   1   60.0   1.0
#bond_coeff   2   harmonic 0.1   1.0

###################################################
compute 1 all gyration
variable rog equal c_1
#compute 2 all coord/atom cutoff 1.1

#dump 2 all custom 10000 contact_number.dump id c_2


###
# Set up fixes
###
thermo_style   custom   step  temp enthalpy c_1
fix 1 all nve   ###NVE ensemble

fix 2 all   langevin   1.0 1.0 1.0  778655   ###Langevin integrator Tstart Tstop 1/friction rndseed


##### Sample thermodynamic info  (temperature, energy, pressure, etc.) #####
thermo 1000









############################################################################

###
# set timestep of integrator

timestep 0.01

###
# run integration for a number of steps
###
#run 0
#variable r equal c_1
#if "$r < 63.1" then "quit 1"

# lj potential minimum, cause molecule to explore
run 100000
Generated 0 of 0 mixed pair_coeff terms from geometric mixing rule
Last active /omp style is angle_style cosine/omp
Neighbor list info ...
  update: every = 1 steps, delay = 1 steps, check = yes
  max neighbors/atom: 2000, page size: 100000
  master list distance cutoff = 5.1224615
  ghost atom cutoff = 5.1224615
  binsize = 2.5612308, bins = 781 781 781
  1 neighbor lists, perpetual/occasional/extra = 1 0 0
  (1) pair lj/cut/omp, perpetual
      attributes: half, newton on, omp
      pair build: half/bin/newton/omp
      stencil: half/bin/3d
      bin: standard
WARNING: Communication cutoff 5.12246152962189 is shorter than a bond length based estimate of 5.455. This may lead to errors. (src/comm.cpp:723)
Per MPI rank memory allocation (min/avg/max) = 1862 | 1862 | 1862 Mbytes
   Step          Temp         Enthalpy         c_1      
         0   0              13.254802      51.600201    
      1000   1.0425164      18.965125      50.593613    
      2000   0.98794904     19.284412      49.825738    
      3000   1.0034955      19.575414      49.086013    
      4000   1.0302201      19.933318      48.606421    
      5000   0.98446559     19.706186      47.908436    
      6000   0.98544385     20.448282      47.770781    
      7000   1.0180013      20.369544      47.337917    
      8000   1.0280608      19.974475      46.927261    
      9000   0.9819417      20.177934      46.933818    
     10000   1.0504934      19.953147      46.770979    
     11000   0.93858905     20.649958      46.221083    
     12000   1.0246812      20.357696      45.921493    
     13000   1.0075322      19.980012      45.42605     
     14000   1.0091435      20.348585      45.231842    
     15000   0.99617062     21.035153      45.076743    
     16000   0.99510477     20.608774      44.868898    
     17000   0.95357532     19.683583      44.837449    
     18000   0.99384136     20.03603       44.782682    
     19000   1.007269       20.20088       44.765489    
     20000   0.99183133     20.199143      44.880304    
     21000   1.0020603      20.558371      44.862824    
     22000   0.99720538     19.887225      44.701976    
     23000   1.0225297      20.316326      44.486698    
     24000   0.99092971     20.319002      44.547888    
     25000   0.96832466     20.786993      44.422296    
     26000   0.96254663     20.132024      44.200147    
     27000   0.99063865     20.629375      43.877951    
     28000   0.97411862     20.723601      43.8288      
     29000   1.0569292      20.048582      43.606122    
     30000   1.0142827      20.522815      43.42602     
     31000   0.99551729     20.644562      43.279438    
     32000   1.0440451      20.16723       43.16446     
     33000   1.0337035      20.163752      42.913597    
     34000   0.97081567     20.214849      42.658246    
     35000   1.0282817      20.426106      42.283404    
     36000   1.0115925      20.444811      41.97215     
     37000   1.0265657      20.541845      42.044745    
     38000   0.97880803     20.444153      42.052108    
     39000   1.0214497      20.261956      42.362151    
     40000   1.0239847      20.590507      42.221445    
     41000   0.97654494     20.974456      41.950401    
     42000   1.0041973      20.024553      41.61513     
     43000   1.0218962      20.466562      41.279534    
     44000   0.986698       20.405431      41.184964    
     45000   1.013848       20.464658      41.097045    
     46000   0.98323142     20.188778      40.996583    
     47000   0.95956477     20.173659      40.934105    
     48000   0.99232388     20.540411      40.703026    
     49000   1.0330288      20.462481      40.775288    
     50000   0.99521214     20.961226      40.564534    
     51000   0.98948416     20.315906      40.93962     
     52000   0.9788108      20.955152      40.777802    
     53000   1.0254991      20.02157       40.791036    
     54000   0.97957596     20.227736      40.884433    
     55000   0.97157016     21.042326      40.784678    
     56000   0.97958201     20.579082      40.616665    
     57000   1.0001613      20.346244      40.509661    
     58000   0.95715508     20.216505      40.444999    
     59000   0.97136613     20.336767      40.162835    
     60000   0.97707903     20.374039      40.159155    
     61000   1.0139361      20.768721      40.134238    
     62000   1.0495487      20.879806      40.237351    
     63000   1.0438606      20.478121      40.496303    
     64000   1.0333816      20.351627      40.547605    
     65000   1.0462212      20.541144      40.281333    
     66000   1.002301       20.461384      40.183753    
     67000   0.98804506     20.152622      40.124345    
     68000   0.96264876     20.719901      40.277316    
     69000   1.012733       21.072615      40.41029     
     70000   0.97992404     20.400443      40.428579    
     71000   1.0291268      20.120836      40.449911    
     72000   1.0143493      21.126553      40.338113    
     73000   1.0554695      20.773725      40.301753    
     74000   0.99759831     20.563796      40.184682    
     75000   1.0382683      20.708447      39.965892    
     76000   0.979856       20.54925       39.790196    
     77000   1.0392002      20.136328      39.812463    
     78000   1.0372734      21.098427      39.861286    
     79000   0.94287257     19.359108      39.900456    
     80000   0.99412906     19.709578      39.822929    
     81000   0.97249349     20.720953      39.695585    
     82000   1.0298217      20.588727      39.569152    
     83000   0.98475404     20.368155      39.459355    
     84000   0.95902527     20.560159      39.286186    
     85000   0.99333917     20.658598      39.289906    
     86000   0.96945732     20.789778      39.384141    
     87000   1.0130795      19.770463      38.807461    
     88000   1.0331063      20.60548       38.922255    
     89000   0.98697717     20.185942      38.799563    
     90000   1.0261342      20.654919      38.878791    
     91000   1.011858       20.69018       38.600084    
     92000   0.98010594     20.896177      38.637443    
     93000   1.0690299      21.100997      38.735934    
     94000   0.98600915     21.169418      38.824974    
     95000   0.96607669     20.851344      38.408643    
     96000   0.99995626     20.277873      38.542261    
     97000   0.98464127     20.541676      38.645927    
     98000   0.9992126      20.547942      38.120952    
     99000   1.0332289      20.406352      37.899677    
    100000   0.94298086     20.427929      37.830684    
Loop time of 448.13 on 2 procs for 100000 steps with 693 atoms

Performance: 192801.121 tau/day, 223.149 timesteps/s
102.5% CPU use with 1 MPI tasks x 2 OpenMP threads

MPI task timing breakdown:
Section |  min time  |  avg time  |  max time  |%varavg| %total
---------------------------------------------------------------
Pair    | 1.6395     | 1.6395     | 1.6395     |   0.0 |  0.37
Bond    | 2.2908     | 2.2908     | 2.2908     |   0.0 |  0.51
Neigh   | 438.93     | 438.93     | 438.93     |   0.0 | 97.95
Comm    | 0.039809   | 0.039809   | 0.039809   |   0.0 |  0.01
Output  | 0.28474    | 0.28474    | 0.28474    |   0.0 |  0.06
Modify  | 4.6122     | 4.6122     | 4.6122     |   0.0 |  1.03
Other   |            | 0.3363     |            |       |  0.08

Nlocal:            693 ave         693 max         693 min
Histogram: 1 0 0 0 0 0 0 0 0 0
Nghost:              0 ave           0 max           0 min
Histogram: 1 0 0 0 0 0 0 0 0 0
Neighs:           7385 ave        7385 max        7385 min
Histogram: 1 0 0 0 0 0 0 0 0 0

Total # of neighbors = 7385
Ave neighs/atom = 10.656566
Ave special neighs/atom = 1.997114
Neighbor list builds = 1154
Dangerous builds = 0

# Replace lj potential, now collapse
pair_style      lj/cut 3

# Cutoff simul when gyration under 10
# Variable created with equal requires v_ + 'name'
fix 3 all halt 1000 v_rog < 7

run 3000000
Generated 0 of 0 mixed pair_coeff terms from geometric mixing rule
Last active /omp style is angle_style cosine/omp
Per MPI rank memory allocation (min/avg/max) = 1862 | 1862 | 1862 Mbytes
   Step          Temp         Enthalpy         c_1      
    100000   0.94298086     19.447908      37.830684    
    101000   0.97213072     18.979529      37.408912    
    102000   1.0374463      19.283101      37.105771    
    103000   0.95273125     18.851549      36.623589    
    104000   0.98723114     19.156096      36.616686    
    105000   1.0008613      18.56065       36.579016    
    106000   1.0202168      17.852261      36.353066    
    107000   1.0279709      18.538248      36.344261    
    108000   1.009423       17.603153      36.476211    
    109000   1.0340542      17.688076      36.253134    
    110000   0.98426805     17.994071      35.992926    
    111000   1.0256052      18.052608      35.894349    
    112000   0.97331655     18.228406      35.754772    
    113000   0.97019227     18.210472      35.613164    
    114000   1.0306628      18.272029      35.552698    
    115000   1.0052237      18.213655      35.6749      
    116000   0.99795966     18.534249      35.569088    
    117000   1.0468668      17.808651      35.445309    
    118000   1.0424663      17.203799      35.313219    
    119000   1.0061604      18.507301      35.040178    
    120000   0.96872689     18.198586      34.846262    
    121000   1.0111711      18.077467      34.50283     
    122000   0.99642924     18.293488      34.483864    
    123000   1.0038012      18.261525      34.309134    
    124000   1.0072229      17.882125      34.081116    
    125000   1.0298517      18.280619      33.833791    
    126000   0.95054514     18.090307      33.723625    
    127000   1.0010689      18.956892      33.639409    
    128000   0.97420323     17.754978      33.670495    
    129000   0.96278035     17.865282      33.617321    
    130000   0.97327546     18.434156      33.375779    
    131000   1.0128141      18.228236      33.084534    
    132000   0.99571969     18.326356      33.227855    
    133000   1.0410964      17.687234      33.19971     
    134000   0.99838124     18.037975      33.069018    
    135000   1.049336       17.969114      32.842337    
    136000   1.042271       18.355217      32.740949    
    137000   1.042182       17.717931      32.308806    
    138000   1.0235426      17.954045      32.255838    
    139000   0.91289983     17.620502      31.851307    
    140000   1.0342236      17.967435      31.819468    
    141000   0.97003169     18.005064      31.751391    
    142000   0.96061254     18.102559      31.609879    
    143000   0.97360277     17.572746      31.666231    
    144000   1.0105099      18.022365      31.681934    
    145000   0.93674786     18.085525      31.465556    
    146000   0.9973439      17.727796      31.256953    
    147000   1.0116194      18.128451      30.755624    
    148000   1.0243699      18.579191      30.511993    
    149000   1.0293352      17.510508      30.370236    
    150000   0.99490103     18.285861      30.033644    
    151000   1.0234908      17.980614      30.189471    
    152000   1.026553       17.894254      30.023588    
    153000   1.010409       17.682227      29.752052    
    154000   1.0349541      18.431331      29.521676    
    155000   1.0045409      17.856629      29.49996     
    156000   1.0305763      18.16697       29.48133     
    157000   1.0392913      17.81756       29.516654    
    158000   0.99541521     18.088487      29.276433    
    159000   0.99466268     17.833028      29.061068    
    160000   0.96699203     17.870623      28.692995    
    161000   0.99188168     18.147453      28.543095    
    162000   0.99243893     17.534586      28.105858    
    163000   0.9589606      17.364107      28.135378    
    164000   1.0363313      18.65693       27.89918     
    165000   1.042429       17.892733      27.785883    
    166000   1.031223       18.375669      27.731562    
    167000   1.0277006      18.114907      27.503061    
    168000   1.0279667      17.841232      27.411697    
    169000   0.98704926     17.593296      27.196539    
    170000   0.99123044     17.705377      27.10591     
    171000   1.0086652      17.921664      27.208915    
    172000   1.0455842      18.168565      27.216716    
    173000   0.99690714     18.111208      27.162639    
    174000   1.0566626      18.179798      26.879511    
    175000   0.95292804     17.787501      26.742355    
    176000   1.0215534      17.540094      26.752382    
    177000   1.0067139      18.209787      26.611276    
    178000   0.98351775     17.764078      26.633153    
    179000   1.0131431      18.352554      26.345249    
    180000   1.0196803      17.388776      25.904278    
    181000   0.9804502      17.94197       25.65229     
    182000   0.9668881      17.164074      25.469955    
    183000   1.0438472      17.384911      25.63263     
    184000   1.019593       17.428635      25.563166    
    185000   1.0493548      17.452254      25.30328     
    186000   0.94918789     17.531793      25.159693    
    187000   1.0581152      17.722795      24.989022    
    188000   1.0147686      17.919889      24.855698    
    189000   0.98273665     16.775615      24.80375     
    190000   1.0001896      17.91308       24.796723    
    191000   0.96966306     17.886164      24.55391     
    192000   1.0243381      17.501121      24.54667     
    193000   0.98238661     17.29313       24.451889    
    194000   1.0267096      18.085043      24.215641    
    195000   0.93243611     17.467782      24.252023    
    196000   0.97088631     17.705732      24.087291    
    197000   1.0193204      17.259396      24.150079    
    198000   0.96564669     17.083168      23.957189    
    199000   0.98211302     17.260973      23.901985    
    200000   1.0146874      17.814159      23.859009    
    201000   1.0630041      17.784623      23.594816    
    202000   0.96965313     17.446789      23.457934    
    203000   1.0091596      17.303166      23.257814    
    204000   1.0450622      18.207825      23.397219    
    205000   0.98169402     17.529717      23.022458    
    206000   0.97588658     17.209584      22.975884    
    207000   0.98907149     17.51328       22.981237    
    208000   0.99235121     17.479142      22.706528    
    209000   0.95301554     16.716933      22.633097    
    210000   0.981728       17.264093      22.702228    
    211000   0.9915603      17.658002      22.608565    
    212000   0.99617085     17.416334      22.373422    
    213000   0.96067274     17.001499      22.561129    
    214000   0.97845444     17.776787      22.448054    
    215000   1.0496246      18.11255       22.281254    
    216000   0.97166036     16.905154      22.212631    
    217000   0.98970137     17.180939      21.841771    
    218000   0.98547823     17.888604      22.000732    
    219000   0.99884791     17.53553       21.721494    
    220000   0.96248187     16.855523      21.75283     
    221000   1.0170623      18.035832      21.675089    
    222000   1.0138135      18.037259      21.645142    
    223000   1.0059428      17.118183      21.648219    
    224000   0.97289246     17.582959      21.348755    
    225000   0.99676267     18.287893      21.169093    
    226000   1.0533418      18.373239      20.805843    
    227000   0.98741413     17.774713      20.581311    
    228000   0.99139959     17.843079      20.43336     
    229000   0.99694368     17.633122      20.476771    
    230000   0.99775996     17.655933      20.447518    
    231000   0.97772879     17.945108      20.295111    
    232000   1.0032209      17.893472      20.072076    
    233000   1.0689304      18.263556      20.07716     
    234000   1.037708       17.999212      20.287163    
    235000   1.0073268      17.223063      20.008384    
    236000   1.0128319      18.17132       19.983942    
    237000   0.97065353     17.960425      19.943642    
    238000   0.98893415     17.417152      19.899779    
    239000   0.95987006     17.392333      19.768781    
    240000   0.98867041     17.721153      19.483022    
    241000   0.97199307     17.188107      19.395509    
    242000   1.0159875      17.388546      19.346677    
    243000   1.0290042      16.804882      19.330102    
    244000   1.0408972      17.264999      19.260126    
    245000   0.97716327     17.991583      19.077713    
    246000   0.98315735     17.10387       19.050884    
    247000   1.0029882      17.74806       18.904774    
    248000   1.0084909      17.55557       18.784267    
    249000   1.0349421      17.872834      18.852423    
    250000   1.0018773      17.765262      18.726502    
    251000   1.0059545      17.978224      18.55023     
    252000   0.97262325     18.499472      18.464772    
    253000   0.95745743     17.317284      18.50189     
    254000   0.9510427      17.676478      18.47726     
    255000   1.0023802      17.271867      18.35692     
    256000   0.97135501     16.922382      18.113307    
    257000   1.0488422      18.045918      18.200654    
    258000   0.93771472     18.020693      17.871602    
    259000   0.99603081     18.04845       17.917597    
    260000   0.96146124     17.290279      17.645385    
    261000   0.99493876     17.274453      17.93055     
    262000   1.0487253      17.529943      18.049811    
    263000   0.99138455     17.218672      18.157882    
    264000   0.99377052     17.758526      18.194738    
    265000   1.0281454      17.172118      18.047339    
    266000   1.0651175      17.9686        17.6238      
    267000   1.0034284      17.703319      17.676794    
    268000   0.98308701     17.92569       17.725573    
    269000   0.96019417     17.608186      17.529202    
    270000   0.99207863     17.591972      17.289739    
    271000   0.97857052     17.064613      17.409356    
    272000   1.031877       17.924808      17.522314    
    273000   0.99143678     18.114911      17.489145    
    274000   1.00886        17.794245      17.394355    
    275000   0.98250381     17.66148       17.380434    
    276000   0.98205777     17.397743      17.618974    
    277000   0.97683778     17.608348      17.615722    
    278000   0.98066885     17.660628      17.708409    
    279000   1.0158563      18.086616      17.652178    
    280000   0.95346401     17.209185      17.635772    
    281000   0.97661414     17.149689      17.499787    
    282000   1.0217271      18.083677      17.534413    
    283000   1.0240151      17.952319      17.365844    
    284000   0.98833963     18.116428      17.338584    
    285000   1.0099191      17.283668      17.30873     
    286000   1.0380676      17.720579      16.9895      
    287000   0.98743048     17.596165      16.844553    
    288000   1.0395158      17.832403      16.870537    
    289000   0.98268447     17.482953      16.65209     
    290000   0.98116209     17.046858      16.447225    
    291000   1.0362927      17.537955      15.9854      
    292000   1.0543746      17.956436      15.785348    
    293000   0.99715388     17.93384       15.484178    
    294000   1.0716333      17.585801      15.486338    
    295000   0.99607934     17.24829       15.332926    
    296000   0.99248516     17.967015      15.235096    
    297000   1.0102348      17.353812      15.233495    
    298000   1.0053563      17.5802        14.952407    
    299000   1.0050789      17.454616      14.86871     
    300000   1.0151125      17.479208      14.598305    
    301000   1.0133499      17.272977      14.349611    
    302000   1.0321965      17.49693       14.518818    
    303000   0.98611579     17.909776      14.356341    
    304000   0.99656153     17.018976      14.297339    
    305000   0.9597595      17.520744      14.351101    
    306000   0.99095418     17.31517       13.988294    
    307000   0.97723565     17.424528      14.082547    
    308000   1.0048686      16.879207      14.04143     
    309000   0.98951593     17.11192       14.109889    
    310000   1.0319848      17.428697      13.844653    
    311000   1.0046573      17.120497      13.544372    
    312000   1.0297159      17.256874      13.294867    
    313000   0.99783068     17.61457       13.26782     
    314000   1.0075101      17.553724      13.140505    
    315000   1.0438543      17.475475      12.979011    
    316000   0.99049526     16.979203      12.895683    
    317000   1.0172057      17.517479      12.73174     
    318000   0.98249515     17.586729      12.877626    
    319000   0.96569562     17.694205      12.716333    
    320000   0.97298948     17.355743      12.772671    
    321000   0.98528476     17.753002      12.637334    
    322000   0.97647141     16.502732      12.631543    
    323000   0.97774241     17.770467      12.543576    
    324000   0.93538936     17.45827       12.178662    
    325000   0.99926072     18.229447      11.871672    
    326000   1.0234427      17.84712       11.776493    
    327000   1.0082843      17.210373      11.553195    
    328000   0.9771724      17.362936      11.231869    
    329000   0.99623794     17.131291      10.847361    
    330000   0.99791924     17.462656      10.877759    
    331000   0.99203791     17.509063      10.938702    
    332000   1.0156392      17.721286      10.738162    
    333000   0.98365677     17.202882      10.832452    
    334000   0.9913485      17.632115      10.882516    
    335000   1.0387825      17.138184      10.945846    
    336000   1.0515259      17.265451      10.784241    
    337000   1.006975       16.343093      10.732695    
    338000   0.89951225     16.990426      10.64375     
    339000   1.0116839      17.571325      10.533628    
    340000   1.0131181      17.210696      10.466953    
    341000   1.0078829      16.804791      10.522509    
    342000   1.0858251      16.825186      10.349304    
    343000   0.97250021     17.302859      10.083801    
    344000   0.98218642     17.087416      9.9056811    
    345000   0.99738169     17.306727      9.9229604    
    346000   0.9904188      17.502152      10.076836    
    347000   1.0695164      17.088618      10.111291    
    348000   0.97449738     16.75783       9.9742098    
    349000   0.98875761     17.615008      9.9703001    
    350000   0.97987486     17.813022      9.9246274    
    351000   1.0311975      17.271708      9.9599069    
    352000   0.97149734     17.198528      9.6597564    
    353000   0.93412635     17.009437      9.1866125    
    354000   0.9914988      16.695792      9.1971216    
    355000   1.0170729      17.350444      9.1456626    
    356000   0.96649353     16.319014      9.1355402    
    357000   0.98587806     17.340966      9.0984031    
    358000   1.0041091      16.879789      9.0923633    
    359000   0.99096442     16.727858      9.1255057    
    360000   0.98643553     16.761958      8.8951232    
    361000   1.0560882      16.967571      8.7033179    
    362000   1.0111927      18.313267      8.6866094    
    363000   0.9547685      16.579742      8.5161376    
    364000   1.0118552      17.049441      8.4782775    
    365000   0.98300235     16.299971      8.1249427    
    366000   0.99350824     17.227328      7.9117945    
    367000   1.0760259      17.618081      7.7565355    
    368000   0.99668921     17.141439      7.5203216    
    369000   1.0321568      17.141297      7.6085578    
    370000   0.92726579     17.502883      7.8390363    
    371000   1.0232182      17.298047      7.8642561    
    372000   0.97397821     17.010732      7.8887011    
    373000   1.0039729      17.509446      7.8719482    
    374000   1.0719934      17.929529      7.7157208    
    375000   0.99257132     16.976185      7.690641     
    376000   1.0600547      17.891456      7.545851     
    377000   1.0100303      17.332545      7.7204396    
    378000   1.0203434      17.084865      7.6302344    
    379000   1.0374879      17.732774      7.4786845    
    380000   0.99706992     17.898506      7.4122395    
    381000   0.91716044     17.575681      7.3133026    
    382000   1.034569       17.497909      7.1498507    
Fix halt condition for fix-id 3 met on step 383000 with value 6.921551456014784 (src/fix_halt.cpp:237)
    383000   0.9738482      17.115717      6.9215515    
Loop time of 377.923 on 2 procs for 283000 steps with 693 atoms

Performance: 646989.066 tau/day, 748.830 timesteps/s
119.3% CPU use with 1 MPI tasks x 2 OpenMP threads

MPI task timing breakdown:
Section |  min time  |  avg time  |  max time  |%varavg| %total
---------------------------------------------------------------
Pair    | 55.421     | 55.421     | 55.421     |   0.0 | 14.66
Bond    | 4.376      | 4.376      | 4.376      |   0.0 |  1.16
Neigh   | 307.86     | 307.86     | 307.86     |   0.0 | 81.46
Comm    | 0.082539   | 0.082539   | 0.082539   |   0.0 |  0.02
Output  | 0.59202    | 0.59202    | 0.59202    |   0.0 |  0.16
Modify  | 8.8819     | 8.8819     | 8.8819     |   0.0 |  2.35
Other   |            | 0.7068     |            |       |  0.19

Nlocal:            693 ave         693 max         693 min
Histogram: 1 0 0 0 0 0 0 0 0 0
Nghost:              0 ave           0 max           0 min
Histogram: 1 0 0 0 0 0 0 0 0 0
Neighs:         110132 ave      110132 max      110132 min
Histogram: 1 0 0 0 0 0 0 0 0 0

Total # of neighbors = 110132
Ave neighs/atom = 158.92063
Ave special neighs/atom = 1.997114
Neighbor list builds = 2277
Dangerous builds = 0

# This simulation is done
# Move onto the next one
clear
  using 2 OpenMP thread(s) per MPI task
package omp 0
using multi-threaded neighbor list subroutines
next f
jump SELF

###
# Reference paper:
# K. Kremer and G. S. Grest
# Dynamics of entangled linear polymer melts: A molecular-dynamics simulation
# J Chem Phys 92, 5057 (1990)

##################################
# MIHIR: for branched polymers
# LJ minimum first to expand and explore, then collapse
###

###
# Looping through the various nuc5branch4 polymers to simulate,
# define variables to switch through
variable f index bb37nuc5bl6bn4d30tot100 bb75nuc5bl12bn4d30tot200 bb112nuc5bl18bn4d30tot300 bb150nuc5bl25bn4d30tot400 bb187nuc5bl31bn4d30tot500 bb225nuc5bl37bn4d30tot600 bb262nuc5bl43bn4d30tot700 bb300nuc5bl50bn4d30tot800 bb337nuc5bl56bn4d30tot900 bb375nuc5bl62bn4d30tot1000 bb412nuc5bl68bn4d30tot1100 bb450nuc5bl75bn4d30tot1200
# variable f index bb75nuc5bl12bn4d30tot200
# variable f index bb337nuc5bl56bn4d30tot900
###


###
# Box and units  (use LJ units and periodic boundaries)
###

units lj
log nuc5branch4/logs2/$f.log
log nuc5branch4/logs2/bb300nuc5bl50bn4d30tot800.log
