#atom_style bond #no stiffness
atom_style angle #with stiffness

boundary        p p p
###
# Pair interactions require lists of neighbours to be calculated
###

#neighbor 0.3 bin
neighbor 4 bin

neigh_modify every 1 delay 1 check yes
atom_modify sort 0 0
### Generate RESTART file, SPECIAL format, not a .txt file ###
### Useful if simulation crashes ###

restart 1000000 nuc5branch4/restarts2/$f.restart
restart 1000000 nuc5branch4/restarts2/bb337nuc5bl56bn4d30tot900.restart
#############################



### READ "start" data file ###

read_data nuc5branch4/$f.dat
read_data nuc5branch4/bb337nuc5bl56bn4d30tot900.dat
Reading data file ...
  orthogonal box = (-1000 -1000 -1000) to (1000 1000 1000)
  1 by 1 by 1 MPI processor grid
  reading atoms ...
  897 atoms
  scanning bonds ...
  3 = max bonds/atom
  scanning angles ...
  6 = max angles/atom
  reading bonds ...
  896 bonds
  reading angles ...
  910 angles
Finding 1-2 1-3 1-4 neighbors ...
  special bond factors lj:    0        0        0       
  special bond factors coul:  0        0        0       
     4 = max # of 1-2 neighbors
     4 = max # of 1-3 neighbors
     8 = max # of 1-4 neighbors
    12 = max # of special neighbors
  special bonds CPU = 0.001 seconds
  read_data CPU = 0.061 seconds

######################

### READ "REstart" data file ###

######################



###
# Define groups (atom type 1 is group 'all')
###
group all type 1
897 atoms in group all


###
# Dump configs - "simple dumpings"
###

###
# Dump configs + box coords
###

dump   1   all   custom   1000  nuc5branch4/trjs2/$f.lammpstrj  id  x y z  ix iy iz
dump   1   all   custom   1000  nuc5branch4/trjs2/bb337nuc5bl56bn4d30tot900.lammpstrj  id  x y z  ix iy iz
dump_modify   1   format line "%d %.5f %.5f %.5f %d %d %d"

########################################################################


###################################################################
# Stiffness term
#
# E = K * (1+cos(theta)), K>0
#
angle_style   cosine
#change this coefficient to change stiffness (e.g. 1,5,10)
angle_coeff   1 1.0
###################################################################

###################################################################
# Pair interaction between non-bonded atoms
#
#  Lennard-Jones 12-6 potential with cutoff:
#  potential E=4epsilon[ (sigma/r)^12 - (sigma/r)^6]  for r<r_cut
#
#  1.12246 = 2^(1/6) is the minimum of the potential


pair_style      lj/cut 1.12246152962189
#pair_style      lj/cut 3

#
#  pair_modify shift yes adds a constant to the potential such

#  that E(r_cut)=0. Forces remains unchanged.
#

pair_modify     shift yes

#
#  pair_coeff for lj/cut, specify 4:
#    * atom type interacting with
#    * atom type
#    * epsilon (energy units)
#    * sigma (distance units)
#

pair_coeff      1 1 1.0 1.0
###################################################################

###################################################################
# Pair interaction between non-bonded atoms
#
#  soft potential, for PUSHING apart overlapping atoms
#  potential E=A*(1 + cos(pi*r/r_c))
#
#  1.12246 = 2^(1/6) is the cut-off r_c

#pair_style     soft 1.12246152962189

#
#  pair_coeff for soft, specify 3:
#    * atom type interacting with
#    * atom type
#    * A
#
#

#pair_coeff      1 1 100.0
###################################################################

###################################################################
# Pair interaction between bonded atoms
#
# Fene potential + Lennard Jones 12-6:

#
#  E= - 0.5 K R0^2 ln[ 1- (r/R0)^2]
#     + 4epsilon[ (sigma/r)^12 - (sigma/r)^6] + epsilon
#

bond_style   fene


#
# For style fene, specify:
#   * bond type
#   * K (energy/distance^2)
#   * R0 (distance)
#   * epsilon (energy)  (LJ component)
#   * sigma (distance)  (LJ component)
#


special_bonds fene #<=== I M P O R T A N T (new command)
Finding 1-2 1-3 1-4 neighbors ...
  special bond factors lj:    0        1        1       
  special bond factors coul:  0        1        1       
     4 = max # of 1-2 neighbors
    12 = max # of special neighbors
  special bonds CPU = 0.000 seconds

bond_coeff   1   30   2   1.0   1.0


###################################################

###################################################################
# Pair interaction between bonded atoms
#
# Harmonic potential:
#
#  E= K * (R-R0)^2
#

#bond_style   harmonic

#
# For style harmonic, specify:
#   * bond type
#   * K (energy/distance^2)
#   * R0 (distance)
#

#bond_coeff   1   60.0   1.0
#bond_coeff   2   harmonic 0.1   1.0

###################################################
compute 1 all gyration
variable rog equal c_1
#compute 2 all coord/atom cutoff 1.1

#dump 2 all custom 10000 contact_number.dump id c_2


###
# Set up fixes
###
thermo_style   custom   step  temp enthalpy c_1
fix 1 all nve   ###NVE ensemble

fix 2 all   langevin   1.0 1.0 1.0  778655   ###Langevin integrator Tstart Tstop 1/friction rndseed


##### Sample thermodynamic info  (temperature, energy, pressure, etc.) #####
thermo 1000









############################################################################

###
# set timestep of integrator

timestep 0.01

###
# run integration for a number of steps
###
#run 0
#variable r equal c_1
#if "$r < 63.1" then "quit 1"

# lj potential minimum, cause molecule to explore
run 100000
Generated 0 of 0 mixed pair_coeff terms from geometric mixing rule
Last active /omp style is angle_style cosine/omp
Neighbor list info ...
  update: every = 1 steps, delay = 1 steps, check = yes
  max neighbors/atom: 2000, page size: 100000
  master list distance cutoff = 5.1224615
  ghost atom cutoff = 5.1224615
  binsize = 2.5612308, bins = 781 781 781
  1 neighbor lists, perpetual/occasional/extra = 1 0 0
  (1) pair lj/cut/omp, perpetual
      attributes: half, newton on, omp
      pair build: half/bin/newton/omp
      stencil: half/bin/3d
      bin: standard
WARNING: Communication cutoff 5.12246152962189 is shorter than a bond length based estimate of 5.455. This may lead to errors. (src/comm.cpp:723)
Per MPI rank memory allocation (min/avg/max) = 1862 | 1862 | 1862 Mbytes
   Step          Temp         Enthalpy         c_1      
         0   0              13.25608       66.792436    
      1000   1.0286775      18.45575       66.097777    
      2000   1.043199       19.374511      65.354391    
      3000   1.0235122      19.08221       64.590439    
      4000   0.96331485     19.545795      63.953081    
      5000   0.98232935     19.543098      63.582069    
      6000   0.96920038     19.567129      63.423185    
      7000   1.0435114      19.565868      63.159895    
      8000   0.99769786     20.026958      62.73228     
      9000   1.002299       19.916168      62.307206    
     10000   1.0259492      20.093647      62.002234    
     11000   1.0014157      20.082219      61.837791    
     12000   1.0246115      19.758664      61.531703    
     13000   1.0375316      20.348942      61.464885    
     14000   1.0488654      19.970365      61.297723    
     15000   0.99837836     20.344428      61.259861    
     16000   0.96195482     20.117193      60.935103    
     17000   0.97656893     20.297951      60.777799    
     18000   1.0111739      20.464273      60.584815    
     19000   1.0217106      20.436679      60.27003     
     20000   1.0211401      20.241204      59.856761    
     21000   1.0173104      20.277518      59.446836    
     22000   1.0329332      19.779443      59.46058     
     23000   0.96695503     20.45144       59.354864    
     24000   0.99267114     20.388832      59.232824    
     25000   0.98772584     20.016023      59.196002    
     26000   0.999882       20.558216      59.350024    
     27000   1.0198793      20.412907      58.975372    
     28000   1.0115983      20.407114      58.852137    
     29000   0.96454898     20.571989      58.709776    
     30000   0.99602908     20.098201      58.595327    
     31000   0.99627829     20.032332      58.421074    
     32000   1.0048965      20.410825      57.94522     
     33000   1.0454022      20.594418      57.968852    
     34000   1.012689       20.769168      57.874919    
     35000   1.0486251      21.023392      57.609923    
     36000   0.97696739     20.586341      57.667196    
     37000   0.95195002     19.991448      57.808553    
     38000   0.99922595     20.578947      57.868277    
     39000   1.0098144      20.725579      57.757937    
     40000   0.96882788     19.899451      57.795815    
     41000   1.0075812      20.765117      57.898117    
     42000   1.0585738      20.197154      57.589807    
     43000   1.0370676      20.882747      57.566426    
     44000   1.0286249      20.367341      57.45354     
     45000   0.93265055     19.993505      57.228109    
     46000   0.94663793     20.628294      57.208282    
     47000   1.0066168      20.245819      57.011371    
     48000   1.0106468      20.241661      56.728994    
     49000   0.94957876     20.366101      56.476447    
     50000   1.0132788      20.547584      56.429599    
     51000   0.97095251     20.136944      56.398118    
     52000   1.0145198      20.033478      56.350555    
     53000   1.0407472      20.23968       56.071715    
     54000   1.0080086      20.475867      55.967405    
     55000   1.0368676      20.552527      55.740868    
     56000   0.97345192     19.977673      55.551905    
     57000   1.0222678      20.762714      55.394295    
     58000   1.0135305      20.59908       55.358842    
     59000   1.0239304      20.347582      55.534187    
     60000   1.0201476      20.361278      55.556199    
     61000   1.0044216      20.654135      55.450867    
     62000   0.96896251     20.74601       55.466773    
     63000   1.0305771      20.444967      55.410143    
     64000   0.97998897     20.342014      54.828945    
     65000   1.01095        20.005676      54.772373    
     66000   0.96514636     20.2889        54.632937    
     67000   1.0059934      20.415175      54.38706     
     68000   0.95731729     20.616696      54.352086    
     69000   0.99407786     20.102779      54.360422    
     70000   1.0001419      20.101308      54.202515    
     71000   0.99006998     20.083589      54.050059    
     72000   1.0002007      20.747405      53.986927    
     73000   0.9780344      20.554054      53.739679    
     74000   0.98183828     20.618563      53.571966    
     75000   1.0144663      20.807123      53.670961    
     76000   0.96908914     20.659329      53.903257    
     77000   0.96632612     20.519496      53.537694    
     78000   0.99047787     20.476463      53.30189     
     79000   0.96619739     20.529922      53.274306    
     80000   0.99511173     19.855372      53.323097    
     81000   1.0240321      20.59347       53.372655    
     82000   1.0577453      20.660447      53.316904    
     83000   1.010004       20.361389      53.368032    
     84000   0.98491523     20.364012      53.41712     
     85000   0.96911989     20.408902      53.381463    
     86000   1.0229542      20.30249       53.437391    
     87000   0.99174508     20.385343      53.22898     
     88000   1.0099048      20.470652      53.071275    
     89000   1.0039753      19.971337      52.863456    
     90000   1.0454054      20.377066      52.83285     
     91000   0.9535277      20.64664       52.960806    
     92000   0.9991297      20.642641      53.101775    
     93000   1.0229592      20.508648      53.13064     
     94000   1.0338822      20.835911      53.165458    
     95000   0.99784685     20.656203      52.827665    
     96000   1.0174231      20.811157      52.879275    
     97000   1.028068       20.451849      52.70591     
     98000   1.0240584      20.029421      52.44242     
     99000   0.92346025     20.109436      52.331601    
    100000   0.97216397     20.665911      52.437189    
Loop time of 321.072 on 2 procs for 100000 steps with 897 atoms

Performance: 269098.854 tau/day, 311.457 timesteps/s
102.7% CPU use with 1 MPI tasks x 2 OpenMP threads

MPI task timing breakdown:
Section |  min time  |  avg time  |  max time  |%varavg| %total
---------------------------------------------------------------
Pair    | 1.1662     | 1.1662     | 1.1662     |   0.0 |  0.36
Bond    | 1.7839     | 1.7839     | 1.7839     |   0.0 |  0.56
Neigh   | 313.76     | 313.76     | 313.76     |   0.0 | 97.72
Comm    | 0.027768   | 0.027768   | 0.027768   |   0.0 |  0.01
Output  | 0.22194    | 0.22194    | 0.22194    |   0.0 |  0.07
Modify  | 3.8467     | 3.8467     | 3.8467     |   0.0 |  1.20
Other   |            | 0.2688     |            |       |  0.08

Nlocal:            897 ave         897 max         897 min
Histogram: 1 0 0 0 0 0 0 0 0 0
Nghost:              0 ave           0 max           0 min
Histogram: 1 0 0 0 0 0 0 0 0 0
Neighs:           7787 ave        7787 max        7787 min
Histogram: 1 0 0 0 0 0 0 0 0 0

Total # of neighbors = 7787
Ave neighs/atom = 8.6811594
Ave special neighs/atom = 1.9977703
Neighbor list builds = 1184
Dangerous builds = 0

# Replace lj potential, now collapse
pair_style      lj/cut 3

# Cutoff simul when gyration under 10
# Variable created with equal requires v_ + 'name'
fix 3 all halt 1000 v_rog < 7

run 3000000
Generated 0 of 0 mixed pair_coeff terms from geometric mixing rule
Last active /omp style is angle_style cosine/omp
Per MPI rank memory allocation (min/avg/max) = 1862 | 1862 | 1862 Mbytes
   Step          Temp         Enthalpy         c_1      
    100000   0.97216397     19.855299      52.437189    
    101000   1.0412641      19.939331      52.167741    
    102000   0.96290788     19.18349       52.135604    
    103000   1.0321807      19.390467      51.841346    
    104000   1.0061182      19.104614      51.578844    
    105000   0.97959194     19.161541      51.455608    
    106000   0.99287545     18.516811      51.097798    
    107000   1.0273011      18.829386      50.959038    
    108000   0.97917748     18.837396      50.669736    
    109000   1.0343996      18.862821      50.503284    
    110000   1.0199577      18.350047      50.398495    
    111000   1.0249002      18.793763      50.363944    
    112000   1.0113821      18.464014      50.083281    
    113000   0.99722412     18.799033      49.775109    
    114000   1.01144        18.284311      49.313118    
    115000   1.0338641      18.434177      49.1146      
    116000   1.0492512      18.263492      48.988764    
    117000   1.0393176      18.572283      48.82435     
    118000   1.0490072      18.373561      48.71805     
    119000   1.0026606      18.575605      48.299213    
    120000   1.0001845      18.428392      48.191294    
    121000   0.99624551     18.729315      48.110646    
    122000   0.99528322     17.88649       47.686587    
    123000   1.0160852      18.688619      47.561284    
    124000   0.96247359     17.378371      47.483441    
    125000   1.0065056      18.114364      47.395458    
    126000   0.9809628      17.953448      47.385547    
    127000   1.0204579      17.774089      47.290595    
    128000   1.0078134      18.591104      47.128782    
    129000   0.96503325     17.88056       47.116605    
    130000   1.006647       18.118765      46.980442    
    131000   1.0334074      18.324733      47.071481    
    132000   0.99954487     18.642636      46.796695    
    133000   1.0132199      18.393715      46.65861     
    134000   0.99108973     18.40105       46.511592    
    135000   1.0385485      17.712178      46.172588    
    136000   0.94568117     17.69304       46.06612     
    137000   1.0335101      17.854608      46.041412    
    138000   1.024073       18.254992      46.097092    
    139000   0.98219882     18.130753      46.077711    
    140000   1.0004473      17.969929      46.099299    
    141000   1.0258968      18.43423       45.920823    
    142000   1.0076104      17.894511      45.699406    
    143000   0.98679396     17.923021      45.538299    
    144000   0.97546126     17.951742      45.584402    
    145000   1.0352142      18.322763      45.4686      
    146000   0.99355818     18.174661      45.067264    
    147000   0.9780655      17.915268      45.0754      
    148000   1.0302217      18.212049      45.020103    
    149000   1.0114658      18.421413      45.20072     
    150000   1.0200425      18.185953      45.175388    
    151000   1.0121139      18.077563      45.144163    
    152000   1.0082068      17.945171      45.101056    
    153000   1.0035978      18.03286       45.236427    
    154000   0.96255798     18.541157      45.178073    
    155000   0.98444128     18.100514      45.035197    
    156000   0.9662934      17.907657      44.993011    
    157000   0.97568347     17.328174      44.995947    
    158000   1.0141387      17.95539       44.854152    
    159000   0.9839278      18.394613      44.605927    
    160000   0.94737748     18.197655      44.681555    
    161000   0.99460102     17.732423      44.6689      
    162000   0.9438278      18.014739      44.768447    
    163000   0.94392432     17.725715      44.865332    
    164000   0.99154913     18.088319      44.828615    
    165000   0.98945368     17.774759      44.87796     
    166000   0.97097225     18.645757      44.74102     
    167000   1.0008316      18.109959      44.733841    
    168000   0.97432494     17.588248      44.675175    
    169000   1.0622155      18.441421      44.592864    
    170000   1.0041926      17.833609      44.319323    
    171000   0.98394152     17.307656      44.512079    
    172000   0.96773758     17.952486      44.403805    
    173000   1.0031686      17.698147      44.327931    
    174000   0.97535326     17.638567      44.379037    
    175000   1.0000244      17.535753      44.31598     
    176000   0.99753823     17.310228      44.227712    
    177000   0.99214985     17.588234      44.244056    
    178000   1.010245       17.675939      44.396562    
    179000   0.98724207     17.60097       44.265819    
    180000   1.0166756      17.994079      44.069558    
    181000   1.0389565      17.76501       43.928148    
    182000   1.0159822      17.800094      43.996509    
    183000   1.0207573      18.231712      44.008859    
    184000   1.002979       17.660122      43.754842    
    185000   0.99662489     17.343243      43.775901    
    186000   1.0241415      17.658056      43.864626    
    187000   0.99841633     17.731928      43.643814    
    188000   1.0121834      17.784117      43.599651    
    189000   0.96502765     17.773437      43.391255    
    190000   0.98030662     18.151147      43.153509    
    191000   1.0166381      17.696989      43.07561     
    192000   0.96150883     18.081281      42.892792    
    193000   0.99083302     17.606473      42.642843    
    194000   0.97699527     17.833203      42.547531    
    195000   0.98869047     17.374204      42.360431    
    196000   0.97163933     17.713492      42.387927    
    197000   0.9817011      17.508405      42.360217    
    198000   0.97702523     17.692112      42.508789    
    199000   0.98822719     17.720368      42.532606    
    200000   1.0274521      17.50056       42.426024    
    201000   0.96958033     17.895138      42.468809    
    202000   1.0033059      18.167617      42.52591     
    203000   0.98711185     17.80177       42.787535    
    204000   1.0159007      17.993445      42.814517    
    205000   1.0024009      17.772036      42.715628    
    206000   1.0109446      17.944856      42.596193    
    207000   1.0092447      17.260451      42.460652    
    208000   1.0455093      18.145748      42.206385    
    209000   0.9705654      17.266573      41.993743    
    210000   1.0279804      17.872178      42.207445    
    211000   1.0006603      18.29254       42.33458     
    212000   0.99173977     17.911674      42.239763    
    213000   1.0171973      17.909211      42.199146    
    214000   1.0888358      18.539751      42.238525    
    215000   0.99211287     18.510158      42.221416    
    216000   1.0036201      17.393501      42.389337    
    217000   1.0370491      18.059636      41.997644    
    218000   1.0328712      18.039063      41.678804    
    219000   1.0219425      17.323852      41.453587    
    220000   1.0413587      17.464276      41.087414    
    221000   1.0205649      18.066419      41.071072    
    222000   0.99921381     17.821723      41.054669    
    223000   0.97328142     17.950035      40.862929    
    224000   0.98665611     18.054496      40.93416     
    225000   1.0850849      18.12441       40.686097    
    226000   1.0011707      17.944763      40.690124    
    227000   1.0067384      17.720608      40.76827     
    228000   0.95585128     17.783061      40.876266    
    229000   1.0007872      18.031064      41.009482    
    230000   0.99790646     18.18228       40.773856    
    231000   1.0078319      17.573724      40.660657    
    232000   0.99551457     17.863147      40.664069    
    233000   0.95844987     17.788778      40.640759    
    234000   1.0198836      17.908054      40.536504    
    235000   1.0204659      17.652516      40.610839    
    236000   1.0091646      18.111826      40.543804    
    237000   0.98001757     17.864096      40.388333    
    238000   0.95954819     17.786486      40.453162    
    239000   1.0268908      18.065643      40.490338    
    240000   0.9562114      17.341452      40.368526    
    241000   1.0098211      18.028877      40.242799    
    242000   0.9796468      18.06586       40.129229    
    243000   1.0096541      17.970667      40.150696    
    244000   0.98595685     17.938958      40.135122    
    245000   1.0320817      17.984517      39.888271    
    246000   0.9482164      17.943783      40.019711    
    247000   1.0074197      18.46898       39.762045    
    248000   1.0393955      18.393341      39.516149    
    249000   1.0426223      17.54848       39.47736     
    250000   1.0040053      17.90242       39.372809    
    251000   1.0109498      17.658596      39.434241    
    252000   1.0097156      18.044256      39.382678    
    253000   0.97858201     18.217363      39.333904    
    254000   0.98599521     17.588659      39.518947    
    255000   1.011434       18.029691      39.663779    
    256000   1.0070881      18.047295      39.537422    
    257000   0.97870285     17.817534      39.412027    
    258000   1.0007339      17.839516      39.498802    
    259000   1.02266        17.827858      39.498662    
    260000   0.9700696      17.803781      39.305122    
    261000   1.0104289      17.507767      39.125997    
    262000   0.97109397     17.687114      38.981339    
    263000   0.95503598     17.491563      38.920583    
    264000   1.0530882      18.353255      39.084937    
    265000   0.99059786     17.63068       39.155066    
    266000   0.99831562     17.70475       39.26333     
    267000   0.93946172     17.859631      39.012161    
    268000   0.96087587     17.581129      38.979739    
    269000   1.0439914      18.659592      38.930681    
    270000   1.0020385      18.131872      38.786553    
    271000   0.96511867     17.611223      38.406935    
    272000   0.9752442      17.803259      37.999628    
    273000   0.98102709     17.886489      37.780763    
    274000   1.053819       18.261053      37.741698    
    275000   1.0131122      17.74924       37.896202    
    276000   0.96165529     18.214241      37.724585    
    277000   1.0147945      18.131709      37.666351    
    278000   1.0072885      18.229004      37.697757    
    279000   1.0587923      18.088351      37.624532    
    280000   0.99841337     17.419741      37.600654    
    281000   0.96196682     17.837519      37.78478     
    282000   0.9872867      17.365676      37.98412     
    283000   1.0184887      18.005032      37.911431    
    284000   0.99450878     17.890626      37.902563    
    285000   0.99954701     18.314344      38.023269    
    286000   0.98462137     17.519168      37.927615    
    287000   1.0092022      17.296236      37.846616    
    288000   0.96541155     17.442191      37.686773    
    289000   1.0085924      17.672824      37.618695    
    290000   0.99938305     18.0725        37.773781    
    291000   1.0163922      17.876202      37.537637    
    292000   0.94539529     17.911955      37.394913    
    293000   0.99685738     17.596693      37.254296    
    294000   0.9946733      17.522306      37.033524    
    295000   0.99428802     18.299212      36.720658    
    296000   0.96200717     17.385322      36.549324    
    297000   1.0087592      17.045513      36.595399    
    298000   0.98457009     17.923552      36.636562    
    299000   1.0239264      17.481032      36.497108    
    300000   0.98317941     16.928744      36.206548    
    301000   0.94912393     17.70007       36.166676    
    302000   1.0309343      17.079829      35.935004    
    303000   0.98670327     18.045136      35.960036    
    304000   1.0257544      17.185353      35.992684    
    305000   1.0138785      17.12638       35.927715    
    306000   1.0118673      17.768408      35.992884    
    307000   1.0090785      17.115089      35.881475    
    308000   1.0093174      17.49998       36.015776    
    309000   1.0146703      17.641745      36.164596    
    310000   0.99336506     17.559153      35.673027    
    311000   1.0390222      18.086465      35.451682    
    312000   0.99434673     17.62683       35.204888    
    313000   1.0016934      17.423826      35.179581    
    314000   0.97024293     17.383918      35.343647    
    315000   1.00002        17.335462      35.330488    
    316000   1.0166357      17.980185      35.264671    
    317000   0.93646686     17.790858      35.22444     
    318000   1.0383126      17.633386      35.137033    
    319000   0.97784967     17.204221      34.893656    
    320000   0.98226327     17.540345      34.880153    
    321000   1.0326938      17.117803      34.766861    
    322000   0.99680611     17.512969      34.546981    
    323000   1.0767234      18.325349      34.465979    
    324000   1.0522384      17.874045      34.515029    
    325000   1.0356303      17.519098      34.494455    
    326000   1.008141       17.776436      34.225134    
    327000   1.0077486      16.797861      34.17888     
    328000   0.96774813     17.721836      34.149708    
    329000   1.0009016      18.033011      34.318252    
    330000   0.9894221      17.932803      34.299586    
    331000   1.0047017      17.879916      34.379575    
    332000   0.95018774     17.674169      34.406428    
    333000   1.0298415      17.472507      34.36607     
    334000   1.0071381      17.752291      34.277837    
    335000   1.0163712      18.039638      34.136337    
    336000   1.0949882      17.837785      34.014233    
    337000   0.96215325     17.195892      33.871255    
    338000   0.99954569     18.01727       33.667562    
    339000   1.0182104      17.493734      33.545543    
    340000   0.99958249     17.666818      33.491847    
    341000   0.96976442     18.241092      33.488675    
    342000   0.99343199     17.609877      33.418848    
    343000   1.0203648      17.944192      33.36647     
    344000   1.0553591      17.193328      33.163898    
    345000   0.99032561     17.771153      32.933763    
    346000   1.0434274      17.023802      32.701509    
    347000   1.0151794      17.233731      32.698472    
    348000   1.0008838      17.745307      32.664553    
    349000   0.96529585     17.474973      32.909599    
    350000   1.0036617      18.022888      32.83668     
    351000   0.98977084     17.323892      32.72693     
    352000   1.0057444      17.710227      32.674185    
    353000   1.0206721      17.25291       32.504501    
    354000   0.97203634     17.899905      32.454054    
    355000   1.0174863      17.566897      32.372332    
    356000   1.0372035      17.706602      32.276096    
    357000   0.98522511     17.334729      32.277134    
    358000   0.98633216     17.562619      32.20736     
    359000   1.0051823      17.166128      31.994386    
    360000   1.035428       18.062067      31.843263    
    361000   1.0154673      17.340013      31.557941    
    362000   0.98649495     17.554172      31.539905    
    363000   1.0269071      17.645953      31.694951    
    364000   1.013463       17.562954      31.730624    
    365000   1.0381349      18.003549      31.754282    
    366000   0.99962564     17.965646      31.555854    
    367000   1.0415139      17.892757      31.43651     
    368000   1.0116474      17.677221      31.105807    
    369000   1.0008893      18.036658      30.660221    
    370000   0.97271803     17.756506      30.471902    
    371000   1.0461536      18.007823      30.414248    
    372000   0.95507833     17.437267      30.308371    
    373000   0.98479592     17.678163      30.277299    
    374000   1.027391       17.356277      30.239041    
    375000   0.98882458     16.774788      29.969887    
    376000   1.0160429      17.76322       29.873977    
    377000   0.98959098     17.349411      29.869079    
    378000   1.0015736      17.560464      29.64407     
    379000   0.96016911     17.186343      29.585193    
    380000   0.96597565     17.407271      29.501056    
    381000   1.0111653      17.426534      29.280811    
    382000   0.94913572     16.856419      29.341973    
    383000   1.0463895      17.675592      29.337572    
    384000   0.97514568     17.618084      29.298411    
    385000   0.9854799      17.392763      29.267504    
    386000   1.0029735      17.368235      28.978074    
    387000   1.0423139      17.430972      28.621802    
    388000   1.0223875      17.922723      28.526825    
    389000   1.0205729      17.047751      28.673402    
    390000   1.0418898      17.637257      28.642394    
    391000   1.0514647      17.759679      28.381135    
    392000   1.054935       17.765308      28.223552    
    393000   1.0316611      17.409132      28.028364    
    394000   1.0146179      16.696465      27.774632    
    395000   0.9899462      17.36577       27.571151    
    396000   0.98564337     17.669814      27.526142    
    397000   1.0492257      17.874586      27.216142    
    398000   0.96785397     17.516899      27.297122    
    399000   1.0159239      17.729513      27.243193    
    400000   1.0082624      17.555133      27.001935    
    401000   0.9946141      17.548233      26.82037     
    402000   0.99595741     17.255909      26.635365    
    403000   0.979233       17.247429      26.574774    
    404000   1.0110744      17.197567      26.394647    
    405000   0.98044792     17.450982      26.305008    
    406000   1.0290407      17.548262      26.274483    
    407000   0.99016362     17.510975      26.286855    
    408000   0.99569218     17.295308      26.196476    
    409000   0.98638431     17.550452      26.09721     
    410000   0.97238961     17.537885      25.844586    
    411000   0.99214132     17.55162       25.805225    
    412000   1.0232281      17.747354      25.921524    
    413000   0.98230131     17.485125      25.688913    
    414000   1.0010182      17.498134      25.555444    
    415000   1.0286413      17.669894      25.593741    
    416000   0.9921515      17.333576      25.545168    
    417000   1.0159145      17.783678      25.420915    
    418000   1.0338461      17.184426      25.287411    
    419000   0.95652333     17.237161      25.346881    
    420000   0.98374589     17.102041      25.265201    
    421000   0.98373737     17.579936      25.165794    
    422000   1.0157911      17.261626      25.410896    
    423000   1.0089914      18.026987      25.292958    
    424000   0.94619852     17.51353       25.282272    
    425000   0.98674184     17.389011      25.357547    
    426000   1.0193015      16.976873      25.019399    
    427000   0.9920094      17.577582      24.736514    
    428000   1.0254327      17.745601      24.885883    
    429000   0.97333341     17.065707      24.922608    
    430000   1.0024357      17.468106      24.732612    
    431000   1.0103832      16.841732      24.588261    
    432000   0.99084719     17.472001      24.576186    
    433000   0.99361186     17.843294      24.452224    
    434000   1.0231227      16.99328       24.5341      
    435000   0.98692694     17.195801      24.425375    
    436000   0.99686791     17.589008      24.069466    
    437000   0.98394273     17.552293      23.91979     
    438000   0.98840426     17.3246        23.819027    
    439000   0.99726212     17.46471       23.770513    
    440000   0.99540984     17.932532      23.881805    
    441000   1.055382       17.754575      23.729829    
    442000   0.97790883     17.189197      23.527392    
    443000   1.0600942      17.424313      23.456598    
    444000   1.0113857      17.179674      23.422677    
    445000   0.95763054     16.980582      23.448646    
    446000   0.95801321     17.247621      23.370956    
    447000   1.0006716      17.34433       23.153856    
    448000   0.96051104     16.857188      22.964697    
    449000   0.92730126     16.865355      22.815808    
    450000   0.98860631     16.969312      22.845333    
    451000   1.0002998      17.402426      22.594725    
    452000   0.95854216     17.033728      22.467438    
    453000   0.98561964     17.228907      22.408218    
    454000   1.0426046      17.407534      22.120557    
    455000   0.97432433     16.764449      22.062735    
    456000   0.98552867     17.009844      21.882918    
    457000   1.0240088      16.971573      21.719489    
    458000   1.0219972      17.292996      21.562271    
    459000   0.96107305     17.089436      21.496407    
    460000   1.0166307      16.788238      21.273593    
    461000   0.99425845     17.277083      21.097303    
    462000   1.0026956      16.883701      20.986144    
    463000   0.95550463     16.598149      21.043222    
    464000   0.96943085     17.301035      21.079723    
    465000   1.0039313      16.959918      20.975323    
    466000   0.9593372      17.659132      20.59335     
    467000   0.9850606      17.541783      20.467634    
    468000   0.98359799     17.493067      20.398733    
    469000   1.0387411      16.440044      20.316743    
    470000   0.9948161      16.956773      20.161853    
    471000   1.0235032      17.865731      19.923075    
    472000   0.96121558     17.107237      19.673305    
    473000   0.99112101     17.599643      19.670176    
    474000   0.9905623      17.638575      19.453288    
    475000   1.0180196      17.752857      19.388836    
    476000   1.02553        17.373486      19.363412    
    477000   0.99731711     16.916144      19.480903    
    478000   1.0085827      17.403455      19.441125    
    479000   1.0058631      17.376374      19.52216     
    480000   1.0378156      17.790841      19.381857    
    481000   1.0038445      17.178074      19.091249    
    482000   0.98242931     17.962523      19.080452    
    483000   1.0027714      17.332922      19.04052     
    484000   1.039123       17.352727      19.22571     
    485000   0.97132636     17.805611      18.949095    
    486000   0.97275666     17.494517      19.038515    
    487000   1.0057674      17.62839       19.006704    
    488000   0.98374687     16.966805      19.124916    
    489000   1.0200897      17.193194      19.061182    
    490000   1.0053189      16.957059      18.981028    
    491000   1.0635107      17.214349      18.924704    
    492000   0.98393819     16.770724      19.031716    
    493000   1.0307284      18.017008      18.840543    
    494000   0.99411837     17.40576       18.6442      
    495000   1.0058177      17.241823      18.822617    
    496000   1.0246745      18.150979      18.917644    
    497000   0.97584505     17.763929      18.827786    
    498000   1.0138529      16.602672      18.792059    
    499000   0.9823577      17.338685      18.68758     
    500000   0.98181604     16.565768      18.682162    
    501000   0.95491856     17.330692      18.783493    
    502000   1.0046555      17.578331      18.667482    
    503000   0.99291812     16.639975      18.491113    
    504000   0.96204483     17.487917      18.370499    
    505000   0.96974614     17.04153       18.459004    
    506000   1.0096565      17.313812      18.379575    
    507000   1.0104062      17.89586       18.207865    
    508000   1.0271575      17.965919      18.414821    
    509000   0.99848929     17.004507      18.32669     
    510000   0.96526925     17.160752      18.137112    
    511000   1.0159859      17.36756       18.105609    
    512000   0.95804229     17.593063      17.934783    
    513000   0.98235371     17.977561      17.892707    
    514000   0.92855196     17.42064       17.756755    
    515000   0.98940069     17.594939      17.82857     
    516000   0.98217269     17.235819      17.87315     
    517000   0.99365674     17.456444      17.739832    
    518000   1.0510532      16.878594      17.67832     
    519000   0.94247458     17.405583      17.505717    
    520000   0.95275605     17.036757      17.536145    
    521000   0.97296465     17.904268      17.557187    
    522000   1.0082475      17.281202      17.438699    
    523000   1.0200242      17.992287      17.415888    
    524000   1.0266334      16.955662      17.453059    
    525000   1.0298991      16.974068      17.460169    
    526000   1.0320066      17.136915      17.321732    
    527000   0.96409577     17.038322      17.149944    
    528000   0.97519477     17.681257      17.008125    
    529000   1.0507556      17.897555      16.755781    
    530000   1.083996       17.866038      16.814375    
    531000   1.008406       17.681334      16.552006    
    532000   0.99214954     18.027377      16.46755     
    533000   1.0603262      17.47932       16.296946    
    534000   0.97136224     17.477081      16.257283    
    535000   1.0097226      17.628948      16.247755    
    536000   1.0123989      17.212526      16.175137    
    537000   0.97959955     17.334395      16.145388    
    538000   0.97613916     17.452351      16.086409    
    539000   1.0249104      16.686182      15.985214    
    540000   1.0054889      17.53601       15.954162    
    541000   0.95667348     16.985364      16.089755    
    542000   1.0128105      17.373299      16.04204     
    543000   1.0187051      17.902502      16.17011     
    544000   0.97248337     16.719445      16.165807    
    545000   1.0089488      17.761462      16.271805    
    546000   0.99880797     17.094186      16.173418    
    547000   1.0315527      17.46737       16.181313    
    548000   1.0162302      16.982541      16.216488    
    549000   1.0119154      16.588912      16.33342     
    550000   0.97671206     17.946514      16.410198    
    551000   1.0220534      17.910091      16.521712    
    552000   1.0347225      17.154657      16.396272    
    553000   0.9692018      17.782791      16.370641    
    554000   0.98481397     17.326097      16.184496    
    555000   0.95345207     17.277165      16.179592    
    556000   0.95050032     17.188098      16.002929    
    557000   0.99007289     17.5577        15.900457    
    558000   0.99016821     17.393419      15.933422    
    559000   0.95102655     17.59524       15.76698     
    560000   1.0213028      17.931917      15.562866    
    561000   1.0582408      17.537159      15.66443     
    562000   0.99377205     18.207566      15.694891    
    563000   1.0073573      17.58068       15.430599    
    564000   0.93609591     16.131578      15.235111    
    565000   0.99603738     17.497339      15.215507    
    566000   1.0310062      17.219374      14.982038    
    567000   1.0240131      17.35019       14.889053    
    568000   1.0521093      16.742155      14.788722    
    569000   1.0014399      17.718526      14.413251    
    570000   0.98329934     16.819834      14.322842    
    571000   1.0524121      17.468184      14.149592    
    572000   0.98701124     16.960892      14.175724    
    573000   1.016145       17.127259      13.856766    
    574000   0.98227986     17.36304       13.83593     
    575000   0.99343142     17.196037      13.479965    
    576000   0.95004722     16.798537      13.687193    
    577000   1.0195045      17.592772      13.651639    
    578000   1.0357136      17.61685       13.474991    
    579000   0.99991937     16.729148      13.336111    
    580000   1.0251637      17.324759      13.081328    
    581000   0.99901444     16.679873      13.013294    
    582000   0.99502667     17.811694      12.975339    
    583000   1.0247948      17.477236      12.876183    
    584000   1.0196799      17.38638       12.683318    
    585000   0.99724179     17.56234       12.521439    
    586000   0.98622522     17.737846      12.388559    
    587000   1.0100384      16.826026      12.393977    
    588000   0.99232495     17.042833      12.328816    
    589000   0.99551968     17.245658      12.084045    
    590000   1.0170937      17.34217       12.097597    
    591000   1.0120221      16.615518      12.169884    
    592000   0.97264269     17.253896      11.80766     
    593000   1.0100515      17.258616      11.788167    
    594000   1.0215362      17.495991      11.783156    
    595000   0.98252206     17.081392      11.649371    
    596000   0.98940675     17.488123      11.807892    
    597000   1.0061799      17.098114      11.794059    
    598000   0.96489244     17.364719      11.693666    
    599000   0.97846775     17.062694      11.576485    
    600000   0.97710915     16.972484      11.443959    
    601000   1.0678008      17.750761      11.454169    
    602000   0.98021046     16.706037      11.546613    
    603000   0.98071964     17.440256      11.451308    
    604000   1.0080255      17.247159      11.382007    
    605000   0.97547122     16.971429      11.400761    
    606000   1.0118911      17.325099      11.40502     
    607000   0.98187731     17.122631      11.414705    
    608000   1.0002668      17.70684       11.428537    
    609000   0.9957827      16.993295      11.446834    
    610000   0.96977354     17.373768      11.500591    
    611000   0.9864514      16.783122      11.458253    
    612000   0.96184903     17.445952      11.191396    
    613000   0.95379367     16.710244      11.194089    
    614000   0.99679043     17.319665      11.159562    
    615000   1.0542921      17.011014      11.160674    
    616000   0.95404419     17.112453      11.149612    
    617000   0.97332105     17.727323      11.232028    
    618000   0.986188       16.706108      10.924172    
    619000   0.96537564     16.869563      10.545888    
    620000   1.0001626      16.503838      10.288743    
    621000   1.0052716      16.895838      10.102782    
    622000   0.98493172     17.190171      10.056346    
    623000   1.0084627      17.759026      10.003923    
    624000   1.0286606      17.463006      10.033323    
    625000   0.99312809     17.023192      9.8950636    
    626000   0.98100623     17.397008      9.8451527    
    627000   0.97566353     16.736901      9.8351741    
    628000   1.0558452      17.22738       9.5984866    
    629000   1.0192187      17.142915      9.3815109    
    630000   1.0329178      17.541821      9.3450306    
    631000   0.98241794     17.127267      9.3336056    
    632000   1.0218219      17.227352      9.289212     
    633000   0.9609917      17.21074       9.396173     
    634000   1.0292445      16.862617      9.5018284    
    635000   0.98348598     17.078857      9.3485802    
    636000   1.0124636      16.732209      9.3360481    
    637000   1.0074198      17.103846      9.3988642    
    638000   0.97506583     17.212182      9.2359598    
    639000   1.028977       17.294982      9.1578006    
    640000   1.0336591      17.196161      9.0113625    
    641000   0.99143211     17.023311      9.0139134    
    642000   0.95822923     16.434328      9.1014635    
    643000   0.98585148     16.951642      9.1088163    
    644000   1.0104474      17.461702      8.8509013    
    645000   1.0289772      17.971811      8.8056185    
    646000   0.98104235     17.2469        8.5956403    
    647000   1.0174628      17.449096      8.4275099    
    648000   1.0094248      17.655327      8.3572871    
    649000   0.97642424     16.386518      8.2726126    
    650000   1.0005613      16.979192      7.9792424    
    651000   0.94192598     16.741815      8.0140993    
    652000   1.0162277      16.624788      8.2152528    
    653000   0.99544458     17.310775      8.1384836    
    654000   1.0358315      17.386409      8.0025421    
    655000   0.99175545     17.234344      7.8185849    
    656000   0.9887034      16.580035      7.5645468    
    657000   1.0102979      16.723559      7.4209718    
    658000   0.95930865     17.138028      7.2441116    
    659000   0.96638073     17.296258      7.135469     
    660000   0.98520752     17.314664      7.1793032    
    661000   0.99575276     16.819097      7.104086     
Fix halt condition for fix-id 3 met on step 662000 with value 6.8771829354982055 (src/fix_halt.cpp:237)
    662000   1.0067181      16.724749      6.8771829    
Loop time of 496.703 on 2 procs for 562000 steps with 897 atoms

Performance: 977582.275 tau/day, 1131.461 timesteps/s
133.8% CPU use with 1 MPI tasks x 2 OpenMP threads

MPI task timing breakdown:
Section |  min time  |  avg time  |  max time  |%varavg| %total
---------------------------------------------------------------
Pair    | 130.85     | 130.85     | 130.85     |   0.0 | 26.34
Bond    | 8.8377     | 8.8377     | 8.8377     |   0.0 |  1.78
Neigh   | 334.69     | 334.69     | 334.69     |   0.0 | 67.38
Comm    | 0.13843    | 0.13843    | 0.13843    |   0.0 |  0.03
Output  | 1.2226     | 1.2226     | 1.2226     |   0.0 |  0.25
Modify  | 19.627     | 19.627     | 19.627     |   0.0 |  3.95
Other   |            | 1.339      |            |       |  0.27

Nlocal:            897 ave         897 max         897 min
Histogram: 1 0 0 0 0 0 0 0 0 0
Nghost:              0 ave           0 max           0 min
Histogram: 1 0 0 0 0 0 0 0 0 0
Neighs:         174985 ave      174985 max      174985 min
Histogram: 1 0 0 0 0 0 0 0 0 0

Total # of neighbors = 174985
Ave neighs/atom = 195.07804
Ave special neighs/atom = 1.9977703
Neighbor list builds = 4657
Dangerous builds = 0

# This simulation is done
# Move onto the next one
clear
  using 2 OpenMP thread(s) per MPI task
package omp 0
using multi-threaded neighbor list subroutines
next f
jump SELF

###
# Reference paper:
# K. Kremer and G. S. Grest
# Dynamics of entangled linear polymer melts: A molecular-dynamics simulation
# J Chem Phys 92, 5057 (1990)

##################################
# MIHIR: for branched polymers
# LJ minimum first to expand and explore, then collapse
###

###
# Looping through the various nuc5branch4 polymers to simulate,
# define variables to switch through
variable f index bb37nuc5bl6bn4d30tot100 bb75nuc5bl12bn4d30tot200 bb112nuc5bl18bn4d30tot300 bb150nuc5bl25bn4d30tot400 bb187nuc5bl31bn4d30tot500 bb225nuc5bl37bn4d30tot600 bb262nuc5bl43bn4d30tot700 bb300nuc5bl50bn4d30tot800 bb337nuc5bl56bn4d30tot900 bb375nuc5bl62bn4d30tot1000 bb412nuc5bl68bn4d30tot1100 bb450nuc5bl75bn4d30tot1200
# variable f index bb75nuc5bl12bn4d30tot200
# variable f index bb337nuc5bl56bn4d30tot900
###


###
# Box and units  (use LJ units and periodic boundaries)
###

units lj
log nuc5branch4/logs2/$f.log
log nuc5branch4/logs2/bb375nuc5bl62bn4d30tot1000.log
