#atom_style bond #no stiffness
atom_style angle #with stiffness

boundary        p p p
###
# Pair interactions require lists of neighbours to be calculated
###

#neighbor 0.3 bin
neighbor 4 bin

neigh_modify every 1 delay 1 check yes
atom_modify sort 0 0
### Generate RESTART file, SPECIAL format, not a .txt file ###
### Useful if simulation crashes ###

restart 1000000 nuc5branch4/restarts2/$f.restart
restart 1000000 nuc5branch4/restarts2/bb37nuc5bl6bn4d30tot100.restart
#############################



### READ "start" data file ###

read_data nuc5branch4/$f.dat
read_data nuc5branch4/bb37nuc5bl6bn4d30tot100.dat
Reading data file ...
  orthogonal box = (-1000 -1000 -1000) to (1000 1000 1000)
  1 by 1 by 1 MPI processor grid
  reading atoms ...
  97 atoms
  scanning bonds ...
  3 = max bonds/atom
  scanning angles ...
  6 = max angles/atom
  reading bonds ...
  96 bonds
  reading angles ...
  110 angles
Finding 1-2 1-3 1-4 neighbors ...
  special bond factors lj:    0        0        0       
  special bond factors coul:  0        0        0       
     4 = max # of 1-2 neighbors
     4 = max # of 1-3 neighbors
     8 = max # of 1-4 neighbors
    12 = max # of special neighbors
  special bonds CPU = 0.002 seconds
  read_data CPU = 0.030 seconds

######################

### READ "REstart" data file ###

######################



###
# Define groups (atom type 1 is group 'all')
###
group all type 1
97 atoms in group all


###
# Dump configs - "simple dumpings"
###

###
# Dump configs + box coords
###

dump   1   all   custom   1000  nuc5branch4/trjs2/$f.lammpstrj  id  x y z  ix iy iz
dump   1   all   custom   1000  nuc5branch4/trjs2/bb37nuc5bl6bn4d30tot100.lammpstrj  id  x y z  ix iy iz
dump_modify   1   format line "%d %.5f %.5f %.5f %d %d %d"

########################################################################


###################################################################
# Stiffness term
#
# E = K * (1+cos(theta)), K>0
#
angle_style   cosine
#change this coefficient to change stiffness (e.g. 1,5,10)
angle_coeff   1 1.0
###################################################################

###################################################################
# Pair interaction between non-bonded atoms
#
#  Lennard-Jones 12-6 potential with cutoff:
#  potential E=4epsilon[ (sigma/r)^12 - (sigma/r)^6]  for r<r_cut
#
#  1.12246 = 2^(1/6) is the minimum of the potential


pair_style      lj/cut 1.12246152962189
#pair_style      lj/cut 3

#
#  pair_modify shift yes adds a constant to the potential such

#  that E(r_cut)=0. Forces remains unchanged.
#

pair_modify     shift yes

#
#  pair_coeff for lj/cut, specify 4:
#    * atom type interacting with
#    * atom type
#    * epsilon (energy units)
#    * sigma (distance units)
#

pair_coeff      1 1 1.0 1.0
###################################################################

###################################################################
# Pair interaction between non-bonded atoms
#
#  soft potential, for PUSHING apart overlapping atoms
#  potential E=A*(1 + cos(pi*r/r_c))
#
#  1.12246 = 2^(1/6) is the cut-off r_c

#pair_style     soft 1.12246152962189

#
#  pair_coeff for soft, specify 3:
#    * atom type interacting with
#    * atom type
#    * A
#
#

#pair_coeff      1 1 100.0
###################################################################

###################################################################
# Pair interaction between bonded atoms
#
# Fene potential + Lennard Jones 12-6:

#
#  E= - 0.5 K R0^2 ln[ 1- (r/R0)^2]
#     + 4epsilon[ (sigma/r)^12 - (sigma/r)^6] + epsilon
#

bond_style   fene


#
# For style fene, specify:
#   * bond type
#   * K (energy/distance^2)
#   * R0 (distance)
#   * epsilon (energy)  (LJ component)
#   * sigma (distance)  (LJ component)
#


special_bonds fene #<=== I M P O R T A N T (new command)
Finding 1-2 1-3 1-4 neighbors ...
  special bond factors lj:    0        1        1       
  special bond factors coul:  0        1        1       
     4 = max # of 1-2 neighbors
    12 = max # of special neighbors
  special bonds CPU = 0.001 seconds

bond_coeff   1   30   2   1.0   1.0


###################################################

###################################################################
# Pair interaction between bonded atoms
#
# Harmonic potential:
#
#  E= K * (R-R0)^2
#

#bond_style   harmonic

#
# For style harmonic, specify:
#   * bond type
#   * K (energy/distance^2)
#   * R0 (distance)
#

#bond_coeff   1   60.0   1.0
#bond_coeff   2   harmonic 0.1   1.0

###################################################
compute 1 all gyration
variable rog equal c_1
#compute 2 all coord/atom cutoff 1.1

#dump 2 all custom 10000 contact_number.dump id c_2


###
# Set up fixes
###
thermo_style   custom   step  temp enthalpy c_1
fix 1 all nve   ###NVE ensemble

fix 2 all   langevin   1.0 1.0 1.0  778655   ###Langevin integrator Tstart Tstop 1/friction rndseed


##### Sample thermodynamic info  (temperature, energy, pressure, etc.) #####
thermo 1000









############################################################################

###
# set timestep of integrator

timestep 0.01

###
# run integration for a number of steps
###
#run 0
#variable r equal c_1
#if "$r < 63.1" then "quit 1"

# lj potential minimum, cause molecule to explore
run 100000
Generated 0 of 0 mixed pair_coeff terms from geometric mixing rule
Last active /omp style is angle_style cosine/omp
Neighbor list info ...
  update: every = 1 steps, delay = 1 steps, check = yes
  max neighbors/atom: 2000, page size: 100000
  master list distance cutoff = 5.1224615
  ghost atom cutoff = 5.1224615
  binsize = 2.5612308, bins = 781 781 781
  1 neighbor lists, perpetual/occasional/extra = 1 0 0
  (1) pair lj/cut/omp, perpetual
      attributes: half, newton on, omp
      pair build: half/bin/newton/omp
      stencil: half/bin/3d
      bin: standard
WARNING: Communication cutoff 5.12246152962189 is shorter than a bond length based estimate of 5.455. This may lead to errors. (src/comm.cpp:723)
Per MPI rank memory allocation (min/avg/max) = 1861 | 1861 | 1861 Mbytes
   Step          Temp         Enthalpy         c_1      
         0   0              13.237871      6.5537782    
      1000   1.131053       21.125913      5.2341022    
      2000   0.99154081     19.360617      5.3521875    
      3000   0.88716923     20.920956      4.8667735    
      4000   1.0258058      18.848461      4.2847031    
      5000   1.0976197      20.376838      4.8124573    
      6000   0.99304464     19.763577      5.1848919    
      7000   0.97524552     20.549774      5.1833256    
      8000   0.98303164     21.305114      4.480331     
      9000   1.0930057      20.188203      4.9454323    
     10000   1.1293778      20.794067      5.1356298    
     11000   1.0344832      19.872006      4.6650721    
     12000   1.0934693      20.987559      4.5444512    
     13000   1.0322091      19.869697      4.5983026    
     14000   1.1076222      21.382763      4.6592808    
     15000   1.0076375      22.052059      4.7126543    
     16000   0.85677167     20.816257      4.7948206    
     17000   1.0118539      20.386011      5.260428     
     18000   1.0498216      20.218919      5.0401209    
     19000   0.93256101     19.434447      4.539274     
     20000   0.91321878     21.122525      4.7173577    
     21000   0.96439664     21.925911      4.1739919    
     22000   1.118587       19.592213      4.7566392    
     23000   1.0085452      20.661973      4.697241     
     24000   1.0450876      21.806162      4.6420894    
     25000   1.0752168      22.241051      4.5255778    
     26000   1.1138228      21.378143      4.6860272    
     27000   1.3515352      22.331326      4.4821662    
     28000   0.9437565      19.45872       4.7688163    
     29000   1.1022176      21.33107       4.777798     
     30000   1.0710708      21.704647      5.0743358    
     31000   0.99856267     21.362307      4.7623699    
     32000   1.0485236      21.079991      4.9121149    
     33000   0.92192765     20.893924      5.1510531    
     34000   0.9073697      19.515314      5.4718471    
     35000   0.9747073      19.820366      5.1604218    
     36000   0.93055554     21.257794      4.5909579    
     37000   1.1046055      20.923888      4.3851894    
     38000   0.94873317     21.01116       5.2501449    
     39000   0.99404934     19.677919      5.13291      
     40000   1.1012054      21.326014      4.7501595    
     41000   1.0111141      20.753341      4.5977527    
     42000   1.1308419      21.177429      4.6749227    
     43000   0.97935044     20.529663      4.7003918    
     44000   1.0600342      20.685028      4.5903582    
     45000   1.0312969      20.697513      4.3086797    
     46000   1.0020123      20.26591       4.8300998    
     47000   0.97126973     22.320212      4.6969199    
     48000   1.0061879      20.344982      4.5013987    
     49000   0.94044193     20.781072      4.974867     
     50000   0.78051008     18.593098      5.0926631    
     51000   1.0255062      22.676201      4.7733066    
     52000   1.0693742      21.551339      4.8212592    
     53000   0.84519593     19.327224      4.4961508    
     54000   0.87068921     19.301924      4.9744805    
     55000   1.1215245      20.374045      4.8332053    
     56000   1.1374999      20.794999      4.7283751    
     57000   0.95768625     18.952713      4.7582585    
     58000   0.9129953      20.554557      4.3463852    
     59000   0.88632634     20.194389      5.0968222    
     60000   1.0775716      21.012944      4.6582679    
     61000   1.2063095      20.912804      4.4454063    
     62000   0.99543115     20.120473      4.4339229    
     63000   0.86433487     19.173906      4.8879482    
     64000   0.87766609     19.809478      5.4498773    
     65000   0.95288109     20.529681      5.3666892    
     66000   0.94587442     19.213453      5.6435205    
     67000   1.032022       19.318538      5.1505747    
     68000   0.97319057     20.581383      5.6078738    
     69000   1.0588882      20.941927      6.1134212    
     70000   1.0020257      23.187435      6.0420393    
     71000   1.1014029      20.916456      6.0856478    
     72000   1.1378777      20.224225      5.2269169    
     73000   0.99319257     20.41164       5.5336551    
     74000   1.0174399      19.941994      5.3333284    
     75000   1.040331       20.374486      5.663418     
     76000   1.2209005      22.252487      6.1461018    
     77000   1.1408643      22.02326       6.3093798    
     78000   1.1372099      20.75761       5.8256894    
     79000   0.9878384      21.539696      5.7627911    
     80000   0.93872422     20.63696       5.7283623    
     81000   1.039623       18.611904      5.9739926    
     82000   0.92588123     21.121772      6.0202269    
     83000   1.0033066      21.836708      6.0440129    
     84000   0.92411281     21.525573      6.431199     
     85000   1.0060514      20.541965      6.5686516    
     86000   0.94555167     20.36735       6.0076121    
     87000   0.90084523     19.871956      5.685396     
     88000   1.0260188      21.37032       5.1915707    
     89000   0.92122293     20.484988      4.5817463    
     90000   1.0308303      20.47155       4.5611273    
     91000   1.0943027      20.976014      4.5220757    
     92000   1.0925475      23.194507      4.7418702    
     93000   1.0015312      19.372912      4.7136798    
     94000   1.0490243      19.809851      4.6194874    
     95000   1.0249108      21.201901      5.4179752    
     96000   0.94365847     20.542014      4.8902948    
     97000   1.0651756      20.558136      5.2711667    
     98000   0.97789156     21.227365      4.8122859    
     99000   0.9372559      19.259623      5.0626884    
    100000   0.95521572     20.330974      5.5494255    
Loop time of 421.283 on 2 procs for 100000 steps with 97 atoms

Performance: 205087.814 tau/day, 237.370 timesteps/s
100.7% CPU use with 1 MPI tasks x 2 OpenMP threads

MPI task timing breakdown:
Section |  min time  |  avg time  |  max time  |%varavg| %total
---------------------------------------------------------------
Pair    | 0.36446    | 0.36446    | 0.36446    |   0.0 |  0.09
Bond    | 0.4086     | 0.4086     | 0.4086     |   0.0 |  0.10
Neigh   | 419.62     | 419.62     | 419.62     |   0.0 | 99.61
Comm    | 0.017461   | 0.017461   | 0.017461   |   0.0 |  0.00
Output  | 0.12184    | 0.12184    | 0.12184    |   0.0 |  0.03
Modify  | 0.688      | 0.688      | 0.688      |   0.0 |  0.16
Other   |            | 0.0598     |            |       |  0.01

Nlocal:             97 ave          97 max          97 min
Histogram: 1 0 0 0 0 0 0 0 0 0
Nghost:              0 ave           0 max           0 min
Histogram: 1 0 0 0 0 0 0 0 0 0
Neighs:           1449 ave        1449 max        1449 min
Histogram: 1 0 0 0 0 0 0 0 0 0

Total # of neighbors = 1449
Ave neighs/atom = 14.938144
Ave special neighs/atom = 1.9793814
Neighbor list builds = 973
Dangerous builds = 0

# Replace lj potential, now collapse
pair_style      lj/cut 3

# Cutoff simul when gyration under 10
# Variable created with equal requires v_ + 'name'
fix 3 all halt 1000 v_rog < 7

run 3000000
Generated 0 of 0 mixed pair_coeff terms from geometric mixing rule
Last active /omp style is angle_style cosine/omp
Per MPI rank memory allocation (min/avg/max) = 1861 | 1861 | 1861 Mbytes
   Step          Temp         Enthalpy         c_1      
    100000   0.95521572     18.96269       5.5494255    
Fix halt condition for fix-id 3 met on step 101000 with value 5.079929876526155 (src/fix_halt.cpp:237)
    101000   1.1344452      20.737128      5.0799299    
Loop time of 1.33896 on 2 procs for 1000 steps with 97 atoms

Performance: 645278.425 tau/day, 746.850 timesteps/s
101.6% CPU use with 1 MPI tasks x 2 OpenMP threads

MPI task timing breakdown:
Section |  min time  |  avg time  |  max time  |%varavg| %total
---------------------------------------------------------------
Pair    | 0.007237   | 0.007237   | 0.007237   |   0.0 |  0.54
Bond    | 0.003898   | 0.003898   | 0.003898   |   0.0 |  0.29
Neigh   | 1.3189     | 1.3189     | 1.3189     |   0.0 | 98.50
Comm    | 0.0001522  | 0.0001522  | 0.0001522  |   0.0 |  0.01
Output  | 0.0008979  | 0.0008979  | 0.0008979  |   0.0 |  0.07
Modify  | 0.0073423  | 0.0073423  | 0.0073423  |   0.0 |  0.55
Other   |            | 0.0005284  |            |       |  0.04

Nlocal:             97 ave          97 max          97 min
Histogram: 1 0 0 0 0 0 0 0 0 0
Nghost:              0 ave           0 max           0 min
Histogram: 1 0 0 0 0 0 0 0 0 0
Neighs:           2527 ave        2527 max        2527 min
Histogram: 1 0 0 0 0 0 0 0 0 0

Total # of neighbors = 2527
Ave neighs/atom = 26.051546
Ave special neighs/atom = 1.9793814
Neighbor list builds = 9
Dangerous builds = 0

# This simulation is done
# Move onto the next one
clear
  using 2 OpenMP thread(s) per MPI task
package omp 0
using multi-threaded neighbor list subroutines
next f
jump SELF

###
# Reference paper:
# K. Kremer and G. S. Grest
# Dynamics of entangled linear polymer melts: A molecular-dynamics simulation
# J Chem Phys 92, 5057 (1990)

##################################
# MIHIR: for branched polymers
# LJ minimum first to expand and explore, then collapse
###

###
# Looping through the various nuc5branch4 polymers to simulate,
# define variables to switch through
variable f index bb37nuc5bl6bn4d30tot100 bb75nuc5bl12bn4d30tot200 bb112nuc5bl18bn4d30tot300 bb150nuc5bl25bn4d30tot400 bb187nuc5bl31bn4d30tot500 bb225nuc5bl37bn4d30tot600 bb262nuc5bl43bn4d30tot700 bb300nuc5bl50bn4d30tot800 bb337nuc5bl56bn4d30tot900 bb375nuc5bl62bn4d30tot1000 bb412nuc5bl68bn4d30tot1100 bb450nuc5bl75bn4d30tot1200
# variable f index bb75nuc5bl12bn4d30tot200
# variable f index bb337nuc5bl56bn4d30tot900
###


###
# Box and units  (use LJ units and periodic boundaries)
###

units lj
log nuc5branch4/logs2/$f.log
log nuc5branch4/logs2/bb75nuc5bl12bn4d30tot200.log
