#atom_style bond #no stiffness
atom_style angle #with stiffness

boundary        p p p
###
# Pair interactions require lists of neighbours to be calculated
###

#neighbor 0.3 bin
neighbor 4 bin

neigh_modify every 1 delay 1 check yes
atom_modify sort 0 0
### Generate RESTART file, SPECIAL format, not a .txt file ###
### Useful if simulation crashes ###

restart 1000000 nuc5branch4/restarts2/$f.restart
restart 1000000 nuc5branch4/restarts2/bb375nuc5bl62bn4d30tot1000.restart
#############################



### READ "start" data file ###

read_data nuc5branch4/$f.dat
read_data nuc5branch4/bb375nuc5bl62bn4d30tot1000.dat
Reading data file ...
  orthogonal box = (-1000 -1000 -1000) to (1000 1000 1000)
  1 by 1 by 1 MPI processor grid
  reading atoms ...
  993 atoms
  scanning bonds ...
  3 = max bonds/atom
  scanning angles ...
  6 = max angles/atom
  reading bonds ...
  992 bonds
  reading angles ...
  1006 angles
Finding 1-2 1-3 1-4 neighbors ...
  special bond factors lj:    0        0        0       
  special bond factors coul:  0        0        0       
     4 = max # of 1-2 neighbors
     4 = max # of 1-3 neighbors
     8 = max # of 1-4 neighbors
    12 = max # of special neighbors
  special bonds CPU = 0.001 seconds
  read_data CPU = 0.056 seconds

######################

### READ "REstart" data file ###

######################



###
# Define groups (atom type 1 is group 'all')
###
group all type 1
993 atoms in group all


###
# Dump configs - "simple dumpings"
###

###
# Dump configs + box coords
###

dump   1   all   custom   1000  nuc5branch4/trjs2/$f.lammpstrj  id  x y z  ix iy iz
dump   1   all   custom   1000  nuc5branch4/trjs2/bb375nuc5bl62bn4d30tot1000.lammpstrj  id  x y z  ix iy iz
dump_modify   1   format line "%d %.5f %.5f %.5f %d %d %d"

########################################################################


###################################################################
# Stiffness term
#
# E = K * (1+cos(theta)), K>0
#
angle_style   cosine
#change this coefficient to change stiffness (e.g. 1,5,10)
angle_coeff   1 1.0
###################################################################

###################################################################
# Pair interaction between non-bonded atoms
#
#  Lennard-Jones 12-6 potential with cutoff:
#  potential E=4epsilon[ (sigma/r)^12 - (sigma/r)^6]  for r<r_cut
#
#  1.12246 = 2^(1/6) is the minimum of the potential


pair_style      lj/cut 1.12246152962189
#pair_style      lj/cut 3

#
#  pair_modify shift yes adds a constant to the potential such

#  that E(r_cut)=0. Forces remains unchanged.
#

pair_modify     shift yes

#
#  pair_coeff for lj/cut, specify 4:
#    * atom type interacting with
#    * atom type
#    * epsilon (energy units)
#    * sigma (distance units)
#

pair_coeff      1 1 1.0 1.0
###################################################################

###################################################################
# Pair interaction between non-bonded atoms
#
#  soft potential, for PUSHING apart overlapping atoms
#  potential E=A*(1 + cos(pi*r/r_c))
#
#  1.12246 = 2^(1/6) is the cut-off r_c

#pair_style     soft 1.12246152962189

#
#  pair_coeff for soft, specify 3:
#    * atom type interacting with
#    * atom type
#    * A
#
#

#pair_coeff      1 1 100.0
###################################################################

###################################################################
# Pair interaction between bonded atoms
#
# Fene potential + Lennard Jones 12-6:

#
#  E= - 0.5 K R0^2 ln[ 1- (r/R0)^2]
#     + 4epsilon[ (sigma/r)^12 - (sigma/r)^6] + epsilon
#

bond_style   fene


#
# For style fene, specify:
#   * bond type
#   * K (energy/distance^2)
#   * R0 (distance)
#   * epsilon (energy)  (LJ component)
#   * sigma (distance)  (LJ component)
#


special_bonds fene #<=== I M P O R T A N T (new command)
Finding 1-2 1-3 1-4 neighbors ...
  special bond factors lj:    0        1        1       
  special bond factors coul:  0        1        1       
     4 = max # of 1-2 neighbors
    12 = max # of special neighbors
  special bonds CPU = 0.000 seconds

bond_coeff   1   30   2   1.0   1.0


###################################################

###################################################################
# Pair interaction between bonded atoms
#
# Harmonic potential:
#
#  E= K * (R-R0)^2
#

#bond_style   harmonic

#
# For style harmonic, specify:
#   * bond type
#   * K (energy/distance^2)
#   * R0 (distance)
#

#bond_coeff   1   60.0   1.0
#bond_coeff   2   harmonic 0.1   1.0

###################################################
compute 1 all gyration
variable rog equal c_1
#compute 2 all coord/atom cutoff 1.1

#dump 2 all custom 10000 contact_number.dump id c_2


###
# Set up fixes
###
thermo_style   custom   step  temp enthalpy c_1
fix 1 all nve   ###NVE ensemble

fix 2 all   langevin   1.0 1.0 1.0  778655   ###Langevin integrator Tstart Tstop 1/friction rndseed


##### Sample thermodynamic info  (temperature, energy, pressure, etc.) #####
thermo 1000









############################################################################

###
# set timestep of integrator

timestep 0.01

###
# run integration for a number of steps
###
#run 0
#variable r equal c_1
#if "$r < 63.1" then "quit 1"

# lj potential minimum, cause molecule to explore
run 100000
Generated 0 of 0 mixed pair_coeff terms from geometric mixing rule
Last active /omp style is angle_style cosine/omp
Neighbor list info ...
  update: every = 1 steps, delay = 1 steps, check = yes
  max neighbors/atom: 2000, page size: 100000
  master list distance cutoff = 5.1224615
  ghost atom cutoff = 5.1224615
  binsize = 2.5612308, bins = 781 781 781
  1 neighbor lists, perpetual/occasional/extra = 1 0 0
  (1) pair lj/cut/omp, perpetual
      attributes: half, newton on, omp
      pair build: half/bin/newton/omp
      stencil: half/bin/3d
      bin: standard
WARNING: Communication cutoff 5.12246152962189 is shorter than a bond length based estimate of 5.455. This may lead to errors. (src/comm.cpp:723)
Per MPI rank memory allocation (min/avg/max) = 1862 | 1862 | 1862 Mbytes
   Step          Temp         Enthalpy         c_1      
         0   0              13.254201      73.911025    
      1000   1.0142374      19.067681      73.19788     
      2000   0.96123333     18.688816      72.664182    
      3000   0.98506111     19.02399       71.936099    
      4000   0.99250037     19.816797      71.287274    
      5000   1.0187186      19.158252      70.653257    
      6000   1.0090161      19.441754      70.369666    
      7000   1.0424947      19.740606      70.074817    
      8000   0.95388763     19.629631      69.875262    
      9000   0.96841695     19.539797      69.504237    
     10000   1.0035773      19.719317      69.04407     
     11000   0.98717979     19.795361      69.038402    
     12000   0.97546341     20.205832      68.854044    
     13000   0.99827253     20.122095      68.711353    
     14000   0.99877431     20.296947      68.58834     
     15000   1.0575517      20.535883      68.450487    
     16000   1.049782       20.113848      68.209299    
     17000   1.0185907      20.295612      67.94365     
     18000   1.0267523      20.148717      67.637168    
     19000   0.9307439      20.002109      67.51665     
     20000   0.99778867     19.896695      67.449862    
     21000   1.0212042      20.220543      67.438985    
     22000   1.0092429      20.405379      67.191763    
     23000   0.99207515     20.105204      66.839496    
     24000   1.0496945      20.586725      66.823243    
     25000   1.042326       20.510654      66.430921    
     26000   1.0135153      20.019288      66.201705    
     27000   1.0371777      19.958467      66.149948    
     28000   0.99348306     19.90244       65.887285    
     29000   1.0475171      20.414101      65.664577    
     30000   0.97944029     20.395611      65.382284    
     31000   1.0021727      20.299629      65.33039     
     32000   1.0016286      20.090049      65.227108    
     33000   0.98439705     20.255578      65.351641    
     34000   1.0254871      19.910389      65.137545    
     35000   0.95961482     20.371672      65.00081     
     36000   0.99810635     20.274937      64.998289    
     37000   1.0282862      20.222215      64.540769    
     38000   0.98807413     19.892641      64.277295    
     39000   1.0156456      20.123942      64.154282    
     40000   0.98582457     20.06891       64.149147    
     41000   1.0007932      20.42735       64.067133    
     42000   0.99616855     20.721523      63.923336    
     43000   0.95620445     20.471636      63.953143    
     44000   1.0168398      20.44602       63.957629    
     45000   0.96258377     20.060758      63.970416    
     46000   0.97972465     20.126002      64.012204    
     47000   0.97649553     19.719687      63.748544    
     48000   1.0610951      20.295026      63.709753    
     49000   0.99371699     20.218467      63.637324    
     50000   1.00995        20.365784      63.671775    
     51000   0.95905361     19.885002      63.492627    
     52000   1.0298241      20.346111      63.218804    
     53000   0.97932338     20.576206      63.138258    
     54000   1.0193421      20.434127      62.985821    
     55000   1.0274525      20.34777       62.93271     
     56000   1.019914       20.785875      62.779984    
     57000   1.0340454      20.276282      62.668226    
     58000   1.0239516      19.897434      62.516415    
     59000   0.97925643     20.204823      62.358905    
     60000   1.0388277      20.353956      62.438537    
     61000   0.98586977     20.40851       62.323269    
     62000   1.03577        20.546376      62.156578    
     63000   1.0157747      20.623865      62.101948    
     64000   1.0756408      20.704291      61.831567    
     65000   0.99646038     20.464375      61.649361    
     66000   0.99939375     19.892873      61.662613    
     67000   1.0417859      20.458739      61.731589    
     68000   0.98511084     20.775483      61.694826    
     69000   1.0190156      19.934941      61.790494    
     70000   1.0397242      20.865402      61.620786    
     71000   0.9692834      20.50523       61.651354    
     72000   0.96638568     20.777559      61.393305    
     73000   0.97070602     20.414891      61.288377    
     74000   1.0293255      20.386361      61.189508    
     75000   1.0257071      20.485312      61.138322    
     76000   1.037737       20.517731      60.842571    
     77000   1.0255476      20.661328      60.919926    
     78000   0.96490976     20.447776      61.085765    
     79000   0.95589434     20.090159      60.926347    
     80000   0.99593018     20.145918      60.863436    
     81000   1.0092827      20.63171       60.82272     
     82000   1.0057315      20.653166      60.976489    
     83000   1.0088047      20.726161      60.931517    
     84000   1.0190164      20.849559      60.619166    
     85000   1.0234854      20.689808      60.537075    
     86000   0.9753016      20.645768      60.820167    
     87000   1.0126962      20.554669      60.617245    
     88000   0.99399174     20.059446      60.737951    
     89000   0.93887983     20.076399      60.546879    
     90000   1.0128759      20.673128      60.551102    
     91000   1.008155       20.476279      60.249151    
     92000   0.97704102     20.089617      60.270926    
     93000   1.0263865      19.847233      60.130916    
     94000   0.98206855     20.022006      60.397378    
     95000   1.0156921      20.435591      60.313059    
     96000   0.96901775     20.493867      60.244752    
     97000   1.0131445      20.302291      60.066344    
     98000   0.97082565     20.589479      59.946861    
     99000   0.97290262     20.236477      59.740604    
    100000   1.0047757      20.401115      59.505775    
Loop time of 186.761 on 2 procs for 100000 steps with 993 atoms

Performance: 462624.006 tau/day, 535.444 timesteps/s
104.2% CPU use with 1 MPI tasks x 2 OpenMP threads

MPI task timing breakdown:
Section |  min time  |  avg time  |  max time  |%varavg| %total
---------------------------------------------------------------
Pair    | 0.99083    | 0.99083    | 0.99083    |   0.0 |  0.53
Bond    | 1.5545     | 1.5545     | 1.5545     |   0.0 |  0.83
Neigh   | 180.21     | 180.21     | 180.21     |   0.0 | 96.49
Comm    | 0.023395   | 0.023395   | 0.023395   |   0.0 |  0.01
Output  | 0.21347    | 0.21347    | 0.21347    |   0.0 |  0.11
Modify  | 3.5439     | 3.5439     | 3.5439     |   0.0 |  1.90
Other   |            | 0.2258     |            |       |  0.12

Nlocal:            993 ave         993 max         993 min
Histogram: 1 0 0 0 0 0 0 0 0 0
Nghost:              0 ave           0 max           0 min
Histogram: 1 0 0 0 0 0 0 0 0 0
Neighs:           8211 ave        8211 max        8211 min
Histogram: 1 0 0 0 0 0 0 0 0 0

Total # of neighbors = 8211
Ave neighs/atom = 8.2688822
Ave special neighs/atom = 1.9979859
Neighbor list builds = 1187
Dangerous builds = 0

# Replace lj potential, now collapse
pair_style      lj/cut 3

# Cutoff simul when gyration under 10
# Variable created with equal requires v_ + 'name'
fix 3 all halt 1000 v_rog < 7

run 3000000
Generated 0 of 0 mixed pair_coeff terms from geometric mixing rule
Last active /omp style is angle_style cosine/omp
Per MPI rank memory allocation (min/avg/max) = 1862 | 1862 | 1862 Mbytes
   Step          Temp         Enthalpy         c_1      
    100000   1.0047757      19.549424      59.505775    
    101000   1.0034462      20.127657      59.277697    
    102000   1.0051992      19.380056      59.278847    
    103000   1.0651629      19.481724      59.126808    
    104000   0.98441606     19.206619      59.127895    
    105000   0.99432857     19.203578      58.81787     
    106000   1.0057901      18.863136      58.568796    
    107000   0.99744813     19.456435      58.248438    
    108000   1.0045471      19.127088      58.131239    
    109000   0.97382634     19.071842      58.059712    
    110000   1.0577703      18.768793      57.79188     
    111000   1.0478344      18.806302      57.871712    
    112000   1.022819       18.601331      57.588126    
    113000   0.97154945     18.282652      57.409013    
    114000   1.0242502      18.495102      57.352758    
    115000   1.0322329      18.418862      57.268756    
    116000   0.98636606     18.271382      57.15953     
    117000   1.0120657      18.347031      56.61568     
    118000   1.0126731      18.592996      56.411562    
    119000   1.0972794      18.545192      56.269919    
    120000   1.0186922      18.048857      56.113836    
    121000   0.97159381     18.381174      56.099163    
    122000   1.0400414      18.956479      55.854688    
    123000   1.0091769      17.80325       55.715967    
    124000   1.0123812      17.701515      55.834043    
    125000   1.0031702      17.822764      56.006267    
    126000   1.0368553      18.043688      55.766476    
    127000   0.99722318     18.682444      55.367114    
    128000   0.99700419     17.881045      55.087965    
    129000   1.0244644      18.091391      55.023293    
    130000   1.0112972      18.095515      54.916955    
    131000   0.99717429     18.104936      54.709487    
    132000   0.98909544     18.17119       54.575428    
    133000   0.98139895     17.963874      54.305543    
    134000   1.0182867      18.239786      54.122654    
    135000   0.97778481     18.03199       54.018535    
    136000   1.0095657      18.628801      54.105947    
    137000   0.97693063     17.692761      53.965682    
    138000   0.97007846     18.210228      53.766872    
    139000   0.99696017     17.796754      53.879777    
    140000   0.96779393     17.873045      53.715095    
    141000   0.96647872     17.60049       53.523886    
    142000   1.02411        18.357273      53.58744     
    143000   0.9881515      17.640903      53.673739    
    144000   1.0034361      17.525074      53.52405     
    145000   0.96905333     18.139484      53.565223    
    146000   0.99792536     17.829106      53.51147     
    147000   1.0035564      18.754058      53.340656    
    148000   0.96869723     17.593981      53.233614    
    149000   1.0226026      18.092597      53.285112    
    150000   1.0252616      18.129364      53.203504    
    151000   1.0444469      17.91754       52.979066    
    152000   1.0001065      18.011681      52.789381    
    153000   0.99836142     17.902688      52.711772    
    154000   1.0095246      17.609067      52.84838     
    155000   1.0301723      18.035611      53.076548    
    156000   0.99361268     18.222929      52.983154    
    157000   0.99317494     17.587554      52.814039    
    158000   1.0251033      17.963303      52.581166    
    159000   1.0219443      18.32634       52.320598    
    160000   0.95728239     18.134102      52.347477    
    161000   0.99937427     17.477773      52.293957    
    162000   0.98322115     17.774093      52.45519     
    163000   0.9901154      17.895308      52.40773     
    164000   0.98074021     17.785127      52.454934    
    165000   0.98640451     17.581396      52.420132    
    166000   1.0871836      18.080349      52.284542    
    167000   1.0018103      17.9905        52.360645    
    168000   0.99574393     18.201351      52.25108     
    169000   0.97466192     18.176499      52.200277    
    170000   1.0638645      17.808059      51.997616    
    171000   0.99475185     18.017368      52.145222    
    172000   1.0041816      18.262067      51.897555    
    173000   1.0016999      17.625138      51.865079    
    174000   1.0222915      18.251743      51.653443    
    175000   0.99505895     17.785363      51.26325     
    176000   1.0140208      17.70777       51.047867    
    177000   1.005519       18.035887      50.82647     
    178000   1.0072561      17.750804      50.57414     
    179000   1.0298704      18.009865      50.723171    
    180000   1.0091743      18.042953      50.717013    
    181000   1.0014075      17.668916      50.688952    
    182000   1.0131233      18.231645      50.70881     
    183000   0.99489123     17.269264      50.586022    
    184000   0.98870978     18.634158      50.298247    
    185000   0.98507651     18.009854      50.150412    
    186000   1.008442       17.624551      50.103562    
    187000   0.96962337     18.135183      49.839744    
    188000   0.98735006     18.039929      49.696813    
    189000   0.97144688     17.867489      49.475989    
    190000   0.99057624     18.087568      49.365103    
    191000   0.98945864     17.787913      49.269733    
    192000   0.98319413     17.506716      49.193932    
    193000   0.99475084     17.81574       49.219508    
    194000   0.99188949     17.500256      49.235374    
    195000   1.0029579      18.112363      49.234352    
    196000   1.0176296      17.553946      49.297601    
    197000   1.0179366      17.638607      49.169316    
    198000   1.000188       18.297436      48.972566    
    199000   0.97137627     17.965236      48.724483    
    200000   0.98749943     17.802424      48.728065    
    201000   0.98171202     17.89584       48.617936    
    202000   0.99830911     17.907914      48.183146    
    203000   0.96602477     17.834101      47.999028    
    204000   1.021799       17.965836      47.985426    
    205000   1.0312035      18.445225      47.66067     
    206000   0.97472365     18.598685      47.777123    
    207000   0.96869913     17.565182      47.742552    
    208000   0.98891468     17.617508      47.459827    
    209000   1.000587       18.324385      47.125228    
    210000   1.0285819      18.1195        47.007001    
    211000   1.0157818      18.032965      46.966421    
    212000   0.99413439     17.84832       47.015796    
    213000   1.0077358      18.193611      46.788758    
    214000   1.0065014      17.838964      46.751955    
    215000   0.95743866     18.628531      46.428895    
    216000   1.0012534      17.596209      46.234016    
    217000   1.0015273      17.975217      46.244939    
    218000   0.99673603     18.510156      46.124754    
    219000   0.96053385     17.628943      46.178502    
    220000   0.98158894     17.742431      46.174378    
    221000   0.99499144     17.824289      46.143821    
    222000   1.0234243      18.202621      46.074968    
    223000   1.0136443      17.341111      45.867554    
    224000   0.95678557     18.065392      45.620499    
    225000   0.99581984     17.863109      45.470805    
    226000   0.99231781     17.761292      45.350512    
    227000   1.0056066      17.998571      45.076573    
    228000   0.98785312     17.238197      45.033465    
    229000   0.96148821     17.652814      44.726169    
    230000   0.99754863     18.464111      44.486851    
    231000   1.022911       18.07229       44.256965    
    232000   1.0000282      17.491064      44.31462     
    233000   1.0035728      17.883739      44.145821    
    234000   0.95227195     17.778142      44.169708    
    235000   0.99719791     17.387863      44.072917    
    236000   1.0726842      17.721832      43.970861    
    237000   1.0010985      17.207239      43.977266    
    238000   0.9955373      17.747126      43.99883     
    239000   1.0163792      17.748281      44.110812    
    240000   0.98546944     17.385054      43.879866    
    241000   1.0063118      17.396943      43.857819    
    242000   0.99256737     17.784876      43.919464    
    243000   0.95885524     17.528778      43.709351    
    244000   1.0308343      18.120253      43.765145    
    245000   1.0070954      17.775452      43.711503    
    246000   0.99503456     17.935357      43.703741    
    247000   1.0437489      18.005994      43.539013    
    248000   0.98924491     17.99957       43.472398    
    249000   1.0208585      17.989382      43.35985     
    250000   1.0071431      18.111516      43.154693    
    251000   0.94973523     17.88556       43.128968    
    252000   0.95059922     17.322461      43.048654    
    253000   1.0152902      17.552438      42.873945    
    254000   0.96153192     17.607848      42.876249    
    255000   0.9666599      18.034597      42.616623    
    256000   0.99292481     17.586647      42.326508    
    257000   1.0170246      17.84513       42.298029    
    258000   0.98569655     17.964673      42.050871    
    259000   0.97143476     17.48929       41.876969    
    260000   1.0057399      17.318257      41.811698    
    261000   1.0570707      17.989002      41.595565    
    262000   1.0189076      17.000049      41.446899    
    263000   0.99817778     18.077336      41.295342    
    264000   0.99074493     17.64346       41.287036    
    265000   1.0041788      18.03562       41.046798    
    266000   1.0189047      17.146728      40.909748    
    267000   0.98766686     18.042562      40.731562    
    268000   1.0266393      17.888472      40.709148    
    269000   0.96294491     17.863451      40.61838     
    270000   1.0003131      17.616075      40.53434     
    271000   0.99212883     17.86186       40.544306    
    272000   1.0440749      17.726755      40.392528    
    273000   0.99771168     17.763776      40.193583    
    274000   1.0059925      17.421783      40.337523    
    275000   0.99633248     17.389651      40.575238    
    276000   0.94406139     17.984158      40.604935    
    277000   1.0359279      17.382089      40.447939    
    278000   0.96476419     18.031156      40.30272     
    279000   1.0081593      17.692391      40.125775    
    280000   0.96194641     18.007329      40.120292    
    281000   0.99909804     18.006419      39.976769    
    282000   0.94927874     17.192607      39.805465    
    283000   0.98211498     17.84423       39.697342    
    284000   0.97807925     17.604149      39.452296    
    285000   0.99772674     17.60253       39.347292    
    286000   1.0322741      17.758427      39.430684    
    287000   0.97596801     17.215627      39.376006    
    288000   0.98615029     17.44025       39.418432    
    289000   0.98944858     16.958261      39.4024      
    290000   0.997145       17.470778      39.138576    
    291000   1.0190361      17.469133      39.089251    
    292000   1.0156338      17.523226      39.253383    
    293000   0.99765218     17.402856      39.036847    
    294000   1.0033786      17.511231      38.965295    
    295000   1.0457359      17.511711      38.965133    
    296000   1.0004125      17.540816      38.849559    
    297000   0.99997958     17.605865      38.651461    
    298000   1.0137721      17.828159      38.723939    
    299000   1.0416069      18.03359       38.53219     
    300000   1.0180419      17.487843      38.113694    
    301000   1.0100955      17.79215       38.067958    
    302000   0.9992582      17.142595      37.77975     
    303000   0.9852987      17.813378      37.609127    
    304000   0.97672483     17.586198      37.508286    
    305000   1.0079673      17.645997      37.322269    
    306000   1.0273207      17.24732       37.103605    
    307000   0.97948941     18.227716      36.967379    
    308000   1.0446281      17.424513      36.787018    
    309000   1.0344414      17.648682      36.822938    
    310000   1.0132496      18.704862      36.786719    
    311000   0.99299895     17.775894      36.607562    
    312000   0.9947374      17.708998      36.63216     
    313000   0.99414131     17.54503       36.771115    
    314000   0.96865759     17.355209      36.719152    
    315000   1.005528       18.155226      37.073607    
    316000   1.0183245      17.503016      37.01467     
    317000   0.98127297     17.558139      37.002991    
    318000   0.94828993     17.168912      37.002238    
    319000   1.0246254      17.424243      36.890318    
    320000   1.0605608      18.045985      36.755268    
    321000   0.97352631     18.234769      36.539698    
    322000   0.95486275     18.153482      36.393862    
    323000   1.001675       17.855123      36.294085    
    324000   0.98343809     17.12193       36.080334    
    325000   0.99874265     17.684938      36.015736    
    326000   0.99270386     17.664812      35.863404    
    327000   0.99998982     16.918129      35.713843    
    328000   1.0272515      17.895428      35.39141     
    329000   0.99095708     17.450832      35.244144    
    330000   0.98845054     17.680283      35.196798    
    331000   0.99785557     17.556501      35.071122    
    332000   0.94812667     17.703786      35.090341    
    333000   0.98244498     17.63606       35.131409    
    334000   1.0147182      17.593949      35.286677    
    335000   1.0136554      17.357891      35.302939    
    336000   1.0579838      18.210008      35.216524    
    337000   1.0253679      17.628422      35.110488    
    338000   0.98188746     17.552286      35.026133    
    339000   0.96092082     17.162938      35.03108     
    340000   1.0415685      17.116358      34.91263     
    341000   1.0001002      17.831153      34.689769    
    342000   1.037854       18.057651      34.437578    
    343000   0.99093871     17.488855      34.319943    
    344000   1.026028       17.856617      34.35707     
    345000   0.97671154     17.625717      34.258742    
    346000   0.99936715     17.690631      34.239284    
    347000   1.0003226      17.423809      34.076657    
    348000   1.0211164      18.403787      34.168536    
    349000   0.95001337     16.926777      34.142355    
    350000   0.98349503     18.233849      34.00573     
    351000   0.96727698     17.736547      33.999181    
    352000   0.9709481      17.367041      33.85419     
    353000   0.96884274     17.414238      33.592149    
    354000   1.0223138      17.908215      33.574784    
    355000   1.0396293      17.65208       33.489187    
    356000   0.99750869     17.358742      33.291077    
    357000   1.0016427      17.172707      33.311212    
    358000   1.0124389      17.297093      33.125074    
    359000   1.0181146      17.116478      32.856532    
    360000   1.0184348      17.56411       32.867158    
    361000   1.0221736      17.632364      32.897662    
    362000   1.0064743      17.623822      32.69898     
    363000   1.0084914      17.784522      32.702068    
    364000   1.001743       17.796301      32.574362    
    365000   0.99854313     17.960032      32.545332    
    366000   0.99193192     17.61317       32.547277    
    367000   0.98765092     17.704852      32.459635    
    368000   1.0216602      17.506878      32.258435    
    369000   1.0279888      18.039924      32.037905    
    370000   1.0020842      17.962963      31.906888    
    371000   0.99362976     17.1841        31.895816    
    372000   0.98509421     17.173664      31.714828    
    373000   0.98595093     17.87029       31.55659     
    374000   1.005271       17.738699      31.694688    
    375000   1.0090525      17.602224      31.408261    
    376000   0.99877963     17.570972      31.269089    
    377000   0.97024909     17.62897       31.260147    
    378000   1.0102784      17.931814      31.499618    
    379000   1.0253654      18.223609      31.378249    
    380000   0.98599473     17.491709      31.232011    
    381000   0.99048772     17.189835      31.048703    
    382000   1.0108644      17.357016      31.034554    
    383000   1.0253103      17.31848       30.877309    
    384000   0.97499093     17.640679      30.691716    
    385000   1.0236765      17.131651      30.663744    
    386000   1.019055       17.277176      30.65306     
    387000   0.97275763     17.734747      30.476639    
    388000   0.98902816     17.613764      30.362823    
    389000   1.012879       17.909968      30.41889     
    390000   0.94990508     17.490069      30.266496    
    391000   0.98780003     17.626467      30.248683    
    392000   0.97508442     17.414119      30.372111    
    393000   0.99054336     17.65378       30.362619    
    394000   0.9718217      17.86026       30.34194     
    395000   0.99862092     17.23937       30.078305    
    396000   0.96671111     17.744129      29.923507    
    397000   0.95399963     17.779012      29.982693    
    398000   1.019061       17.334077      29.911466    
    399000   1.0282306      17.353179      30.01342     
    400000   0.99520007     17.939916      30.084006    
    401000   0.97232928     17.459082      30.21746     
    402000   1.0035662      17.361801      30.110329    
    403000   0.94823629     17.02947       29.948157    
    404000   1.0271489      17.875056      29.648098    
    405000   1.0658636      17.690411      29.633209    
    406000   0.98710308     17.638955      29.694986    
    407000   1.0339795      17.3836        29.482896    
    408000   0.99855244     18.152481      29.202136    
    409000   1.0182496      17.539103      29.245635    
    410000   0.95037985     17.247881      29.176031    
    411000   0.99334454     18.061304      29.229328    
    412000   1.0181524      17.178422      28.964942    
    413000   1.0027666      17.360573      28.994192    
    414000   0.99935171     17.296515      28.873401    
    415000   0.92246289     17.26407       28.976931    
    416000   0.99021814     17.777107      29.038959    
    417000   0.98116752     17.089066      28.959647    
    418000   0.98778848     16.604566      28.72794     
    419000   0.98667467     18.196277      28.68043     
    420000   1.0471662      17.380009      28.473422    
    421000   0.94907354     17.186405      28.544822    
    422000   0.9763539      17.894174      28.552227    
    423000   0.99911934     17.498897      28.324442    
    424000   0.97133354     16.964965      28.387818    
    425000   0.9912898      17.673139      28.418301    
    426000   0.97626804     17.182175      28.518209    
    427000   1.0400261      16.821553      28.659324    
    428000   1.0316113      17.453776      28.650075    
    429000   0.98734696     17.719047      28.472996    
    430000   1.0029098      17.277361      28.527258    
    431000   0.99239232     17.37306       28.604355    
    432000   1.0370851      17.692169      28.750236    
    433000   1.0030632      17.742788      28.835097    
    434000   0.98000124     17.601808      28.696635    
    435000   0.93400937     17.352309      28.512255    
    436000   0.9618114      17.528102      28.739918    
    437000   0.96961748     17.62429       28.917734    
    438000   1.0306057      17.621255      29.051314    
    439000   1.0000158      18.0204        29.106636    
    440000   0.98664467     17.868624      29.322209    
    441000   0.9731981      17.794637      29.328116    
    442000   1.0008899      17.200074      29.444837    
    443000   1.0144705      17.709768      29.380699    
    444000   0.98369865     16.829068      29.317064    
    445000   0.98630908     17.412759      29.086834    
    446000   1.0226929      17.4533        28.998134    
    447000   0.99303236     17.140413      28.642684    
    448000   0.95601605     17.285458      28.580375    
    449000   1.0258141      17.223         28.660569    
    450000   1.0351759      17.482299      28.637314    
    451000   1.012597       17.330553      28.6559      
    452000   1.0250018      17.277597      28.388382    
    453000   1.0587875      17.471144      28.312526    
    454000   0.97951652     17.567492      28.433917    
    455000   0.91962442     17.802931      28.610652    
    456000   0.97369112     17.155121      28.52638     
    457000   1.0175511      16.897248      28.36913     
    458000   1.0601895      17.560258      28.444414    
    459000   1.0025179      17.639036      28.507215    
    460000   0.98817848     17.012281      28.400465    
    461000   0.99157465     17.729599      28.305953    
    462000   1.0093578      16.906903      28.138617    
    463000   0.97051971     17.199335      27.861894    
    464000   1.0519892      17.25771       27.652053    
    465000   1.0273266      17.503258      27.489561    
    466000   0.98280407     17.694202      27.429741    
    467000   0.99586776     17.03792       27.384302    
    468000   1.0499261      17.532617      27.40371     
    469000   1.0448078      17.555246      27.396444    
    470000   1.0286292      17.958041      27.556463    
    471000   0.99544537     17.306337      27.373959    
    472000   1.0105337      17.993068      27.270094    
    473000   0.98436734     16.951434      27.072697    
    474000   0.99548468     17.430628      26.969625    
    475000   1.0184409      17.570443      26.78759     
    476000   1.0338464      17.362646      26.949698    
    477000   1.0360294      17.613787      26.796968    
    478000   1.0273454      18.008479      26.719865    
    479000   1.0167318      17.173264      26.455716    
    480000   1.0400734      17.574682      26.417931    
    481000   0.9788115      17.007244      26.340041    
    482000   0.99752223     17.029289      26.371597    
    483000   0.98250029     17.611906      26.293782    
    484000   1.0027813      17.473341      26.262598    
    485000   1.0278457      17.393773      26.239833    
    486000   0.96335544     16.704393      26.324672    
    487000   1.0021508      16.778911      26.332821    
    488000   0.96677226     17.214154      26.244127    
    489000   0.9916336      17.512052      26.405343    
    490000   0.96512722     17.620393      26.356399    
    491000   1.0040041      17.743163      26.380783    
    492000   1.0028227      17.578861      26.161684    
    493000   1.0189168      17.975899      26.110523    
    494000   0.93398983     17.857702      25.913864    
    495000   1.0351704      17.354479      25.684618    
    496000   0.9671802      17.604392      25.682902    
    497000   1.0300173      17.426373      25.549097    
    498000   1.0220791      17.133558      25.226612    
    499000   0.94531685     17.072173      25.177375    
    500000   0.96827406     17.361843      25.150927    
    501000   0.97505747     17.332012      25.081814    
    502000   1.0341832      17.192864      24.972354    
    503000   0.98363536     17.097869      25.164248    
    504000   1.0576077      17.622575      25.298313    
    505000   1.0072317      17.472629      25.429358    
    506000   1.0310311      17.315232      25.304961    
    507000   1.0271083      17.581434      25.250818    
    508000   1.0235613      17.795631      25.195012    
    509000   1.0316974      17.892135      24.935397    
    510000   0.99628002     17.072318      24.910006    
    511000   1.021388       17.980865      24.636963    
    512000   1.0363068      17.8679        24.56526     
    513000   1.0076113      17.387965      24.632746    
    514000   0.97854152     16.639612      24.683776    
    515000   0.95342217     17.993363      24.427737    
    516000   1.0170429      17.268865      24.410511    
    517000   1.0160036      17.423001      24.331047    
    518000   1.0023856      17.290809      24.19649     
    519000   0.988931       17.331785      24.036363    
    520000   0.98750594     18.092762      23.930415    
    521000   1.0364897      17.765267      23.735104    
    522000   0.93033585     16.733423      23.801119    
    523000   1.034472       17.336099      23.794851    
    524000   1.00356        17.251898      23.782256    
    525000   1.0265138      17.877115      23.588842    
    526000   1.0100435      16.694264      23.634809    
    527000   0.98400753     17.332484      23.737889    
    528000   0.96531653     17.649108      23.7116      
    529000   1.0099194      17.044647      23.638487    
    530000   1.004784       17.433522      23.625107    
    531000   1.0019189      17.533385      23.653486    
    532000   0.98182652     17.109083      23.760926    
    533000   0.98411559     16.975663      23.744994    
    534000   0.97911574     17.897929      23.509603    
    535000   1.0243838      17.61595       23.532602    
    536000   1.0006077      16.954279      23.502181    
    537000   1.0076226      16.54111       23.569054    
    538000   0.96871165     17.153983      23.579181    
    539000   0.96153851     17.404251      23.611801    
    540000   1.0212443      17.577909      23.625003    
    541000   1.0275523      17.557177      23.525399    
    542000   1.0309373      17.782241      23.6456      
    543000   1.0132973      17.576718      23.566122    
    544000   1.0043392      18.105064      23.336822    
    545000   0.978223       17.377668      23.07778     
    546000   1.0123317      17.375469      23.266078    
    547000   0.96965316     16.707415      23.186562    
    548000   0.99787606     16.7205        23.125743    
    549000   1.0239283      17.259644      22.997119    
    550000   1.0446463      18.460129      22.939216    
    551000   0.98230751     17.33415       22.70629     
    552000   0.98582731     17.10233       22.546075    
    553000   0.97954524     17.145527      22.561703    
    554000   1.0090664      17.562826      22.617689    
    555000   0.99631218     17.45594       22.631878    
    556000   0.97489557     17.163577      22.551675    
    557000   1.0389242      17.118602      22.549441    
    558000   0.99292071     17.22797       22.591925    
    559000   0.99094088     17.450955      22.377511    
    560000   0.97550453     17.929963      22.397031    
    561000   1.0063478      17.37819       22.198299    
    562000   1.0006789      17.339035      21.953328    
    563000   1.0476849      17.530699      21.75908     
    564000   0.96552555     17.342158      21.468196    
    565000   0.98836691     17.392207      21.337265    
    566000   0.98702206     17.347031      21.32304     
    567000   0.98983669     17.775461      21.208179    
    568000   0.99637141     17.662846      21.293286    
    569000   0.98079058     17.380071      21.324937    
    570000   0.9864117      17.557472      21.301542    
    571000   0.97193652     17.028781      21.386387    
    572000   0.99762179     16.982049      21.446744    
    573000   0.96782731     16.683746      21.738883    
    574000   0.97838949     17.195239      21.661407    
    575000   1.0138765      17.945008      21.582063    
    576000   0.97078151     17.228909      21.601004    
    577000   1.0046704      17.178984      21.605188    
    578000   1.0426631      17.473867      21.676324    
    579000   1.0102703      16.932392      21.556865    
    580000   0.94807609     17.404482      21.388691    
    581000   1.0238187      17.667116      21.232783    
    582000   1.0149499      17.585419      21.287053    
    583000   1.0286771      17.841835      21.254038    
    584000   0.975427       17.462102      21.165779    
    585000   0.98179729     17.240189      20.97494     
    586000   0.9627301      16.792945      21.073618    
    587000   0.97405581     17.462601      20.975618    
    588000   0.95712819     16.985991      20.965092    
    589000   1.0126575      17.716554      20.986613    
    590000   0.95851615     17.707215      20.804518    
    591000   1.0078836      17.186811      20.77849     
    592000   0.98757366     17.521222      20.527593    
    593000   1.0382893      17.131692      20.434847    
    594000   1.0025186      17.058544      20.603886    
    595000   1.008136       16.897513      20.729642    
    596000   0.99801425     17.451262      20.959626    
    597000   1.0457085      17.753374      20.800278    
    598000   0.98854457     17.258942      20.729562    
    599000   0.98521461     17.62972       20.867982    
    600000   1.0003071      17.816116      20.799214    
    601000   1.0146161      17.696508      20.600022    
    602000   0.99815231     17.468786      20.553028    
    603000   0.96076675     17.167267      20.451347    
    604000   1.0148424      17.779365      20.446899    
    605000   1.0002938      17.393974      20.63995     
    606000   0.96977597     16.996094      20.315879    
    607000   1.0241492      17.145909      20.029797    
    608000   1.0600779      17.949059      19.978885    
    609000   1.0333529      17.755535      19.939753    
    610000   1.015184       17.330658      19.715121    
    611000   1.0184946      16.924269      19.611341    
    612000   1.0228613      17.914499      19.691773    
    613000   0.99973799     16.836896      19.470313    
    614000   0.98620632     17.368328      19.204661    
    615000   0.98946642     17.290559      19.064811    
    616000   1.0016409      17.828009      19.089622    
    617000   1.0206065      17.162115      18.861107    
    618000   1.0314255      17.669277      18.599646    
    619000   0.94795782     17.133816      18.481052    
    620000   0.97182778     17.080557      18.570675    
    621000   1.0281119      17.090796      18.470776    
    622000   0.9891617      17.350238      18.452645    
    623000   0.9945066      16.922796      18.485633    
    624000   1.0256103      17.039935      18.145544    
    625000   0.99479472     17.54297       17.902383    
    626000   0.98373033     17.608869      18.070097    
    627000   0.96009202     17.02679       18.053545    
    628000   1.0329175      16.973611      18.216648    
    629000   1.0038895      16.758148      17.976133    
    630000   1.0257195      17.383306      17.780787    
    631000   1.0175401      17.777323      17.716418    
    632000   0.98608587     17.661763      17.639044    
    633000   1.0228287      17.046423      17.399871    
    634000   1.0171748      16.974734      17.063635    
    635000   1.0191985      17.408156      17.156835    
    636000   1.0357748      17.096855      17.242152    
    637000   0.93212521     17.590028      17.281805    
    638000   1.0173138      17.489994      17.412046    
    639000   1.0118212      17.311228      17.380969    
    640000   1.0367868      17.31078       17.162499    
    641000   0.97625234     17.562668      16.939037    
    642000   1.0040526      17.483918      16.869096    
    643000   1.0426213      18.072774      16.637657    
    644000   1.0160638      17.076696      16.529973    
    645000   0.9700555      17.308284      16.370359    
    646000   1.0069125      17.145419      16.270795    
    647000   1.0035707      17.113623      16.075552    
    648000   0.94621283     17.30412       16.179076    
    649000   1.0186246      17.255428      16.081506    
    650000   1.0281324      17.043671      16.103022    
    651000   0.97087177     17.334209      15.883796    
    652000   1.0142995      16.86133       15.924884    
    653000   1.073646       17.585069      15.842081    
    654000   1.0526068      18.142095      15.885093    
    655000   0.99105793     17.566358      15.830429    
    656000   1.0025531      17.334883      15.748971    
    657000   1.0111026      16.907447      15.608293    
    658000   1.0094974      17.583954      15.393679    
    659000   0.98721434     17.302707      15.340158    
    660000   0.97890817     17.531001      15.348881    
    661000   1.0125402      17.552055      15.224172    
    662000   1.0497233      17.395775      15.274508    
    663000   1.0502361      17.307107      15.260198    
    664000   0.98699067     17.761066      15.189334    
    665000   1.0348585      17.309838      15.157447    
    666000   1.0013185      17.07959       15.118733    
    667000   1.0428164      18.156226      15.016361    
    668000   1.0712427      17.733447      14.872841    
    669000   0.96562192     17.222393      14.822822    
    670000   0.98573049     17.412102      15.060596    
    671000   0.96399726     16.808067      14.976558    
    672000   1.022124       17.554361      14.887334    
    673000   0.9818901      16.823669      14.688589    
    674000   1.0008662      17.162028      14.472759    
    675000   0.99479795     17.008081      14.490449    
    676000   0.98241979     17.181763      14.444738    
    677000   0.98368983     17.373666      14.199833    
    678000   0.97224631     17.404416      14.028637    
    679000   1.0090814      17.141822      13.962668    
    680000   1.0011628      17.15459       13.975121    
    681000   0.98070133     17.764808      13.815128    
    682000   0.97424447     16.689201      13.802418    
    683000   1.0277991      17.295276      13.60749     
    684000   0.98865209     17.268935      13.652838    
    685000   0.9559742      17.244355      13.593909    
    686000   1.0190719      16.869122      13.510149    
    687000   1.0232056      17.603777      13.541266    
    688000   0.9818993      17.312747      13.50016     
    689000   1.0049317      17.65232       13.203762    
    690000   0.9955733      17.413931      12.715408    
    691000   0.97648042     16.943761      12.789709    
    692000   1.0210573      17.835572      12.802907    
    693000   0.99080459     17.577647      12.6843      
    694000   1.0155783      17.215036      12.506267    
    695000   0.98842557     17.296151      12.34191     
    696000   0.99878371     17.130645      12.140909    
    697000   0.96556385     17.469306      11.956084    
    698000   1.021441       17.786883      11.967914    
    699000   1.0110479      17.410388      11.834341    
    700000   0.98302548     17.152918      11.690913    
    701000   0.97871949     16.787284      11.644376    
    702000   0.99688704     17.480487      11.64365     
    703000   0.98587045     17.239947      11.516316    
    704000   0.98186586     17.236597      11.660969    
    705000   1.0109962      17.42531       11.751094    
    706000   1.0016079      16.985591      11.604376    
    707000   1.010002       16.730618      11.586918    
    708000   0.99054979     17.127071      11.624871    
    709000   0.9858049      16.650171      11.413592    
    710000   1.0195983      16.948775      11.439898    
    711000   0.96184178     16.83407       11.399497    
    712000   1.0346604      17.15853       11.487188    
    713000   1.0682079      17.153411      11.416733    
    714000   1.0133836      17.532857      11.310785    
    715000   0.98142665     17.09696       11.416352    
    716000   0.99749704     17.550478      11.199825    
    717000   1.0654916      17.017484      11.199443    
    718000   0.99325577     16.993861      11.23384     
    719000   0.92951944     17.088821      11.146436    
    720000   0.98379216     17.458142      10.935018    
    721000   0.99663        16.757208      10.868062    
    722000   1.0181415      17.168637      11.166279    
    723000   1.0170543      16.944468      10.933394    
    724000   0.99883212     16.917001      10.665977    
    725000   0.98704924     17.228544      10.552942    
    726000   0.97458996     17.598638      10.696062    
    727000   0.98567261     16.962857      10.716735    
    728000   0.96168353     17.230888      10.537322    
    729000   0.99714707     16.922068      10.322053    
    730000   1.0255088      17.292492      10.476473    
    731000   0.97503849     16.717852      10.553348    
    732000   1.0052562      17.223238      10.537891    
    733000   0.97640196     17.042655      10.339436    
    734000   1.0207206      17.401811      10.344218    
    735000   0.99135187     17.301753      10.33353     
    736000   1.0024591      17.905121      10.146444    
    737000   0.9971443      17.778608      10.251359    
    738000   1.0445032      16.887174      10.211377    
    739000   1.0013337      17.240361      10.03058     
    740000   0.998198       17.084308      10.160234    
    741000   1.0276288      17.247967      10.129185    
    742000   1.0492986      17.410948      9.9974873    
    743000   1.038712       16.016691      10.182919    
    744000   1.0149836      16.63087       10.312538    
    745000   0.99353152     16.905402      10.206341    
    746000   1.0150305      18.042887      10.146935    
    747000   1.0016615      16.873786      10.272579    
    748000   0.96328662     16.923402      10.048945    
    749000   1.0375431      16.897651      10.168961    
    750000   1.0128733      16.903476      9.8229155    
    751000   1.0249853      17.963781      9.7246506    
    752000   1.0020474      17.016881      9.6085172    
    753000   1.0103105      16.859869      9.6027342    
    754000   0.99068362     17.214564      9.3253744    
    755000   1.0147488      18.014478      9.4102772    
    756000   0.97894558     17.627242      9.3012226    
    757000   1.0130745      16.963756      9.3145362    
    758000   1.0630479      17.549283      9.2686092    
    759000   0.97018998     16.82067       9.3255944    
    760000   1.0242743      17.730829      9.2151755    
    761000   1.0163358      17.20748       9.1840558    
    762000   1.030055       17.769446      8.8544443    
    763000   1.0114201      17.385413      8.7341859    
    764000   1.0447574      18.177643      8.7005532    
    765000   1.0296961      17.282243      8.7717194    
    766000   1.0369916      17.162717      8.8356067    
    767000   1.0143437      17.289052      8.9416525    
    768000   0.99235196     16.941642      8.8666996    
    769000   1.005234       17.258659      8.8579252    
    770000   1.0143702      17.429934      8.8365699    
    771000   1.0650255      16.783219      8.6253142    
    772000   0.98247117     17.250387      8.6922732    
    773000   1.0128971      17.151393      8.6732554    
    774000   1.0104607      17.074151      8.7313499    
    775000   1.0054598      17.341756      8.5531694    
    776000   1.0333731      16.733942      8.7791857    
    777000   1.0312146      17.087815      8.8001777    
    778000   1.0036069      17.364429      8.6907305    
    779000   0.98400312     17.041253      8.861631     
    780000   0.99276501     17.074151      8.6694426    
    781000   0.95334302     17.258718      8.5265187    
    782000   0.98673712     16.224413      8.4214612    
    783000   0.96141005     17.435957      8.2703665    
    784000   0.94781467     16.975055      8.0614667    
    785000   0.97598079     16.974226      8.0747795    
    786000   0.97067726     17.248512      7.88669      
    787000   1.0166428      16.880819      7.8451333    
    788000   0.97367272     17.328412      7.8437257    
    789000   0.96263106     16.479108      7.789706     
    790000   0.9901167      16.533072      7.7430428    
    791000   0.99005223     16.81732       7.5923853    
    792000   1.0072572      17.121304      7.4527749    
    793000   0.99088092     16.132421      7.3018962    
    794000   1.0058546      16.738016      7.1722123    
    795000   1.0099677      16.893507      7.1277252    
    796000   1.0113408      17.016537      7.0660961    
Fix halt condition for fix-id 3 met on step 797000 with value 6.884262367333202 (src/fix_halt.cpp:237)
    797000   1.030447       16.430969      6.8842624    
Loop time of 572.236 on 2 procs for 697000 steps with 993 atoms

Performance: 1052376.268 tau/day, 1218.028 timesteps/s
139.8% CPU use with 1 MPI tasks x 2 OpenMP threads

MPI task timing breakdown:
Section |  min time  |  avg time  |  max time  |%varavg| %total
---------------------------------------------------------------
Pair    | 180.72     | 180.72     | 180.72     |   0.0 | 31.58
Bond    | 11.02      | 11.02      | 11.02      |   0.0 |  1.93
Neigh   | 352        | 352        | 352        |   0.0 | 61.51
Comm    | 0.17862    | 0.17862    | 0.17862    |   0.0 |  0.03
Output  | 1.5407     | 1.5407     | 1.5407     |   0.0 |  0.27
Modify  | 25.078     | 25.078     | 25.078     |   0.0 |  4.38
Other   |            | 1.699      |            |       |  0.30

Nlocal:            993 ave         993 max         993 min
Histogram: 1 0 0 0 0 0 0 0 0 0
Nghost:              0 ave           0 max           0 min
Histogram: 1 0 0 0 0 0 0 0 0 0
Neighs:         209473 ave      209473 max      209473 min
Histogram: 1 0 0 0 0 0 0 0 0 0

Total # of neighbors = 209473
Ave neighs/atom = 210.94965
Ave special neighs/atom = 1.9979859
Neighbor list builds = 5854
Dangerous builds = 0

# This simulation is done
# Move onto the next one
clear
  using 2 OpenMP thread(s) per MPI task
package omp 0
using multi-threaded neighbor list subroutines
next f
jump SELF

###
# Reference paper:
# K. Kremer and G. S. Grest
# Dynamics of entangled linear polymer melts: A molecular-dynamics simulation
# J Chem Phys 92, 5057 (1990)

##################################
# MIHIR: for branched polymers
# LJ minimum first to expand and explore, then collapse
###

###
# Looping through the various nuc5branch4 polymers to simulate,
# define variables to switch through
variable f index bb37nuc5bl6bn4d30tot100 bb75nuc5bl12bn4d30tot200 bb112nuc5bl18bn4d30tot300 bb150nuc5bl25bn4d30tot400 bb187nuc5bl31bn4d30tot500 bb225nuc5bl37bn4d30tot600 bb262nuc5bl43bn4d30tot700 bb300nuc5bl50bn4d30tot800 bb337nuc5bl56bn4d30tot900 bb375nuc5bl62bn4d30tot1000 bb412nuc5bl68bn4d30tot1100 bb450nuc5bl75bn4d30tot1200
# variable f index bb75nuc5bl12bn4d30tot200
# variable f index bb337nuc5bl56bn4d30tot900
###


###
# Box and units  (use LJ units and periodic boundaries)
###

units lj
log nuc5branch4/logs2/$f.log
log nuc5branch4/logs2/bb412nuc5bl68bn4d30tot1100.log
