#atom_style bond #no stiffness
atom_style angle #with stiffness

boundary        p p p
###
# Pair interactions require lists of neighbours to be calculated
###

#neighbor 0.3 bin
neighbor 4 bin

neigh_modify every 1 delay 1 check yes
atom_modify sort 0 0
### Generate RESTART file, SPECIAL format, not a .txt file ###
### Useful if simulation crashes ###

restart 1000000 nuc5branch4/restarts2/$f.restart
restart 1000000 nuc5branch4/restarts2/bb412nuc5bl68bn4d30tot1100.restart
#############################



### READ "start" data file ###

read_data nuc5branch4/$f.dat
read_data nuc5branch4/bb412nuc5bl68bn4d30tot1100.dat
Reading data file ...
  orthogonal box = (-1000 -1000 -1000) to (1000 1000 1000)
  1 by 1 by 1 MPI processor grid
  reading atoms ...
  1093 atoms
  scanning bonds ...
  3 = max bonds/atom
  scanning angles ...
  6 = max angles/atom
  reading bonds ...
  1092 bonds
  reading angles ...
  1106 angles
Finding 1-2 1-3 1-4 neighbors ...
  special bond factors lj:    0        0        0       
  special bond factors coul:  0        0        0       
     4 = max # of 1-2 neighbors
     4 = max # of 1-3 neighbors
     8 = max # of 1-4 neighbors
    12 = max # of special neighbors
  special bonds CPU = 0.001 seconds
  read_data CPU = 0.056 seconds

######################

### READ "REstart" data file ###

######################



###
# Define groups (atom type 1 is group 'all')
###
group all type 1
1093 atoms in group all


###
# Dump configs - "simple dumpings"
###

###
# Dump configs + box coords
###

dump   1   all   custom   1000  nuc5branch4/trjs2/$f.lammpstrj  id  x y z  ix iy iz
dump   1   all   custom   1000  nuc5branch4/trjs2/bb412nuc5bl68bn4d30tot1100.lammpstrj  id  x y z  ix iy iz
dump_modify   1   format line "%d %.5f %.5f %.5f %d %d %d"

########################################################################


###################################################################
# Stiffness term
#
# E = K * (1+cos(theta)), K>0
#
angle_style   cosine
#change this coefficient to change stiffness (e.g. 1,5,10)
angle_coeff   1 1.0
###################################################################

###################################################################
# Pair interaction between non-bonded atoms
#
#  Lennard-Jones 12-6 potential with cutoff:
#  potential E=4epsilon[ (sigma/r)^12 - (sigma/r)^6]  for r<r_cut
#
#  1.12246 = 2^(1/6) is the minimum of the potential


pair_style      lj/cut 1.12246152962189
#pair_style      lj/cut 3

#
#  pair_modify shift yes adds a constant to the potential such

#  that E(r_cut)=0. Forces remains unchanged.
#

pair_modify     shift yes

#
#  pair_coeff for lj/cut, specify 4:
#    * atom type interacting with
#    * atom type
#    * epsilon (energy units)
#    * sigma (distance units)
#

pair_coeff      1 1 1.0 1.0
###################################################################

###################################################################
# Pair interaction between non-bonded atoms
#
#  soft potential, for PUSHING apart overlapping atoms
#  potential E=A*(1 + cos(pi*r/r_c))
#
#  1.12246 = 2^(1/6) is the cut-off r_c

#pair_style     soft 1.12246152962189

#
#  pair_coeff for soft, specify 3:
#    * atom type interacting with
#    * atom type
#    * A
#
#

#pair_coeff      1 1 100.0
###################################################################

###################################################################
# Pair interaction between bonded atoms
#
# Fene potential + Lennard Jones 12-6:

#
#  E= - 0.5 K R0^2 ln[ 1- (r/R0)^2]
#     + 4epsilon[ (sigma/r)^12 - (sigma/r)^6] + epsilon
#

bond_style   fene


#
# For style fene, specify:
#   * bond type
#   * K (energy/distance^2)
#   * R0 (distance)
#   * epsilon (energy)  (LJ component)
#   * sigma (distance)  (LJ component)
#


special_bonds fene #<=== I M P O R T A N T (new command)
Finding 1-2 1-3 1-4 neighbors ...
  special bond factors lj:    0        1        1       
  special bond factors coul:  0        1        1       
     4 = max # of 1-2 neighbors
    12 = max # of special neighbors
  special bonds CPU = 0.000 seconds

bond_coeff   1   30   2   1.0   1.0


###################################################

###################################################################
# Pair interaction between bonded atoms
#
# Harmonic potential:
#
#  E= K * (R-R0)^2
#

#bond_style   harmonic

#
# For style harmonic, specify:
#   * bond type
#   * K (energy/distance^2)
#   * R0 (distance)
#

#bond_coeff   1   60.0   1.0
#bond_coeff   2   harmonic 0.1   1.0

###################################################
compute 1 all gyration
variable rog equal c_1
#compute 2 all coord/atom cutoff 1.1

#dump 2 all custom 10000 contact_number.dump id c_2


###
# Set up fixes
###
thermo_style   custom   step  temp enthalpy c_1
fix 1 all nve   ###NVE ensemble

fix 2 all   langevin   1.0 1.0 1.0  778655   ###Langevin integrator Tstart Tstop 1/friction rndseed


##### Sample thermodynamic info  (temperature, energy, pressure, etc.) #####
thermo 1000









############################################################################

###
# set timestep of integrator

timestep 0.01

###
# run integration for a number of steps
###
#run 0
#variable r equal c_1
#if "$r < 63.1" then "quit 1"

# lj potential minimum, cause molecule to explore
run 100000
Generated 0 of 0 mixed pair_coeff terms from geometric mixing rule
Last active /omp style is angle_style cosine/omp
Neighbor list info ...
  update: every = 1 steps, delay = 1 steps, check = yes
  max neighbors/atom: 2000, page size: 100000
  master list distance cutoff = 5.1224615
  ghost atom cutoff = 5.1224615
  binsize = 2.5612308, bins = 781 781 781
  1 neighbor lists, perpetual/occasional/extra = 1 0 0
  (1) pair lj/cut/omp, perpetual
      attributes: half, newton on, omp
      pair build: half/bin/newton/omp
      stencil: half/bin/3d
      bin: standard
WARNING: Communication cutoff 5.12246152962189 is shorter than a bond length based estimate of 5.455. This may lead to errors. (src/comm.cpp:723)
Per MPI rank memory allocation (min/avg/max) = 1862 | 1862 | 1862 Mbytes
   Step          Temp         Enthalpy         c_1      
         0   0              13.268231      82.563339    
      1000   0.98126755     17.78094       81.901888    
      2000   1.0094223      18.73912       81.316657    
      3000   0.9724555      18.811225      80.70022     
      4000   0.98970884     18.835646      80.07674     
      5000   1.0104865      19.240547      79.746446    
      6000   0.98961674     19.417157      79.247562    
      7000   0.99868629     19.670325      78.69321     
      8000   0.99360957     19.838859      78.343067    
      9000   0.97522215     19.756119      77.931946    
     10000   0.97560081     19.811633      77.534042    
     11000   1.0302049      19.634126      77.271699    
     12000   1.0327712      19.847974      77.178208    
     13000   1.0027457      19.628485      76.926606    
     14000   1.0547571      20.231138      76.94334     
     15000   0.97953097     20.267708      76.800365    
     16000   0.98665638     19.691315      76.615881    
     17000   0.98945541     20.44301       76.313609    
     18000   1.0339718      20.147652      76.049958    
     19000   0.99128232     20.359632      75.974656    
     20000   0.95747035     19.788368      75.599148    
     21000   0.98596141     20.308694      75.350081    
     22000   1.037696       19.737039      75.319202    
     23000   0.96317831     20.053147      75.320035    
     24000   1.0168152      19.854036      75.422374    
     25000   0.96442163     20.172976      75.279592    
     26000   1.0394823      20.499578      75.374076    
     27000   0.97790069     19.916238      75.231989    
     28000   1.0229536      20.68624       74.888782    
     29000   1.0048361      20.370783      74.799074    
     30000   1.0388244      20.334297      74.937697    
     31000   1.0302613      20.178049      74.405966    
     32000   0.99142199     20.04542       74.214605    
     33000   1.0102623      20.083389      73.972606    
     34000   1.0117528      20.209832      73.697779    
     35000   0.99158027     20.577659      73.661016    
     36000   1.0041057      20.145472      73.626083    
     37000   1.0049321      20.381308      73.562158    
     38000   0.98984564     20.041797      73.733858    
     39000   0.95848653     19.770014      73.601321    
     40000   1.013048       20.511246      73.17578     
     41000   0.99970922     20.217209      73.019538    
     42000   0.98496289     20.559759      72.938801    
     43000   1.0020655      20.315258      72.76265     
     44000   1.0241543      20.387581      72.778       
     45000   1.0033438      20.144187      72.642026    
     46000   0.97516948     20.104125      72.608158    
     47000   1.0058142      19.930304      72.307698    
     48000   1.0256232      20.155488      72.36728     
     49000   1.026591       20.23635       72.202914    
     50000   0.98976631     20.923191      72.042499    
     51000   1.043633       20.781576      71.965334    
     52000   0.9935834      19.873449      71.858449    
     53000   0.99252996     20.180856      71.448049    
     54000   1.0097645      20.224791      71.418213    
     55000   1.0299492      20.162386      71.378097    
     56000   1.0270352      20.459629      71.301133    
     57000   0.99465045     20.512656      71.266367    
     58000   1.0235448      20.123485      71.12416     
     59000   0.947798       20.183335      70.967875    
     60000   0.99640276     20.723316      70.721351    
     61000   1.0424242      20.89577       70.584648    
     62000   0.99963526     20.324282      70.397289    
     63000   0.97450176     20.177815      70.332626    
     64000   0.97259442     20.055579      70.58975     
     65000   1.0057235      20.288452      70.496148    
     66000   1.0429347      20.885408      70.462415    
     67000   1.0445826      20.560814      70.44574     
     68000   0.97819636     19.689026      70.497835    
     69000   0.99197292     20.227543      70.491947    
     70000   1.0136577      20.814591      70.255084    
     71000   0.99285363     20.447197      70.140525    
     72000   0.93802014     19.684393      70.152142    
     73000   1.0266792      20.279324      70.154201    
     74000   1.0122713      20.511018      70.06354     
     75000   1.0323929      20.466697      69.942152    
     76000   0.99895438     20.684181      69.784188    
     77000   0.99156957     20.273173      69.866947    
     78000   0.97333417     20.462757      69.682451    
     79000   1.0675738      20.541242      69.482619    
     80000   0.9986406      19.715646      69.531185    
     81000   0.99120583     20.2295        69.494138    
     82000   0.99796146     20.511749      69.336301    
     83000   1.0081323      20.24529       69.304486    
     84000   0.98018731     20.583641      69.240811    
     85000   0.98510961     20.330682      69.173906    
     86000   1.0006033      20.697446      68.972825    
     87000   1.0191389      20.547011      68.787647    
     88000   1.0033894      20.59593       68.667033    
     89000   1.0120876      20.868729      68.739235    
     90000   1.0113808      20.473562      68.46067     
     91000   0.99056263     20.434303      68.491507    
     92000   0.99792971     20.794235      68.368175    
     93000   0.99953938     20.365453      68.368336    
     94000   0.99265486     20.532202      68.194308    
     95000   0.96435425     20.659429      68.217902    
     96000   1.0288891      20.352323      68.220734    
     97000   1.018749       20.813595      68.140023    
     98000   1.0089123      20.585701      68.210613    
     99000   1.0198516      20.495322      67.995443    
    100000   1.0034461      20.27204       67.830962    
Loop time of 179.617 on 2 procs for 100000 steps with 1093 atoms

Performance: 481022.365 tau/day, 556.739 timesteps/s
104.6% CPU use with 1 MPI tasks x 2 OpenMP threads

MPI task timing breakdown:
Section |  min time  |  avg time  |  max time  |%varavg| %total
---------------------------------------------------------------
Pair    | 1.0278     | 1.0278     | 1.0278     |   0.0 |  0.57
Bond    | 1.7027     | 1.7027     | 1.7027     |   0.0 |  0.95
Neigh   | 172.59     | 172.59     | 172.59     |   0.0 | 96.09
Comm    | 0.022976   | 0.022976   | 0.022976   |   0.0 |  0.01
Output  | 0.22085    | 0.22085    | 0.22085    |   0.0 |  0.12
Modify  | 3.8158     | 3.8158     | 3.8158     |   0.0 |  2.12
Other   |            | 0.2415     |            |       |  0.13

Nlocal:           1093 ave        1093 max        1093 min
Histogram: 1 0 0 0 0 0 0 0 0 0
Nghost:              0 ave           0 max           0 min
Histogram: 1 0 0 0 0 0 0 0 0 0
Neighs:           8798 ave        8798 max        8798 min
Histogram: 1 0 0 0 0 0 0 0 0 0

Total # of neighbors = 8798
Ave neighs/atom = 8.0494053
Ave special neighs/atom = 1.9981702
Neighbor list builds = 1193
Dangerous builds = 0

# Replace lj potential, now collapse
pair_style      lj/cut 3

# Cutoff simul when gyration under 10
# Variable created with equal requires v_ + 'name'
fix 3 all halt 1000 v_rog < 7

run 3000000
Generated 0 of 0 mixed pair_coeff terms from geometric mixing rule
Last active /omp style is angle_style cosine/omp
Per MPI rank memory allocation (min/avg/max) = 1862 | 1862 | 1862 Mbytes
   Step          Temp         Enthalpy         c_1      
    100000   1.0034461      19.456387      67.830962    
    101000   1.0113241      19.531442      67.519998    
    102000   0.9999106      19.600443      67.420502    
    103000   1.0297664      19.241764      67.326032    
    104000   0.98244595     19.432448      67.107319    
    105000   1.0206258      19.590606      66.924352    
    106000   1.0029735      19.430921      66.633792    
    107000   1.0057066      18.996938      66.496806    
    108000   0.95489437     19.162695      66.290301    
    109000   0.98859308     19.184369      66.083701    
    110000   1.0133691      19.11582       66.015018    
    111000   0.96923426     19.099645      65.786952    
    112000   1.0389892      18.962055      65.65891     
    113000   0.97359175     18.76788       65.655399    
    114000   1.0364677      18.935241      65.322961    
    115000   0.96222521     18.765648      65.259246    
    116000   1.0382704      18.888406      65.058775    
    117000   0.99933213     18.934561      65.016155    
    118000   1.0363566      19.110986      64.843213    
    119000   0.99863084     18.843547      64.649259    
    120000   0.99078924     18.676644      64.375524    
    121000   1.0229647      18.402652      64.229452    
    122000   1.028366       18.61429       64.171166    
    123000   0.99547635     17.921763      64.286285    
    124000   1.0135874      18.628903      64.295479    
    125000   0.99970748     18.416829      64.000763    
    126000   0.97858558     19.013286      64.103565    
    127000   0.99730367     18.293649      64.090175    
    128000   1.0087904      18.153897      64.016231    
    129000   0.9965437      18.290978      63.727411    
    130000   1.0035935      18.167262      63.610556    
    131000   1.0356127      18.192539      63.625198    
    132000   1.0165367      18.444699      63.576749    
    133000   1.016874       18.531256      63.47411     
    134000   0.99443894     18.345436      63.494633    
    135000   1.0209953      18.336675      63.292659    
    136000   1.0021927      17.994458      63.19179     
    137000   1.0076075      18.095963      63.069787    
    138000   1.0077364      18.755008      63.008219    
    139000   1.0013669      18.257702      62.803602    
    140000   0.97632082     18.133549      62.694073    
    141000   1.0055609      18.426275      62.49264     
    142000   0.98811337     17.591676      62.390166    
    143000   0.96834919     18.17988       61.833949    
    144000   1.0128132      18.470697      61.519294    
    145000   1.0014457      18.10442       61.35014     
    146000   0.99749588     17.942429      61.105417    
    147000   0.9752607      18.486026      60.847128    
    148000   0.96041956     17.869783      60.744232    
    149000   1.0079493      18.393769      60.7314      
    150000   0.9915794      17.374423      60.686534    
    151000   1.0385608      17.983261      60.636606    
    152000   0.95995283     17.77977       60.551441    
    153000   0.97039104     17.477953      60.300304    
    154000   1.0053951      18.127049      60.053235    
    155000   1.0045278      18.045241      60.030331    
    156000   0.97671575     17.611465      59.943888    
    157000   0.99253928     17.869436      59.764891    
    158000   1.0220411      17.830723      59.73532     
    159000   1.019084       18.186629      59.788704    
    160000   0.99693821     18.066953      59.814211    
    161000   0.97831047     17.563573      59.708778    
    162000   0.99734132     17.83005       59.591003    
    163000   0.97787995     18.052265      59.43834     
    164000   1.0108246      18.314535      59.104894    
    165000   0.99907786     18.267703      58.877775    
    166000   1.0355913      18.440009      58.634755    
    167000   1.0640095      17.660916      58.384468    
    168000   0.98320637     17.651331      58.189702    
    169000   1.0066182      17.931882      58.163222    
    170000   1.0103569      18.150686      58.361743    
    171000   0.99479517     18.156352      58.419234    
    172000   0.98805006     17.980713      58.35273     
    173000   0.99234603     17.643704      58.325188    
    174000   0.97541059     17.5344        58.16142     
    175000   0.94701072     18.265357      58.183044    
    176000   1.0268363      18.499223      57.984918    
    177000   0.9851129      17.810719      57.529946    
    178000   1.0059554      18.189596      57.366613    
    179000   1.0044572      18.589232      57.491563    
    180000   0.98465332     17.998273      57.397435    
    181000   0.9980532      17.492857      57.260525    
    182000   0.99402271     18.087311      57.241157    
    183000   0.9991274      18.412019      57.146933    
    184000   1.0184217      18.27464       56.998546    
    185000   0.99601016     17.556589      56.878589    
    186000   1.0550258      18.614938      56.756806    
    187000   0.96757191     17.120984      56.528334    
    188000   1.0293054      18.393013      56.569488    
    189000   1.0259904      17.83666       56.323056    
    190000   1.0177262      18.197848      56.051918    
    191000   1.0614102      17.666038      56.176989    
    192000   1.0176541      17.864072      56.054393    
    193000   1.0310778      17.946719      56.037733    
    194000   0.98876767     18.144852      55.88292     
    195000   1.0164756      17.689641      55.532163    
    196000   0.95970325     18.379816      55.688863    
    197000   1.0079926      17.791956      55.71216     
    198000   0.97458092     17.913377      55.621271    
    199000   1.0138219      18.010585      55.347436    
    200000   0.9490128      18.18459       55.295552    
    201000   0.97361172     18.236796      55.115055    
    202000   1.0063735      17.815815      54.933508    
    203000   0.95846734     17.827136      54.938688    
    204000   0.96877172     17.708259      54.789825    
    205000   0.99422922     17.579444      54.806288    
    206000   1.0300174      18.153905      54.628791    
    207000   1.0141394      17.846017      54.667625    
    208000   1.0105137      18.332241      54.46967     
    209000   1.0204285      17.625186      54.293778    
    210000   1.0457426      17.962698      54.146012    
    211000   1.0278139      17.844042      54.03609     
    212000   1.026227       17.794762      53.962068    
    213000   1.015408       18.675699      53.824509    
    214000   0.9985026      17.685939      53.805566    
    215000   0.98976845     17.811616      53.407618    
    216000   0.98363903     18.451891      53.41455     
    217000   1.0149581      17.907241      53.333586    
    218000   1.0031434      18.040858      53.237746    
    219000   0.95534274     18.338752      53.176185    
    220000   0.9891568      18.112754      53.00677     
    221000   0.99601607     17.543403      53.132754    
    222000   1.0189027      17.831349      53.113363    
    223000   0.98514864     18.082674      53.019827    
    224000   1.043457       18.062245      52.985909    
    225000   1.0031012      18.003225      52.839048    
    226000   0.94506221     17.03861       52.959061    
    227000   0.98326892     18.02745       52.94578     
    228000   1.0283091      18.194927      52.93604     
    229000   1.0450988      18.338927      52.871307    
    230000   1.0005538      17.790342      52.83749     
    231000   1.0081996      18.160106      52.706195    
    232000   1.0048963      18.021382      52.564459    
    233000   0.98822661     18.202108      52.374717    
    234000   1.0137598      17.9689        52.233402    
    235000   1.0471163      18.01331       52.072427    
    236000   1.0377737      18.019803      51.896286    
    237000   0.989591       18.189186      51.90497     
    238000   0.93381521     17.966905      51.651965    
    239000   0.96538582     17.821323      51.67285     
    240000   0.97537688     18.219994      51.396304    
    241000   1.0109405      18.033753      51.029693    
    242000   1.013893       17.755297      50.939188    
    243000   1.0391692      18.492394      50.762326    
    244000   0.98989782     18.187332      50.727742    
    245000   0.98932257     17.847629      50.359617    
    246000   1.0235729      18.20628       50.187534    
    247000   1.0069783      18.279958      49.962769    
    248000   0.98665375     17.714417      50.038072    
    249000   0.98589474     17.59063       50.110129    
    250000   1.0196913      18.000782      49.788906    
    251000   1.0102427      17.916593      49.621512    
    252000   0.9991682      18.491591      49.594707    
    253000   0.95604144     17.523982      49.678069    
    254000   1.0107458      17.553748      49.612028    
    255000   0.98424243     17.858287      49.561576    
    256000   0.98811453     17.816125      49.623934    
    257000   1.0020993      17.202307      49.709203    
    258000   1.0360388      18.155105      49.649215    
    259000   1.0255244      18.506664      49.539682    
    260000   0.99506321     17.789977      49.40259     
    261000   1.0047731      18.023401      49.312944    
    262000   1.0486105      17.815544      49.072815    
    263000   1.0224356      17.823116      49.108583    
    264000   0.98437223     18.101478      49.048134    
    265000   0.99981812     18.040887      49.033846    
    266000   1.0154568      18.028663      49.118691    
    267000   1.0128005      17.75796       49.123341    
    268000   0.98408033     17.669397      49.110903    
    269000   0.96964214     17.465755      48.868207    
    270000   1.0027549      18.358843      48.707191    
    271000   0.97398296     17.557233      48.450225    
    272000   1.0088469      18.19738       48.335694    
    273000   0.99084632     17.970805      48.216472    
    274000   0.99544206     17.783961      48.248743    
    275000   0.99294354     17.734774      48.238787    
    276000   0.98271126     17.965115      48.255154    
    277000   1.0279026      17.999548      47.987673    
    278000   1.0262567      17.444018      47.837556    
    279000   0.99084094     18.175442      47.611162    
    280000   0.98673773     18.038814      47.546779    
    281000   1.0434501      17.633756      47.495395    
    282000   1.0364998      17.579059      47.477649    
    283000   1.0228117      17.34818       47.219141    
    284000   1.0175279      17.558224      47.067636    
    285000   1.0167438      17.600026      47.087231    
    286000   1.0152935      17.944656      47.004742    
    287000   1.0322762      18.208669      46.955231    
    288000   1.0603731      17.957687      46.65835     
    289000   0.94890221     17.788294      46.513174    
    290000   1.0030801      17.430531      46.178351    
    291000   0.98643953     17.542632      46.181108    
    292000   1.0072271      17.815292      46.040366    
    293000   0.95957107     17.602985      45.847343    
    294000   0.97741721     17.888553      45.85282     
    295000   1.036288       18.104629      45.640541    
    296000   1.0364372      18.306206      45.617148    
    297000   1.0283846      18.02416       45.678077    
    298000   1.0108269      17.849626      45.775679    
    299000   1.019112       17.73023       45.587872    
    300000   1.0290348      18.418266      45.656421    
    301000   0.99030505     17.781427      45.297124    
    302000   1.0283123      17.761205      45.145592    
    303000   1.0130618      18.009291      44.895618    
    304000   0.97739501     17.986628      44.952602    
    305000   1.0138583      17.860796      44.808924    
    306000   0.95695022     18.276346      44.587328    
    307000   1.0118925      18.368897      44.570474    
    308000   1.021906       17.287372      44.377668    
    309000   0.99649959     17.604679      44.369554    
    310000   1.016649       18.157951      44.024978    
    311000   0.97666084     17.457694      43.739872    
    312000   0.9893513      18.00905       43.778248    
    313000   0.967514       18.083967      43.933242    
    314000   1.011087       17.844264      43.871442    
    315000   0.96329311     17.867606      43.884152    
    316000   0.98989562     17.294074      43.831928    
    317000   0.99768706     17.912584      43.277126    
    318000   1.0267713      17.95337       43.256491    
    319000   1.0484795      17.884518      43.2001      
    320000   1.0053785      18.007892      43.359562    
    321000   1.0052904      17.685435      43.241125    
    322000   1.067431       17.960793      43.060934    
    323000   0.99862003     17.700355      43.040866    
    324000   0.99171882     17.964203      43.054421    
    325000   1.0129203      17.424175      42.870759    
    326000   1.0363571      18.001835      42.580823    
    327000   0.99693        18.057993      42.42929     
    328000   0.97283922     17.095074      42.224161    
    329000   1.0236045      17.691358      42.255191    
    330000   1.0105601      17.729989      42.094098    
    331000   0.99299069     17.323682      41.856646    
    332000   1.0184767      17.917106      41.608043    
    333000   0.97764684     18.084029      41.505916    
    334000   1.0025636      18.061814      41.496609    
    335000   0.9971879      17.65491       41.541479    
    336000   1.0021786      17.614106      41.581147    
    337000   1.0263406      17.775597      41.409419    
    338000   0.98209559     18.066693      41.14834     
    339000   0.99095258     18.056649      41.018275    
    340000   0.98936897     17.729906      40.844569    
    341000   1.0178081      18.354555      40.997445    
    342000   0.99777449     17.830875      40.839326    
    343000   1.0102982      17.412674      40.954016    
    344000   1.005527       18.279103      40.951025    
    345000   1.0261915      17.629876      40.556662    
    346000   1.0057397      17.782499      40.441891    
    347000   0.9708633      17.345432      40.375893    
    348000   1.0177486      17.587694      40.237986    
    349000   0.99708221     17.982436      40.199482    
    350000   1.0136283      18.017172      39.921041    
    351000   1.0108615      17.682637      40.034928    
    352000   1.0159448      17.80404       39.942685    
    353000   0.97125616     17.733427      40.067975    
    354000   1.0307872      17.994997      40.165638    
    355000   1.0211709      17.965787      40.184159    
    356000   1.0080881      17.96556       40.075614    
    357000   1.0397937      18.251361      39.839447    
    358000   1.0302095      17.806365      39.743202    
    359000   0.95922592     18.543104      39.679251    
    360000   0.99926738     17.763635      39.421142    
    361000   0.98923243     17.794664      39.309843    
    362000   0.97961187     17.414156      39.447034    
    363000   0.98769033     17.594577      39.243001    
    364000   0.98768702     17.824285      39.289104    
    365000   1.0124209      17.812302      39.173043    
    366000   1.0468474      17.921546      39.114913    
    367000   1.0035294      17.697338      38.880796    
    368000   0.95615539     16.896371      38.748627    
    369000   1.0014233      17.781945      38.715716    
    370000   1.0529153      17.872636      38.691095    
    371000   0.98836753     17.877644      38.652565    
    372000   0.94195007     17.262872      38.741395    
    373000   1.020186       17.53622       38.70699     
    374000   0.98990301     17.500947      38.676268    
    375000   0.99878332     18.534466      38.567917    
    376000   1.0135321      17.53648       38.512266    
    377000   0.9681038      17.586979      38.450244    
    378000   1.0087207      17.604146      38.6509      
    379000   0.98089569     17.718298      38.887161    
    380000   0.9737011      17.983453      38.747108    
    381000   0.98245077     17.560979      38.505212    
    382000   0.98127764     17.815227      38.553873    
    383000   0.96516601     17.422725      38.592491    
    384000   0.96967307     17.284584      38.463325    
    385000   0.98982601     17.612616      38.447391    
    386000   1.0155575      17.148266      38.320073    
    387000   0.98702365     17.441691      38.152483    
    388000   0.99861015     17.841875      38.040448    
    389000   1.0041936      17.955661      37.757715    
    390000   0.97775512     17.804065      37.607517    
    391000   0.99926567     17.697599      37.605771    
    392000   0.97379323     17.760397      37.382186    
    393000   0.98397076     17.465923      37.354256    
    394000   0.99160404     17.870994      37.390358    
    395000   0.97484598     17.188168      37.168826    
    396000   1.0308433      17.719977      37.08247     
    397000   1.0356349      17.954543      37.025638    
    398000   1.0450968      17.641632      37.072101    
    399000   1.0059553      18.022261      37.025343    
    400000   0.97937538     17.749852      36.765794    
    401000   1.011279       18.139658      36.606637    
    402000   1.0117486      18.075928      36.470876    
    403000   1.0019974      17.994532      36.198398    
    404000   1.0008944      17.422098      36.177819    
    405000   0.98443068     17.836415      36.232745    
    406000   0.99390161     17.870612      36.183022    
    407000   0.99972921     17.5594        35.935084    
    408000   0.98936501     17.912046      35.759978    
    409000   1.0120721      17.564262      35.760265    
    410000   0.99796037     18.056832      35.702212    
    411000   0.97772185     17.477002      35.533267    
    412000   1.0073015      17.701489      35.369174    
    413000   1.0426061      17.425118      35.219344    
    414000   1.0175328      17.711672      34.896966    
    415000   0.98443233     17.226923      34.764338    
    416000   1.0083829      17.715037      34.638898    
    417000   1.0391655      17.549435      34.562724    
    418000   0.98186005     17.534254      34.600128    
    419000   1.0245355      17.270055      34.329176    
    420000   0.99826532     17.142996      34.439182    
    421000   1.0323948      18.131517      34.314183    
    422000   0.99606587     17.511566      34.012803    
    423000   1.0298716      17.857488      33.832646    
    424000   1.0039046      17.396444      33.648087    
    425000   1.0060289      17.69631       33.586412    
    426000   1.0082416      17.71325       33.478839    
    427000   0.9912296      17.218399      33.566312    
    428000   0.9981609      17.980175      33.355343    
    429000   0.99385513     18.149338      33.29544     
    430000   0.97937029     17.492603      33.294743    
    431000   0.96136015     17.2189        33.341784    
    432000   1.062166       17.958512      33.428158    
    433000   1.0214261      17.553885      33.06613     
    434000   1.0206091      17.608327      32.930029    
    435000   0.9941124      17.507376      33.075841    
    436000   1.0169996      16.985222      32.953706    
    437000   1.0136532      17.624855      32.819207    
    438000   1.0536427      17.501555      32.616931    
    439000   0.9862687      17.049985      32.480832    
    440000   0.98124189     16.985989      32.177621    
    441000   0.99323351     17.359584      31.853728    
    442000   1.0197574      17.180099      31.57872     
    443000   1.0056458      17.727811      31.672232    
    444000   1.0114613      17.360176      31.82124     
    445000   1.0019027      17.498614      31.849122    
    446000   1.0063268      17.418371      31.693659    
    447000   0.97697747     18.124167      31.757342    
    448000   1.0044954      17.70317       31.848881    
    449000   0.99751016     17.150792      31.892676    
    450000   1.0410924      17.01615       31.643764    
    451000   0.97821872     17.522888      31.689268    
    452000   0.99752313     17.456813      31.492265    
    453000   0.96739072     16.674605      31.205571    
    454000   0.95641428     16.561689      31.256659    
    455000   1.0012157      17.520402      31.131388    
    456000   1.0109192      17.860076      31.02075     
    457000   1.0094353      17.533457      31.099273    
    458000   1.0152421      17.474524      31.04472     
    459000   1.0074803      17.271391      31.072457    
    460000   1.0116258      17.085326      31.130241    
    461000   0.98973984     17.225345      30.898494    
    462000   1.0348779      17.171447      30.751657    
    463000   1.003674       17.3437        30.822301    
    464000   1.0122927      17.082134      30.613533    
    465000   1.0081349      17.641142      30.40359     
    466000   0.98291926     17.214146      30.183761    
    467000   1.0154891      17.651172      30.084788    
    468000   0.98258441     17.213465      30.12592     
    469000   1.0493936      17.775887      30.117709    
    470000   0.9774884      17.374039      30.204585    
    471000   1.0110886      17.325117      30.035527    
    472000   1.0116014      17.386764      29.978057    
    473000   1.0168613      17.940219      29.77688     
    474000   0.96358305     17.752174      29.59589     
    475000   1.0069388      17.754337      29.432435    
    476000   0.9567151      17.128239      29.343522    
    477000   0.98247929     17.884761      29.407831    
    478000   1.0390551      17.105205      29.482419    
    479000   0.96543219     17.446041      29.454735    
    480000   1.0061131      17.304594      29.205077    
    481000   1.0002942      17.409064      29.07822     
    482000   1.0491273      17.247566      29.036347    
    483000   0.95579631     17.624098      29.036548    
    484000   0.94373243     17.230772      29.065409    
    485000   0.95523354     17.239809      29.014153    
    486000   1.0060446      17.435644      28.935128    
    487000   1.0082151      16.814106      28.87393     
    488000   0.97352943     17.460795      28.891042    
    489000   0.99429664     17.299172      28.827044    
    490000   1.003626       16.821305      28.857687    
    491000   0.95760695     17.335788      28.863559    
    492000   0.99881524     17.150866      28.800069    
    493000   1.0163064      17.420184      28.615146    
    494000   0.98876702     17.28632       28.898796    
    495000   0.96564114     16.864937      28.930684    
    496000   1.0437044      17.3774        28.965875    
    497000   1.0271189      17.355397      28.845236    
    498000   0.94571054     17.063889      28.748575    
    499000   1.0195227      17.967309      28.675337    
    500000   1.0370015      17.593182      28.558992    
    501000   1.0021566      17.662875      28.484234    
    502000   1.0084398      17.66713       28.403234    
    503000   1.0772756      17.591941      28.330344    
    504000   1.0133017      17.354205      28.229549    
    505000   0.96985777     16.852227      28.085687    
    506000   1.0243767      17.087371      28.104496    
    507000   1.0014775      17.37097       27.992272    
    508000   1.0428068      17.568025      28.120611    
    509000   1.0201217      17.497157      28.096016    
    510000   1.0160595      17.142525      28.066329    
    511000   1.0337908      17.439228      28.148132    
    512000   0.99087101     17.277721      28.276445    
    513000   1.0205049      17.54401       28.186535    
    514000   1.0233172      17.30837       28.018682    
    515000   1.0005887      17.050927      28.167016    
    516000   1.0475792      17.477282      28.055926    
    517000   0.99676401     17.481466      27.940056    
    518000   1.0071558      17.946785      28.004249    
    519000   1.0220709      17.386155      28.117406    
    520000   0.98401725     17.005633      28.124086    
    521000   1.0065839      16.905341      27.95264     
    522000   0.99960021     16.985912      27.876168    
    523000   1.0017237      17.595643      27.787615    
    524000   0.98504343     17.763422      27.729094    
    525000   1.0023532      17.100482      27.600146    
    526000   1.0047734      16.842197      27.447132    
    527000   0.9813948      17.130001      27.37294     
    528000   1.02873        17.530012      27.183084    
    529000   0.99024348     17.670497      27.181189    
    530000   0.99136492     17.972956      26.715086    
    531000   0.98837095     17.167314      26.529519    
    532000   0.97810657     17.097247      26.709129    
    533000   1.0189702      16.807201      26.708592    
    534000   0.95398098     17.184708      26.482171    
    535000   0.96063512     17.233674      26.555347    
    536000   1.0562318      17.817414      26.6557      
    537000   1.0152902      17.58962       26.53478     
    538000   1.0015876      17.586337      26.306489    
    539000   1.0032932      17.074942      26.371383    
    540000   1.0169106      17.434651      26.420078    
    541000   0.9920675      17.289758      26.543252    
    542000   0.99041786     17.567598      26.523003    
    543000   0.9824631      17.435853      26.537533    
    544000   1.0402958      17.772208      26.554943    
    545000   1.0167541      17.431404      26.288971    
    546000   0.99933296     17.295549      26.152962    
    547000   0.97157741     17.885179      26.182401    
    548000   1.0385465      18.022678      26.162867    
    549000   0.99145956     17.12848       26.006253    
    550000   1.0018646      17.769103      26.036589    
    551000   0.95420164     17.083837      25.960593    
    552000   1.0298192      18.045015      25.795223    
    553000   0.98406069     17.079968      25.608703    
    554000   1.0206011      17.423821      25.502283    
    555000   1.0420136      17.701052      25.534328    
    556000   0.97632956     17.105571      25.665071    
    557000   1.0132105      17.741109      25.435881    
    558000   0.95075564     16.856354      25.21173     
    559000   1.0258492      17.435873      24.977735    
    560000   0.95540086     18.001324      24.942678    
    561000   1.018241       17.12645       25.03703     
    562000   1.0119812      17.324073      24.725734    
    563000   0.99435799     17.656373      24.450889    
    564000   0.96965661     17.437134      24.478529    
    565000   1.0386592      17.48307       24.320115    
    566000   0.9857806      17.464613      24.226551    
    567000   1.0165626      17.363183      23.949153    
    568000   0.97504629     17.437038      23.92304     
    569000   1.0271383      16.955479      24.05977     
    570000   0.99311836     17.075031      24.006716    
    571000   1.0148156      17.143184      24.000909    
    572000   0.96758526     17.146432      24.130961    
    573000   1.0078803      17.102871      24.176816    
    574000   0.96256547     17.228538      24.10676     
    575000   1.0296041      17.244499      24.204826    
    576000   1.0177129      16.844201      23.997834    
    577000   0.98402998     17.321404      23.874379    
    578000   0.96218074     17.907153      23.962684    
    579000   1.0535766      17.136515      23.887473    
    580000   1.025061       17.303009      23.925027    
    581000   1.0044377      17.652324      23.927833    
    582000   0.99677705     17.272802      24.060603    
    583000   0.92391539     17.379633      23.891215    
    584000   1.0171123      16.980343      23.901188    
    585000   0.9792643      16.919972      23.757719    
    586000   1.0449388      17.409085      23.668955    
    587000   0.99896337     17.588131      23.642912    
    588000   1.0066048      17.519641      23.588089    
    589000   0.9766883      17.686557      23.47067     
    590000   1.0353714      17.62472       23.487664    
    591000   1.025338       17.353458      23.262685    
    592000   1.0207616      17.237066      23.197179    
    593000   0.98303332     17.119462      23.029823    
    594000   0.96819866     17.058816      23.139488    
    595000   1.0271831      17.46147       23.092338    
    596000   1.0169731      16.669734      23.15403     
    597000   1.0309702      17.558503      23.301352    
    598000   1.0029819      17.424516      23.404672    
    599000   0.97831879     17.129392      23.336286    
    600000   0.98328643     17.111586      23.125436    
    601000   0.99555636     17.041434      23.005902    
    602000   0.99187777     17.096399      23.070371    
    603000   0.97517487     16.753774      22.922686    
    604000   1.003992       17.053921      22.79713     
    605000   0.96823771     16.970273      22.567934    
    606000   0.96590598     17.461253      22.525136    
    607000   1.0085822      16.905009      22.491634    
    608000   0.98706031     17.51476       22.281661    
    609000   1.0110398      17.058519      22.118193    
    610000   1.0478351      17.105455      22.050054    
    611000   1.0099362      17.019456      21.98988     
    612000   1.0053449      17.729715      22.057223    
    613000   0.98197921     17.601519      22.045943    
    614000   1.0142373      16.753717      21.953218    
    615000   0.97474555     17.679979      21.690302    
    616000   0.97347128     17.513836      21.604428    
    617000   1.0237506      17.73739       21.731492    
    618000   1.0271644      16.974093      21.40429     
    619000   1.0184203      17.987602      21.33355     
    620000   0.99868656     17.217622      21.385255    
    621000   0.99443325     17.335533      21.170603    
    622000   0.99666752     17.349919      21.07452     
    623000   1.0323237      16.987956      21.017099    
    624000   0.99072318     17.169474      20.952175    
    625000   1.0152614      16.860092      20.975288    
    626000   0.95852169     17.359024      20.766853    
    627000   0.98799353     16.895165      20.565398    
    628000   1.0534411      17.377578      20.195426    
    629000   0.99600857     17.278549      20.01104     
    630000   0.99969694     17.177407      19.894529    
    631000   1.0287142      17.319057      19.916739    
    632000   0.9827773      17.60214       20.132783    
    633000   0.98221962     16.700688      20.157733    
    634000   0.99147791     16.960683      20.250881    
    635000   0.98801624     17.339191      20.383334    
    636000   1.0051903      17.928333      20.238517    
    637000   1.0496238      17.36986       20.232012    
    638000   1.0400191      17.371299      20.004215    
    639000   0.94178855     17.224946      19.754322    
    640000   1.0345133      17.504886      19.763717    
    641000   1.0133115      17.200922      19.656957    
    642000   0.97254595     17.459827      19.760755    
    643000   0.99829182     17.864608      19.914831    
    644000   1.0116466      17.211152      19.816606    
    645000   1.0239591      17.380593      19.79707     
    646000   1.0133664      16.764644      19.741688    
    647000   1.026981       17.028974      19.626283    
    648000   1.0571304      18.208264      19.529355    
    649000   1.0186099      17.392955      19.314109    
    650000   1.0003884      17.556949      19.169511    
    651000   1.0256549      17.958815      19.086804    
    652000   1.029137       17.741835      19.212984    
    653000   1.0238501      16.878659      19.077281    
    654000   0.98568417     16.993664      19.08305     
    655000   1.0176758      17.086982      19.011496    
    656000   1.0164422      17.372418      18.751105    
    657000   1.0125131      17.038663      18.628699    
    658000   0.99902076     17.224044      18.607489    
    659000   0.94158489     17.217915      18.460739    
    660000   1.0249673      17.496126      18.607209    
    661000   0.98504972     16.840866      18.628032    
    662000   1.0129591      17.292239      18.782027    
    663000   1.0104991      17.49135       18.869031    
    664000   0.96738268     16.885048      18.891388    
    665000   1.0401977      16.790767      18.708185    
    666000   0.9901161      17.014522      18.624896    
    667000   1.0370053      17.181715      18.457658    
    668000   1.0156408      17.499402      18.382836    
    669000   1.0346481      17.765842      18.35099     
    670000   1.0058552      17.47855       18.408648    
    671000   1.0002943      17.444195      18.310264    
    672000   1.0099612      17.508252      18.133444    
    673000   1.0035265      17.284015      18.033473    
    674000   0.97464606     16.815385      17.996226    
    675000   1.0137001      17.554543      17.89043     
    676000   0.9888811      17.673814      17.840393    
    677000   1.0145587      17.52359       17.684556    
    678000   1.0392289      17.389762      17.45078     
    679000   0.95309085     17.286671      17.329659    
    680000   1.0041959      16.401767      17.155508    
    681000   1.0330911      17.61937       16.950314    
    682000   1.0057216      17.539289      16.965538    
    683000   0.98248487     17.199562      17.167102    
    684000   0.96444887     17.432782      17.160386    
    685000   0.99598794     17.381418      17.225232    
    686000   1.0347041      17.08331       17.249389    
    687000   1.0155882      16.888099      17.192254    
    688000   1.0017738      17.315462      17.06372     
    689000   0.9928757      17.22119       16.988356    
    690000   0.98202108     17.999996      16.90598     
    691000   0.96506867     17.235773      16.826026    
    692000   0.97277067     17.087459      16.706125    
    693000   1.0035085      16.738794      16.915558    
    694000   0.97657235     16.625401      16.843945    
    695000   0.96734247     17.322656      16.733206    
    696000   0.94117742     17.159571      16.725514    
    697000   0.98104951     17.153551      16.332103    
    698000   1.0025762      17.028395      16.006801    
    699000   0.93524486     17.286164      16.009069    
    700000   1.0105017      17.662739      15.900394    
    701000   1.0178745      17.434674      15.74278     
    702000   1.0340937      17.108584      15.666696    
    703000   1.0252904      17.311733      15.661351    
    704000   0.97760616     16.89948       15.677479    
    705000   0.97358853     17.125204      15.721542    
    706000   1.0040143      17.343432      15.612176    
    707000   0.99010727     17.163684      15.512934    
    708000   0.99777066     17.224645      15.545736    
    709000   0.99397894     17.422658      15.404162    
    710000   1.0110012      17.405006      15.301223    
    711000   1.0112281      16.904018      15.287523    
    712000   0.99694812     17.202783      15.241722    
    713000   1.0177988      17.479361      15.109375    
    714000   1.010542       17.31599       15.044639    
    715000   0.99429658     16.959008      14.775019    
    716000   1.0311383      16.611537      14.61194     
    717000   0.99441047     17.234764      14.426014    
    718000   1.0018961      16.623457      14.411493    
    719000   0.95952037     17.19415       14.284246    
    720000   1.0069898      17.218869      14.042745    
    721000   1.0134132      17.400921      13.910883    
    722000   0.98522949     16.951174      13.889152    
    723000   1.0290478      17.1106        13.942938    
    724000   0.98195672     16.810076      13.900449    
    725000   1.0199473      16.68891       13.760245    
    726000   0.99315735     16.897277      13.720373    
    727000   1.0104763      17.051596      13.682874    
    728000   0.94964267     17.325717      13.71078     
    729000   1.0181963      17.364134      13.491958    
    730000   1.0056973      16.70159       13.420136    
    731000   0.94794607     16.86357       13.21258     
    732000   0.99668317     17.217302      13.261875    
    733000   1.0160756      16.842415      13.227914    
    734000   1.0005649      17.097701      13.288348    
    735000   1.0056681      17.25131       13.249568    
    736000   0.98741624     16.606732      13.182224    
    737000   0.99120735     16.744536      13.290693    
    738000   1.0055379      17.221975      13.229421    
    739000   0.9559069      16.778315      13.182147    
    740000   0.99508302     16.918082      12.850169    
    741000   1.0124069      16.909676      12.825109    
    742000   1.0290867      17.768611      13.00253     
    743000   0.99350198     17.076177      12.967086    
    744000   1.0177483      16.71105       12.908618    
    745000   1.0160248      16.69761       12.934322    
    746000   0.95656532     17.105981      13.012116    
    747000   1.0057549      16.794796      13.08023     
    748000   1.0504679      17.120829      12.958731    
    749000   0.9879836      17.066009      12.946386    
    750000   1.0198689      16.663382      12.698716    
    751000   1.0220166      17.779396      12.529516    
    752000   1.0135509      16.898852      12.450592    
    753000   0.97449756     16.828533      12.514283    
    754000   0.98562955     16.998589      12.241048    
    755000   0.99752248     17.429219      11.853633    
    756000   0.97301315     17.094241      11.694196    
    757000   1.0197787      16.733532      11.468602    
    758000   1.0114006      16.946639      11.270859    
    759000   1.0076118      17.320305      11.072138    
    760000   1.0009688      17.136473      10.98193     
    761000   1.0179917      17.0043        10.999235    
    762000   0.98884322     16.303925      10.98982     
    763000   0.96281823     17.008951      11.018036    
    764000   1.0342927      17.306357      10.900938    
    765000   0.99543407     17.059934      10.604522    
    766000   1.004938       17.277816      10.662274    
    767000   0.99686354     17.222329      10.38179     
    768000   1.0471778      17.207425      10.404152    
    769000   0.98633714     17.338167      10.255777    
    770000   0.99408161     16.790932      10.392707    
    771000   0.99793593     17.02203       10.162643    
    772000   1.0179484      17.000166      10.259278    
    773000   1.020214       17.236986      10.267188    
    774000   0.9923476      16.615892      10.199126    
    775000   1.0085834      16.70813       10.168221    
    776000   1.0127211      16.86714       10.142604    
    777000   0.98816172     16.863857      10.103215    
    778000   0.98847071     17.249841      9.9873462    
    779000   1.0048092      17.614847      9.6467034    
    780000   1.0164699      17.060372      9.6085705    
    781000   1.0329601      17.31359       9.5628937    
    782000   1.0249197      17.040981      9.7122999    
    783000   1.0313932      17.633543      9.5477806    
    784000   1.0062954      17.170849      9.7451547    
    785000   0.95859173     17.210921      9.6643277    
    786000   1.0074788      17.132008      9.6525666    
    787000   1.0328182      17.262345      9.6068746    
    788000   1.0007675      17.260234      9.7506735    
    789000   0.97672854     17.385204      9.6866954    
    790000   0.9618879      16.961022      9.7451563    
    791000   0.98147185     17.375106      9.9245461    
    792000   0.98246829     16.958555      9.9510681    
    793000   1.0119985      16.680141      9.8915816    
    794000   0.97302515     16.866087      9.9640903    
    795000   0.98651273     16.743117      9.9173015    
    796000   0.99788667     17.476594      9.7944462    
    797000   1.0165175      17.012882      9.7357497    
    798000   1.0186365      16.925956      9.6504376    
    799000   1.0126659      16.600474      9.4115273    
    800000   1.0013923      16.63533       9.4151055    
    801000   1.0043599      17.41778       9.28049      
    802000   1.0141161      16.869755      9.2703775    
    803000   0.95653354     17.177292      9.3520609    
    804000   0.97125607     17.271003      9.4874784    
    805000   1.0241064      17.16209       9.2832878    
    806000   1.0054618      17.101624      9.1203467    
    807000   1.0033029      17.329032      9.1070562    
    808000   1.0034129      17.575641      8.8914075    
    809000   1.0156579      17.63533       8.7214954    
    810000   1.0114208      16.602915      8.5907821    
    811000   1.0096536      17.210422      8.5335734    
    812000   1.0149378      17.03743       8.2020185    
    813000   1.0528188      16.980117      8.0204209    
    814000   0.950707       16.824304      8.0013795    
    815000   1.0034159      16.722686      7.7593765    
    816000   0.96201375     16.67495       7.5528701    
    817000   0.98871015     16.897261      7.4899406    
    818000   1.0625186      17.036145      7.4304591    
    819000   0.99515137     16.751749      7.3774185    
    820000   0.97104853     16.75065       7.1806367    
Fix halt condition for fix-id 3 met on step 821000 with value 6.8827969939291815 (src/fix_halt.cpp:237)
    821000   1.0127019      17.243881      6.882797     
Loop time of 597.79 on 2 procs for 721000 steps with 1093 atoms

Performance: 1042077.901 tau/day, 1206.109 timesteps/s
141.8% CPU use with 1 MPI tasks x 2 OpenMP threads

MPI task timing breakdown:
Section |  min time  |  avg time  |  max time  |%varavg| %total
---------------------------------------------------------------
Pair    | 198        | 198        | 198        |   0.0 | 33.12
Bond    | 12.402     | 12.402     | 12.402     |   0.0 |  2.07
Neigh   | 355.76     | 355.76     | 355.76     |   0.0 | 59.51
Comm    | 0.17768    | 0.17768    | 0.17768    |   0.0 |  0.03
Output  | 1.6146     | 1.6146     | 1.6146     |   0.0 |  0.27
Modify  | 27.985     | 27.985     | 27.985     |   0.0 |  4.68
Other   |            | 1.854      |            |       |  0.31

Nlocal:           1093 ave        1093 max        1093 min
Histogram: 1 0 0 0 0 0 0 0 0 0
Nghost:              0 ave           0 max           0 min
Histogram: 1 0 0 0 0 0 0 0 0 0
Neighs:         247153 ave      247153 max      247153 min
Histogram: 1 0 0 0 0 0 0 0 0 0

Total # of neighbors = 247153
Ave neighs/atom = 226.12351
Ave special neighs/atom = 1.9981702
Neighbor list builds = 6165
Dangerous builds = 0

# This simulation is done
# Move onto the next one
clear
  using 2 OpenMP thread(s) per MPI task
package omp 0
using multi-threaded neighbor list subroutines
next f
jump SELF

###
# Reference paper:
# K. Kremer and G. S. Grest
# Dynamics of entangled linear polymer melts: A molecular-dynamics simulation
# J Chem Phys 92, 5057 (1990)

##################################
# MIHIR: for branched polymers
# LJ minimum first to expand and explore, then collapse
###

###
# Looping through the various nuc5branch4 polymers to simulate,
# define variables to switch through
variable f index bb37nuc5bl6bn4d30tot100 bb75nuc5bl12bn4d30tot200 bb112nuc5bl18bn4d30tot300 bb150nuc5bl25bn4d30tot400 bb187nuc5bl31bn4d30tot500 bb225nuc5bl37bn4d30tot600 bb262nuc5bl43bn4d30tot700 bb300nuc5bl50bn4d30tot800 bb337nuc5bl56bn4d30tot900 bb375nuc5bl62bn4d30tot1000 bb412nuc5bl68bn4d30tot1100 bb450nuc5bl75bn4d30tot1200
# variable f index bb75nuc5bl12bn4d30tot200
# variable f index bb337nuc5bl56bn4d30tot900
###


###
# Box and units  (use LJ units and periodic boundaries)
###

units lj
log nuc5branch4/logs2/$f.log
log nuc5branch4/logs2/bb450nuc5bl75bn4d30tot1200.log
