#atom_style bond #no stiffness
atom_style angle #with stiffness

boundary        p p p
###
# Pair interactions require lists of neighbours to be calculated
###

#neighbor 0.3 bin
neighbor 4 bin

neigh_modify every 1 delay 1 check yes
atom_modify sort 0 0
### Generate RESTART file, SPECIAL format, not a .txt file ###
### Useful if simulation crashes ###

restart 1000000 nuc5branch4/restarts2/$f.restart
restart 1000000 nuc5branch4/restarts2/bb450nuc5bl75bn4d30tot1200.restart
#############################



### READ "start" data file ###

read_data nuc5branch4/$f.dat
read_data nuc5branch4/bb450nuc5bl75bn4d30tot1200.dat
Reading data file ...
  orthogonal box = (-1000 -1000 -1000) to (1000 1000 1000)
  1 by 1 by 1 MPI processor grid
  reading atoms ...
  1201 atoms
  scanning bonds ...
  3 = max bonds/atom
  scanning angles ...
  6 = max angles/atom
  reading bonds ...
  1200 bonds
  reading angles ...
  1214 angles
Finding 1-2 1-3 1-4 neighbors ...
  special bond factors lj:    0        0        0       
  special bond factors coul:  0        0        0       
     4 = max # of 1-2 neighbors
     4 = max # of 1-3 neighbors
     8 = max # of 1-4 neighbors
    12 = max # of special neighbors
  special bonds CPU = 0.001 seconds
  read_data CPU = 0.059 seconds

######################

### READ "REstart" data file ###

######################



###
# Define groups (atom type 1 is group 'all')
###
group all type 1
1201 atoms in group all


###
# Dump configs - "simple dumpings"
###

###
# Dump configs + box coords
###

dump   1   all   custom   1000  nuc5branch4/trjs2/$f.lammpstrj  id  x y z  ix iy iz
dump   1   all   custom   1000  nuc5branch4/trjs2/bb450nuc5bl75bn4d30tot1200.lammpstrj  id  x y z  ix iy iz
dump_modify   1   format line "%d %.5f %.5f %.5f %d %d %d"

########################################################################


###################################################################
# Stiffness term
#
# E = K * (1+cos(theta)), K>0
#
angle_style   cosine
#change this coefficient to change stiffness (e.g. 1,5,10)
angle_coeff   1 1.0
###################################################################

###################################################################
# Pair interaction between non-bonded atoms
#
#  Lennard-Jones 12-6 potential with cutoff:
#  potential E=4epsilon[ (sigma/r)^12 - (sigma/r)^6]  for r<r_cut
#
#  1.12246 = 2^(1/6) is the minimum of the potential


pair_style      lj/cut 1.12246152962189
#pair_style      lj/cut 3

#
#  pair_modify shift yes adds a constant to the potential such

#  that E(r_cut)=0. Forces remains unchanged.
#

pair_modify     shift yes

#
#  pair_coeff for lj/cut, specify 4:
#    * atom type interacting with
#    * atom type
#    * epsilon (energy units)
#    * sigma (distance units)
#

pair_coeff      1 1 1.0 1.0
###################################################################

###################################################################
# Pair interaction between non-bonded atoms
#
#  soft potential, for PUSHING apart overlapping atoms
#  potential E=A*(1 + cos(pi*r/r_c))
#
#  1.12246 = 2^(1/6) is the cut-off r_c

#pair_style     soft 1.12246152962189

#
#  pair_coeff for soft, specify 3:
#    * atom type interacting with
#    * atom type
#    * A
#
#

#pair_coeff      1 1 100.0
###################################################################

###################################################################
# Pair interaction between bonded atoms
#
# Fene potential + Lennard Jones 12-6:

#
#  E= - 0.5 K R0^2 ln[ 1- (r/R0)^2]
#     + 4epsilon[ (sigma/r)^12 - (sigma/r)^6] + epsilon
#

bond_style   fene


#
# For style fene, specify:
#   * bond type
#   * K (energy/distance^2)
#   * R0 (distance)
#   * epsilon (energy)  (LJ component)
#   * sigma (distance)  (LJ component)
#


special_bonds fene #<=== I M P O R T A N T (new command)
Finding 1-2 1-3 1-4 neighbors ...
  special bond factors lj:    0        1        1       
  special bond factors coul:  0        1        1       
     4 = max # of 1-2 neighbors
    12 = max # of special neighbors
  special bonds CPU = 0.000 seconds

bond_coeff   1   30   2   1.0   1.0


###################################################

###################################################################
# Pair interaction between bonded atoms
#
# Harmonic potential:
#
#  E= K * (R-R0)^2
#

#bond_style   harmonic

#
# For style harmonic, specify:
#   * bond type
#   * K (energy/distance^2)
#   * R0 (distance)
#

#bond_coeff   1   60.0   1.0
#bond_coeff   2   harmonic 0.1   1.0

###################################################
compute 1 all gyration
variable rog equal c_1
#compute 2 all coord/atom cutoff 1.1

#dump 2 all custom 10000 contact_number.dump id c_2


###
# Set up fixes
###
thermo_style   custom   step  temp enthalpy c_1
fix 1 all nve   ###NVE ensemble

fix 2 all   langevin   1.0 1.0 1.0  778655   ###Langevin integrator Tstart Tstop 1/friction rndseed


##### Sample thermodynamic info  (temperature, energy, pressure, etc.) #####
thermo 1000









############################################################################

###
# set timestep of integrator

timestep 0.01

###
# run integration for a number of steps
###
#run 0
#variable r equal c_1
#if "$r < 63.1" then "quit 1"

# lj potential minimum, cause molecule to explore
run 100000
Generated 0 of 0 mixed pair_coeff terms from geometric mixing rule
Last active /omp style is angle_style cosine/omp
Neighbor list info ...
  update: every = 1 steps, delay = 1 steps, check = yes
  max neighbors/atom: 2000, page size: 100000
  master list distance cutoff = 5.1224615
  ghost atom cutoff = 5.1224615
  binsize = 2.5612308, bins = 781 781 781
  1 neighbor lists, perpetual/occasional/extra = 1 0 0
  (1) pair lj/cut/omp, perpetual
      attributes: half, newton on, omp
      pair build: half/bin/newton/omp
      stencil: half/bin/3d
      bin: standard
WARNING: Communication cutoff 5.12246152962189 is shorter than a bond length based estimate of 5.455. This may lead to errors. (src/comm.cpp:723)
Per MPI rank memory allocation (min/avg/max) = 1862 | 1862 | 1862 Mbytes
   Step          Temp         Enthalpy         c_1      
         0   0              13.248526      91.380758    
      1000   1.0183917      19.163001      90.718556    
      2000   0.99191329     19.013992      90.17501     
      3000   1.0107405      19.080917      89.787572    
      4000   1.0455868      19.34335       89.207566    
      5000   1.0304377      19.873392      89.114223    
      6000   1.0148834      19.557523      88.877468    
      7000   1.0629549      19.800739      88.604859    
      8000   0.99888449     19.259252      88.440813    
      9000   1.032386       19.799058      88.395493    
     10000   0.99442044     19.610364      88.027014    
     11000   1.0039108      19.662303      87.661595    
     12000   0.98684018     19.385284      87.43744     
     13000   1.009842       19.7636        87.243563    
     14000   1.0150876      19.840874      87.065856    
     15000   0.98970095     19.793981      86.835499    
     16000   0.99981145     19.614271      86.768616    
     17000   0.99251392     19.963093      86.513784    
     18000   0.98866814     19.579266      86.036806    
     19000   1.0095837      20.077051      85.807241    
     20000   1.0253129      19.889988      85.54583     
     21000   1.006549       19.535221      85.465204    
     22000   1.014512       19.647259      85.219952    
     23000   1.0231963      20.127564      85.159064    
     24000   1.0297467      19.929031      85.109336    
     25000   1.021054       20.003403      84.846755    
     26000   1.0124136      20.007816      84.706007    
     27000   0.97992485     20.207486      84.441948    
     28000   1.0474189      20.405737      84.405754    
     29000   1.0057216      19.574341      84.205856    
     30000   0.95917932     20.236981      84.128433    
     31000   1.0023652      20.194576      83.891592    
     32000   1.0284749      19.903486      83.733235    
     33000   1.0112104      20.000175      83.42797     
     34000   0.9997947      19.828542      83.436639    
     35000   1.0343183      20.2061        83.302967    
     36000   0.9723275      20.08386       82.911883    
     37000   0.98797699     20.202329      82.574275    
     38000   1.0058169      20.747437      82.165219    
     39000   1.0280774      20.191116      82.143771    
     40000   1.0115439      20.350961      82.009822    
     41000   1.0289941      20.447558      82.143322    
     42000   0.95059333     20.076566      81.8526      
     43000   1.0361442      20.351459      81.705813    
     44000   1.0408935      20.713725      81.505775    
     45000   0.97052807     20.209869      81.302668    
     46000   1.0242917      20.429298      81.146562    
     47000   0.99925045     19.937712      81.073023    
     48000   1.037261       20.427283      81.027195    
     49000   0.99744774     20.314136      81.003384    
     50000   0.98452175     20.40232       80.970753    
     51000   1.0197903      20.711868      80.882607    
     52000   1.0006223      20.715639      80.737208    
     53000   0.99419476     20.161045      80.621466    
     54000   1.0330795      20.254946      80.539237    
     55000   1.0098815      20.058518      80.351868    
     56000   0.95960636     19.667438      80.380571    
     57000   0.95625731     20.250684      80.221996    
     58000   0.98949301     20.203704      79.865857    
     59000   0.96711782     20.35326       79.626671    
     60000   0.98353472     20.432878      79.533113    
     61000   1.0028633      19.838508      79.48307     
     62000   0.99436099     20.412497      79.259353    
     63000   0.99842329     20.571939      79.290979    
     64000   1.0412245      20.40889       79.261664    
     65000   0.99150522     20.672822      79.244383    
     66000   0.99002288     20.090375      79.380417    
     67000   0.98784435     20.768164      79.441792    
     68000   0.9445034      20.554494      79.283969    
     69000   1.0248193      20.321543      79.132319    
     70000   1.035386       20.823547      79.088313    
     71000   0.96777911     20.343722      79.014615    
     72000   0.97025334     19.988255      78.950903    
     73000   1.0260968      20.624117      78.798353    
     74000   1.0122521      20.365523      78.652632    
     75000   1.0032286      20.806208      78.792518    
     76000   1.022325       20.531084      78.645423    
     77000   1.0055145      20.065599      78.590209    
     78000   0.97728667     20.049038      78.429291    
     79000   0.95136992     20.206427      78.240369    
     80000   1.0154134      21.018736      78.001785    
     81000   1.0155866      20.696095      78.004561    
     82000   0.98458227     20.425492      77.970698    
     83000   1.0149757      20.941178      77.792509    
     84000   1.0075384      20.12003       77.784449    
     85000   0.9848495      20.176696      77.942242    
     86000   1.0114382      20.254109      77.961919    
     87000   1.0320304      20.561436      77.92773     
     88000   1.0031938      20.17301       77.95228     
     89000   1.0120697      20.873085      77.760976    
     90000   1.0218488      20.845308      77.503691    
     91000   1.011171       20.562359      77.246316    
     92000   1.010182       19.960752      77.178845    
     93000   1.0183168      20.449832      77.071162    
     94000   1.0137034      20.160765      77.030099    
     95000   0.98309385     20.381411      76.913255    
     96000   0.99210857     20.182423      76.852664    
     97000   1.0067148      20.425094      76.76677     
     98000   0.99470527     20.452135      76.945264    
     99000   1.0128535      20.468587      77.008314    
    100000   0.95586683     20.45037       76.814293    
Loop time of 181.544 on 2 procs for 100000 steps with 1201 atoms

Performance: 475916.963 tau/day, 550.830 timesteps/s
104.9% CPU use with 1 MPI tasks x 2 OpenMP threads

MPI task timing breakdown:
Section |  min time  |  avg time  |  max time  |%varavg| %total
---------------------------------------------------------------
Pair    | 1.0887     | 1.0887     | 1.0887     |   0.0 |  0.60
Bond    | 1.8144     | 1.8144     | 1.8144     |   0.0 |  1.00
Neigh   | 173.97     | 173.97     | 173.97     |   0.0 | 95.83
Comm    | 0.024366   | 0.024366   | 0.024366   |   0.0 |  0.01
Output  | 0.23829    | 0.23829    | 0.23829    |   0.0 |  0.13
Modify  | 4.1484     | 4.1484     | 4.1484     |   0.0 |  2.29
Other   |            | 0.2604     |            |       |  0.14

Nlocal:           1201 ave        1201 max        1201 min
Histogram: 1 0 0 0 0 0 0 0 0 0
Nghost:              0 ave           0 max           0 min
Histogram: 1 0 0 0 0 0 0 0 0 0
Neighs:           9818 ave        9818 max        9818 min
Histogram: 1 0 0 0 0 0 0 0 0 0

Total # of neighbors = 9818
Ave neighs/atom = 8.1748543
Ave special neighs/atom = 1.9983347
Neighbor list builds = 1203
Dangerous builds = 0

# Replace lj potential, now collapse
pair_style      lj/cut 3

# Cutoff simul when gyration under 10
# Variable created with equal requires v_ + 'name'
fix 3 all halt 1000 v_rog < 7

run 3000000
Generated 0 of 0 mixed pair_coeff terms from geometric mixing rule
Last active /omp style is angle_style cosine/omp
Per MPI rank memory allocation (min/avg/max) = 1862 | 1862 | 1862 Mbytes
   Step          Temp         Enthalpy         c_1      
    100000   0.95586683     19.65205       76.814293    
    101000   1.054109       20.019901      76.573403    
    102000   0.9744075      19.467966      76.497356    
    103000   1.0278628      19.624714      76.299395    
    104000   1.0113798      19.211577      76.177917    
    105000   0.9495413      19.365805      76.084713    
    106000   1.0291266      19.786021      76.00182     
    107000   0.98929512     19.486083      75.738246    
    108000   1.01532        18.981541      75.519031    
    109000   0.98033939     18.836046      75.202621    
    110000   1.0403337      19.357169      75.199821    
    111000   0.97652174     19.072311      74.94162     
    112000   0.99214153     19.032938      74.798507    
    113000   1.0168002      18.888266      74.623148    
    114000   0.99349842     18.834287      74.394296    
    115000   0.96328998     18.935841      74.553672    
    116000   1.0154628      18.803004      74.460029    
    117000   1.0089946      18.873551      74.541808    
    118000   0.99362461     18.912768      74.51976     
    119000   0.99657425     18.6275        74.345545    
    120000   0.97229405     18.73316       74.154473    
    121000   0.99993374     18.236635      74.128982    
    122000   0.98761615     18.600058      73.934472    
    123000   1.0399149      18.976277      73.722078    
    124000   1.0504202      18.70792       73.418724    
    125000   0.99740869     18.129927      73.286337    
    126000   0.98802463     18.319314      73.304693    
    127000   0.99965911     18.214731      73.476044    
    128000   0.98998145     18.281118      73.602988    
    129000   1.0163216      18.622103      73.45385     
    130000   0.99336544     18.260429      73.467587    
    131000   1.0023778      18.356628      73.129414    
    132000   0.9868069      18.208384      73.011959    
    133000   1.0186005      18.496197      73.055906    
    134000   0.98970192     18.118043      72.737139    
    135000   1.0446089      18.405924      72.474456    
    136000   0.97151579     17.996242      72.481449    
    137000   0.97370511     18.421016      72.452406    
    138000   1.0190587      18.55754       72.258914    
    139000   0.97169094     17.898097      72.035824    
    140000   1.0179686      18.290485      71.808353    
    141000   0.9893063      17.938172      71.733517    
    142000   1.0328067      18.3285        71.548011    
    143000   1.0527937      17.895315      71.396125    
    144000   1.0091606      17.723138      71.304334    
    145000   1.0064263      18.11353       71.341272    
    146000   0.99963086     17.834226      71.158854    
    147000   1.0105409      17.93199       71.16211     
    148000   1.011215       17.5354        70.890117    
    149000   0.988008       18.118321      70.866347    
    150000   1.0203108      18.409042      70.846543    
    151000   1.0116004      17.963814      70.732541    
    152000   1.040864       18.176996      70.702632    
    153000   0.97192298     17.5447        70.641443    
    154000   1.0553137      17.668787      70.506083    
    155000   1.0165007      18.319647      70.525373    
    156000   0.99009887     17.773806      70.401259    
    157000   1.0004303      17.737712      70.380407    
    158000   0.99153712     17.707206      70.422397    
    159000   1.0402148      17.843097      70.455986    
    160000   0.98761898     17.969791      70.395125    
    161000   1.0379632      17.838841      70.439722    
    162000   1.0180942      18.653185      70.222863    
    163000   1.0224535      17.608888      69.868291    
    164000   0.99160484     18.27611       69.736898    
    165000   0.98884232     17.887097      69.682716    
    166000   0.97882408     18.312049      69.484735    
    167000   0.99103247     18.060127      69.14356     
    168000   0.99286187     18.02295       68.945936    
    169000   1.0145318      18.217757      68.982065    
    170000   1.041231       17.992504      68.880475    
    171000   0.97729285     18.305655      69.212797    
    172000   0.95377776     17.673616      69.071888    
    173000   1.0422134      18.235884      69.238115    
    174000   0.98012743     17.954119      68.777254    
    175000   1.0267698      18.11214       68.568776    
    176000   1.0190425      18.037934      68.458832    
    177000   0.98417544     18.013624      68.520809    
    178000   0.99927113     17.94503       68.20351     
    179000   1.0036296      17.658808      68.079512    
    180000   1.0036846      17.70937       67.889784    
    181000   0.95744422     17.954799      67.777379    
    182000   1.0086623      17.627008      67.759329    
    183000   0.97303484     17.890438      67.615561    
    184000   0.95872525     17.825931      67.546582    
    185000   1.036887       17.853308      67.632025    
    186000   1.0128869      17.972784      67.521329    
    187000   1.0088249      17.896601      67.256751    
    188000   0.99407866     17.85394       67.211248    
    189000   1.0058957      18.327109      67.009008    
    190000   1.0412023      17.951188      67.07497     
    191000   0.99003027     18.031105      67.049135    
    192000   1.0230931      18.209647      66.984148    
    193000   1.0001098      18.037797      66.826931    
    194000   1.003875       18.097682      66.824352    
    195000   1.0275418      17.429706      66.58344     
    196000   0.98871091     17.637681      66.369172    
    197000   0.98087242     17.613658      66.395189    
    198000   1.0293788      17.369254      66.085261    
    199000   0.99135404     18.112515      66.087081    
    200000   1.0195284      18.711563      66.102306    
    201000   0.98248072     18.170775      66.045616    
    202000   1.0217129      17.493368      66.01787     
    203000   0.98088667     17.682836      65.9349      
    204000   0.98950074     18.257992      65.833909    
    205000   0.95466687     17.438878      65.820776    
    206000   0.99689456     17.982837      65.73271     
    207000   1.0193585      17.79667       65.69913     
    208000   1.026454       18.076997      65.581442    
    209000   1.0142153      18.210214      65.424645    
    210000   1.0008241      17.591855      65.384368    
    211000   1.0095396      17.506704      65.290106    
    212000   0.97915421     17.632416      65.309988    
    213000   0.99400453     17.62563       65.488091    
    214000   0.98718284     18.268895      65.450078    
    215000   1.0083824      18.190341      65.402049    
    216000   1.0195356      18.206588      65.27649     
    217000   0.99949797     17.983136      65.067271    
    218000   0.9702565      17.744002      65.027709    
    219000   0.9977809      18.259688      65.021046    
    220000   1.056048       18.021348      65.08564     
    221000   1.0002666      17.972764      65.026488    
    222000   1.009293       17.917784      64.728585    
    223000   0.97140589     17.769826      64.549918    
    224000   1.0007661      17.597319      64.60716     
    225000   0.9733132      18.214779      64.606362    
    226000   1.0011753      17.992437      64.744656    
    227000   0.98229177     17.827982      64.667532    
    228000   0.9975297      17.647701      64.457867    
    229000   0.9719819      17.843248      64.35205     
    230000   0.99632337     18.0048        64.161708    
    231000   1.0405459      18.147904      64.026423    
    232000   0.97684766     17.829814      64.179575    
    233000   0.97684607     17.909507      64.119837    
    234000   0.99512695     17.697685      64.107421    
    235000   1.0116694      18.006956      64.040812    
    236000   1.0029562      17.519592      64.1332      
    237000   0.97622024     18.082263      64.045072    
    238000   1.0014974      17.592499      63.773924    
    239000   1.0030923      17.842387      63.669057    
    240000   0.95098053     17.926339      63.54137     
    241000   0.95836654     18.239077      63.403266    
    242000   1.0100795      18.36525       63.300831    
    243000   0.97148794     18.057838      63.092012    
    244000   0.95788478     18.433007      63.167644    
    245000   1.0287961      17.569337      63.042294    
    246000   0.97777587     18.064477      62.802566    
    247000   0.99429452     17.310889      62.766645    
    248000   1.029741       18.062326      62.774308    
    249000   0.99729687     17.779767      62.814794    
    250000   1.0350479      18.111262      62.561639    
    251000   0.9833999      18.324857      62.406368    
    252000   1.015592       18.111841      62.425912    
    253000   0.98531393     17.264821      62.344348    
    254000   1.0361259      17.769039      62.207584    
    255000   0.96044537     17.478649      62.224095    
    256000   0.98478801     17.715904      62.260415    
    257000   0.96497437     17.547815      62.231254    
    258000   1.0205208      17.452971      61.974522    
    259000   0.93822302     17.934388      61.892125    
    260000   0.99613364     17.848842      61.683376    
    261000   0.92585583     17.824127      61.541306    
    262000   1.0010824      17.872022      61.423301    
    263000   1.0153131      17.997032      61.157651    
    264000   0.99263684     18.474522      60.950775    
    265000   0.98473192     18.11831       60.744806    
    266000   0.98018439     17.878318      60.693076    
    267000   1.0133689      18.220353      60.74612     
    268000   0.96297031     17.962896      60.689031    
    269000   1.0075368      17.909909      60.454552    
    270000   1.0078658      17.898906      60.352711    
    271000   0.99370296     17.867077      60.285224    
    272000   1.0006871      17.458875      60.043918    
    273000   1.0063372      17.895761      59.849819    
    274000   0.98284027     18.21508       59.730544    
    275000   1.0508212      18.037912      59.5548      
    276000   1.0017474      18.006753      59.495395    
    277000   1.022625       17.746603      59.520504    
    278000   0.94610757     18.090966      59.275717    
    279000   1.0126807      17.75638       59.179235    
    280000   0.99138344     17.340179      58.953994    
    281000   1.0177147      17.984189      58.545434    
    282000   1.0156735      17.683273      58.883206    
    283000   1.0143937      17.998547      58.698141    
    284000   0.97301144     17.822138      58.52243     
    285000   0.98895565     17.569332      58.226776    
    286000   1.0028774      17.927652      57.982054    
    287000   1.0004694      18.030612      57.712007    
    288000   0.97975331     18.051551      57.714063    
    289000   0.97035529     17.205417      57.900274    
    290000   1.0253502      17.790159      57.690955    
    291000   1.0215839      18.12287       57.862748    
    292000   1.0277715      17.336989      57.863841    
    293000   0.95796727     17.779917      57.883591    
    294000   0.99485952     18.275588      57.650764    
    295000   1.000138       17.538052      57.34775     
    296000   0.99416997     17.83402       57.079352    
    297000   0.98113744     18.326322      57.000671    
    298000   0.99844883     17.562492      56.878318    
    299000   0.9805141      17.573955      56.806171    
    300000   1.0154338      18.265526      56.719287    
    301000   1.0373108      17.631286      56.689689    
    302000   0.97182739     17.953108      56.595531    
    303000   0.94867445     17.727413      56.464948    
    304000   1.0091432      18.252309      56.201422    
    305000   0.99852904     17.771757      56.176576    
    306000   1.0120477      18.309024      56.027555    
    307000   1.005941       18.229031      56.086109    
    308000   1.0148919      17.789935      55.84128     
    309000   1.0036581      17.776248      55.784594    
    310000   0.96423077     17.907266      55.797716    
    311000   1.0359227      18.047588      55.866503    
    312000   0.98213883     17.964692      55.882961    
    313000   1.00403        18.023413      55.854305    
    314000   0.99052844     17.77955       55.663077    
    315000   1.0042485      18.105728      55.386587    
    316000   1.0214466      18.007432      55.336872    
    317000   1.0012946      17.905901      55.030879    
    318000   1.0116745      17.519979      54.811486    
    319000   0.94965887     17.359787      54.747233    
    320000   1.0254791      17.405383      54.743221    
    321000   0.99855044     18.431877      54.770272    
    322000   0.99058726     18.259031      54.539046    
    323000   0.96547139     18.23712       54.375469    
    324000   0.99153069     17.596484      54.230582    
    325000   0.98904658     18.318867      54.100704    
    326000   1.0022048      17.477906      53.94344     
    327000   1.035908       18.297122      53.861336    
    328000   0.96306058     17.533557      53.913159    
    329000   1.0179431      18.118046      53.902009    
    330000   1.0085111      17.587164      53.714636    
    331000   0.99023989     17.870051      53.699095    
    332000   0.99217355     18.050296      53.566536    
    333000   1.0062458      18.078295      53.361387    
    334000   0.9870858      17.655496      53.297732    
    335000   1.003006       18.276638      53.289175    
    336000   0.97167304     17.790861      53.340504    
    337000   1.0093698      17.793387      53.447255    
    338000   1.0118687      18.378471      53.340167    
    339000   1.0543092      17.796903      53.387654    
    340000   1.0449262      18.269079      53.212536    
    341000   1.0036495      18.009197      53.0352      
    342000   0.9894529      17.276913      52.987056    
    343000   0.97855929     17.505946      52.714341    
    344000   0.9789825      17.939573      52.719823    
    345000   0.95879924     17.96115       52.6992      
    346000   0.98518857     17.739082      52.424391    
    347000   1.0211023      17.239635      52.268155    
    348000   0.97896507     17.632913      51.97583     
    349000   0.98300901     17.205767      51.857161    
    350000   0.98859705     18.049513      51.839357    
    351000   0.99529507     18.100379      51.85104     
    352000   1.0051696      17.525246      51.934922    
    353000   1.0114731      17.703723      51.870865    
    354000   0.98509601     18.043969      51.896057    
    355000   0.98093537     17.380302      51.718244    
    356000   0.99412289     17.795929      51.650235    
    357000   1.027433       18.609967      51.695961    
    358000   0.9914175      17.798419      51.569699    
    359000   1.0126472      17.626675      51.502432    
    360000   0.98833587     17.770187      51.473166    
    361000   0.99354907     17.098271      51.146702    
    362000   1.0006524      17.692405      51.101576    
    363000   0.99989682     17.352126      51.065187    
    364000   1.0439977      17.762253      50.73602     
    365000   0.99985102     17.949296      50.763584    
    366000   0.98441556     17.558412      50.899608    
    367000   0.96713291     17.680595      50.746662    
    368000   0.98341426     18.014368      50.607365    
    369000   0.96866881     17.435143      50.421071    
    370000   1.0128778      17.198108      50.471573    
    371000   1.030637       17.708397      50.407205    
    372000   0.97373983     17.649364      50.276377    
    373000   0.99898687     17.562297      50.253372    
    374000   0.98451929     17.731563      50.164508    
    375000   1.0081823      17.927991      49.951672    
    376000   0.99939235     18.236734      49.851517    
    377000   0.99727362     17.484512      49.951371    
    378000   1.0302938      17.921608      50.013472    
    379000   0.98335015     17.582352      50.052259    
    380000   1.0285596      17.858102      50.086458    
    381000   1.0034754      17.557507      50.216096    
    382000   1.0118642      18.379415      50.135397    
    383000   0.99821607     17.979876      50.142132    
    384000   0.98855884     17.987397      49.885391    
    385000   0.98864142     17.399462      49.875649    
    386000   1.0217618      17.56069       49.958445    
    387000   1.0672774      17.963637      50.087391    
    388000   0.99853759     17.593566      50.05709     
    389000   0.99438036     17.794505      49.880822    
    390000   1.0364298      17.682566      49.833601    
    391000   1.0209377      17.939133      50.001584    
    392000   1.008105       17.835584      50.122644    
    393000   1.0148459      17.556287      49.937919    
    394000   1.0127589      17.496291      49.988566    
    395000   1.0166641      17.625397      49.947698    
    396000   1.0259231      17.659147      49.723468    
    397000   0.97657657     17.409609      49.55653     
    398000   1.027533       17.483066      49.467646    
    399000   1.0126006      17.470789      49.725725    
    400000   0.9710067      17.212187      49.72873     
    401000   1.0059186      17.274926      49.74241     
    402000   1.003675       17.321503      49.597205    
    403000   1.006997       17.491899      49.559276    
    404000   0.99011203     17.686185      49.448459    
    405000   0.99434173     17.69403       49.435135    
    406000   1.008244       17.8363        49.381044    
    407000   1.0183076      17.497934      49.298488    
    408000   1.0122016      17.858526      48.943186    
    409000   0.96346819     18.217402      48.843382    
    410000   0.95530067     17.543668      48.80749     
    411000   1.0340645      17.874003      48.485164    
    412000   1.038761       18.083428      48.341885    
    413000   1.0368788      17.723051      48.054491    
    414000   1.0066012      17.582112      48.203168    
    415000   1.0270158      18.082268      48.080067    
    416000   1.0147639      18.047803      48.064936    
    417000   0.9654147      17.679032      47.925518    
    418000   0.97377342     17.797546      47.791963    
    419000   0.99280043     17.496642      47.609867    
    420000   1.0191831      17.801715      47.349222    
    421000   1.029654       17.130239      47.291635    
    422000   0.97886047     17.102386      47.231744    
    423000   0.99784541     17.846892      47.01323     
    424000   1.0503298      17.876631      47.053897    
    425000   0.98428618     17.204004      47.024932    
    426000   0.99990195     17.269561      47.093427    
    427000   1.0262301      17.355777      46.9635      
    428000   0.96823003     17.025352      47.032691    
    429000   0.97499546     17.749131      46.926432    
    430000   0.99359241     17.519145      46.788149    
    431000   1.0189656      17.640407      46.896471    
    432000   0.98866051     17.35191       46.812492    
    433000   0.98633476     17.515689      46.765005    
    434000   0.9987914      17.520499      46.804586    
    435000   0.98622377     17.885639      46.555044    
    436000   1.0237544      17.820563      46.548499    
    437000   0.99478767     17.6472        46.396532    
    438000   1.0001186      17.911786      46.133812    
    439000   0.99992638     17.011093      45.928555    
    440000   1.0373581      17.909893      46.047304    
    441000   1.0083329      17.30458       45.973227    
    442000   1.0236029      17.640762      46.079861    
    443000   0.9951795      17.786115      46.028905    
    444000   1.0102355      18.175035      45.916752    
    445000   1.0249559      17.187361      45.853694    
    446000   0.97269729     17.167531      45.699152    
    447000   0.99878006     17.69421       45.619527    
    448000   0.99625978     17.832205      45.849915    
    449000   1.0082547      18.080064      45.764442    
    450000   0.97004229     17.469526      45.644594    
    451000   0.99440751     17.796698      45.641023    
    452000   0.9886189      17.566215      45.666224    
    453000   0.97697465     17.675346      45.642044    
    454000   1.004259       17.982715      45.594083    
    455000   0.99329625     17.75221       45.684202    
    456000   0.96869298     17.140702      45.810067    
    457000   1.0004326      17.622922      45.842905    
    458000   1.0157438      17.144696      45.702637    
    459000   1.0465753      17.07087       45.526082    
    460000   1.0078563      17.205708      45.440589    
    461000   0.97152013     17.787509      45.265078    
    462000   1.0009193      17.203983      45.18228     
    463000   1.0432762      17.408959      45.32142     
    464000   0.99013443     17.249838      45.388366    
    465000   1.0218015      17.423848      45.374781    
    466000   0.9826734      17.458004      45.199237    
    467000   0.99004483     17.256328      45.186778    
    468000   1.0597585      17.822661      45.221475    
    469000   0.95936605     17.515524      45.083682    
    470000   0.96502254     17.501924      45.039681    
    471000   1.0034739      17.277356      45.114699    
    472000   0.98384407     17.436477      45.04833     
    473000   1.0091677      17.140757      44.926364    
    474000   1.0457476      16.855324      45.025057    
    475000   1.05506        17.214219      44.649373    
    476000   0.99438112     17.445424      44.607441    
    477000   1.0439883      17.424045      44.657964    
    478000   1.0454961      17.595337      44.59551     
    479000   1.0118191      17.400711      44.678895    
    480000   0.97234594     17.637932      44.65547     
    481000   0.94363917     16.812381      44.592885    
    482000   0.9787896      16.937837      44.537803    
    483000   1.0088842      18.249806      44.46347     
    484000   0.99086009     17.136674      44.642386    
    485000   0.9898467      17.443141      44.654894    
    486000   0.98537668     17.463288      44.462714    
    487000   1.021788       17.519456      44.505282    
    488000   0.99562586     17.607616      44.490307    
    489000   1.0199296      17.184748      44.48472     
    490000   1.0028679      17.23129       44.724302    
    491000   1.0364656      17.197852      44.566493    
    492000   1.0280306      17.720809      44.467134    
    493000   1.0168781      17.625357      44.303892    
    494000   0.98631908     17.350864      44.174902    
    495000   0.99897608     17.156571      44.13055     
    496000   1.0056045      16.944237      44.080516    
    497000   0.96924915     17.371647      44.040058    
    498000   1.0241948      17.542146      43.763747    
    499000   1.0185734      17.297499      43.708709    
    500000   0.98092031     17.180824      43.69468     
    501000   1.0326547      17.502639      43.508452    
    502000   0.97629261     17.180508      43.383862    
    503000   1.0296563      17.184266      43.103868    
    504000   1.0065354      17.359708      42.860471    
    505000   0.98631803     17.471956      42.597992    
    506000   0.99948513     16.95418       42.45861     
    507000   0.99808075     17.236386      42.414519    
    508000   1.0212462      16.764429      42.350947    
    509000   0.99009185     17.260506      42.276025    
    510000   1.0131882      17.456552      42.294259    
    511000   1.0172451      17.767351      42.203435    
    512000   1.0423429      17.676513      42.019484    
    513000   0.96255991     17.267188      41.967829    
    514000   1.0114599      17.250877      41.997902    
    515000   0.9750029      17.504603      41.995075    
    516000   0.97801567     17.725975      42.016681    
    517000   1.0430431      17.708642      41.828827    
    518000   0.98183693     17.627077      41.633301    
    519000   0.99996894     17.359376      41.359712    
    520000   0.97932724     17.454918      41.25        
    521000   0.94116848     17.549394      41.292301    
    522000   0.96927528     17.072116      40.866192    
    523000   0.94988807     17.774093      40.48977     
    524000   0.9663743      17.318373      40.549986    
    525000   0.93840112     17.611458      40.846297    
    526000   0.98941977     17.251885      40.9072      
    527000   1.0213513      17.284034      40.832176    
    528000   1.0043716      17.402223      40.888104    
    529000   0.96472481     17.557117      40.729435    
    530000   1.0154183      17.347185      40.777768    
    531000   0.99962493     17.026862      40.725676    
    532000   0.97779158     17.110526      40.747755    
    533000   1.0114048      16.918376      40.826408    
    534000   0.94529317     17.354729      40.797551    
    535000   0.9850577      17.880468      40.713217    
    536000   1.0256166      17.451974      40.690188    
    537000   0.93191167     16.812594      40.573053    
    538000   1.0132883      17.873968      40.802676    
    539000   0.98149509     17.295781      40.769213    
    540000   1.0034274      17.300606      40.323781    
    541000   1.0283159      17.915014      40.282363    
    542000   0.99837726     17.334223      40.15217     
    543000   0.99578231     17.276189      40.164139    
    544000   0.98400579     17.667818      40.127856    
    545000   0.95427554     17.301834      40.196014    
    546000   1.0047396      17.163402      39.982348    
    547000   0.97418987     17.553009      40.12624     
    548000   0.99000093     16.952095      40.206509    
    549000   1.0059038      17.694794      40.162911    
    550000   1.0035318      17.400919      40.112895    
    551000   1.0199802      18.137632      40.064403    
    552000   1.0241029      17.777852      39.985518    
    553000   0.98265813     17.691475      39.815345    
    554000   1.0082213      16.935356      39.971783    
    555000   1.0462178      17.373773      39.866811    
    556000   1.0035309      17.431899      39.705858    
    557000   1.0064085      17.293973      39.921924    
    558000   0.98480347     17.220181      39.831424    
    559000   0.99965713     17.424587      39.686464    
    560000   0.99528827     17.551864      39.578671    
    561000   1.0095899      17.137657      39.46334     
    562000   0.97925289     17.821808      39.325558    
    563000   0.9952028      17.491104      39.210382    
    564000   1.0298653      17.119941      39.204363    
    565000   0.98352918     17.634392      39.159913    
    566000   1.0305911      17.724488      39.071325    
    567000   1.0033862      17.171704      39.028287    
    568000   0.9879744      17.244827      38.745045    
    569000   1.0279185      17.614787      38.622438    
    570000   1.0098148      16.758229      38.46358     
    571000   1.0159584      17.699837      38.3962      
    572000   0.97545687     17.318955      38.092778    
    573000   0.95434575     17.042976      37.952303    
    574000   1.0230771      17.254672      37.699392    
    575000   0.96496419     17.272287      37.883553    
    576000   1.0087627      17.285852      37.650166    
    577000   0.96390446     16.969901      37.436947    
    578000   0.99924328     17.151168      37.46724     
    579000   1.0165073      17.454756      37.343488    
    580000   0.9696085      17.156164      37.422732    
    581000   1.0399202      17.222623      37.267838    
    582000   1.0078332      17.334367      37.428698    
    583000   0.97440358     17.533956      37.449535    
    584000   0.96844893     16.950395      37.452825    
    585000   1.0441246      17.336329      37.402386    
    586000   0.99668613     17.320864      37.309563    
    587000   1.0105061      17.136594      37.276047    
    588000   1.0318803      17.27736       37.316245    
    589000   1.0024299      17.660251      37.445394    
    590000   1.0503611      17.012952      37.231061    
    591000   1.0543327      17.409833      37.007665    
    592000   1.0181366      17.72949       36.989067    
    593000   1.0195951      16.860896      37.04437     
    594000   0.99787672     16.636734      36.684533    
    595000   1.0215763      17.707381      36.447635    
    596000   0.99412918     16.845397      36.501703    
    597000   1.0063276      17.523984      36.655571    
    598000   1.0308677      17.408207      36.733966    
    599000   1.0151976      17.571863      36.705263    
    600000   0.99907273     17.102324      36.551117    
    601000   1.049862       18.319286      36.609925    
    602000   1.005346       17.540996      36.603665    
    603000   1.0016089      17.323281      36.514826    
    604000   0.96596858     18.035243      36.493428    
    605000   1.0088327      17.413957      36.574846    
    606000   1.0273335      17.637195      36.599137    
    607000   1.0143275      17.240851      36.472676    
    608000   0.99576045     17.294221      36.592221    
    609000   0.99381944     17.456074      36.564633    
    610000   0.99913774     17.399176      36.518104    
    611000   0.99232885     17.825928      36.599419    
    612000   0.95086778     17.391996      36.459866    
    613000   0.97281489     17.518758      36.32412     
    614000   1.0204665      17.483401      36.169386    
    615000   0.9758346      17.156112      35.901261    
    616000   1.0278173      17.475255      35.943969    
    617000   0.97895498     17.096821      35.867756    
    618000   0.99537003     17.563134      35.871738    
    619000   0.99147463     16.807216      35.699044    
    620000   1.0154402      17.036346      35.376176    
    621000   1.029007       17.418277      35.243696    
    622000   1.0044462      17.552371      35.310349    
    623000   0.97401002     17.162228      35.144203    
    624000   1.0314281      17.395101      35.071402    
    625000   1.0047832      17.398087      34.931233    
    626000   1.0113003      17.531834      34.810416    
    627000   0.9332573      17.848264      34.793728    
    628000   1.0030652      17.126457      34.867474    
    629000   1.008001       17.275629      34.721099    
    630000   0.97662099     16.950604      34.449707    
    631000   0.96625756     17.369896      34.26227     
    632000   1.0425571      17.466942      34.091695    
    633000   1.0147796      17.505329      34.230311    
    634000   0.97824765     17.289999      34.012583    
    635000   0.99459187     16.795675      33.728883    
    636000   0.99710869     17.468972      33.413731    
    637000   0.98240828     17.501981      33.383203    
    638000   0.99481912     17.352683      33.492385    
    639000   1.0242994      17.680003      33.59799     
    640000   0.99819765     17.286141      33.543287    
    641000   0.99176214     17.340129      33.516451    
    642000   1.0156967      17.190984      33.41174     
    643000   1.0327142      17.763779      33.191488    
    644000   0.97449977     17.421899      32.82127     
    645000   1.0097691      17.893811      32.790551    
    646000   1.0145369      17.370683      32.651069    
    647000   1.0361967      17.305697      32.71916     
    648000   1.0390505      17.560633      32.531273    
    649000   1.028508       17.126539      32.360178    
    650000   1.0309719      17.525888      32.109124    
    651000   1.0077         17.84637       32.289193    
    652000   1.0085438      17.404823      32.177408    
    653000   1.0156273      17.117942      32.257246    
    654000   1.043016       17.617562      32.057434    
    655000   0.94577083     17.385145      31.750383    
    656000   1.0267543      18.081476      31.814494    
    657000   1.001166       17.543002      31.794305    
    658000   0.99429238     17.681809      31.724223    
    659000   0.97797816     16.768544      31.748812    
    660000   0.98824757     16.954109      31.630265    
    661000   1.0196221      17.468491      31.571063    
    662000   0.98906055     17.03691       31.508451    
    663000   1.0437379      16.938933      31.465425    
    664000   1.0078377      17.453845      31.253531    
    665000   0.98520469     16.986095      31.161768    
    666000   0.96442692     17.03802       30.947923    
    667000   1.0127467      18.159199      30.979809    
    668000   0.99148769     17.361991      30.682441    
    669000   1.0013002      17.44082       30.719221    
    670000   0.99769378     17.491806      30.49718     
    671000   1.0012452      17.485458      30.282713    
    672000   0.99049556     16.639333      30.303367    
    673000   1.0010437      17.440313      30.091101    
    674000   1.0071349      17.237361      29.978771    
    675000   1.0421877      17.293598      29.915311    
    676000   0.99392075     17.650646      29.796821    
    677000   0.99073183     17.148455      29.78435     
    678000   1.0292531      17.166461      29.618329    
    679000   1.0169605      17.791663      29.500715    
    680000   0.98455473     17.588295      29.626264    
    681000   0.99488367     17.721084      29.786676    
    682000   1.0055532      17.254058      29.538232    
    683000   0.99878848     17.212382      29.559932    
    684000   1.0016671      17.236316      29.531124    
    685000   1.0178208      17.548147      29.698851    
    686000   0.99161811     17.566428      29.674834    
    687000   1.0070992      17.758202      29.478305    
    688000   1.0093915      17.30458       29.494645    
    689000   1.0196464      17.178656      29.446095    
    690000   1.0063611      17.56659       29.313925    
    691000   0.98223151     17.87734       29.096286    
    692000   0.96806668     16.892742      29.01985     
    693000   1.0237331      17.419337      29.121047    
    694000   1.0050822      16.635227      29.146459    
    695000   0.9865914      17.397762      28.926376    
    696000   0.99695987     17.576646      28.824644    
    697000   0.98166529     17.605979      28.862563    
    698000   1.0049813      17.107967      28.573695    
    699000   1.0110091      17.584118      28.435931    
    700000   0.99106723     16.8775        28.21802     
    701000   0.96828278     17.342729      28.063579    
    702000   0.99343594     17.702266      28.04334     
    703000   1.0094214      18.094606      28.071022    
    704000   0.98885618     16.842328      27.94419     
    705000   0.96806378     17.013984      27.689078    
    706000   1.0694352      17.336796      27.633772    
    707000   1.0392607      17.727072      27.641372    
    708000   0.98664667     17.248308      27.551241    
    709000   0.99026128     17.356168      27.622246    
    710000   0.98929426     17.030197      27.506404    
    711000   0.99248473     17.353101      27.379012    
    712000   0.97978623     17.057068      27.18923     
    713000   0.96280518     17.090602      27.257104    
    714000   0.98760289     17.416492      27.094436    
    715000   1.0129946      17.755687      27.067828    
    716000   1.0083436      17.567647      27.093198    
    717000   0.9920166      17.38578       26.917716    
    718000   0.98022769     17.668479      26.859732    
    719000   1.039974       17.573582      26.800268    
    720000   1.0285614      16.760292      26.464821    
    721000   0.99670019     17.134351      26.618247    
    722000   0.9853586      17.487295      26.533926    
    723000   0.9888986      17.542442      26.423909    
    724000   0.96858196     16.644713      26.335182    
    725000   1.0009328      17.164474      26.292252    
    726000   1.0470848      17.13619       26.442202    
    727000   0.98161161     17.471309      26.396626    
    728000   0.97413685     17.197932      26.27107     
    729000   1.0224341      17.457929      25.9295      
    730000   1.0258537      17.371725      25.806565    
    731000   0.98570999     17.620636      25.700505    
    732000   1.0132425      17.667653      25.706707    
    733000   1.0054155      17.432293      25.581814    
    734000   1.0244865      17.194141      25.61152     
    735000   1.0187492      17.616797      25.418298    
    736000   0.99765239     17.129282      25.339866    
    737000   1.0109409      17.012701      25.436842    
    738000   0.99493014     17.238041      25.446985    
    739000   1.0178667      17.317188      25.399578    
    740000   1.0124944      16.961048      25.316099    
    741000   1.000028       16.908343      25.425299    
    742000   0.96937284     16.928439      25.217877    
    743000   1.0100117      17.335483      25.167384    
    744000   1.0293441      17.252904      25.263124    
    745000   0.96026063     17.153317      25.285512    
    746000   0.96446928     17.454191      25.393882    
    747000   0.99432901     17.241821      25.424284    
    748000   0.99581393     17.329844      25.362368    
    749000   0.99052984     16.581001      25.328212    
    750000   1.0152753      17.285877      25.289918    
    751000   0.98533805     17.251875      25.250096    
    752000   0.9705581      17.688942      25.161847    
    753000   1.0139819      17.404274      25.021823    
    754000   1.0036159      17.26019       24.976029    
    755000   1.0155328      17.523195      24.898568    
    756000   0.9864465      17.506155      24.942934    
    757000   1.0428948      17.240229      24.720223    
    758000   0.98004644     17.1121        24.448532    
    759000   1.0123187      17.386108      24.346555    
    760000   0.97651248     17.426436      24.242653    
    761000   0.9964136      17.665258      24.09734     
    762000   1.0278761      17.285531      23.846537    
    763000   1.022729       16.991612      23.736756    
    764000   0.99878868     17.451176      23.308016    
    765000   0.98190271     17.765957      23.275196    
    766000   1.0016922      17.149978      23.068703    
    767000   1.0485015      17.595091      22.861414    
    768000   1.0068828      17.392183      22.847908    
    769000   0.98866842     17.175227      22.883307    
    770000   0.97642377     17.335836      22.897507    
    771000   0.99792891     16.853356      22.959711    
    772000   1.0174123      17.449383      23.053912    
    773000   0.97176716     17.371408      23.089801    
    774000   1.0021104      17.580463      22.824268    
    775000   1.0169251      16.952156      22.695519    
    776000   1.024535       17.889121      22.551182    
    777000   0.99791078     17.504485      22.484549    
    778000   1.0276349      18.012937      22.431794    
    779000   0.99549963     17.429553      22.38568     
    780000   0.99780234     17.487355      22.232607    
    781000   1.0283344      17.470441      22.271835    
    782000   1.0296851      17.190803      22.262271    
    783000   0.9932749      16.836058      22.197645    
    784000   1.019158       16.747803      21.900264    
    785000   0.99439959     16.828003      21.791676    
    786000   1.0132211      17.604901      21.93858     
    787000   1.0224214      17.291877      21.944053    
    788000   0.99504346     17.534613      21.880598    
    789000   0.99490878     17.100322      21.73767     
    790000   1.0123652      17.005279      21.738013    
    791000   0.9922034      17.256142      21.497216    
    792000   1.0006406      17.283094      21.487755    
    793000   0.9958429      17.627472      21.632517    
    794000   1.0295547      16.920559      21.533152    
    795000   0.98459484     16.611115      21.394844    
    796000   1.007738       17.458608      21.418014    
    797000   1.0070593      17.755566      21.301714    
    798000   1.0005449      17.699977      21.257914    
    799000   0.98982729     17.275365      21.219439    
    800000   0.99979136     17.082717      21.0896      
    801000   0.97805415     17.169894      21.119771    
    802000   0.99320152     17.412704      21.058349    
    803000   0.94377718     17.343496      21.04056     
    804000   1.0147568      17.672646      21.033747    
    805000   0.98985854     17.024323      20.832491    
    806000   0.98438817     17.31292       20.748252    
    807000   1.0024883      17.497939      20.760729    
    808000   1.0025376      16.84295       20.77573     
    809000   1.0043984      17.165791      20.572484    
    810000   1.0021539      17.197114      20.374415    
    811000   0.98053426     17.131792      20.392402    
    812000   0.97766026     16.635901      20.408152    
    813000   1.0306062      17.201416      20.568164    
    814000   0.99907711     17.004814      20.354198    
    815000   1.0111723      17.211668      20.467083    
    816000   1.0191608      16.947616      20.45382     
    817000   0.9556805      16.907065      20.290445    
    818000   1.0266399      17.231277      20.176493    
    819000   0.96886246     17.339484      19.995152    
    820000   1.0176156      17.752575      20.031962    
    821000   0.9878058      17.212695      20.111083    
    822000   0.955619       16.737286      20.15455     
    823000   1.0063999      17.161113      20.312637    
    824000   1.0307137      17.368521      20.33781     
    825000   0.97327862     17.236127      20.293876    
    826000   0.97646317     16.980074      20.239375    
    827000   0.96198436     17.167758      20.090231    
    828000   1.0179124      17.143341      20.120543    
    829000   0.98892347     17.582065      20.110917    
    830000   1.0442468      17.632797      20.051431    
    831000   1.0053927      16.714228      20.178033    
    832000   0.97715347     17.182418      19.854838    
    833000   1.0491429      16.982286      19.91988     
    834000   0.99581732     17.322725      19.917592    
    835000   1.0343847      17.626661      19.761863    
    836000   1.017344       17.405409      19.680258    
    837000   1.0524284      17.374533      19.704169    
    838000   0.98587103     17.492717      19.449568    
    839000   0.99040282     17.148588      19.648409    
    840000   0.97455087     17.308636      19.409543    
    841000   0.97466728     17.150009      19.249011    
    842000   0.9840927      17.778114      19.205709    
    843000   0.9841993      17.360159      19.064632    
    844000   1.0199536      17.580804      19.000034    
    845000   0.99179117     17.479024      18.829476    
    846000   0.95998277     17.000285      18.679857    
    847000   1.004442       17.131158      18.76601     
    848000   0.9567374      16.816877      18.826477    
    849000   1.0009894      17.30298       18.644122    
    850000   0.96798844     17.129384      18.621327    
    851000   1.0237552      17.354554      18.384045    
    852000   0.99496803     16.812779      18.358254    
    853000   0.96967077     17.420677      18.319765    
    854000   1.0055927      17.352136      18.188154    
    855000   1.0339985      17.535941      18.251929    
    856000   0.97092382     17.4223        17.88831     
    857000   0.97702548     17.150951      18.046214    
    858000   0.99042117     17.255202      18.257688    
    859000   1.0019738      17.271652      18.182498    
    860000   0.99924113     16.977388      17.854796    
    861000   1.0145255      17.402978      17.616228    
    862000   1.0257958      17.428642      17.50087     
    863000   1.0147632      16.943148      17.178162    
    864000   0.96205418     17.364184      17.169843    
    865000   1.0286033      17.22853       17.285108    
    866000   1.0303451      17.852281      17.253131    
    867000   0.98492067     17.155993      17.112032    
    868000   0.97470679     17.324133      16.951898    
    869000   1.0160574      17.069171      16.877326    
    870000   0.96883858     16.991314      16.745373    
    871000   1.0171112      17.553519      16.726807    
    872000   1.002756       16.915473      16.195552    
    873000   0.96000183     17.220198      15.792568    
    874000   1.0311101      16.466273      15.620087    
    875000   1.0020389      16.977833      15.436454    
    876000   1.0046389      17.612485      15.552409    
    877000   0.99310155     17.277711      15.401345    
    878000   0.98951574     17.032189      15.16576     
    879000   1.038638       17.439538      15.000708    
    880000   1.0065946      17.347494      15.010743    
    881000   1.0088991      17.331405      14.909284    
    882000   1.002124       17.341714      14.964946    
    883000   0.99655973     17.215232      14.83229     
    884000   0.95304274     16.716387      14.665552    
    885000   1.0081171      17.31897       14.476646    
    886000   0.96770712     17.523907      14.43898     
    887000   0.98884354     17.190573      14.265233    
    888000   0.97450175     17.137507      14.210276    
    889000   1.0178302      16.972699      14.269806    
    890000   0.99650113     17.071893      14.114267    
    891000   0.9856747      17.228723      13.878422    
    892000   1.006686       17.25715       13.67067     
    893000   1.002113       16.969226      13.661453    
    894000   1.0097942      17.314874      13.579323    
    895000   0.96210471     17.144931      13.497396    
    896000   0.96759065     17.288326      13.450143    
    897000   1.028517       17.590987      13.534277    
    898000   1.0077993      17.173116      13.514538    
    899000   1.0122418      17.290116      13.49116     
    900000   0.98880969     17.201632      13.338493    
    901000   1.0528282      17.917194      13.24475     
    902000   0.97371115     17.785226      13.171394    
    903000   1.0264944      17.178092      12.939545    
    904000   0.96463715     17.567197      12.757181    
    905000   1.0579835      17.248548      12.610468    
    906000   1.0065559      17.427695      12.618406    
    907000   0.97118208     17.175964      12.480557    
    908000   0.98629619     16.75355       12.333006    
    909000   0.98269263     16.380797      12.270273    
    910000   1.0402756      17.763695      12.143097    
    911000   1.0148122      17.521551      12.268233    
    912000   0.99350822     17.136403      12.21303     
    913000   0.96456802     16.937963      11.991847    
    914000   0.96835562     17.033273      11.913437    
    915000   0.93788644     17.481624      11.771976    
    916000   0.99683724     17.224728      11.688312    
    917000   0.97954505     17.256411      11.801988    
    918000   0.97959166     17.232991      11.64294     
    919000   1.0046277      16.994755      11.669204    
    920000   1.0027827      16.717459      11.430262    
    921000   1.0029384      17.297251      11.386401    
    922000   1.0014762      17.313019      11.044482    
    923000   1.0232811      17.633681      10.852513    
    924000   1.0060193      17.226292      10.635756    
    925000   1.0001008      17.027667      10.602591    
    926000   0.96677556     17.650527      10.646482    
    927000   0.97190215     17.454056      10.771987    
    928000   1.0087866      17.155043      10.829342    
    929000   0.998757       17.227023      10.688256    
    930000   0.98341521     17.290576      10.720527    
    931000   1.0376864      16.825995      10.792972    
    932000   1.0296023      16.804307      10.883394    
    933000   1.0205906      16.451498      11.014031    
    934000   1.0131188      16.956137      10.98031     
    935000   0.96774711     16.846059      11.046759    
    936000   0.99532887     17.615632      10.995219    
    937000   1.0333689      17.267726      10.960368    
    938000   1.0238319      17.408842      10.929       
    939000   1.0200786      16.731591      11.043488    
    940000   1.042866       17.113603      11.112396    
    941000   1.0008888      17.056692      10.969378    
    942000   1.0037846      17.17123       10.767018    
    943000   0.98492942     17.454735      10.668377    
    944000   0.98154497     16.899635      10.634017    
    945000   1.0082858      17.071609      10.574393    
    946000   1.0057083      16.659145      10.573665    
    947000   1.0019513      17.216253      10.642893    
    948000   0.9599635      17.330343      10.557095    
    949000   0.96412545     17.147556      10.534343    
    950000   1.0100775      17.208214      10.542069    
    951000   0.98869783     17.409441      10.467239    
    952000   0.97021896     17.315489      10.466198    
    953000   0.9972052      17.061323      10.264226    
    954000   1.0206462      16.586705      10.02099     
    955000   1.0300556      16.757048      10.236801    
    956000   1.0329911      17.119159      10.152715    
    957000   0.9756341      17.124374      9.9502453    
    958000   1.0116999      16.512433      9.8652071    
    959000   0.98782125     17.170816      9.9132946    
    960000   1.0207367      16.411281      9.6594677    
    961000   1.0368976      16.80393       9.6902217    
    962000   0.98609859     17.231016      9.6192548    
    963000   1.0079739      16.513441      9.493435     
    964000   1.0167451      16.731924      9.5209138    
    965000   0.989769       17.354284      9.4769571    
    966000   0.97593629     17.132105      9.5301039    
    967000   1.0193959      16.210369      9.497994     
    968000   1.0108115      17.119191      9.3643245    
    969000   0.99165983     17.326315      9.4052482    
    970000   1.0062878      17.095379      9.4087064    
    971000   0.99452991     17.136888      9.4292669    
    972000   0.99536959     17.506334      9.3056616    
    973000   0.99515507     16.771066      9.2214332    
    974000   1.0127126      16.627578      9.1551213    
    975000   1.0001341      17.124408      9.314705     
    976000   1.0343194      17.268604      9.2151953    
    977000   0.97554135     16.656263      9.1342015    
    978000   1.0089735      17.307184      9.1883735    
    979000   0.98489764     17.009504      9.235305     
    980000   0.99778553     17.869909      9.0655517    
    981000   0.9801705      17.016072      9.0406533    
    982000   0.9880486      17.023662      8.9449518    
    983000   1.0020103      16.980148      8.8179355    
    984000   0.98166365     16.719241      8.7722414    
    985000   1.0258336      17.081345      8.8119157    
    986000   0.97379547     17.033291      8.8910328    
    987000   1.0054658      16.90408       8.7190582    
    988000   0.94616654     16.746537      8.5627248    
    989000   0.95634186     16.92344       8.5932413    
    990000   0.99537789     16.487752      8.3305553    
    991000   1.0110671      16.68551       8.2499937    
    992000   1.0229374      17.634211      8.1343547    
    993000   0.97607909     16.927491      8.1137206    
    994000   0.99804405     17.234289      8.0111516    
    995000   0.98013356     17.061471      8.0324023    
    996000   1.0096938      17.109505      7.993126     
    997000   0.95868335     17.117009      7.9497839    
    998000   0.9920237      16.85186       7.9834626    
    999000   1.0270285      17.240085      7.7374406    
   1000000   0.99929565     16.945718      7.7080756    
   1001000   1.0148382      17.094109      7.5648394    
   1002000   0.96056212     17.390903      7.3581384    
   1003000   0.99942759     16.91692       7.0555872    
Fix halt condition for fix-id 3 met on step 1004000 with value 6.847035339095171 (src/fix_halt.cpp:237)
   1004000   1.0022518      17.024949      6.8470353    
Loop time of 818.461 on 2 procs for 904000 steps with 1201 atoms

Performance: 954298.783 tau/day, 1104.512 timesteps/s
144.6% CPU use with 1 MPI tasks x 2 OpenMP threads

MPI task timing breakdown:
Section |  min time  |  avg time  |  max time  |%varavg| %total
---------------------------------------------------------------
Pair    | 293.05     | 293.05     | 293.05     |   0.0 | 35.81
Bond    | 17.012     | 17.012     | 17.012     |   0.0 |  2.08
Neigh   | 464.66     | 464.66     | 464.66     |   0.0 | 56.77
Comm    | 0.24735    | 0.24735    | 0.24735    |   0.0 |  0.03
Output  | 2.2104     | 2.2104     | 2.2104     |   0.0 |  0.27
Modify  | 38.689     | 38.689     | 38.689     |   0.0 |  4.73
Other   |            | 2.587      |            |       |  0.32

Nlocal:           1201 ave        1201 max        1201 min
Histogram: 1 0 0 0 0 0 0 0 0 0
Nghost:              0 ave           0 max           0 min
Histogram: 1 0 0 0 0 0 0 0 0 0
Neighs:         292483 ave      292483 max      292483 min
Histogram: 1 0 0 0 0 0 0 0 0 0

Total # of neighbors = 292483
Ave neighs/atom = 243.53289
Ave special neighs/atom = 1.9983347
Neighbor list builds = 7836
Dangerous builds = 0

# This simulation is done
# Move onto the next one
clear
  using 2 OpenMP thread(s) per MPI task
package omp 0
using multi-threaded neighbor list subroutines
next f
jump SELF

Total wall time: 2:19:41
