#atom_style bond #no stiffness
atom_style angle #with stiffness

boundary        p p p
###
# Pair interactions require lists of neighbours to be calculated
###

#neighbor 0.3 bin
neighbor 4 bin

neigh_modify every 1 delay 1 check yes
atom_modify sort 0 0
### Generate RESTART file, SPECIAL format, not a .txt file ###
### Useful if simulation crashes ###

restart 1000000 tshaped/restarts2/$f.restart
restart 1000000 tshaped/restarts2/bb400nuc1bl200bn3d30tot600.restart
#############################



### READ "start" data file ###

read_data tshaped/$f.dat
read_data tshaped/bb400nuc1bl200bn3d30tot600.dat
Reading data file ...
  orthogonal box = (-1000 -1000 -1000) to (1000 1000 1000)
  1 by 1 by 1 MPI processor grid
  reading atoms ...
  601 atoms
  scanning bonds ...
  2 = max bonds/atom
  scanning angles ...
  3 = max angles/atom
  reading bonds ...
  600 bonds
  reading angles ...
  600 angles
Finding 1-2 1-3 1-4 neighbors ...
  special bond factors lj:    0        0        0       
  special bond factors coul:  0        0        0       
     3 = max # of 1-2 neighbors
     3 = max # of 1-3 neighbors
     6 = max # of 1-4 neighbors
     9 = max # of special neighbors
  special bonds CPU = 0.000 seconds
  read_data CPU = 0.037 seconds

######################

### READ "REstart" data file ###

######################



###
# Define groups (atom type 1 is group 'all')
###
group all type 1
601 atoms in group all


###
# Dump configs - "simple dumpings"
###

###
# Dump configs + box coords
###

dump   1   all   custom   1000  tshaped/trjs2/$f.lammpstrj  id  x y z  ix iy iz
dump   1   all   custom   1000  tshaped/trjs2/bb400nuc1bl200bn3d30tot600.lammpstrj  id  x y z  ix iy iz
dump_modify   1   format line "%d %.5f %.5f %.5f %d %d %d"

########################################################################


###################################################################
# Stiffness term
#
# E = K * (1+cos(theta)), K>0
#
angle_style   cosine
#change this coefficient to change stiffness (e.g. 1,5,10)
angle_coeff   1 1.0
###################################################################

###################################################################
# Pair interaction between non-bonded atoms
#
#  Lennard-Jones 12-6 potential with cutoff:
#  potential E=4epsilon[ (sigma/r)^12 - (sigma/r)^6]  for r<r_cut
#
#  1.12246 = 2^(1/6) is the minimum of the potential


pair_style      lj/cut 1.12246152962189
#pair_style      lj/cut 3

#
#  pair_modify shift yes adds a constant to the potential such

#  that E(r_cut)=0. Forces remains unchanged.
#

pair_modify     shift yes

#
#  pair_coeff for lj/cut, specify 4:
#    * atom type interacting with
#    * atom type
#    * epsilon (energy units)
#    * sigma (distance units)
#

pair_coeff      1 1 1.0 1.0
###################################################################

###################################################################
# Pair interaction between non-bonded atoms
#
#  soft potential, for PUSHING apart overlapping atoms
#  potential E=A*(1 + cos(pi*r/r_c))
#
#  1.12246 = 2^(1/6) is the cut-off r_c

#pair_style     soft 1.12246152962189

#
#  pair_coeff for soft, specify 3:
#    * atom type interacting with
#    * atom type
#    * A
#
#

#pair_coeff      1 1 100.0
###################################################################

###################################################################
# Pair interaction between bonded atoms
#
# Fene potential + Lennard Jones 12-6:

#
#  E= - 0.5 K R0^2 ln[ 1- (r/R0)^2]
#     + 4epsilon[ (sigma/r)^12 - (sigma/r)^6] + epsilon
#

bond_style   fene


#
# For style fene, specify:
#   * bond type
#   * K (energy/distance^2)
#   * R0 (distance)
#   * epsilon (energy)  (LJ component)
#   * sigma (distance)  (LJ component)
#


special_bonds fene #<=== I M P O R T A N T (new command)
Finding 1-2 1-3 1-4 neighbors ...
  special bond factors lj:    0        1        1       
  special bond factors coul:  0        1        1       
     3 = max # of 1-2 neighbors
     9 = max # of special neighbors
  special bonds CPU = 0.000 seconds

bond_coeff   1   30   2   1.0   1.0


###################################################

###################################################################
# Pair interaction between bonded atoms
#
# Harmonic potential:
#
#  E= K * (R-R0)^2
#

#bond_style   harmonic

#
# For style harmonic, specify:
#   * bond type
#   * K (energy/distance^2)
#   * R0 (distance)
#

#bond_coeff   1   60.0   1.0
#bond_coeff   2   harmonic 0.1   1.0

###################################################
compute 1 all gyration
variable rog equal c_1
#compute 2 all coord/atom cutoff 1.1

#dump 2 all custom 10000 contact_number.dump id c_2


###
# Set up fixes
###
thermo_style   custom   step  temp enthalpy c_1
fix 1 all nve   ###NVE ensemble

fix 2 all   langevin   1.0 1.0 1.0  778655   ###Langevin integrator Tstart Tstop 1/friction rndseed


##### Sample thermodynamic info  (temperature, energy, pressure, etc.) #####
thermo 1000









############################################################################

###
# set timestep of integrator

timestep 0.01

###
# run integration for a number of steps
###
#run 0
#variable r equal c_1
#if "$r < 63.1" then "quit 1"

# lj potential minimum, cause molecule to explore
run 100000
Generated 0 of 0 mixed pair_coeff terms from geometric mixing rule
Last active /omp style is angle_style cosine/omp
Neighbor list info ...
  update: every = 1 steps, delay = 1 steps, check = yes
  max neighbors/atom: 2000, page size: 100000
  master list distance cutoff = 5.1224615
  ghost atom cutoff = 5.1224615
  binsize = 2.5612308, bins = 781 781 781
  1 neighbor lists, perpetual/occasional/extra = 1 0 0
  (1) pair lj/cut/omp, perpetual
      attributes: half, newton on, omp
      pair build: half/bin/newton/omp
      stencil: half/bin/3d
      bin: standard
WARNING: Communication cutoff 5.12246152962189 is shorter than a bond length based estimate of 5.455. This may lead to errors. (src/comm.cpp:723)
Per MPI rank memory allocation (min/avg/max) = 1860 | 1860 | 1860 Mbytes
   Step          Temp         Enthalpy         c_1      
         0   0              13.220355      105.26482    
      1000   1.0116036      17.887225      104.52822    
      2000   0.99938411     17.729253      103.76921    
      3000   0.9577256      18.154001      103.38111    
      4000   1.0330349      18.022524      102.94549    
      5000   0.99865904     18.010015      102.41129    
      6000   1.0117612      18.901875      101.58107    
      7000   1.0549911      18.684951      100.83546    
      8000   1.0381887      18.207325      100.41885    
      9000   1.0070802      18.677731      99.678598    
     10000   1.0150026      18.538961      99.110685    
     11000   0.98303575     19.45221       98.710303    
     12000   0.96445933     20.264893      98.45911     
     13000   0.95285911     18.929703      98.232499    
     14000   1.0284598      19.056513      97.808194    
     15000   1.0386835      19.756466      97.208116    
     16000   1.0511782      19.352592      97.041091    
     17000   1.0179134      19.490116      96.505603    
     18000   0.96407004     18.861423      96.126718    
     19000   0.98994206     19.595618      95.870949    
     20000   1.0444841      19.381672      95.702052    
     21000   1.0261363      19.317383      95.526381    
     22000   1.0420725      20.205181      95.173906    
     23000   1.0033275      19.556034      94.761416    
     24000   0.95990569     19.007252      94.569821    
     25000   0.95681349     19.409297      94.182896    
     26000   0.9998157      18.823304      93.799298    
     27000   0.96464192     19.242576      93.567288    
     28000   1.0174303      19.568984      93.382784    
     29000   0.99477718     19.26455       93.203367    
     30000   1.0283539      19.957236      93.319657    
     31000   0.99409051     19.356681      92.993553    
     32000   0.95933475     18.99553       92.815003    
     33000   1.0067365      19.005704      92.679668    
     34000   0.9222805      19.384965      92.395248    
     35000   0.99781791     19.364923      92.025958    
     36000   1.0018348      19.255909      91.966249    
     37000   1.0228229      20.432505      91.650574    
     38000   1.0307308      18.935105      91.40898     
     39000   1.0275786      19.668884      90.847949    
     40000   0.92251148     19.058337      90.150852    
     41000   1.0240882      19.710476      90.036579    
     42000   0.98913833     19.55368       89.696983    
     43000   0.98096733     19.35673       89.62391     
     44000   1.0204279      19.364464      89.495974    
     45000   0.96481256     19.935836      89.301278    
     46000   0.97977108     19.435661      89.366674    
     47000   1.0337881      20.055905      89.140697    
     48000   0.99840416     19.842128      88.800812    
     49000   0.9694427      19.920721      88.467438    
     50000   1.0014808      19.62655       88.48713     
     51000   1.016505       19.903824      88.376039    
     52000   1.0425509      19.442541      88.095895    
     53000   1.0235943      20.24889       87.776543    
     54000   1.0571294      20.335217      87.918966    
     55000   0.99930722     19.38636       87.935982    
     56000   1.0114095      20.12256       87.586646    
     57000   0.99728271     19.594894      87.431703    
     58000   0.98141601     19.020998      87.235159    
     59000   1.0247027      20.191557      86.692968    
     60000   1.0274604      20.090652      86.36166     
     61000   1.0087743      19.790008      86.27399     
     62000   0.99801587     19.754101      86.083972    
     63000   1.0425911      19.766189      85.855212    
     64000   0.97399019     19.944197      85.398264    
     65000   1.0190121      20.780771      84.946575    
     66000   1.0054347      20.156912      84.9542      
     67000   1.0102242      20.176365      84.938863    
     68000   0.97709845     19.7891        84.946073    
     69000   0.96745292     19.80099       84.985719    
     70000   1.065721       19.984141      84.938247    
     71000   1.0378171      19.519174      85.036281    
     72000   1.0006545      20.185153      85.105668    
     73000   0.98654687     19.881788      84.760366    
     74000   0.99967382     20.012626      84.57936     
     75000   1.02439        20.550572      84.401685    
     76000   0.98118512     20.066861      84.137863    
     77000   1.0053621      19.320887      83.940941    
     78000   0.93710199     19.915045      83.787037    
     79000   0.98728047     19.967984      83.828761    
     80000   0.96397572     19.425078      84.052627    
     81000   0.99948426     20.196116      83.951865    
     82000   1.0128644      19.904186      84.14524     
     83000   1.0148163      19.837836      84.235823    
     84000   1.0013186      20.569189      84.024178    
     85000   0.9486313      19.692437      83.950081    
     86000   1.0018312      20.207738      83.330655    
     87000   0.95686404     20.605091      83.276095    
     88000   0.99720926     20.30888       83.110092    
     89000   1.0075952      19.719278      82.954422    
     90000   1.0544501      19.975225      83.175965    
     91000   1.062065       19.914863      83.170608    
     92000   1.0420838      19.698157      82.996589    
     93000   1.0117847      19.798175      82.790807    
     94000   1.0343967      20.261833      82.635511    
     95000   1.0115043      20.065131      82.309422    
     96000   0.95303562     19.523915      82.27072     
     97000   0.9902812      19.695162      82.222685    
     98000   0.99407771     20.301208      81.928641    
     99000   0.97239666     19.667703      81.41656     
    100000   1.0236375      19.244171      81.387409    
Loop time of 308.907 on 2 procs for 100000 steps with 601 atoms

Performance: 279696.232 tau/day, 323.722 timesteps/s
101.9% CPU use with 1 MPI tasks x 2 OpenMP threads

MPI task timing breakdown:
Section |  min time  |  avg time  |  max time  |%varavg| %total
---------------------------------------------------------------
Pair    | 0.53399    | 0.53399    | 0.53399    |   0.0 |  0.17
Bond    | 1.1437     | 1.1437     | 1.1437     |   0.0 |  0.37
Neigh   | 304.29     | 304.29     | 304.29     |   0.0 | 98.50
Comm    | 0.019898   | 0.019898   | 0.019898   |   0.0 |  0.01
Output  | 0.16931    | 0.16931    | 0.16931    |   0.0 |  0.05
Modify  | 2.5733     | 2.5733     | 2.5733     |   0.0 |  0.83
Other   |            | 0.179      |            |       |  0.06

Nlocal:            601 ave         601 max         601 min
Histogram: 1 0 0 0 0 0 0 0 0 0
Nghost:              0 ave           0 max           0 min
Histogram: 1 0 0 0 0 0 0 0 0 0
Neighs:           3342 ave        3342 max        3342 min
Histogram: 1 0 0 0 0 0 0 0 0 0

Total # of neighbors = 3342
Ave neighs/atom = 5.5607321
Ave special neighs/atom = 1.9966722
Neighbor list builds = 1039
Dangerous builds = 0

# Replace lj potential, now collapse
pair_style      lj/cut 3

# Cutoff simul when gyration under 5
# Variable created with equal requires v_ + 'name'
fix 3 all halt 1000 v_rog < 7

run 5000000
Generated 0 of 0 mixed pair_coeff terms from geometric mixing rule
Last active /omp style is angle_style cosine/omp
Per MPI rank memory allocation (min/avg/max) = 1860 | 1860 | 1860 Mbytes
   Step          Temp         Enthalpy         c_1      
    100000   1.0236375      18.672985      81.387409    
    101000   1.0033055      19.042214      81.443465    
    102000   1.0091315      19.07607       81.105982    
    103000   1.0427797      19.616265      80.700585    
    104000   1.0121151      19.829463      80.185423    
    105000   1.0464031      19.461034      79.883464    
    106000   0.99539414     19.658117      79.489411    
    107000   1.0034008      19.820665      79.315066    
    108000   0.99249174     19.583799      78.941918    
    109000   1.0112935      19.756891      79.111207    
    110000   1.0214208      19.430104      78.820135    
    111000   0.97424286     19.088508      78.663165    
    112000   0.99293474     19.588541      78.631298    
    113000   1.0197064      19.362173      78.874546    
    114000   0.98908348     18.700771      78.692076    
    115000   0.9953367      19.441599      78.711673    
    116000   0.99885437     19.08625       78.554135    
    117000   0.98096168     18.813347      78.482599    
    118000   0.95738304     19.051712      78.405047    
    119000   1.0164595      19.992881      78.194948    
    120000   0.98623368     18.967336      77.975239    
    121000   1.0134166      19.829588      77.556687    
    122000   0.99663096     19.192627      77.266925    
    123000   1.0077705      19.900171      76.80127     
    124000   0.96027343     19.539113      76.343894    
    125000   0.96102791     18.439644      76.002287    
    126000   0.99819981     19.692505      76.000437    
    127000   1.0891916      19.359858      75.692312    
    128000   1.0417525      18.973877      75.67615     
    129000   0.97438491     19.26426       75.310872    
    130000   1.0054303      19.528689      75.163464    
    131000   0.99089899     19.204832      74.739816    
    132000   0.96347866     19.820308      74.307506    
    133000   1.001446       18.65121       74.205431    
    134000   1.0128409      18.943845      73.8967      
    135000   0.99211821     19.525626      73.614577    
    136000   0.99316635     19.554159      73.603911    
    137000   1.0170218      19.809763      73.575209    
    138000   0.97184253     19.151253      73.570454    
    139000   0.94218271     18.981063      73.326151    
    140000   1.112507       19.290595      72.981122    
    141000   1.0105011      19.355221      72.61052     
    142000   1.0128701      18.984756      72.301648    
    143000   1.020008       19.658493      72.063992    
    144000   1.0539853      19.077698      71.691206    
    145000   0.98707739     19.215954      71.117094    
    146000   0.97899086     18.856447      71.03692     
    147000   1.0162965      18.958271      70.876487    
    148000   0.98868276     18.72709       70.839133    
    149000   1.0035124      18.999398      70.339817    
    150000   0.97375048     18.832213      70.028469    
    151000   1.0510641      19.068866      69.810274    
    152000   1.0144304      18.851783      69.892105    
    153000   1.0496399      18.969969      69.921351    
    154000   1.0133046      18.917362      69.425685    
    155000   0.96565734     18.967777      69.201572    
    156000   1.0214581      19.683813      69.140297    
    157000   1.0130687      19.148534      68.812015    
    158000   0.96786102     18.633912      68.716158    
    159000   0.99626863     19.293819      68.527057    
    160000   0.96699145     18.200341      68.156108    
    161000   1.0357157      18.432224      67.88994     
    162000   0.94616599     18.540947      67.259232    
    163000   0.9699741      19.096248      67.064024    
    164000   1.0410366      19.195717      66.838308    
    165000   1.0307627      18.909632      66.60723     
    166000   1.0644999      19.337182      66.55905     
    167000   1.0498041      19.538687      66.333836    
    168000   1.0223245      19.406681      66.296273    
    169000   1.0330669      18.456596      66.047905    
    170000   1.0419447      18.836876      65.743666    
    171000   1.054416       19.590726      65.661485    
    172000   0.98712208     18.907603      65.591448    
    173000   1.0546118      19.222334      65.506953    
    174000   0.98431975     18.869665      65.360106    
    175000   0.95602731     19.477582      65.254597    
    176000   0.97522462     19.034985      65.073083    
    177000   0.95596528     19.315744      64.823387    
    178000   0.99939666     19.900285      64.573428    
    179000   1.0106723      18.919487      64.620301    
    180000   1.0070236      19.189042      64.648417    
    181000   0.93750347     18.995705      64.133149    
    182000   0.95236443     18.341724      63.8533      
    183000   0.98952489     19.721199      63.44113     
    184000   1.0036954      19.182587      63.197852    
    185000   1.0062573      18.722074      63.102769    
    186000   1.0923515      19.53068       62.708448    
    187000   1.0478194      18.992904      62.286661    
    188000   0.96771613     19.338875      61.752886    
    189000   1.0210988      19.163738      61.715057    
    190000   1.0285948      18.813209      61.537228    
    191000   0.99479082     19.898158      61.34885     
    192000   0.96083944     18.896599      60.745264    
    193000   1.0345147      19.175604      60.332033    
    194000   1.0329633      19.184956      59.967509    
    195000   0.99515904     19.509905      59.852386    
    196000   0.9682932      19.253448      59.66474     
    197000   0.95512668     18.646928      59.392655    
    198000   0.99747235     19.39719       59.190714    
    199000   0.98820651     18.952972      59.240326    
    200000   0.96191423     18.635504      59.161051    
    201000   0.97609851     18.605528      58.906373    
    202000   0.9940242      18.784909      59.022069    
    203000   1.0021303      19.053867      58.754897    
    204000   1.0627713      19.009827      58.841571    
    205000   1.0138842      19.244205      58.746373    
    206000   1.0197173      19.290786      58.401222    
    207000   1.0005545      18.879012      58.409653    
    208000   1.060649       19.455251      58.494726    
    209000   1.0465417      18.923855      58.278053    
    210000   0.98507635     18.888413      58.155897    
    211000   0.97897888     18.540429      57.97958     
    212000   0.97324989     18.830099      57.732269    
    213000   1.0359856      18.650745      57.582567    
    214000   0.98186713     19.355309      57.659864    
    215000   0.97018079     18.850988      57.221766    
    216000   1.0927134      18.612564      56.898992    
    217000   1.0928607      17.825466      56.759801    
    218000   1.0167722      18.683304      56.123352    
    219000   0.99951083     18.550327      56.215833    
    220000   0.99064186     18.276627      56.314213    
    221000   0.95611017     18.266043      56.029467    
    222000   0.9978534      18.135411      56.049208    
    223000   1.0151895      18.54804       55.886742    
    224000   0.95044956     18.5718        55.679321    
    225000   0.96369268     18.053187      55.781751    
    226000   0.98209023     18.787566      55.735742    
    227000   0.98645699     17.627331      55.66876     
    228000   1.029673       18.742259      55.530213    
    229000   1.049436       18.125219      55.261707    
    230000   0.95359841     18.503233      55.12681     
    231000   1.0136287      18.249808      54.932187    
    232000   0.98472145     18.352441      54.712086    
    233000   1.0180296      19.56873       54.34422     
    234000   1.0155477      19.168637      54.169437    
    235000   0.97056654     19.309579      53.730474    
    236000   0.93956938     18.964083      53.517684    
    237000   1.0088273      18.852953      53.490958    
    238000   1.012047       18.29006       53.424378    
    239000   0.980701       18.920095      53.232277    
    240000   0.95841314     17.969763      53.009846    
    241000   0.97741335     18.492615      52.972508    
    242000   1.0071943      18.635654      52.674103    
    243000   1.0582392      18.218934      52.809424    
    244000   0.99891775     18.379791      52.521943    
    245000   0.96183509     19.051692      52.241775    
    246000   0.99487069     18.800526      52.472706    
    247000   0.96235655     18.479055      52.309408    
    248000   0.96896646     18.709922      51.900793    
    249000   0.97484594     18.094864      51.738509    
    250000   1.0581611      18.978408      51.447068    
    251000   1.0242732      19.019585      51.548052    
    252000   0.93033716     18.511861      51.420483    
    253000   0.96777529     19.81204       51.387298    
    254000   0.99090124     17.830716      51.10799     
    255000   0.98434041     18.74908       50.897911    
    256000   0.99964117     17.939865      50.894985    
    257000   1.0038912      19.343657      50.624806    
    258000   0.97532136     18.788653      50.581583    
    259000   1.0041506      18.223364      50.436977    
    260000   1.0754984      18.75653       50.471089    
    261000   1.0140517      18.526204      50.631288    
    262000   1.0297424      18.661536      50.205304    
    263000   0.97681022     18.050081      49.865067    
    264000   1.0327896      19.264579      49.912088    
    265000   0.99922201     19.030032      49.610457    
    266000   0.99654298     18.256266      49.372058    
    267000   0.98779671     18.568514      49.330239    
    268000   1.0325534      18.394151      49.065448    
    269000   1.0487148      18.845431      48.997481    
    270000   0.96674933     18.236603      48.669184    
    271000   0.99494466     18.095088      48.514633    
    272000   0.94316173     18.542751      48.259736    
    273000   0.99664738     17.677692      48.104314    
    274000   0.98404228     18.254201      47.891869    
    275000   0.98710686     18.357246      47.978748    
    276000   0.99323632     19.503683      47.740537    
    277000   1.0334243      18.354642      47.583944    
    278000   0.97299669     18.349742      47.365489    
    279000   1.0684159      18.651643      46.95066     
    280000   0.92758644     18.408116      46.846228    
    281000   0.99652915     18.804839      46.746306    
    282000   1.0194943      18.518024      46.132521    
    283000   1.0462019      18.404848      45.924436    
    284000   1.0499769      18.766062      45.769902    
    285000   1.079602       19.051303      45.824077    
    286000   0.97823901     18.722906      45.654234    
    287000   1.0097842      18.37252       45.214954    
    288000   0.99626336     18.531817      44.78091     
    289000   0.96632233     18.440965      44.278795    
    290000   0.93342592     18.119088      43.946675    
    291000   0.9923707      17.606532      43.70486     
    292000   1.0075448      18.050571      43.635799    
    293000   1.0592906      18.188421      43.582041    
    294000   0.95734876     18.014618      43.181632    
    295000   1.0121403      18.092791      43.009024    
    296000   1.0068156      18.966632      42.988272    
    297000   1.037417       18.491465      42.775844    
    298000   1.0015199      18.246476      42.391512    
    299000   0.97850282     17.948503      42.392412    
    300000   0.99802453     18.505826      42.027181    
    301000   1.0068451      18.815031      41.958695    
    302000   1.0431804      17.835898      41.64716     
    303000   1.0160386      18.5763        41.457125    
    304000   1.0190885      18.798979      41.334913    
    305000   0.98226839     18.294196      41.455165    
    306000   1.0517328      18.045401      41.662941    
    307000   1.002709       18.706211      41.818907    
    308000   0.97707619     18.440641      41.658529    
    309000   0.95532823     17.897156      41.456428    
    310000   1.0004952      18.094962      41.309266    
    311000   1.0521585      18.80748       41.266948    
    312000   0.97115262     18.032931      40.850989    
    313000   0.98182568     18.130784      40.805964    
    314000   0.97231842     18.652635      40.91792     
    315000   1.058985       18.272875      40.757951    
    316000   0.99809299     18.13611       40.492528    
    317000   0.97759575     17.95282       40.504825    
    318000   0.95920533     17.403626      40.462053    
    319000   0.93113932     18.205821      40.167943    
    320000   0.9755805      18.812514      39.925125    
    321000   1.0035921      18.006082      39.679251    
    322000   1.0561442      17.853376      39.509596    
    323000   1.0400295      18.910006      39.205029    
    324000   1.0170482      18.153672      39.350112    
    325000   1.0150907      18.414024      39.180521    
    326000   0.99473379     17.671957      39.238584    
    327000   0.99691315     18.677467      38.921915    
    328000   1.0343815      18.755483      38.648773    
    329000   1.015441       18.606884      38.557512    
    330000   1.0067064      17.947683      38.361758    
    331000   0.99951129     18.543545      38.228844    
    332000   0.96602742     18.045219      38.157139    
    333000   0.95335683     18.738319      37.778912    
    334000   0.98475015     18.463627      37.844463    
    335000   1.0151878      17.811502      37.524889    
    336000   1.0045766      18.69012       37.260997    
    337000   1.0057548      18.781217      36.966299    
    338000   1.0296659      18.641466      37.115059    
    339000   1.0245558      18.400953      36.88713     
    340000   1.0385147      17.81976       36.856549    
    341000   0.97132141     17.636168      36.719284    
    342000   1.0211603      18.332243      36.679776    
    343000   0.98683834     17.957614      36.589723    
    344000   1.0135566      17.905114      36.422378    
    345000   1.0827798      18.031698      36.216737    
    346000   0.95165562     18.698815      36.059001    
    347000   0.98552193     17.776626      35.781164    
    348000   0.97317679     18.284958      36.045766    
    349000   1.0113239      18.289852      35.757672    
    350000   0.9599043      17.96627       35.734303    
    351000   0.95857219     18.655284      35.884435    
    352000   1.0061401      18.312874      35.739178    
    353000   0.96385245     17.999711      35.70578     
    354000   1.0113714      17.895346      35.663204    
    355000   0.99004872     18.362711      35.729974    
    356000   1.051778       18.379262      35.702172    
    357000   1.0023757      18.386047      35.512797    
    358000   1.020941       18.477745      35.109715    
    359000   0.95994905     18.038246      34.99641     
    360000   0.95112475     18.114582      34.651884    
    361000   0.96603899     17.366025      34.444456    
    362000   0.91786251     18.077085      34.479933    
    363000   0.99662385     18.347682      34.341954    
    364000   1.0221456      18.607426      34.12471     
    365000   0.92888495     18.316462      33.884415    
    366000   1.0404716      18.71542       33.4146      
    367000   1.0644274      18.11178       33.538887    
    368000   1.0326726      18.995671      33.132437    
    369000   1.0074532      17.537373      33.065591    
    370000   0.99470198     18.054567      33.086122    
    371000   1.0213371      18.178262      32.856229    
    372000   0.98474337     17.42783       33.162731    
    373000   0.96374627     18.52627       32.829881    
    374000   1.0174999      18.078659      32.74956     
    375000   1.0298493      17.931379      32.547234    
    376000   0.92807836     18.140347      32.326573    
    377000   0.96222429     18.186059      32.165986    
    378000   0.95387042     18.266849      32.091819    
    379000   1.0250659      18.194125      31.947128    
    380000   0.95657494     18.152342      31.734785    
    381000   0.95447659     18.353443      31.195802    
    382000   1.0052776      17.715862      31.117705    
    383000   0.99597806     18.190242      31.105655    
    384000   1.0350099      17.564401      31.240436    
    385000   1.0248708      18.43791       30.971676    
    386000   1.0220151      18.779634      30.952284    
    387000   0.96595895     18.025621      31.034882    
    388000   0.97586331     18.311174      30.87778     
    389000   1.0484416      17.608085      30.57202     
    390000   0.97666831     17.892433      30.526251    
    391000   0.97001925     17.92075       30.410332    
    392000   0.98436785     17.642304      30.297384    
    393000   1.0596921      18.141262      30.06039     
    394000   1.0811217      18.535288      30.005667    
    395000   0.95226653     17.907564      29.796215    
    396000   1.0008208      18.726118      29.637805    
    397000   1.0502689      18.679224      29.206964    
    398000   1.0065265      17.944646      28.822599    
    399000   0.93803136     18.35263       28.750747    
    400000   0.96311776     18.366103      28.459048    
    401000   0.95147003     17.350468      28.478512    
    402000   1.0055243      17.596367      28.373063    
    403000   1.0097859      17.887096      28.232776    
    404000   1.0305432      18.260026      28.156703    
    405000   0.99253347     18.2543        28.124067    
    406000   0.96119875     18.37863       28.220918    
    407000   0.98722732     18.926842      28.148068    
    408000   0.9990951      18.478736      27.969231    
    409000   1.01031        18.222152      27.711777    
    410000   1.0171613      18.033785      27.506148    
    411000   1.0061307      18.552313      27.22773     
    412000   1.0347662      18.80907       27.196402    
    413000   0.99065748     17.257245      26.763535    
    414000   0.99528778     18.309241      26.773977    
    415000   1.0184573      17.416985      26.418208    
    416000   0.96714523     18.071093      26.265222    
    417000   0.97479289     17.607136      26.07801     
    418000   1.0821866      17.722018      26.113628    
    419000   0.96206958     17.6044        25.898354    
    420000   0.96627371     18.447757      26.034782    
    421000   0.99905132     17.552192      25.933384    
    422000   1.0241995      18.325285      25.689669    
    423000   1.0472484      18.240389      25.680691    
    424000   0.9762718      18.326864      25.499965    
    425000   0.9740248      18.326426      25.522342    
    426000   1.0314581      17.770438      25.598002    
    427000   0.96390748     17.166133      25.67192     
    428000   1.0685898      18.454757      25.408598    
    429000   0.94698884     17.447413      25.337908    
    430000   1.048258       17.999532      25.44301     
    431000   0.99987308     17.955249      25.071129    
    432000   0.95071468     17.762731      24.585469    
    433000   1.0409483      18.806579      24.636338    
    434000   1.0111487      18.144725      24.33238     
    435000   0.98118363     18.08771       24.16108     
    436000   1.016243       17.670818      24.06957     
    437000   0.9921232      18.274993      24.335688    
    438000   1.0123919      17.84589       24.24831     
    439000   1.0006514      18.065873      23.989587    
    440000   1.0217385      18.849848      23.59637     
    441000   0.96713455     18.146739      23.694021    
    442000   0.97287757     17.443088      23.628591    
    443000   1.0199463      17.87204       23.754194    
    444000   0.99022069     17.828728      23.650026    
    445000   1.010339       17.907405      23.49767     
    446000   0.98823589     18.162599      23.565017    
    447000   0.9761449      17.311313      23.232313    
    448000   0.91138219     17.976347      23.209302    
    449000   1.0407709      18.306166      22.83177     
    450000   0.98960465     18.2315        22.707338    
    451000   1.0193634      18.177649      22.492002    
    452000   1.0262498      17.856347      22.313078    
    453000   1.0541793      17.601436      22.104953    
    454000   0.96856376     18.193935      21.81715     
    455000   1.0123925      17.814784      21.427375    
    456000   1.0139113      17.366782      21.255878    
    457000   1.0683337      17.990537      21.36911     
    458000   0.97517026     17.678529      20.806539    
    459000   1.0368852      18.086333      20.609428    
    460000   1.0273757      18.17214       20.350123    
    461000   0.98514608     17.77504       19.860721    
    462000   1.035681       17.262917      19.738831    
    463000   0.97039334     16.80138       19.701229    
    464000   0.97027891     17.653238      19.534746    
    465000   0.9778966      17.155878      19.489512    
    466000   1.0082989      18.254652      19.26537     
    467000   1.0105298      17.480714      19.017492    
    468000   1.0232487      18.608758      18.634951    
    469000   0.9911118      17.802606      18.532665    
    470000   1.0450163      17.83806       18.365168    
    471000   0.96082243     17.526875      18.237446    
    472000   1.0018541      17.66788       18.032905    
    473000   1.0253638      17.580505      17.597883    
    474000   1.0268228      18.210453      17.807925    
    475000   1.0654324      18.559136      17.480602    
    476000   0.97579596     18.715753      17.239646    
    477000   1.0846261      18.177769      17.330272    
    478000   1.0213134      17.184772      16.954933    
    479000   1.0138504      17.393442      16.929407    
    480000   0.98033066     17.251658      16.61595     
    481000   1.0255464      18.194514      16.692769    
    482000   0.94452051     18.188802      16.495341    
    483000   0.97735027     17.441409      16.472425    
    484000   1.0278205      17.188742      16.426407    
    485000   1.0903237      17.485856      16.36721     
    486000   1.0100677      17.782866      16.22004     
    487000   1.0229612      17.827602      16.105706    
    488000   0.96377379     17.598378      15.871421    
    489000   1.066562       17.793599      15.856536    
    490000   1.010634       18.000256      15.774512    
    491000   1.0261354      17.384358      15.66437     
    492000   1.0058385      18.128783      15.791903    
    493000   1.0031445      17.423319      15.666339    
    494000   1.0517151      18.503486      15.494883    
    495000   1.0134061      17.69743       15.275748    
    496000   1.0363318      17.319134      15.086155    
    497000   0.95107496     18.322661      14.961989    
    498000   1.0050087      17.341906      14.728016    
    499000   0.99981765     17.735292      14.461729    
    500000   1.0475682      17.302058      14.694008    
    501000   1.0338249      17.077147      14.400855    
    502000   1.0040555      17.980604      14.413032    
    503000   1.0307971      17.73202       14.002128    
    504000   0.99125328     17.571561      14.089575    
    505000   1.0517779      17.852307      13.739681    
    506000   0.9971005      16.937215      13.612075    
    507000   1.0253312      18.029358      13.62358     
    508000   0.9762027      17.496513      13.384859    
    509000   0.9617732      17.744812      13.195897    
    510000   1.0049133      16.969222      12.799742    
    511000   1.0427581      17.61376       12.584077    
    512000   0.94994377     17.068411      12.711526    
    513000   0.90432983     17.83179       12.760616    
    514000   1.0052642      17.671261      12.884661    
    515000   0.98808834     18.073498      12.82191     
    516000   1.0311852      17.349246      12.974615    
    517000   0.97083455     17.935236      12.499212    
    518000   0.97899574     17.346213      12.202874    
    519000   1.0203495      17.332629      11.749549    
    520000   1.028358       17.574646      11.549334    
    521000   1.0127032      17.070208      11.606057    
    522000   0.98103138     17.166026      11.467802    
    523000   0.92704872     18.71147       11.08264     
    524000   1.0083762      17.898718      10.823193    
    525000   1.0185612      17.540435      10.359595    
    526000   0.98480869     17.441179      10.490769    
    527000   0.96805611     17.139162      10.182535    
    528000   0.97156967     17.83774       10.084188    
    529000   0.98568418     17.578776      10.009447    
    530000   0.94022853     17.484901      9.7175488    
    531000   1.0283366      16.701805      9.4170521    
    532000   0.99064405     17.305743      9.0908035    
    533000   1.0116964      17.390415      8.9125273    
    534000   0.94550138     16.796395      8.6599274    
    535000   1.0304765      17.362675      8.5995118    
    536000   0.9874325      17.956037      8.5770759    
    537000   0.99817601     17.260734      8.5743656    
    538000   1.0262521      17.154196      8.6040162    
    539000   1.0315389      17.851936      8.4821961    
    540000   1.0464326      17.290813      8.3106074    
    541000   1.0767032      17.587505      8.1068458    
    542000   0.93641266     17.261629      8.2155214    
    543000   1.0029646      17.884866      7.7505137    
    544000   0.99435852     16.893992      7.6684201    
    545000   1.0096778      16.976736      7.5506672    
    546000   0.98850357     16.844288      7.8436886    
    547000   0.99170068     17.602391      7.886886     
    548000   0.98221193     17.482372      7.907044     
    549000   0.99361123     17.262544      7.7625579    
    550000   0.97965584     17.537626      7.5498351    
    551000   0.97647649     17.284067      7.4981476    
    552000   0.96104201     17.045308      7.2424231    
    553000   0.99228016     17.150295      7.1586197    
    554000   0.99280755     17.465725      7.1803404    
Fix halt condition for fix-id 3 met on step 555000 with value 6.8999681029545235 (src/fix_halt.cpp:237)
    555000   1.0634972      18.22919       6.8999681    
Loop time of 561.892 on 2 procs for 455000 steps with 601 atoms

Performance: 699636.160 tau/day, 809.764 timesteps/s
113.1% CPU use with 1 MPI tasks x 2 OpenMP threads

MPI task timing breakdown:
Section |  min time  |  avg time  |  max time  |%varavg| %total
---------------------------------------------------------------
Pair    | 48.466     | 48.466     | 48.466     |   0.0 |  8.63
Bond    | 6.2188     | 6.2188     | 6.2188     |   0.0 |  1.11
Neigh   | 492.33     | 492.33     | 492.33     |   0.0 | 87.62
Comm    | 0.10807    | 0.10807    | 0.10807    |   0.0 |  0.02
Output  | 0.86052    | 0.86052    | 0.86052    |   0.0 |  0.15
Modify  | 12.939     | 12.939     | 12.939     |   0.0 |  2.30
Other   |            | 0.9656     |            |       |  0.17

Nlocal:            601 ave         601 max         601 min
Histogram: 1 0 0 0 0 0 0 0 0 0
Nghost:              0 ave           0 max           0 min
Histogram: 1 0 0 0 0 0 0 0 0 0
Neighs:          87971 ave       87971 max       87971 min
Histogram: 1 0 0 0 0 0 0 0 0 0

Total # of neighbors = 87971
Ave neighs/atom = 146.37438
Ave special neighs/atom = 1.9966722
Neighbor list builds = 4150
Dangerous builds = 0

# This simulation is done
# Move onto the next one
clear
  using 2 OpenMP thread(s) per MPI task
package omp 0
using multi-threaded neighbor list subroutines
next f
jump SELF

###
# Reference paper:
# K. Kremer and G. S. Grest
# Dynamics of entangled linear polymer melts: A molecular-dynamics simulation
# J Chem Phys 92, 5057 (1990)

##################################
# MIHIR: for branched polymers
# LJ minimum first to expand and explore, then collapse
###

###
# Looping through the various tshaped polymers to simulate,
# define variables to switch through
#variable f index bb66nuc1bl33bn3d30tot100 bb133nuc1bl66bn3d30tot200 bb200nuc1bl100bn3d30tot300 bb266nuc1bl133bn3d30tot400 bb333nuc1bl166bn3d30tot500 bb400nuc1bl200bn3d30tot600 bb466nuc1bl233bn3d30tot700 bb533nuc1bl266bn3d30tot800 bb600nuc1bl300bn3d30tot900 bb666nuc1bl333bn3d30tot1000 bb733nuc1bl366bn3d30tot1100 bb800nuc1bl400bn3d30tot1200
variable f index bb333nuc1bl166bn3d30tot500 bb400nuc1bl200bn3d30tot600 bb466nuc1bl233bn3d30tot700 bb533nuc1bl266bn3d30tot800 bb600nuc1bl300bn3d30tot900 bb666nuc1bl333bn3d30tot1000 bb733nuc1bl366bn3d30tot1100 bb800nuc1bl400bn3d30tot1200
###


###
# Box and units  (use LJ units and periodic boundaries)
###

units lj
log tshaped/logs2/$f.log
log tshaped/logs2/bb466nuc1bl233bn3d30tot700.log
