#atom_style bond #no stiffness
atom_style angle #with stiffness

boundary        p p p
###
# Pair interactions require lists of neighbours to be calculated
###

#neighbor 0.3 bin
neighbor 4 bin

neigh_modify every 1 delay 1 check yes
atom_modify sort 0 0
### Generate RESTART file, SPECIAL format, not a .txt file ###
### Useful if simulation crashes ###

restart 1000000 tshaped/restarts2/$f.restart
restart 1000000 tshaped/restarts2/bb733nuc1bl366bn3d30tot1100.restart
#############################



### READ "start" data file ###

read_data tshaped/$f.dat
read_data tshaped/bb733nuc1bl366bn3d30tot1100.dat
Reading data file ...
  orthogonal box = (-1000 -1000 -1000) to (1000 1000 1000)
  1 by 1 by 1 MPI processor grid
  reading atoms ...
  1099 atoms
  scanning bonds ...
  2 = max bonds/atom
  scanning angles ...
  3 = max angles/atom
  reading bonds ...
  1098 bonds
  reading angles ...
  1098 angles
Finding 1-2 1-3 1-4 neighbors ...
  special bond factors lj:    0        0        0       
  special bond factors coul:  0        0        0       
     3 = max # of 1-2 neighbors
     3 = max # of 1-3 neighbors
     6 = max # of 1-4 neighbors
     9 = max # of special neighbors
  special bonds CPU = 0.001 seconds
  read_data CPU = 0.111 seconds

######################

### READ "REstart" data file ###

######################



###
# Define groups (atom type 1 is group 'all')
###
group all type 1
1099 atoms in group all


###
# Dump configs - "simple dumpings"
###

###
# Dump configs + box coords
###

dump   1   all   custom   1000  tshaped/trjs2/$f.lammpstrj  id  x y z  ix iy iz
dump   1   all   custom   1000  tshaped/trjs2/bb733nuc1bl366bn3d30tot1100.lammpstrj  id  x y z  ix iy iz
dump_modify   1   format line "%d %.5f %.5f %.5f %d %d %d"

########################################################################


###################################################################
# Stiffness term
#
# E = K * (1+cos(theta)), K>0
#
angle_style   cosine
#change this coefficient to change stiffness (e.g. 1,5,10)
angle_coeff   1 1.0
###################################################################

###################################################################
# Pair interaction between non-bonded atoms
#
#  Lennard-Jones 12-6 potential with cutoff:
#  potential E=4epsilon[ (sigma/r)^12 - (sigma/r)^6]  for r<r_cut
#
#  1.12246 = 2^(1/6) is the minimum of the potential


pair_style      lj/cut 1.12246152962189
#pair_style      lj/cut 3

#
#  pair_modify shift yes adds a constant to the potential such

#  that E(r_cut)=0. Forces remains unchanged.
#

pair_modify     shift yes

#
#  pair_coeff for lj/cut, specify 4:
#    * atom type interacting with
#    * atom type
#    * epsilon (energy units)
#    * sigma (distance units)
#

pair_coeff      1 1 1.0 1.0
###################################################################

###################################################################
# Pair interaction between non-bonded atoms
#
#  soft potential, for PUSHING apart overlapping atoms
#  potential E=A*(1 + cos(pi*r/r_c))
#
#  1.12246 = 2^(1/6) is the cut-off r_c

#pair_style     soft 1.12246152962189

#
#  pair_coeff for soft, specify 3:
#    * atom type interacting with
#    * atom type
#    * A
#
#

#pair_coeff      1 1 100.0
###################################################################

###################################################################
# Pair interaction between bonded atoms
#
# Fene potential + Lennard Jones 12-6:

#
#  E= - 0.5 K R0^2 ln[ 1- (r/R0)^2]
#     + 4epsilon[ (sigma/r)^12 - (sigma/r)^6] + epsilon
#

bond_style   fene


#
# For style fene, specify:
#   * bond type
#   * K (energy/distance^2)
#   * R0 (distance)
#   * epsilon (energy)  (LJ component)
#   * sigma (distance)  (LJ component)
#


special_bonds fene #<=== I M P O R T A N T (new command)
Finding 1-2 1-3 1-4 neighbors ...
  special bond factors lj:    0        1        1       
  special bond factors coul:  0        1        1       
     3 = max # of 1-2 neighbors
     9 = max # of special neighbors
  special bonds CPU = 0.001 seconds

bond_coeff   1   30   2   1.0   1.0


###################################################

###################################################################
# Pair interaction between bonded atoms
#
# Harmonic potential:
#
#  E= K * (R-R0)^2
#

#bond_style   harmonic

#
# For style harmonic, specify:
#   * bond type
#   * K (energy/distance^2)
#   * R0 (distance)
#

#bond_coeff   1   60.0   1.0
#bond_coeff   2   harmonic 0.1   1.0

###################################################
compute 1 all gyration
variable rog equal c_1
#compute 2 all coord/atom cutoff 1.1

#dump 2 all custom 10000 contact_number.dump id c_2


###
# Set up fixes
###
thermo_style   custom   step  temp enthalpy c_1
fix 1 all nve   ###NVE ensemble

fix 2 all   langevin   1.0 1.0 1.0  778655   ###Langevin integrator Tstart Tstop 1/friction rndseed


##### Sample thermodynamic info  (temperature, energy, pressure, etc.) #####
thermo 1000









############################################################################

###
# set timestep of integrator

timestep 0.01

###
# run integration for a number of steps
###
#run 0
#variable r equal c_1
#if "$r < 63.1" then "quit 1"

# lj potential minimum, cause molecule to explore
run 100000
Generated 0 of 0 mixed pair_coeff terms from geometric mixing rule
Last active /omp style is angle_style cosine/omp
Neighbor list info ...
  update: every = 1 steps, delay = 1 steps, check = yes
  max neighbors/atom: 2000, page size: 100000
  master list distance cutoff = 5.1224615
  ghost atom cutoff = 5.1224615
  binsize = 2.5612308, bins = 781 781 781
  1 neighbor lists, perpetual/occasional/extra = 1 0 0
  (1) pair lj/cut/omp, perpetual
      attributes: half, newton on, omp
      pair build: half/bin/newton/omp
      stencil: half/bin/3d
      bin: standard
WARNING: Communication cutoff 5.12246152962189 is shorter than a bond length based estimate of 5.455. This may lead to errors. (src/comm.cpp:723)
Per MPI rank memory allocation (min/avg/max) = 1860 | 1860 | 1860 Mbytes
   Step          Temp         Enthalpy         c_1      
         0   0              13.357265      184.8098     
      1000   1.0483362      18.384005      184.44645    
      2000   0.98927499     18.56518       184.10272    
      3000   0.96477571     18.444333      183.93851    
      4000   1.0496564      18.495596      183.78344    
      5000   0.94823448     18.534623      183.52887    
      6000   0.94366412     18.727699      183.338      
      7000   0.99936763     18.706996      183.20147    
      8000   1.0742085      18.804821      183.08053    
      9000   1.0065952      19.116976      182.5488     
     10000   1.0194462      18.946001      182.05613    
     11000   0.98211995     18.754356      181.65723    
     12000   1.0332486      19.121924      181.40727    
     13000   0.98160573     18.24948       181.10361    
     14000   1.0263376      19.55493       180.84625    
     15000   0.9913042      19.309342      180.42471    
     16000   1.0120744      18.84857       180.21578    
     17000   1.0003785      18.923118      180.02544    
     18000   1.0018594      19.248404      179.85655    
     19000   0.99438337     19.259784      179.5836     
     20000   1.0022487      18.508206      179.25892    
     21000   1.0489333      19.413285      178.93808    
     22000   0.99222184     18.895928      178.67438    
     23000   1.030826       19.293232      178.38551    
     24000   0.96124422     18.791948      178.02719    
     25000   1.0088453      19.159219      177.74112    
     26000   0.96422411     18.894108      177.28549    
     27000   1.0294234      19.223038      177.0398     
     28000   0.99043714     19.088178      176.82985    
     29000   1.0438262      19.001087      176.48011    
     30000   1.0504141      19.478684      176.30174    
     31000   0.97523619     18.915855      176.10193    
     32000   1.0100385      19.051522      176.2147     
     33000   1.0092981      19.799866      176.155      
     34000   1.0031048      18.947293      176.16397    
     35000   0.99016958     19.386756      176.15698    
     36000   0.99086878     19.34033       175.97981    
     37000   0.99888974     19.333614      175.91432    
     38000   0.99823054     19.427167      175.88713    
     39000   0.97151514     19.092877      175.60028    
     40000   0.99266917     19.39495       175.48948    
     41000   1.0635569      19.235112      175.37554    
     42000   1.0129009      19.232008      175.10342    
     43000   0.97685769     19.224871      174.8977     
     44000   1.0037669      19.185728      174.85722    
     45000   1.0017344      18.968106      174.68731    
     46000   1.0112057      19.933628      174.28605    
     47000   0.96707601     19.309937      174.0162     
     48000   1.0146811      19.380664      173.73377    
     49000   0.97423333     19.09473       173.54493    
     50000   1.0483513      19.714309      173.46732    
     51000   0.96148294     18.924042      173.29571    
     52000   0.99650505     19.481192      173.04053    
     53000   0.99069418     19.485808      172.95615    
     54000   1.0055273      19.508796      172.76222    
     55000   1.0236137      19.355048      172.82063    
     56000   0.98169907     19.469318      172.65189    
     57000   1.0002616      19.644053      172.18525    
     58000   0.99962531     20.005087      172.08007    
     59000   0.99820834     19.681853      172.06715    
     60000   0.97438716     19.376032      172.07046    
     61000   0.98950482     19.483162      171.95557    
     62000   0.99887506     19.470214      171.75695    
     63000   0.98663274     19.715591      171.72058    
     64000   1.008843       19.687629      171.69225    
     65000   1.0417603      19.857895      171.29991    
     66000   1.0074568      19.495019      171.25249    
     67000   1.0170179      19.788869      171.08382    
     68000   0.99296809     19.518424      171.06892    
     69000   0.98163739     19.25886       170.86776    
     70000   0.96965432     19.261252      170.51274    
     71000   1.014167       19.310557      170.43084    
     72000   1.0286246      19.980154      170.09351    
     73000   1.0089184      19.617902      169.67877    
     74000   0.9822805      18.790131      169.5587     
     75000   1.0534891      19.76508       169.41762    
     76000   1.0171159      19.941666      169.52793    
     77000   0.99086866     19.356041      169.32748    
     78000   0.97321302     19.559158      169.28825    
     79000   1.0124646      19.652841      169.02806    
     80000   0.97427578     19.321232      168.68172    
     81000   1.0015643      19.367531      168.68895    
     82000   1.0105996      19.8824        168.56697    
     83000   0.9684474      19.93109       168.5273     
     84000   0.9715176      19.68908       168.431      
     85000   1.0131143      19.585886      168.40291    
     86000   1.0106116      19.828923      168.25983    
     87000   1.0169737      19.850352      168.03404    
     88000   0.95197279     19.958768      168.07224    
     89000   0.99839581     19.274594      167.93194    
     90000   1.037145       19.770395      168.00039    
     91000   0.96654183     19.790156      167.89258    
     92000   0.98397706     19.9178        167.95031    
     93000   0.95309252     19.705422      167.84925    
     94000   0.97981162     19.45044       167.91122    
     95000   1.0251035      19.792921      167.68236    
     96000   0.99657172     19.64499       167.62572    
     97000   0.96632971     19.28529       167.37608    
     98000   0.99977824     19.684494      167.31687    
     99000   0.99140424     20.119905      167.28472    
    100000   0.99688531     19.330638      167.23564    
Loop time of 374.472 on 2 procs for 100000 steps with 1099 atoms

Performance: 230724.637 tau/day, 267.042 timesteps/s
103.4% CPU use with 1 MPI tasks x 2 OpenMP threads

MPI task timing breakdown:
Section |  min time  |  avg time  |  max time  |%varavg| %total
---------------------------------------------------------------
Pair    | 1.3084     | 1.3084     | 1.3084     |   0.0 |  0.35
Bond    | 2.8768     | 2.8768     | 2.8768     |   0.0 |  0.77
Neigh   | 363.38     | 363.38     | 363.38     |   0.0 | 97.04
Comm    | 0.039469   | 0.039469   | 0.039469   |   0.0 |  0.01
Output  | 0.3147     | 0.3147     | 0.3147     |   0.0 |  0.08
Modify  | 6.1257     | 6.1257     | 6.1257     |   0.0 |  1.64
Other   |            | 0.4266     |            |       |  0.11

Nlocal:           1099 ave        1099 max        1099 min
Histogram: 1 0 0 0 0 0 0 0 0 0
Nghost:              0 ave           0 max           0 min
Histogram: 1 0 0 0 0 0 0 0 0 0
Neighs:           5581 ave        5581 max        5581 min
Histogram: 1 0 0 0 0 0 0 0 0 0

Total # of neighbors = 5581
Ave neighs/atom = 5.078253
Ave special neighs/atom = 1.9981802
Neighbor list builds = 1077
Dangerous builds = 0

# Replace lj potential, now collapse
pair_style      lj/cut 3

# Cutoff simul when gyration under 5
# Variable created with equal requires v_ + 'name'
fix 3 all halt 1000 v_rog < 7

run 5000000
Generated 0 of 0 mixed pair_coeff terms from geometric mixing rule
Last active /omp style is angle_style cosine/omp
Per MPI rank memory allocation (min/avg/max) = 1860 | 1860 | 1860 Mbytes
   Step          Temp         Enthalpy         c_1      
    100000   0.99688531     18.855835      167.23564    
    101000   0.97209999     19.373918      167.14429    
    102000   1.0271313      19.36423       166.76404    
    103000   1.0089201      18.840549      166.37772    
    104000   1.0588812      19.33188       166.19338    
    105000   1.0210257      18.833229      166.08666    
    106000   1.0045376      19.359746      165.86993    
    107000   1.0003233      19.000664      165.5135     
    108000   1.0071618      19.408473      165.2728     
    109000   0.99074894     18.895229      165.24442    
    110000   1.0282005      18.848537      165.22049    
    111000   0.99339259     19.224829      165.08419    
    112000   0.94600109     19.132066      164.92693    
    113000   1.0444456      19.212972      164.75489    
    114000   1.0079567      19.135282      164.59888    
    115000   0.99460796     19.344067      164.38667    
    116000   0.9543022      19.222681      164.36976    
    117000   0.98431802     19.464918      164.07082    
    118000   0.99518685     18.572998      163.76852    
    119000   1.0379776      19.35674       163.73822    
    120000   1.0248707      19.209644      163.55438    
    121000   1.0174796      19.030401      163.42463    
    122000   0.98320424     19.037072      163.03653    
    123000   1.0142144      19.060865      162.77923    
    124000   1.0223535      18.989938      162.40302    
    125000   1.0213853      19.471955      162.20025    
    126000   0.98461454     18.477301      161.81191    
    127000   1.0184229      19.305598      161.58655    
    128000   0.96403953     19.407286      161.45161    
    129000   1.0492879      19.456084      161.34088    
    130000   1.0059237      19.310873      161.20152    
    131000   1.0239361      19.281563      160.99997    
    132000   0.99028638     19.257127      160.94624    
    133000   1.0446665      19.431457      160.85268    
    134000   1.0080223      19.3018        160.66657    
    135000   0.96183701     19.282626      160.73556    
    136000   1.002077       19.604562      160.38534    
    137000   1.0027975      19.471564      160.13941    
    138000   0.99405506     18.970486      159.92083    
    139000   0.98944776     19.064868      159.67994    
    140000   1.005725       19.043231      159.34706    
    141000   0.9988427      19.135283      159.19562    
    142000   1.0135597      19.084376      159.20661    
    143000   0.99277792     19.174533      159.0792     
    144000   1.0017873      19.063682      158.91389    
    145000   1.0273505      19.289802      158.91196    
    146000   0.9518336      19.221464      158.75546    
    147000   1.0122149      18.986442      158.65969    
    148000   1.0036925      19.368708      158.7869     
    149000   0.94111036     19.136092      158.74481    
    150000   1.0064395      19.23797       158.71681    
    151000   1.0374614      19.124871      158.46807    
    152000   0.9729737      19.096283      158.35116    
    153000   0.98201371     18.932169      158.23751    
    154000   1.02695        18.975476      158.24861    
    155000   1.0317065      19.350793      158.15622    
    156000   0.99594655     18.92888       158.06484    
    157000   1.0202205      18.823936      157.83574    
    158000   1.0068613      19.361271      157.73924    
    159000   1.027057       18.801329      157.60619    
    160000   0.97358091     18.763861      157.49927    
    161000   0.96464949     18.59911       157.46047    
    162000   1.0286885      19.316441      157.15577    
    163000   0.978862       19.291622      157.11752    
    164000   1.0227675      18.981009      156.83512    
    165000   1.0236645      19.138466      156.81148    
    166000   1.0226637      19.071951      156.42645    
    167000   1.0134444      19.003405      156.21617    
    168000   1.0156238      18.993056      155.81722    
    169000   0.99353904     19.041212      155.5014     
    170000   1.0032155      19.786077      155.28553    
    171000   0.98378922     19.008438      155.23881    
    172000   0.98850665     18.705825      155.10723    
    173000   1.0322695      19.360853      154.74508    
    174000   1.0071526      19.131767      154.52062    
    175000   0.98932392     19.060697      154.36754    
    176000   1.0093873      18.71131       154.06773    
    177000   1.0039424      19.616981      153.77824    
    178000   0.96656683     18.938405      153.58411    
    179000   1.0445089      19.039439      153.69612    
    180000   1.0143856      19.009478      153.31998    
    181000   0.98676388     18.962657      153.13006    
    182000   0.99985701     19.452766      152.89351    
    183000   1.02329        19.389975      152.86119    
    184000   1.023473       19.055611      152.61106    
    185000   1.0015185      19.145683      152.4274     
    186000   0.99291611     19.058773      152.24046    
    187000   1.0536929      19.327937      152.16501    
    188000   1.0466469      19.405914      151.95008    
    189000   1.0294123      19.25632       151.58383    
    190000   1.0213904      19.291851      151.44697    
    191000   1.0060681      19.072994      151.34952    
    192000   1.0268069      19.174287      151.26443    
    193000   1.0232722      18.932093      151.11921    
    194000   0.95223434     18.651759      150.91001    
    195000   0.97619706     19.198875      150.63349    
    196000   1.0088337      19.128011      150.41136    
    197000   1.0267382      19.199187      150.31885    
    198000   1.0031756      18.848068      150.35099    
    199000   1.041972       19.17801       150.13691    
    200000   1.0098093      18.814049      149.97004    
    201000   0.99603562     18.93773       149.90304    
    202000   0.98823691     19.228784      149.63034    
    203000   1.0134881      19.723785      149.58071    
    204000   1.0129306      19.600049      149.29467    
    205000   1.0197024      19.153886      149.15511    
    206000   0.98914787     18.909133      148.90126    
    207000   1.0246361      19.431448      148.7457     
    208000   0.99687336     18.9087        148.62332    
    209000   0.98955324     18.437243      148.46367    
    210000   1.0353263      19.151665      148.09472    
    211000   0.96011675     18.698148      147.78522    
    212000   1.0010329      19.301468      147.60831    
    213000   1.0311342      19.197078      147.61787    
    214000   0.99905704     18.835146      147.51688    
    215000   1.0000652      19.154044      147.15319    
    216000   1.0521285      19.246952      146.94677    
    217000   1.0044528      18.835707      146.94281    
    218000   0.99055617     18.549691      147.12288    
    219000   1.0081135      19.150075      146.56274    
    220000   1.0255082      19.577616      146.16523    
    221000   0.99933451     19.204339      146.06072    
    222000   1.0336379      19.330477      145.93162    
    223000   0.99260647     19.343498      145.75636    
    224000   1.0105087      19.424024      145.61988    
    225000   1.0326165      18.910251      145.42869    
    226000   1.0074407      19.279246      145.16338    
    227000   1.0079563      19.101807      144.94461    
    228000   1.028482       19.038635      144.93421    
    229000   1.0173728      19.217145      144.91288    
    230000   0.99629909     19.675962      144.75686    
    231000   0.93072402     19.279617      144.56491    
    232000   0.99231042     19.031507      144.46693    
    233000   0.98932687     19.040094      144.33288    
    234000   0.99482469     18.951847      144.36353    
    235000   1.0079762      19.533678      144.27076    
    236000   0.99412417     19.052983      144.17506    
    237000   0.98382478     18.751596      143.9232     
    238000   1.0554237      19.516033      143.76881    
    239000   1.0034468      19.234357      143.67254    
    240000   1.0312728      19.355568      143.60494    
    241000   1.0331721      19.140764      143.59503    
    242000   1.0027201      19.099718      143.49055    
    243000   1.0413329      19.015121      143.11145    
    244000   0.97344092     18.812498      143.09049    
    245000   0.97758518     18.534962      142.76088    
    246000   0.96418553     18.5336        142.6327     
    247000   1.0167753      19.141512      142.28756    
    248000   0.98301122     18.885369      142.06332    
    249000   0.99350194     18.981654      141.95511    
    250000   0.95605424     19.379073      141.89781    
    251000   1.0222964      18.927937      141.71599    
    252000   1.0081295      19.232967      141.60074    
    253000   0.98488969     19.050229      141.4509     
    254000   0.99302539     18.683672      141.53909    
    255000   1.0398073      19.392199      141.46201    
    256000   1.0055192      19.076443      141.27793    
    257000   1.0225736      18.789602      141.15271    
    258000   0.99037835     18.88497       140.85777    
    259000   0.98616957     19.18484       140.76677    
    260000   0.98862555     19.106284      140.74701    
    261000   0.99115507     19.210636      140.52272    
    262000   0.99648974     19.352025      140.26903    
    263000   1.0163639      19.127839      140.22993    
    264000   0.97762538     18.977594      140.00041    
    265000   0.95438551     19.05511       139.86188    
    266000   1.0173259      19.204432      139.76201    
    267000   1.0417774      19.298559      139.55406    
    268000   0.97091027     19.412002      139.63499    
    269000   1.007792       19.190702      139.52042    
    270000   0.99993847     18.712492      139.30072    
    271000   1.0039611      18.866306      139.17776    
    272000   1.0257303      18.762529      139.31193    
    273000   0.98214473     19.250553      139.28605    
    274000   0.99752768     18.912525      139.17114    
    275000   0.98337905     19.397656      139.01358    
    276000   0.99233028     19.049566      139.03259    
    277000   0.97700811     18.896503      138.77419    
    278000   1.0103783      19.325494      138.53309    
    279000   0.99552949     19.068625      138.59502    
    280000   0.98982747     19.275707      138.49899    
    281000   1.038131       18.892172      138.18189    
    282000   1.0003327      18.327045      138.02591    
    283000   1.0230767      19.031238      137.72332    
    284000   1.0029439      18.667571      137.57649    
    285000   1.014219       18.737665      137.48636    
    286000   0.9440468      18.802126      137.19455    
    287000   1.0215013      19.143307      137.10676    
    288000   0.98904352     18.941064      137.14614    
    289000   1.0451983      19.25189       137.09044    
    290000   1.00697        18.945877      137.1547     
    291000   1.0318034      19.146847      136.89862    
    292000   1.0576388      18.9118        136.76424    
    293000   1.0054742      19.146828      136.64052    
    294000   1.0564903      19.157962      136.27946    
    295000   1.0213219      18.808521      136.05116    
    296000   0.99221736     19.276722      135.93221    
    297000   1.0450065      19.010714      135.90525    
    298000   0.97007139     18.822494      135.83577    
    299000   0.98409246     19.056757      135.50648    
    300000   0.95640435     18.704716      135.64364    
    301000   1.0212592      19.291293      135.71872    
    302000   0.99443303     18.951917      135.57841    
    303000   1.0281385      19.397988      135.42706    
    304000   1.0256136      18.769924      135.26545    
    305000   0.959009       18.607478      135.13078    
    306000   1.0028835      19.303615      135.1586     
    307000   1.016103       18.896301      135.07785    
    308000   0.96875286     18.978984      134.71269    
    309000   1.0101328      19.150969      134.53292    
    310000   1.0424278      19.158364      134.28751    
    311000   0.94785678     18.682124      134.04697    
    312000   0.98337408     19.016847      133.93331    
    313000   1.0485246      19.532129      133.51327    
    314000   1.0455711      18.943001      133.20666    
    315000   1.0220929      18.790725      133.02151    
    316000   0.98287711     18.826519      133.02264    
    317000   1.0142073      18.750109      132.73745    
    318000   0.99111399     19.08454       132.56166    
    319000   1.0563145      19.461477      132.58085    
    320000   0.97201621     19.354828      132.35997    
    321000   1.0156274      18.790359      131.96175    
    322000   1.0005776      19.333529      131.73095    
    323000   0.98100939     18.952534      131.31471    
    324000   1.0095585      19.032814      131.11266    
    325000   1.0109691      18.689514      130.93163    
    326000   0.97519967     19.506643      130.90243    
    327000   1.0225787      19.172135      130.92904    
    328000   1.0282693      18.729178      130.84836    
    329000   1.0170243      18.914573      130.75049    
    330000   0.97070907     19.402556      130.54781    
    331000   0.97514212     19.166706      130.46204    
    332000   0.9802939      19.352633      130.51853    
    333000   1.0113196      18.557351      130.30863    
    334000   0.99781677     19.105889      130.0019     
    335000   0.96760601     19.55847       129.89384    
    336000   1.0037331      18.814205      129.86311    
    337000   0.98461376     19.060956      129.68093    
    338000   1.0224719      18.911586      129.57555    
    339000   1.0183349      19.173847      129.413      
    340000   1.0477261      19.214052      129.45128    
    341000   1.0346792      19.034996      129.38352    
    342000   1.020478       18.91166       129.28812    
    343000   1.0005001      19.117029      129.15833    
    344000   0.98404981     18.826579      129.05219    
    345000   0.96754908     18.986265      128.55844    
    346000   0.98753396     18.856785      128.44629    
    347000   1.0024543      19.45239       128.32309    
    348000   1.0033302      18.434921      127.92876    
    349000   0.98195475     18.79755       127.97074    
    350000   1.038052       19.681241      128.16082    
    351000   0.99366394     19.298144      128.14209    
    352000   0.99861757     19.00352       128.07521    
    353000   0.9636126      18.946062      127.83639    
    354000   1.0259039      18.696617      127.57045    
    355000   0.9611013      18.311235      127.45875    
    356000   0.95210939     18.756552      127.38044    
    357000   1.0629077      18.797522      127.23661    
    358000   0.93174937     18.916059      127.3313     
    359000   1.0249416      19.21184       127.21648    
    360000   0.99628919     19.144649      127.12145    
    361000   1.0203299      18.879533      127.26125    
    362000   1.0110993      18.576289      127.2005     
    363000   1.0120741      18.881289      126.92342    
    364000   0.98557314     19.194618      126.8171     
    365000   0.99385553     18.864935      127.02259    
    366000   1.0026239      19.105425      126.8836     
    367000   1.0199987      19.080186      126.86338    
    368000   0.97611297     18.944205      126.80888    
    369000   0.98177472     18.966608      126.86185    
    370000   0.99236627     19.267966      126.78806    
    371000   0.99548203     18.914514      126.64499    
    372000   1.0111123      18.599911      126.47003    
    373000   0.98120528     18.511585      126.24888    
    374000   1.0163281      19.008082      126.07071    
    375000   1.0112929      18.382463      125.88255    
    376000   0.98725903     19.082198      125.75762    
    377000   0.97177358     18.828727      125.87009    
    378000   0.95467729     19.19935       125.84553    
    379000   0.98689248     18.828984      125.9394     
    380000   1.0144552      18.75488       125.77614    
    381000   0.99961967     19.596286      125.5155     
    382000   1.024725       19.072129      125.50222    
    383000   0.99793298     18.731807      125.28984    
    384000   0.9818484      18.659316      124.97111    
    385000   1.0159727      19.126088      124.86161    
    386000   1.0022884      18.528842      124.68469    
    387000   0.98258514     18.672888      124.60054    
    388000   0.98019085     18.528583      124.4645     
    389000   1.0180884      18.973428      124.21049    
    390000   1.0390632      18.835993      123.88064    
    391000   0.99749608     18.35925       123.58532    
    392000   0.98114282     19.200868      123.34098    
    393000   1.0310243      19.138318      123.2047     
    394000   0.98724362     18.376814      123.18749    
    395000   0.95615177     18.705917      122.99472    
    396000   0.98923411     18.684921      122.95157    
    397000   1.0263911      19.348519      122.86614    
    398000   0.98043055     18.231477      122.85117    
    399000   1.0059219      18.309513      122.61093    
    400000   0.9538614      18.707994      122.6407     
    401000   1.0278107      18.902396      122.38521    
    402000   1.0274348      19.100886      122.11868    
    403000   0.99418715     19.085918      121.86225    
    404000   1.0070723      19.180651      121.89679    
    405000   0.99392328     18.81385       122.0441     
    406000   0.95356353     18.174911      122.03905    
    407000   1.0202927      19.135289      122.1295     
    408000   0.98025411     18.785841      121.97327    
    409000   1.0105788      18.88383       121.88518    
    410000   1.0125883      18.876131      121.87862    
    411000   1.0145933      18.788074      121.7887     
    412000   0.98886479     19.179826      121.7759     
    413000   1.0050135      18.858099      121.60108    
    414000   0.975292       18.335526      121.59332    
    415000   1.0283489      19.130193      121.45019    
    416000   1.0061232      18.887659      121.5266     
    417000   0.96631065     18.888186      121.31222    
    418000   0.98886996     18.849681      121.18371    
    419000   1.0046284      18.610101      121.0378     
    420000   0.97753304     19.419928      120.97588    
    421000   1.0031126      18.654843      120.77235    
    422000   0.98938267     18.823333      120.43798    
    423000   0.98783079     18.800447      120.04732    
    424000   1.0391042      19.125799      119.93642    
    425000   1.0269325      18.561344      119.99636    
    426000   1.005624       19.112079      119.75034    
    427000   0.99931105     18.900766      119.66739    
    428000   0.99648653     18.870676      119.57476    
    429000   1.0015036      19.26537       119.7015     
    430000   1.0048281      18.567935      119.81809    
    431000   1.042472       19.080137      119.65997    
    432000   1.0432168      19.000783      119.56606    
    433000   1.012767       18.678804      119.475      
    434000   0.9987353      18.789162      119.58266    
    435000   0.9609987      18.391192      119.52102    
    436000   1.0075234      18.275668      119.70614    
    437000   0.99063875     18.393786      119.53816    
    438000   0.98724339     18.660004      119.32459    
    439000   1.0012618      18.791664      119.31663    
    440000   1.0217309      18.816871      119.22953    
    441000   1.043766       18.65058       119.11352    
    442000   0.9840695      18.788339      119.12322    
    443000   1.0062867      18.488765      118.96567    
    444000   1.008155       18.267128      118.84337    
    445000   0.97300604     18.491615      118.70683    
    446000   1.0190091      19.01257       118.69611    
    447000   1.0292795      18.741161      118.58205    
    448000   1.0024999      18.782821      118.3661     
    449000   0.97002144     18.970585      118.0231     
    450000   0.99448186     19.233209      117.94369    
    451000   0.96308097     18.595954      117.88526    
    452000   0.97786934     18.717618      117.95569    
    453000   1.0126119      18.717294      117.71743    
    454000   1.0172883      19.248836      117.55344    
    455000   1.0002409      18.916876      117.46974    
    456000   1.0185248      19.266925      117.54602    
    457000   1.0233243      18.948849      117.4952     
    458000   1.0050656      18.038498      117.53664    
    459000   1.0142006      18.648878      117.46218    
    460000   0.98911002     18.890611      117.40035    
    461000   1.0133706      18.654725      117.26719    
    462000   0.96917544     18.895847      117.29928    
    463000   0.96227074     18.573935      117.28625    
    464000   1.0026322      18.939344      117.30556    
    465000   1.0219644      19.010055      117.26528    
    466000   1.029356       18.871159      117.15245    
    467000   1.0027934      18.750361      117.03456    
    468000   0.9815976      18.526924      117.01664    
    469000   0.92736486     18.179764      116.73844    
    470000   1.0112104      18.796577      116.56213    
    471000   1.0255684      18.631701      116.28456    
    472000   1.0047458      18.596238      116.27123    
    473000   0.98486384     18.902636      116.00969    
    474000   0.97443807     18.882909      115.84586    
    475000   1.0100288      19.118567      115.81196    
    476000   1.0209082      18.996295      115.75726    
    477000   0.97199179     18.657404      115.55222    
    478000   0.97765635     18.558449      115.36729    
    479000   0.99903147     18.678539      115.30093    
    480000   1.0356129      18.64325       115.19786    
    481000   0.95264208     18.576449      115.28819    
    482000   1.0022284      19.007222      115.10149    
    483000   1.0397681      18.291785      115.08527    
    484000   1.004994       18.337794      115.3086     
    485000   0.98281266     18.48289       115.01543    
    486000   0.98132978     19.011513      115.1698     
    487000   0.98947993     18.451051      115.20525    
    488000   0.97070266     18.743406      115.05204    
    489000   1.0001056      18.391427      115.02865    
    490000   0.98782979     18.748752      114.84759    
    491000   1.0081891      18.161258      114.68244    
    492000   0.99714559     18.458154      114.59015    
    493000   0.98538452     18.89455       114.43382    
    494000   0.94370862     17.753957      114.53128    
    495000   0.99586721     18.83896       114.50468    
    496000   0.98704309     19.107503      114.21642    
    497000   0.96820407     18.704282      114.20201    
    498000   0.98545176     19.022443      114.06904    
    499000   0.99102367     18.777355      113.81009    
    500000   1.0197867      18.707204      113.764      
    501000   1.001631       18.491792      113.70379    
    502000   0.97946014     18.725619      113.56231    
    503000   1.048787       18.566643      113.48793    
    504000   0.99775618     19.459229      113.41697    
    505000   1.0010097      18.535293      113.32041    
    506000   1.0113303      18.726163      113.15579    
    507000   1.0000137      19.078817      112.89262    
    508000   0.98271914     17.843051      112.74676    
    509000   1.0319721      18.817796      112.61844    
    510000   0.9947164      18.017405      112.60605    
    511000   1.0088654      18.600105      112.25517    
    512000   1.0197557      18.574593      111.97546    
    513000   0.99338556     18.30838       111.95664    
    514000   0.9938782      18.686085      111.97748    
    515000   0.97062375     18.539827      112.04299    
    516000   1.000911       19.171217      111.97174    
    517000   0.97410208     18.441564      111.926      
    518000   0.98489943     18.851569      111.91579    
    519000   0.9782049      18.533494      111.69631    
    520000   1.012549       18.501539      111.55462    
    521000   0.98036038     18.665494      111.36559    
    522000   1.0114581      18.811532      111.17979    
    523000   0.98243661     18.842184      111.10378    
    524000   0.96193064     18.251615      110.90685    
    525000   1.0289076      17.950475      110.69396    
    526000   0.97916772     17.97572       110.37051    
    527000   0.99844929     18.38688       110.49652    
    528000   0.98184239     18.614602      110.44015    
    529000   0.99801854     19.198698      110.31056    
    530000   0.97590357     18.364176      110.08559    
    531000   1.0291492      18.35356       110.17707    
    532000   0.981444       18.313193      110.1529     
    533000   1.0264878      18.517508      110.10457    
    534000   1.0119846      18.609203      110.12879    
    535000   0.98099678     18.687329      110.08338    
    536000   0.98071378     18.061365      109.96361    
    537000   0.98991643     17.910645      109.76545    
    538000   0.98324292     18.467167      109.71474    
    539000   1.0074715      18.632415      109.48449    
    540000   1.0189874      18.54871       109.14376    
    541000   0.97892402     18.532587      108.95364    
    542000   1.0069736      18.914013      109.04942    
    543000   1.0606866      18.262312      108.72759    
    544000   0.98707204     18.612538      108.49519    
    545000   1.0211941      19.019287      108.272      
    546000   1.0133452      18.576504      108.09165    
    547000   0.97752245     18.633212      107.98682    
    548000   0.96421244     18.513726      107.7345     
    549000   1.0154043      18.463463      107.78981    
    550000   1.0139683      18.357017      107.55984    
    551000   1.0353131      18.107357      107.32437    
    552000   0.98206133     18.479483      107.28504    
    553000   0.94434733     18.534871      107.00276    
    554000   1.0020082      17.962399      106.81006    
    555000   0.99185197     18.330207      106.74336    
    556000   0.97671454     17.903572      106.56825    
    557000   0.9927136      18.687242      106.50454    
    558000   1.0161169      18.756902      106.4477     
    559000   1.0152044      18.518405      106.55616    
    560000   1.0208279      18.259694      106.33452    
    561000   0.98546622     18.75252       106.38383    
    562000   1.0100502      18.748516      106.20402    
    563000   0.99582007     18.656312      106.09712    
    564000   0.99706332     18.673378      106.03875    
    565000   1.013587       18.409476      105.75217    
    566000   1.019149       18.346825      105.70472    
    567000   0.98123349     18.346481      105.52398    
    568000   0.98821602     17.957187      105.41141    
    569000   0.98287947     18.373727      105.45233    
    570000   0.93944061     18.132822      105.2398     
    571000   1.0129227      18.458012      105.04892    
    572000   0.95581093     18.167072      104.97288    
    573000   0.98797204     18.72042       105.02859    
    574000   0.953145       17.938295      104.77719    
    575000   1.016749       19.0539        104.70927    
    576000   1.0004209      18.672978      104.74051    
    577000   0.94615728     19.091475      104.48931    
    578000   0.97516831     18.621051      104.1988     
    579000   1.0219199      18.105346      103.88971    
    580000   1.0191548      18.578796      103.89448    
    581000   0.97192506     18.272773      103.58078    
    582000   1.0051107      18.951878      103.62949    
    583000   1.0378118      17.90252       103.26895    
    584000   0.97242746     18.282451      103.17191    
    585000   1.015221       18.581107      103.11837    
    586000   0.99859708     17.919345      102.89918    
    587000   1.0488458      18.754087      102.48453    
    588000   1.0202807      18.472751      102.36925    
    589000   0.98905004     18.305576      102.07194    
    590000   0.97465686     18.382114      101.94093    
    591000   0.99862148     18.16741       101.85375    
    592000   0.9952497      18.558935      101.55727    
    593000   0.95859023     18.873253      101.51679    
    594000   0.96963877     18.439499      101.24393    
    595000   0.98056257     17.831273      101.25733    
    596000   1.0080548      18.94796       101.02991    
    597000   1.0087853      18.389866      101.05442    
    598000   0.99390717     18.634764      100.79751    
    599000   1.0184472      18.631402      100.49439    
    600000   0.96518448     18.918476      100.24313    
    601000   1.0129631      18.571503      100.23124    
    602000   0.98688675     18.635635      99.984095    
    603000   0.95622678     18.333453      99.821206    
    604000   1.0277397      18.319908      99.833601    
    605000   1.0079403      18.485859      99.751843    
    606000   1.0154541      18.594219      99.727757    
    607000   1.0343805      18.19067       99.496257    
    608000   1.0179802      18.513995      99.434243    
    609000   1.0620711      18.515123      99.23194     
    610000   0.98034704     17.738106      98.935459    
    611000   0.99065237     18.614844      99.158174    
    612000   0.9998704      18.587482      99.19333     
    613000   1.009987       18.47543       99.125354    
    614000   1.0438088      18.803129      99.149698    
    615000   1.0138525      18.651707      98.902672    
    616000   1.0681131      18.589281      98.60691     
    617000   1.0371411      18.998858      98.804737    
    618000   0.98191503     17.914753      98.555943    
    619000   1.0237157      19.12869       98.406322    
    620000   0.9975498      18.723158      98.359474    
    621000   0.99029539     18.423665      98.056059    
    622000   1.0337883      18.307144      97.918088    
    623000   1.0147052      18.863798      97.937406    
    624000   0.97677568     18.471392      97.974336    
    625000   0.98730814     18.434093      97.713264    
    626000   0.98264902     18.720857      97.601838    
    627000   1.0060967      18.861719      97.734665    
    628000   1.0334217      18.565672      97.736433    
    629000   0.97527677     18.735679      97.622767    
    630000   0.95548471     18.16283       97.585473    
    631000   1.0095562      18.671628      97.571837    
    632000   0.99422925     18.433073      97.440855    
    633000   1.0021831      17.754987      97.389873    
    634000   0.97491292     18.068743      97.336589    
    635000   0.95088997     18.412935      97.298209    
    636000   0.98710621     18.509801      97.171492    
    637000   1.0394887      18.41338       97.153404    
    638000   0.95716207     18.209144      97.00691     
    639000   1.0205797      19.030346      96.676195    
    640000   1.0645962      18.352679      96.54335     
    641000   0.99965003     18.587675      96.433773    
    642000   1.005811       19.223464      96.248479    
    643000   1.0038366      18.207067      96.104526    
    644000   1.0108599      17.770667      96.138854    
    645000   1.0447141      18.269617      95.978007    
    646000   1.0141421      18.512469      95.584491    
    647000   0.98739438     18.277145      95.541728    
    648000   1.0027295      18.66082       95.393259    
    649000   1.0120863      18.453027      95.23492     
    650000   0.97708034     17.90213       95.154697    
    651000   0.96951034     17.689851      95.080217    
    652000   1.0070437      18.53275       94.949389    
    653000   0.99965405     18.510022      94.97245     
    654000   1.0162986      18.441206      94.857455    
    655000   0.96822581     17.894489      94.67421     
    656000   0.98727346     18.550322      94.782128    
    657000   0.99092096     18.162626      94.540872    
    658000   0.96010704     18.49537       94.600419    
    659000   0.96763098     18.243561      94.606256    
    660000   0.9836435      18.212419      94.558671    
    661000   1.0167267      18.360497      94.497683    
    662000   0.99878078     18.419466      94.190636    
    663000   1.0136845      18.99362       93.947812    
    664000   1.0379623      18.162605      93.938241    
    665000   1.0159278      18.467221      93.915627    
    666000   1.0069908      18.626217      93.823515    
    667000   1.0062978      18.071386      93.508874    
    668000   1.0009406      18.267522      93.399469    
    669000   0.99706128     18.896241      93.226211    
    670000   0.98344415     17.882154      93.29689     
    671000   1.0278263      18.581866      93.337893    
    672000   0.9865952      18.38916       92.996165    
    673000   0.99311651     18.245565      92.948553    
    674000   0.97891519     17.604823      92.88741     
    675000   0.96750101     18.37186       92.829432    
    676000   1.0216272      18.270005      92.858567    
    677000   0.99302331     18.378152      92.91756     
    678000   1.0351507      18.067439      92.827924    
    679000   0.97860961     18.492809      92.862104    
    680000   1.0079384      17.890491      92.79273     
    681000   1.0267905      18.491363      92.70301     
    682000   1.0013699      18.884563      92.819586    
    683000   1.0169674      18.764751      92.702463    
    684000   1.0184395      18.619293      92.683067    
    685000   0.9609656      17.728594      92.440549    
    686000   1.0196166      18.247607      92.502731    
    687000   0.97262147     18.502301      92.531301    
    688000   0.97117964     18.639256      92.438736    
    689000   0.98832002     18.260434      92.45084     
    690000   1.0072838      17.899021      92.093046    
    691000   1.0106735      18.369386      91.824788    
    692000   1.0071179      18.56724       91.645156    
    693000   1.0437627      18.735103      91.400051    
    694000   0.99850738     18.381796      91.258741    
    695000   1.0263587      18.442084      91.13081     
    696000   0.98317971     18.413338      90.941168    
    697000   0.99668776     17.7532        90.711625    
    698000   1.0056506      18.387043      90.589074    
    699000   1.0356941      18.534941      90.786612    
    700000   0.9819244      18.546552      90.908709    
    701000   1.0037222      18.56105       90.88697     
    702000   1.0106736      18.439535      90.567626    
    703000   0.99414454     18.015794      90.40657     
    704000   1.029123       18.538248      90.317572    
    705000   0.96079065     17.939335      90.081773    
    706000   1.029254       18.738148      89.863531    
    707000   0.99147016     17.967612      89.884085    
    708000   1.013949       18.299887      89.837009    
    709000   0.97808195     18.253722      89.546424    
    710000   1.0078461      17.864573      89.614367    
    711000   0.99056293     18.349102      89.33288     
    712000   0.98392383     18.276946      89.272671    
    713000   1.021815       18.396747      89.236486    
    714000   1.0259246      18.269916      89.281601    
    715000   0.99853323     18.355138      88.911677    
    716000   0.99479029     18.47548       88.696765    
    717000   1.0038554      18.793126      88.58225     
    718000   1.0088298      18.225596      88.165473    
    719000   1.0339188      18.264162      87.972654    
    720000   1.0209283      18.219509      87.948019    
    721000   1.0052215      17.824333      87.871941    
    722000   1.0015076      18.281886      87.706089    
    723000   1.0432991      18.562202      87.686789    
    724000   1.0183569      18.29094       87.537257    
    725000   1.0384899      18.562423      87.44917     
    726000   1.0081845      18.904526      87.379753    
    727000   1.027556       17.83162       87.328025    
    728000   0.94003937     18.371067      87.264385    
    729000   0.98766877     18.783666      87.238906    
    730000   1.0002184      18.534657      86.931193    
    731000   0.98985        18.785154      86.878285    
    732000   1.0411551      18.473746      86.831405    
    733000   1.0114075      17.951187      87.063408    
    734000   1.0022529      17.959065      86.969643    
    735000   1.0268669      18.461727      86.934947    
    736000   1.0243888      19.067341      86.869189    
    737000   1.0409348      19.408766      86.815954    
    738000   0.98426588     18.344538      86.954201    
    739000   0.97454788     18.624339      86.790226    
    740000   0.99046332     18.076011      86.455015    
    741000   1.0383141      18.01467       86.560556    
    742000   1.0156811      18.532736      86.503122    
    743000   1.0364237      17.981188      86.422169    
    744000   1.0158275      18.313608      86.283397    
    745000   0.98640848     17.738171      86.187906    
    746000   0.99694987     18.039962      85.93225     
    747000   1.0337985      18.86908       85.92426     
    748000   1.0174769      18.120973      85.929786    
    749000   0.99669629     18.468754      85.979325    
    750000   0.95664276     18.169702      86.006941    
    751000   1.0266726      18.556329      85.787995    
    752000   0.96989045     18.527854      85.804081    
    753000   1.0151937      18.573693      85.728032    
    754000   0.97277718     17.831151      85.581486    
    755000   1.0039741      18.764527      85.661337    
    756000   0.99356094     18.201232      85.561903    
    757000   1.0063867      18.080514      85.319602    
    758000   0.99350291     18.147892      85.285146    
    759000   1.0409483      18.323294      85.013305    
    760000   0.99923177     17.929947      84.866152    
    761000   0.99234325     18.340161      84.793894    
    762000   0.97043561     18.172547      84.678295    
    763000   0.95380464     18.168441      84.600604    
    764000   0.97438561     18.696901      84.433474    
    765000   0.97992274     18.002931      84.439663    
    766000   1.000232       17.931222      84.378103    
    767000   0.99876564     18.702423      84.213946    
    768000   0.95150914     18.166409      84.240707    
    769000   1.0024002      18.166648      84.207186    
    770000   0.99508527     18.462758      84.228598    
    771000   0.97794386     18.036217      84.342363    
    772000   1.0121598      17.534528      84.240162    
    773000   1.01912        18.078488      84.285554    
    774000   1.0192626      17.735063      84.209895    
    775000   0.99285535     18.349641      84.240345    
    776000   0.96429597     18.116059      84.031949    
    777000   0.95768547     17.544865      84.028458    
    778000   1.0147511      18.739818      84.04392     
    779000   1.0260015      18.287614      84.132294    
    780000   1.0177829      18.553862      83.937       
    781000   0.99130915     18.143092      83.914892    
    782000   1.0322829      18.065234      83.742617    
    783000   1.0017118      17.643734      83.621651    
    784000   1.0301822      18.326884      83.612531    
    785000   0.99478491     17.968201      83.577679    
    786000   0.99506071     17.899649      83.521088    
    787000   1.0280607      18.408962      83.357832    
    788000   0.98583241     18.229333      83.3959      
    789000   1.0306793      18.417011      83.281193    
    790000   0.97433441     18.056447      83.290851    
    791000   1.0041211      18.292689      83.191091    
    792000   0.98183228     18.011516      83.320816    
    793000   1.0052775      18.40406       83.168405    
    794000   0.96996235     17.945897      82.8971      
    795000   1.0242315      18.200717      82.79222     
    796000   1.0209131      18.132835      82.833417    
    797000   1.0057643      18.280099      82.877167    
    798000   1.0191537      18.16795       82.759264    
    799000   0.99800151     18.056467      82.507622    
    800000   1.0635904      18.517795      82.480345    
    801000   1.0534535      18.681569      82.49441     
    802000   0.9841279      18.616288      82.328957    
    803000   1.0688054      18.783773      82.078803    
    804000   1.0438799      18.415892      81.871508    
    805000   1.0119813      18.586624      81.648855    
    806000   0.96230491     18.078044      81.649808    
    807000   0.97990333     18.236973      81.553829    
    808000   0.965417       18.602823      81.641225    
    809000   1.0263754      18.547005      81.529386    
    810000   0.98836587     18.101048      81.125346    
    811000   1.0368557      18.309839      81.068499    
    812000   1.0270901      18.054383      80.999772    
    813000   1.0135354      18.462107      80.777963    
    814000   1.0314338      18.111433      80.729391    
    815000   0.9809336      18.065394      80.493067    
    816000   0.9459932      17.766098      80.411532    
    817000   0.98927589     18.37455       80.569512    
    818000   1.022376       17.871653      80.354946    
    819000   1.013966       18.174724      80.053253    
    820000   1.0124136      17.646136      80.009401    
    821000   0.98851398     18.576605      80.01625     
    822000   1.008015       18.378497      79.986921    
    823000   1.0315467      18.556608      79.795068    
    824000   1.0184874      17.983825      79.723118    
    825000   0.99244579     18.508734      79.620806    
    826000   0.96597149     17.365953      79.467126    
    827000   0.98861148     18.2144        79.388121    
    828000   1.0062876      17.838136      79.314151    
    829000   0.97014162     17.745644      79.137492    
    830000   0.99470972     17.562529      79.037019    
    831000   1.0458706      18.098823      79.181044    
    832000   0.96593064     18.223671      79.182209    
    833000   0.99886138     17.628866      79.100486    
    834000   0.92170844     18.381839      78.886082    
    835000   1.0147702      17.935325      78.780264    
    836000   1.020865       17.857615      78.537225    
    837000   0.98211759     18.216323      78.530247    
    838000   1.0163829      18.30539       78.658201    
    839000   1.047533       18.491418      78.397135    
    840000   0.97111171     18.21869       78.331363    
    841000   1.0126079      18.399141      77.946528    
    842000   1.0276994      18.150548      77.658802    
    843000   0.96584459     17.726476      77.575436    
    844000   1.0120282      18.194495      77.356617    
    845000   1.0283844      18.184533      77.347438    
    846000   0.98485538     17.595758      77.111783    
    847000   1.0083632      18.106203      77.119596    
    848000   0.9782613      18.226322      76.991894    
    849000   0.98308817     17.844583      76.965796    
    850000   0.99305344     17.856922      76.575744    
    851000   1.0443136      18.636722      76.750708    
    852000   1.0075328      18.31867       76.697951    
    853000   1.0207044      17.788535      76.543617    
    854000   0.95660102     17.962466      76.51863     
    855000   1.0326144      18.425458      76.541131    
    856000   0.96724148     18.158306      76.562948    
    857000   0.98783647     18.190737      76.466869    
    858000   1.0154527      18.349343      76.215425    
    859000   1.0140982      18.383112      76.202706    
    860000   0.98534181     17.369207      76.294663    
    861000   1.0037637      18.163587      76.046325    
    862000   1.0025983      18.233842      76.056713    
    863000   0.9788664      17.713         75.714681    
    864000   1.0320821      18.454426      75.65888     
    865000   1.0138239      17.89633       75.736358    
    866000   0.99871909     18.382648      75.66277     
    867000   0.98270177     18.370724      75.795017    
    868000   0.96862097     17.664228      75.446101    
    869000   0.97229775     17.930304      75.132429    
    870000   0.97278163     17.998614      74.951752    
    871000   0.98538512     18.216767      74.837456    
    872000   1.0180613      17.855819      74.692438    
    873000   0.99014781     17.892375      74.486245    
    874000   0.97394753     17.833094      74.626836    
    875000   0.98356217     18.165215      74.719118    
    876000   0.99025117     18.148735      74.791285    
    877000   0.98129068     17.881342      74.900799    
    878000   1.0381883      17.934874      74.954007    
    879000   0.98319064     17.647777      74.968066    
    880000   1.001076       17.959433      74.825374    
    881000   1.0353963      18.0178        74.632431    
    882000   1.0010496      18.000855      74.635809    
    883000   1.0103055      18.392165      74.473475    
    884000   1.0403428      18.029522      74.388248    
    885000   0.97215729     18.048091      74.277983    
    886000   0.99001808     18.111593      74.108631    
    887000   1.0021212      18.774224      74.044844    
    888000   0.98875488     17.905279      73.837516    
    889000   1.0489469      18.517114      73.929445    
    890000   1.0212615      17.980383      73.787311    
    891000   1.0516384      17.991959      73.877114    
    892000   1.0096224      18.373425      73.949411    
    893000   1.0376634      18.236483      73.934431    
    894000   0.95855349     18.032262      73.654162    
    895000   0.98638999     17.980432      73.481483    
    896000   0.98343687     17.949089      73.467019    
    897000   1.027532       17.744108      73.454919    
    898000   0.99190115     18.097371      73.275536    
    899000   1.0244116      17.815403      73.202666    
    900000   0.97569855     18.185203      73.192477    
    901000   1.0109846      18.328597      72.859052    
    902000   1.0125355      17.495409      72.666098    
    903000   1.0336848      18.019117      72.443468    
    904000   1.043377       18.052478      72.446724    
    905000   1.002772       17.859461      72.428482    
    906000   0.99303111     18.24945       72.514671    
    907000   0.99426503     18.369196      72.606268    
    908000   1.0391158      18.637457      72.524071    
    909000   0.98691285     18.077798      72.135199    
    910000   0.99983668     17.603532      71.924873    
    911000   1.0142038      17.712253      71.806536    
    912000   1.0156948      17.790779      71.884904    
    913000   0.97122414     18.546888      71.59294     
    914000   0.98894118     17.452904      71.589942    
    915000   1.022999       17.812158      71.61146     
    916000   0.99948438     17.597922      71.500368    
    917000   1.0091614      17.988125      71.223185    
    918000   1.038456       18.268647      70.873342    
    919000   0.98843336     18.130174      70.775252    
    920000   0.9900577      17.918891      70.487887    
    921000   1.0042049      18.279885      70.54846     
    922000   0.9604757      18.014003      70.518416    
    923000   0.99370492     17.40553       70.322676    
    924000   1.0093586      17.752695      70.457968    
    925000   0.99203989     17.695225      70.260892    
    926000   1.0198911      17.928655      70.108593    
    927000   0.95202167     17.978149      70.003742    
    928000   0.95014159     18.006499      69.634189    
    929000   0.96816247     18.06867       69.427515    
    930000   0.99127994     17.527677      69.365439    
    931000   0.95883923     18.515002      69.488598    
    932000   0.99645731     18.150622      69.401902    
    933000   0.93223308     17.535957      69.354558    
    934000   0.98897177     17.710551      69.357547    
    935000   0.99556631     18.0811        68.995652    
    936000   0.97063074     17.554271      68.986128    
    937000   1.0158001      17.933245      68.910774    
    938000   1.0163221      17.683747      68.521585    
    939000   0.99704749     18.017362      68.595911    
    940000   1.0061158      18.047613      68.62939     
    941000   0.98791935     17.627592      68.572678    
    942000   1.0081303      18.666811      68.480502    
    943000   1.0074099      17.749264      68.283051    
    944000   1.0085605      17.920907      68.237426    
    945000   0.98957962     17.602695      68.098739    
    946000   1.0022385      17.80311       68.038594    
    947000   0.99999322     17.627826      68.010079    
    948000   1.0195458      17.421772      67.926827    
    949000   0.97377341     17.387791      67.96107     
    950000   0.98999512     17.660308      68.039703    
    951000   1.0335518      18.498812      67.9098      
    952000   0.97414094     18.155755      68.049652    
    953000   0.97500637     17.309277      67.929833    
    954000   1.0095532      17.896834      67.894245    
    955000   0.993524       18.49795       67.952566    
    956000   1.0168877      18.190156      68.019851    
    957000   0.99883161     18.021125      67.902976    
    958000   1.0316639      18.265073      67.728766    
    959000   0.98207526     17.586191      67.629612    
    960000   1.000616       18.091258      67.539877    
    961000   1.0497433      18.132917      67.424873    
    962000   0.97608582     18.210168      67.358618    
    963000   1.0206334      17.873868      67.535106    
    964000   0.99961721     18.136072      67.555671    
    965000   1.0441345      18.302237      67.249059    
    966000   0.99593881     18.306069      67.168209    
    967000   1.0470412      17.746422      67.114018    
    968000   1.0193771      17.567093      66.96919     
    969000   0.99335066     17.413892      66.835348    
    970000   0.99218267     17.946711      66.545405    
    971000   1.0215478      17.975219      66.455382    
    972000   1.046867       18.214757      66.527625    
    973000   0.99494992     17.878157      66.436952    
    974000   0.98029776     18.124219      66.471053    
    975000   1.0396544      18.337877      66.376536    
    976000   1.0150262      18.372548      66.472085    
    977000   1.0512704      18.071026      66.402735    
    978000   0.98276441     17.563002      66.165593    
    979000   0.98324858     17.47054       66.063594    
    980000   0.99766738     17.591082      65.958704    
    981000   0.9870741      18.141728      65.822543    
    982000   1.0105529      18.068036      65.861964    
    983000   1.0095685      17.850079      65.760817    
    984000   0.99024103     17.417955      65.761188    
    985000   1.0327672      17.663324      65.488721    
    986000   1.035349       17.688802      65.445114    
    987000   1.023293       17.955018      65.052143    
    988000   1.0206563      18.116878      65.009151    
    989000   1.0473308      17.88671       64.89926     
    990000   1.0179806      18.314837      64.880235    
    991000   1.0193759      18.495766      64.840017    
    992000   0.98662154     18.121523      64.804779    
    993000   0.98901525     18.227495      64.932199    
    994000   1.0149073      17.514777      64.797134    
    995000   1.0291082      17.923939      64.665617    
    996000   1.0304604      18.4301        64.537591    
    997000   0.97614232     17.580452      64.314638    
    998000   0.99925039     17.392418      64.330742    
    999000   1.0379922      17.926274      64.250237    
   1000000   1.0119194      17.770626      64.214959    
   1001000   1.0087346      17.472776      64.204151    
   1002000   1.0159134      17.749553      64.022917    
   1003000   1.0256088      17.933002      63.96381     
   1004000   0.9975011      17.66558       63.829422    
   1005000   1.0031117      17.860436      63.558414    
   1006000   0.97614486     17.710088      63.487703    
   1007000   0.98483946     17.828813      63.420238    
   1008000   1.0099958      17.68538       63.301766    
   1009000   0.98156651     18.156016      63.226331    
   1010000   0.97712196     17.645505      63.040953    
   1011000   0.97901605     18.152806      63.28631     
   1012000   0.95172851     18.204299      63.198969    
   1013000   0.97527256     17.759155      63.090454    
   1014000   1.0162895      18.135263      63.1271      
   1015000   1.0161955      18.03027       62.900706    
   1016000   1.0185293      17.905496      62.79438     
   1017000   0.9733466      18.039544      62.781626    
   1018000   1.031596       18.11868       62.472926    
   1019000   0.95959141     17.786052      62.279006    
   1020000   1.0242824      18.576076      62.454356    
   1021000   1.0083405      17.874803      62.42268     
   1022000   1.0246368      18.332785      62.177856    
   1023000   1.0134831      17.701642      62.284806    
   1024000   1.0216157      18.020449      62.253798    
   1025000   0.9791852      17.96097       62.009122    
   1026000   1.0381554      17.59423       61.798488    
   1027000   1.031034       18.075788      61.640649    
   1028000   1.0181087      17.985162      61.581886    
   1029000   0.98533771     17.915988      61.477182    
   1030000   1.0186656      18.000322      61.145942    
   1031000   1.0168773      17.687461      61.158963    
   1032000   0.96622499     17.855565      61.099942    
   1033000   1.0241524      17.77378       60.998617    
   1034000   0.95835989     17.769491      61.146262    
   1035000   0.98822144     17.904583      60.987512    
   1036000   1.0042821      18.04428       60.765323    
   1037000   1.0090171      18.048379      60.682762    
   1038000   0.99188434     17.761378      60.54446     
   1039000   0.97821583     17.284598      60.623606    
   1040000   1.0163607      17.648921      60.683224    
   1041000   1.0130985      18.8688        60.61964     
   1042000   1.0354944      17.781941      60.431109    
   1043000   0.96115376     17.742222      60.28816     
   1044000   0.99010256     17.351085      60.320862    
   1045000   1.0055543      18.087983      60.394539    
   1046000   1.0105794      17.703895      60.143963    
   1047000   1.0175542      18.11727       60.176426    
   1048000   1.0297851      17.627836      60.177911    
   1049000   1.0067971      17.809589      60.137792    
   1050000   1.0246714      17.853032      60.323123    
   1051000   0.97909326     17.89412       60.387514    
   1052000   1.0286611      18.014676      60.291122    
   1053000   0.98850768     17.962031      60.251068    
   1054000   0.98646302     17.690101      60.119289    
   1055000   1.0651149      17.813514      60.019007    
   1056000   1.009897       18.024119      60.069604    
   1057000   1.0153439      18.08095       60.15249     
   1058000   1.0029225      17.119126      60.184996    
   1059000   0.9776941      17.835487      60.1592      
   1060000   1.0477141      18.452189      59.942858    
   1061000   0.9884497      17.826074      59.880746    
   1062000   1.0183288      18.240113      59.730009    
   1063000   0.97697764     17.064214      59.496967    
   1064000   0.98531986     18.253774      59.406062    
   1065000   0.99955398     18.002644      59.248807    
   1066000   0.98114266     17.880895      59.179957    
   1067000   0.94586053     17.721648      59.18268     
   1068000   0.98457915     18.169196      59.073581    
   1069000   0.9985062      17.951675      59.204164    
   1070000   1.032087       17.843394      59.089638    
   1071000   0.97211594     17.751012      58.969755    
   1072000   0.99428723     17.900891      58.768951    
   1073000   1.0004325      17.521149      58.571355    
   1074000   1.0029149      17.491325      58.310389    
   1075000   0.97650206     17.893228      58.147392    
   1076000   1.0073798      17.510016      58.266558    
   1077000   0.97773922     17.641673      58.114175    
   1078000   1.0537198      17.937937      58.097418    
   1079000   1.0084773      17.48515       57.968035    
   1080000   0.99540064     17.738063      57.948102    
   1081000   1.0162395      18.244845      57.807486    
   1082000   1.025811       17.923178      57.748576    
   1083000   0.9858336      17.585771      57.576866    
   1084000   1.0091621      18.12951       57.661595    
   1085000   0.96620642     18.190865      57.370129    
   1086000   0.96973398     17.786257      57.448078    
   1087000   1.0063255      17.797807      57.15524     
   1088000   1.0019853      18.001658      57.049303    
   1089000   1.0048732      17.437002      56.921179    
   1090000   0.99636247     18.440903      56.739541    
   1091000   0.98959457     17.382043      56.612992    
   1092000   1.0073822      17.680687      56.521328    
   1093000   0.97774616     17.989243      56.43977     
   1094000   0.99387044     17.687576      56.487888    
   1095000   1.0315202      18.05464       56.157718    
   1096000   0.9783703      17.432515      56.109098    
   1097000   0.98892896     18.228274      56.117782    
   1098000   1.0226547      17.68058       56.213375    
   1099000   0.9888867      18.011062      56.338801    
   1100000   0.99549424     17.805443      56.385172    
   1101000   1.0006611      18.283782      56.208126    
   1102000   1.0069042      18.017646      56.064759    
   1103000   0.96782966     18.360918      56.01827     
   1104000   0.96327776     17.706676      56.053364    
   1105000   1.006947       17.849885      55.876518    
   1106000   0.98244193     17.981266      55.819043    
   1107000   0.98781239     17.963455      55.798221    
   1108000   1.0212048      18.59694       55.708218    
   1109000   1.0205449      17.978573      55.740808    
   1110000   0.9597661      17.872088      55.516625    
   1111000   1.0110678      18.189673      55.823497    
   1112000   1.0126088      18.511744      55.562262    
   1113000   1.0889518      18.055694      55.504081    
   1114000   0.99214921     17.634176      55.541094    
   1115000   1.0295483      17.465677      55.475497    
   1116000   1.0355782      17.613162      55.500326    
   1117000   1.0278327      18.115856      55.302675    
   1118000   1.002445       17.992432      55.254272    
   1119000   1.0103267      17.714375      55.175466    
   1120000   1.012442       18.021314      55.118664    
   1121000   1.0011451      17.247147      55.102438    
   1122000   0.9976844      17.483836      54.953094    
   1123000   1.019575       17.665324      54.617791    
   1124000   1.0214685      17.618942      54.821877    
   1125000   0.97244179     17.546975      54.706945    
   1126000   0.9914213      17.775171      54.651647    
   1127000   1.0411707      17.505397      54.663295    
   1128000   0.99193101     17.972539      54.960437    
   1129000   1.0287099      17.573243      55.168418    
   1130000   1.0042154      17.946554      55.182698    
   1131000   0.99359533     17.530729      55.093636    
   1132000   0.98542879     17.540547      55.149672    
   1133000   0.99306887     17.945858      54.910267    
   1134000   0.9815693      17.984794      54.783314    
   1135000   0.99129654     17.429616      54.808597    
   1136000   1.0206154      17.977551      54.769825    
   1137000   0.97962282     18.024439      54.566565    
   1138000   1.0455914      17.460547      54.539478    
   1139000   0.99565485     17.651949      54.66363     
   1140000   0.98500661     17.920757      54.515977    
   1141000   0.98579574     18.07774       54.281278    
   1142000   1.0463111      17.83072       54.099532    
   1143000   0.98960166     17.930585      53.872555    
   1144000   1.0019379      17.628449      53.92647     
   1145000   1.0289525      17.310172      54.076667    
   1146000   1.0255632      17.901969      54.189232    
   1147000   1.0287004      17.480209      54.161246    
   1148000   1.0031754      17.751918      54.257487    
   1149000   1.0170479      17.934538      53.982918    
   1150000   0.98724211     17.569383      54.255029    
   1151000   1.0051973      17.598417      54.244581    
   1152000   1.0444651      17.885509      54.015197    
   1153000   0.98566369     17.793475      53.824361    
   1154000   1.0020679      18.117643      53.997349    
   1155000   0.99258026     18.392857      53.947572    
   1156000   1.0306154      17.786488      53.64253     
   1157000   0.99192664     17.586876      53.401819    
   1158000   1.0240322      17.482305      53.355827    
   1159000   0.98299216     17.826042      53.114266    
   1160000   1.0099227      17.322353      53.199882    
   1161000   0.96745875     17.747919      52.980548    
   1162000   0.98261334     17.53594       52.862212    
   1163000   0.97010894     17.578689      52.700759    
   1164000   1.0227713      18.155523      52.500492    
   1165000   1.0053439      17.931872      52.371309    
   1166000   1.0559385      18.480544      52.092586    
   1167000   1.0011312      18.186146      52.163613    
   1168000   1.012035       17.559028      52.13863     
   1169000   1.0300798      17.537212      52.136212    
   1170000   0.9870701      17.874526      52.210156    
   1171000   1.0042026      17.754166      51.91483     
   1172000   1.0277488      17.775747      51.858701    
   1173000   1.0401135      17.456132      51.681197    
   1174000   0.99109629     17.533561      51.608826    
   1175000   0.98737351     17.366396      51.634197    
   1176000   1.0307314      17.736014      51.655936    
   1177000   0.9814677      17.775756      51.461541    
   1178000   0.97436256     17.385273      51.462215    
   1179000   0.97292231     17.829499      51.431025    
   1180000   1.00012        17.283896      51.267022    
   1181000   1.0156562      17.637142      51.177469    
   1182000   0.96133184     17.644295      51.132535    
   1183000   1.0181556      17.784438      51.195309    
   1184000   1.0172421      18.104013      50.953528    
   1185000   1.0062253      17.889797      50.76961     
   1186000   1.0010977      17.670578      50.773064    
   1187000   1.0235248      17.693775      50.853165    
   1188000   1.0081197      17.83895       51.099931    
   1189000   0.94751582     17.387333      50.951479    
   1190000   0.98745401     17.822164      50.89337     
   1191000   1.0014034      17.745996      50.694718    
   1192000   0.98104496     17.446273      50.712645    
   1193000   0.97299756     17.923192      50.539144    
   1194000   0.99094931     17.402823      50.444354    
   1195000   1.0227301      17.349131      50.404214    
   1196000   1.0311268      17.671684      50.371623    
   1197000   0.96005173     17.499538      50.182529    
   1198000   0.9971303      17.275248      49.892383    
   1199000   0.98352681     17.988422      49.85899     
   1200000   1.0265133      17.814161      49.694624    
   1201000   0.99563676     17.466511      49.39464     
   1202000   1.0230508      18.259805      49.403541    
   1203000   1.0231199      17.42118       49.224654    
   1204000   1.0136611      18.130247      49.052017    
   1205000   1.0323779      17.359828      49.160584    
   1206000   0.98825631     17.08755       49.070068    
   1207000   1.0091493      17.54983       49.156005    
   1208000   0.97542755     17.206717      48.987079    
   1209000   0.96642904     17.721762      48.682082    
   1210000   0.984096       17.309306      48.507017    
   1211000   1.0103223      17.267586      48.351624    
   1212000   0.99471383     17.123425      48.101229    
   1213000   1.0201097      18.17709       47.830795    
   1214000   0.94097347     17.507377      47.725102    
   1215000   1.0164977      17.933955      47.374571    
   1216000   1.0321718      18.183058      47.390159    
   1217000   1.0567686      17.65992       47.454209    
   1218000   1.0018756      17.619443      47.564268    
   1219000   1.0225842      17.893812      47.393845    
   1220000   0.9853064      17.538336      47.074702    
   1221000   0.99574934     17.987926      46.778311    
   1222000   1.0072123      17.675277      46.742477    
   1223000   0.9737674      17.746434      46.593847    
   1224000   0.99088904     17.969552      46.67003     
   1225000   1.0438353      18.09204       46.685561    
   1226000   1.0385358      18.104936      46.718118    
   1227000   1.0107528      17.723158      46.64144     
   1228000   1.0032708      18.075978      46.472116    
   1229000   0.99436828     18.334616      46.459656    
   1230000   1.000714       17.665564      46.410263    
   1231000   1.0062712      17.555259      46.282153    
   1232000   1.0523032      17.797459      46.103198    
   1233000   0.99342377     17.333668      45.976589    
   1234000   0.98611287     17.787143      46.025769    
   1235000   1.0184946      17.92492       45.913047    
   1236000   1.0348865      17.933182      45.854524    
   1237000   1.0058973      17.912169      45.872172    
   1238000   0.9709915      17.4754        45.869732    
   1239000   0.98870568     18.023512      45.656612    
   1240000   1.0131151      17.883085      45.583547    
   1241000   1.0181343      18.009603      45.604896    
   1242000   1.0188897      17.654655      45.591328    
   1243000   0.97628339     17.55133       45.289965    
   1244000   0.97916706     18.189783      45.017876    
   1245000   0.97965918     17.292456      44.923749    
   1246000   1.0200025      17.27574       44.800653    
   1247000   1.0074632      17.330377      44.604788    
   1248000   0.96010014     16.892415      44.730167    
   1249000   0.98592845     17.241138      44.907791    
   1250000   1.0029693      17.234561      44.806473    
   1251000   0.98656018     17.640246      44.980766    
   1252000   1.0256816      18.012894      45.043645    
   1253000   1.0099273      18.172934      44.940171    
   1254000   1.021677       17.57798       44.833938    
   1255000   1.0376347      17.651491      44.688367    
   1256000   1.0084076      18.184568      44.63039     
   1257000   1.0078309      17.359843      44.728353    
   1258000   1.0087003      17.365439      44.686131    
   1259000   0.98314763     17.419833      44.351244    
   1260000   1.0085327      17.205138      44.479382    
   1261000   1.0132091      17.25992       44.373372    
   1262000   1.0301561      17.929389      44.258442    
   1263000   1.002932       17.805602      44.425528    
   1264000   1.0230142      17.924455      44.462386    
   1265000   0.98248557     17.452906      44.497962    
   1266000   0.94721461     17.523285      44.338325    
   1267000   0.96520799     18.107606      44.188622    
   1268000   1.0171917      17.702784      44.233673    
   1269000   1.085438       17.599195      43.991666    
   1270000   1.0064911      17.84183       43.866953    
   1271000   1.0166548      17.455724      43.808621    
   1272000   1.0417428      17.500131      43.719209    
   1273000   0.9451561      17.401925      43.646434    
   1274000   1.0645199      17.611953      43.498959    
   1275000   0.9921251      17.994446      43.579174    
   1276000   0.95052848     17.721035      43.434041    
   1277000   0.99145855     17.804727      43.700666    
   1278000   0.98282516     17.770762      43.591201    
   1279000   0.96629656     17.960424      43.61591     
   1280000   0.9538936      17.292162      43.548403    
   1281000   0.9959098      18.088063      43.667171    
   1282000   0.97791008     17.50099       43.707052    
   1283000   0.9622514      17.625817      43.668226    
   1284000   0.98730424     17.223417      43.849059    
   1285000   0.98164323     17.448399      43.755965    
   1286000   0.97134977     17.833486      43.604787    
   1287000   1.0176085      17.326197      43.558312    
   1288000   1.0321807      17.526441      43.441341    
   1289000   0.99428289     17.556662      43.469675    
   1290000   0.99850796     16.695042      43.551162    
   1291000   1.0110755      17.387389      43.416124    
   1292000   0.99838349     17.903211      43.3524      
   1293000   0.99380943     17.701174      43.053873    
   1294000   0.99035103     17.617553      43.084747    
   1295000   0.97321043     18.011572      42.670929    
   1296000   1.0226182      17.616235      42.535094    
   1297000   1.0019967      17.113269      42.598133    
   1298000   1.0163448      18.130693      42.525783    
   1299000   1.0025971      17.876211      42.230132    
   1300000   0.97755564     17.530136      42.1461      
   1301000   0.99728813     17.68252       41.905681    
   1302000   0.9864788      17.237319      41.698684    
   1303000   0.99972184     17.773167      41.436368    
   1304000   1.0609341      17.807781      41.262904    
   1305000   1.0273034      17.64465       41.306271    
   1306000   0.97691634     17.495148      41.080922    
   1307000   1.0048085      17.603298      40.975743    
   1308000   1.0729096      17.972522      40.903219    
   1309000   1.0137531      18.487077      40.708125    
   1310000   1.0140371      17.681789      40.653734    
   1311000   0.99170687     17.679276      40.555173    
   1312000   1.0014462      17.537504      40.369422    
   1313000   0.98736385     17.74568       40.427965    
   1314000   0.97182093     17.479885      40.216506    
   1315000   1.0171506      17.342229      40.366185    
   1316000   0.99352565     17.098758      40.511135    
   1317000   0.99103061     17.537183      40.522575    
   1318000   0.93340194     16.911974      40.180576    
   1319000   1.0104596      17.765264      40.078008    
   1320000   0.95897279     17.240734      39.837397    
   1321000   0.98110655     18.055685      39.5365      
   1322000   1.0129894      17.2913        39.282843    
   1323000   0.94342861     17.939195      39.210425    
   1324000   0.99793052     17.212293      39.278944    
   1325000   0.97065876     17.796733      39.124707    
   1326000   1.0087217      18.037964      38.89358     
   1327000   0.97467797     17.163661      38.866073    
   1328000   1.0164922      17.381466      38.67845     
   1329000   1.0048865      17.206455      38.633058    
   1330000   1.0132804      17.761789      38.623776    
   1331000   1.0449049      17.401911      38.518986    
   1332000   0.99626024     17.717427      38.189894    
   1333000   0.97682545     17.414854      38.318369    
   1334000   0.99052005     17.40697       38.282174    
   1335000   0.97303662     17.281793      38.184371    
   1336000   1.0132224      17.870407      38.097768    
   1337000   0.98443163     17.455398      38.107924    
   1338000   0.97873025     17.379331      37.757157    
   1339000   1.0037545      17.73329       37.399687    
   1340000   0.98712021     18.159647      37.336135    
   1341000   1.0049077      17.10789       37.435397    
   1342000   1.0386206      17.813976      37.097769    
   1343000   0.99954326     17.852712      37.346842    
   1344000   1.015568       17.320879      37.163884    
   1345000   1.0025182      17.271142      37.055879    
   1346000   1.0138863      18.154847      37.155378    
   1347000   0.99667087     17.890262      36.923847    
   1348000   1.0147572      16.972258      36.817695    
   1349000   1.0375258      17.489683      36.791741    
   1350000   1.0249106      17.692033      36.647518    
   1351000   1.0102262      17.570206      36.559344    
   1352000   1.0276657      17.680336      36.490796    
   1353000   0.96970148     17.542685      36.24872     
   1354000   1.0235411      18.729641      36.073893    
   1355000   0.97959736     17.707829      35.916384    
   1356000   0.96041218     17.602267      35.914419    
   1357000   1.0366373      18.080543      35.756348    
   1358000   1.0025323      17.097467      35.933252    
   1359000   1.0400132      17.992344      35.891611    
   1360000   1.0275168      17.987198      35.85105     
   1361000   0.98187339     17.728811      35.875138    
   1362000   1.01499        17.675362      35.723225    
   1363000   1.0332171      17.778943      35.561974    
   1364000   0.98980054     17.735589      35.53002     
   1365000   1.0378711      17.912846      35.550687    
   1366000   1.0086565      17.999143      35.485387    
   1367000   0.99322454     17.854214      35.370207    
   1368000   0.97670211     17.88016       35.179163    
   1369000   1.0393569      17.889297      34.692279    
   1370000   1.0492921      17.752754      34.600039    
   1371000   0.98872545     17.303884      34.520428    
   1372000   0.97041802     17.367873      34.757776    
   1373000   1.0015381      17.79183       34.847331    
   1374000   0.98949786     17.062976      34.826646    
   1375000   0.95097812     17.373936      34.800783    
   1376000   0.99419887     17.270357      34.672577    
   1377000   0.99946872     16.661561      34.237948    
   1378000   0.98088562     17.443001      33.9356      
   1379000   1.0066181      17.341818      33.823       
   1380000   0.98100472     17.570738      33.628786    
   1381000   1.0687824      17.621687      33.542938    
   1382000   1.0064151      17.426701      33.374225    
   1383000   0.9859575      17.354534      33.06529     
   1384000   0.99238673     17.769304      33.002351    
   1385000   0.96013339     17.573403      32.984242    
   1386000   1.0029176      17.474547      32.813651    
   1387000   0.9687417      17.51715       32.690651    
   1388000   1.0063032      17.507355      32.533056    
   1389000   1.0011155      17.770221      32.498916    
   1390000   0.97788735     17.240522      32.150544    
   1391000   1.0028953      17.378364      32.03355     
   1392000   1.0096286      17.041643      32.011151    
   1393000   1.0069329      17.328072      31.684578    
   1394000   1.0424411      17.608968      31.486864    
   1395000   0.97254123     17.44355       31.242098    
   1396000   0.96613643     17.701845      31.127894    
   1397000   0.99832386     17.420029      31.012013    
   1398000   0.99800681     17.570908      30.791935    
   1399000   0.98996081     17.585423      30.415887    
   1400000   1.0004559      16.999839      30.230241    
   1401000   1.0056698      17.38332       30.096034    
   1402000   0.97057795     17.265036      30.02384     
   1403000   1.0008355      17.348066      29.887168    
   1404000   1.0170844      17.282588      29.925671    
   1405000   1.0180209      18.090803      29.89914     
   1406000   1.0044876      17.24395       29.718496    
   1407000   0.92779557     17.412686      29.632289    
   1408000   1.0184037      17.403321      29.684826    
   1409000   0.97082128     17.312675      29.515249    
   1410000   1.0124669      17.97307       29.548858    
   1411000   1.0154681      17.341132      29.404039    
   1412000   0.9769491      17.759282      29.40653     
   1413000   0.98639692     17.464706      29.18387     
   1414000   1.0238337      17.904589      29.306854    
   1415000   1.0282161      17.593662      29.330686    
   1416000   1.0126234      17.413172      29.444934    
   1417000   1.0285766      17.408097      29.535725    
   1418000   0.98878391     17.227984      29.403244    
   1419000   0.9859494      17.427188      29.384569    
   1420000   1.0055008      17.495916      29.33214     
   1421000   1.0197923      17.399354      29.3297      
   1422000   0.9741007      17.549576      29.411884    
   1423000   0.98168771     17.209539      29.245857    
   1424000   1.0152644      18.055103      29.337051    
   1425000   0.99263019     17.770067      29.427921    
   1426000   1.0089319      17.567033      29.425901    
   1427000   1.0413834      17.993759      29.258784    
   1428000   0.98879111     17.556373      29.161269    
   1429000   0.97577356     17.063446      29.01625     
   1430000   0.97599034     17.430436      28.783272    
   1431000   1.0221679      17.887375      28.741925    
   1432000   1.0122462      17.443665      28.712944    
   1433000   1.0137585      17.477794      28.498791    
   1434000   0.98059984     17.66675       28.318398    
   1435000   0.97090354     17.845557      28.263418    
   1436000   0.9982681      17.05727       28.267542    
   1437000   0.95573803     17.53958       28.178949    
   1438000   0.9996001      17.418373      28.260094    
   1439000   0.97880379     16.873868      28.205453    
   1440000   1.0012002      17.566802      28.120068    
   1441000   0.99874629     17.663784      28.176282    
   1442000   0.98925092     17.275208      28.242313    
   1443000   1.0311885      16.546808      27.936868    
   1444000   1.0184687      17.314411      27.893625    
   1445000   1.0137262      17.97175       27.687524    
   1446000   1.0075721      16.919709      27.670365    
   1447000   1.0002136      17.001944      27.782109    
   1448000   0.98112571     17.287147      27.877906    
   1449000   0.96762884     17.464191      27.711995    
   1450000   1.0491233      17.739732      27.626997    
   1451000   0.97258815     17.996846      27.358088    
   1452000   1.0220124      17.474641      27.442345    
   1453000   0.95902387     17.380603      27.299631    
   1454000   0.98505684     16.998         27.279166    
   1455000   0.99894024     16.985932      27.326657    
   1456000   1.0147814      17.846924      27.341637    
   1457000   0.97113942     17.376332      27.196837    
   1458000   1.0236591      17.301235      26.967364    
   1459000   0.98304343     17.139559      27.018546    
   1460000   1.0006201      17.153389      27.036618    
   1461000   0.97904137     17.019882      26.848026    
   1462000   0.99918657     17.663497      26.84701     
   1463000   0.99114869     17.431924      26.82798     
   1464000   0.98207428     17.280541      26.781291    
   1465000   1.0361679      17.477158      26.459602    
   1466000   0.99206144     17.724825      26.496832    
   1467000   0.99985805     17.111925      26.268808    
   1468000   0.99244822     17.42379       26.358515    
   1469000   0.96691189     17.44391       26.108661    
   1470000   0.99862111     17.42046       25.976178    
   1471000   1.0045086      16.85034       25.971769    
   1472000   1.0121353      17.411143      26.019153    
   1473000   1.0232331      17.552809      25.983235    
   1474000   0.98742948     16.991373      26.119021    
   1475000   0.98959523     17.375004      26.159215    
   1476000   0.98053005     17.059908      26.16834     
   1477000   1.0045226      17.400333      26.055644    
   1478000   0.97962397     17.696959      25.989607    
   1479000   0.98923085     17.403606      25.982157    
   1480000   0.98238666     17.33734       26.00415     
   1481000   0.95985363     17.076072      25.84242     
   1482000   0.96371625     16.829278      25.974097    
   1483000   0.96601096     17.628321      25.893748    
   1484000   0.98382549     17.185724      25.716981    
   1485000   0.99776766     17.19866       25.631734    
   1486000   1.0067655      17.602545      25.623272    
   1487000   1.0023848      17.338851      25.532551    
   1488000   1.025103       17.382461      25.475431    
   1489000   1.0216476      16.998036      25.266169    
   1490000   0.99320528     17.126787      25.160104    
   1491000   0.96093377     17.565193      25.062426    
   1492000   1.0482917      17.701138      24.999751    
   1493000   1.025638       17.278229      25.013637    
   1494000   1.0474422      17.290651      24.924707    
   1495000   1.0006958      17.334256      24.794061    
   1496000   1.015815       17.491186      24.908709    
   1497000   0.99039909     17.324154      24.850626    
   1498000   1.0051805      17.07344       24.994069    
   1499000   0.97482652     16.839556      25.07618     
   1500000   1.0089728      17.181376      24.98132     
   1501000   1.0051753      16.779317      24.917717    
   1502000   0.97918994     17.055976      24.800731    
   1503000   0.98643301     17.452067      24.741617    
   1504000   0.96715864     16.967572      24.493062    
   1505000   0.9888044      16.828199      24.3212      
   1506000   1.026256       17.155283      24.284118    
   1507000   1.0206251      17.445784      24.514913    
   1508000   0.96664183     17.354221      24.344402    
   1509000   1.0140445      17.428134      24.29505     
   1510000   1.0443439      16.946012      24.306909    
   1511000   1.0027469      17.203624      24.088493    
   1512000   1.0140864      17.171425      23.960951    
   1513000   0.98288136     17.42698       23.950192    
   1514000   1.05155        17.021853      23.830094    
   1515000   0.98944707     17.276478      23.881903    
   1516000   1.0189848      16.921074      23.734941    
   1517000   0.98707148     16.635691      23.632877    
   1518000   1.0254151      17.626766      23.551067    
   1519000   0.96794623     16.909461      23.62466     
   1520000   0.97539503     17.239389      23.771069    
   1521000   1.0117328      17.439531      23.845495    
   1522000   0.97599283     16.955867      23.865205    
   1523000   1.012055       17.64784       23.683732    
   1524000   1.0325132      17.570076      23.332906    
   1525000   1.0148261      17.145902      23.513332    
   1526000   0.98805594     17.074019      23.581638    
   1527000   1.0111842      16.736427      23.586234    
   1528000   0.99244519     17.264791      23.434146    
   1529000   1.0037154      17.044559      23.292254    
   1530000   1.0092658      17.147478      23.20887     
   1531000   1.0022536      17.085199      23.144073    
   1532000   0.98101645     17.051618      22.987006    
   1533000   1.014961       16.893893      22.750494    
   1534000   0.97305138     17.240481      22.832375    
   1535000   1.0292574      17.387141      22.900665    
   1536000   0.99691978     16.582698      22.955833    
   1537000   0.9882097      17.303793      22.844153    
   1538000   0.98578615     16.930461      22.597978    
   1539000   1.0190192      17.421365      22.469643    
   1540000   1.0011627      16.729102      22.446599    
   1541000   1.0402479      17.187578      22.363407    
   1542000   1.0074543      17.056477      22.246395    
   1543000   0.99742311     17.05381       22.28365     
   1544000   1.0005451      16.935656      22.341321    
   1545000   0.95568619     17.518727      22.203231    
   1546000   1.0305063      18.070078      22.046612    
   1547000   1.0029292      17.330043      21.97313     
   1548000   1.0021448      17.742483      21.980152    
   1549000   0.99548161     16.725369      22.051627    
   1550000   0.99022502     16.951267      22.039578    
   1551000   1.0078826      17.260873      21.93514     
   1552000   0.98277476     17.125117      21.650831    
   1553000   0.9757608      17.073711      21.377629    
   1554000   0.95263664     17.228049      21.346564    
   1555000   0.98732838     17.577367      21.175775    
   1556000   0.98456762     16.476392      21.142904    
   1557000   0.9964727      17.106646      21.040669    
   1558000   0.96409035     16.889525      21.160439    
   1559000   1.010792       16.951613      21.255642    
   1560000   1.0321493      17.119627      21.099436    
   1561000   0.98154405     17.233277      21.045787    
   1562000   1.0174396      16.816292      21.069036    
   1563000   1.0055764      16.843731      20.967528    
   1564000   1.0155459      17.023584      20.959046    
   1565000   0.98579297     17.639373      21.055798    
   1566000   1.0296189      17.292816      21.09191     
   1567000   0.97991765     16.908828      20.76069     
   1568000   0.98789906     17.055541      20.851831    
   1569000   0.9858969      16.908129      20.867405    
   1570000   0.99351065     16.767683      20.630898    
   1571000   1.0224698      17.085971      20.519291    
   1572000   0.98430244     17.454848      20.591289    
   1573000   1.0141612      17.610943      20.339597    
   1574000   1.0087394      17.081815      20.33758     
   1575000   0.97115171     17.02399       20.342116    
   1576000   0.98413257     16.986718      20.169261    
   1577000   0.99179649     17.126746      20.204923    
   1578000   0.99965005     17.13586       20.364684    
   1579000   0.96940196     17.423824      20.637434    
   1580000   1.0126829      17.532973      20.577754    
   1581000   0.98743436     16.9865        20.355864    
   1582000   0.99983988     17.524433      20.24729     
   1583000   1.0226557      17.024515      20.286852    
   1584000   0.98889047     17.106667      20.156636    
   1585000   1.0433584      17.015061      20.273769    
   1586000   0.98282049     17.131118      20.297242    
   1587000   1.0119411      17.103457      20.249233    
   1588000   1.0096808      17.553823      20.214697    
   1589000   1.002043       17.244115      20.159432    
   1590000   1.0154814      17.428964      20.02397     
   1591000   0.99409372     17.035954      19.824674    
   1592000   0.97366433     17.344815      19.790369    
   1593000   1.033146       17.620609      19.534671    
   1594000   0.9760747      17.221786      19.352004    
   1595000   1.0131792      17.265691      19.255291    
   1596000   0.96490726     16.684204      19.501209    
   1597000   0.97974695     16.691262      19.390647    
   1598000   1.0133436      17.407471      19.18997     
   1599000   1.009853       16.742115      18.96536     
   1600000   0.94378206     17.008584      19.192497    
   1601000   0.97917915     17.325306      19.228016    
   1602000   0.9989684      17.24417       19.220583    
   1603000   0.9991252      17.511076      19.031209    
   1604000   1.0271041      17.291782      19.195531    
   1605000   1.0097075      16.610696      19.008424    
   1606000   0.99914841     17.076482      18.986109    
   1607000   0.9955947      16.459293      18.88869     
   1608000   1.0020453      17.244466      18.923143    
   1609000   0.99662878     16.926336      18.541691    
   1610000   1.0132426      17.0272        18.216858    
   1611000   0.96598148     17.329294      18.363204    
   1612000   0.9847676      17.292872      18.503711    
   1613000   0.97896631     17.170085      18.621607    
   1614000   0.99332247     17.331524      18.556032    
   1615000   0.99835835     16.451903      18.627842    
   1616000   0.99609439     16.450645      18.60678     
   1617000   0.9975154      16.759639      18.425814    
   1618000   0.96503308     16.755818      18.397252    
   1619000   1.0151627      17.200237      18.314583    
   1620000   0.98253657     17.27676       18.237857    
   1621000   1.0220175      16.885321      18.12742     
   1622000   1.0346156      17.868143      18.031676    
   1623000   1.0140678      16.856742      18.079993    
   1624000   1.0050667      17.350112      17.874379    
   1625000   1.017359       17.175249      17.728139    
   1626000   0.97655297     17.125268      17.54365     
   1627000   0.97855659     17.487753      17.590069    
   1628000   1.0205125      17.14074       17.510002    
   1629000   1.0267984      17.258968      17.437001    
   1630000   0.98940941     16.971528      17.399979    
   1631000   0.99616734     16.824907      17.253714    
   1632000   0.99448967     17.346637      17.257347    
   1633000   1.0340357      17.114699      17.18421     
   1634000   0.99006485     17.869535      16.976311    
   1635000   1.0525604      17.736443      16.881279    
   1636000   1.0091621      16.868862      16.898645    
   1637000   1.0171101      17.446772      16.813446    
   1638000   1.0272733      16.765309      16.630672    
   1639000   1.0096648      16.9001        16.883285    
   1640000   1.0317852      17.382264      16.805981    
   1641000   0.9508215      17.129892      16.601161    
   1642000   0.9723367      17.272436      16.64362     
   1643000   0.95447144     17.545251      16.541814    
   1644000   0.98796102     17.233467      16.342905    
   1645000   1.0203899      17.391972      16.27918     
   1646000   0.9860287      17.085896      16.348371    
   1647000   0.96230679     16.993172      16.499187    
   1648000   1.0363139      17.587128      16.521827    
   1649000   0.99131522     16.726313      16.403681    
   1650000   0.96863807     17.059875      16.402324    
   1651000   0.95363702     17.204036      16.233146    
   1652000   1.0277972      16.891526      16.251286    
   1653000   1.0157258      17.061695      16.523604    
   1654000   1.009927       17.454239      16.460802    
   1655000   1.0410636      17.741569      16.484024    
   1656000   1.0154369      17.453237      16.503902    
   1657000   0.98558556     17.222932      16.33465     
   1658000   1.0296019      17.133366      16.429074    
   1659000   1.0240412      17.224698      16.478882    
   1660000   0.9975526      16.980997      16.500907    
   1661000   0.97976426     17.061946      16.359073    
   1662000   0.96340896     16.842644      16.273361    
   1663000   0.99119095     17.205297      16.144262    
   1664000   1.0094472      17.145823      15.966377    
   1665000   0.9711104      17.035161      15.974648    
   1666000   1.0206215      16.940914      15.935045    
   1667000   1.0059964      17.096516      15.949217    
   1668000   1.0010802      17.005427      15.881057    
   1669000   1.0030092      17.683347      15.683941    
   1670000   0.99960751     17.305097      15.57258     
   1671000   1.0505239      17.613388      15.314235    
   1672000   0.96781573     16.6848        15.302635    
   1673000   0.9799009      16.752951      15.169855    
   1674000   0.98651663     16.947741      15.040326    
   1675000   1.0122465      17.165944      14.888486    
   1676000   0.9985145      17.00779       14.890459    
   1677000   0.98571024     17.408801      14.798396    
   1678000   1.0362438      17.004146      14.706829    
   1679000   1.0165505      17.264247      14.804218    
   1680000   0.95262117     17.511491      14.7029      
   1681000   0.98338121     16.635184      14.706519    
   1682000   0.9802859      17.268828      14.746698    
   1683000   0.97611643     16.90392       14.62564     
   1684000   1.0114481      17.083532      14.589949    
   1685000   1.0010257      17.022023      14.464391    
   1686000   1.0012172      17.30037       14.41819     
   1687000   1.032929       17.090774      14.45509     
   1688000   1.0668191      17.442709      14.224796    
   1689000   1.0358947      17.097523      14.159376    
   1690000   1.0093214      17.369615      14.163365    
   1691000   0.97278822     17.108855      14.073738    
   1692000   1.0394523      16.855086      14.023993    
   1693000   0.97914818     16.93049       13.779778    
   1694000   1.0050567      17.571322      13.774529    
   1695000   0.95127218     16.955671      13.679364    
   1696000   1.0174599      17.530518      13.595506    
   1697000   1.0322937      16.976676      13.453675    
   1698000   0.99942172     17.138636      13.347936    
   1699000   0.98360887     17.157234      13.340327    
   1700000   0.93981216     17.154545      13.337293    
   1701000   1.019544       16.917889      13.328017    
   1702000   0.98911569     16.602013      13.44808     
   1703000   0.99289041     17.332844      13.41693     
   1704000   0.99758832     16.769137      13.201199    
   1705000   0.98887615     17.089246      13.051182    
   1706000   1.0306836      17.077717      12.98526     
   1707000   1.0066214      17.645769      12.929997    
   1708000   0.97987765     17.248369      12.847192    
   1709000   1.0271429      17.258137      12.533434    
   1710000   1.043417       16.821991      12.374731    
   1711000   0.99065355     17.427566      12.360862    
   1712000   0.98037789     17.611542      12.38959     
   1713000   1.009523       17.416312      12.257766    
   1714000   0.98300354     17.005417      12.136981    
   1715000   0.97408993     17.389038      11.96284     
   1716000   1.0331642      16.995793      11.693119    
   1717000   0.99714998     17.324392      11.676916    
   1718000   0.97251914     17.482177      11.567802    
   1719000   0.99962641     16.87681       11.36443     
   1720000   0.95458391     17.173711      11.318364    
   1721000   0.99905323     17.544019      11.20958     
   1722000   0.98725983     17.097546      11.043379    
   1723000   0.98076068     17.503668      11.158663    
   1724000   0.96955694     17.228607      11.17086     
   1725000   0.99563917     17.224018      11.120541    
   1726000   1.026703       17.457829      11.074566    
   1727000   0.9937022      16.580949      10.83794     
   1728000   1.0049786      17.07273       10.688219    
   1729000   0.96546082     16.658787      10.627991    
   1730000   1.0044713      16.94627       10.685605    
   1731000   1.0363563      16.883746      10.693619    
   1732000   1.0482697      17.2765        10.753026    
   1733000   0.98251127     17.718139      10.754187    
   1734000   0.99889844     16.944494      10.759143    
   1735000   1.0168884      17.020023      10.598011    
   1736000   1.0044693      16.759534      10.59188     
   1737000   0.98461033     17.527074      10.543233    
   1738000   1.0064476      16.806729      10.567555    
   1739000   1.0085183      17.39186       10.72438     
   1740000   0.99541894     17.548955      10.601742    
   1741000   1.0313561      17.135642      10.579969    
   1742000   0.98934654     16.776528      10.554993    
   1743000   0.98132271     17.528172      10.469184    
   1744000   0.97860246     17.016452      10.646681    
   1745000   0.95965179     17.188571      10.457606    
   1746000   0.99597516     17.302695      10.499908    
   1747000   1.036558       17.013484      10.359572    
   1748000   0.96901742     16.611306      10.30495     
   1749000   0.95423376     16.981677      10.235331    
   1750000   0.97524741     17.227539      10.240006    
   1751000   0.97641473     16.689786      10.210728    
   1752000   1.0465252      17.115577      9.9522226    
   1753000   0.96955912     17.553198      9.8481326    
   1754000   1.0366804      17.0967        9.8079706    
   1755000   1.0154337      17.289919      9.8333558    
   1756000   1.0126373      17.42675       9.8311197    
   1757000   0.96308066     17.004984      9.6152107    
   1758000   0.94825962     17.29974       9.6116242    
   1759000   0.99611182     17.062465      9.5255367    
   1760000   1.0321777      16.990415      9.6735511    
   1761000   1.0109581      16.781435      9.9379352    
   1762000   1.0364206      17.128865      9.7728538    
   1763000   1.0117262      16.869707      9.5496866    
   1764000   1.024812       17.428707      9.5748127    
   1765000   1.0147206      17.203138      9.7399148    
   1766000   0.96943161     17.42845       9.6304842    
   1767000   1.0430124      17.308807      9.8925271    
   1768000   0.99326567     16.743257      9.9584559    
   1769000   1.016045       16.854088      9.8991119    
   1770000   1.0234119      17.333134      10.122562    
   1771000   0.99874596     16.708951      10.209511    
   1772000   0.9938521      16.943796      10.194952    
   1773000   1.0045668      16.719897      9.9749787    
   1774000   0.97122175     16.956792      9.8162655    
   1775000   0.9881429      17.071479      9.7582002    
   1776000   1.0177884      17.397217      9.7088664    
   1777000   1.0051239      16.347655      9.7950715    
   1778000   0.95338515     17.352381      9.7861916    
   1779000   0.96670219     17.619364      9.8084965    
   1780000   0.98615567     17.208352      9.5828752    
   1781000   0.9741557      17.301229      9.2171128    
   1782000   0.94955084     17.163444      9.0676732    
   1783000   1.019226       17.331591      9.0726834    
   1784000   1.0146612      16.833042      8.9378322    
   1785000   1.0011973      17.14087       8.8317901    
   1786000   1.0054978      17.51522       8.7744274    
   1787000   0.96858988     16.485532      8.8002382    
   1788000   1.0151218      17.419232      8.5464009    
   1789000   1.0289461      16.535328      8.6315615    
   1790000   1.0316         17.305439      8.5716201    
   1791000   1.03418        16.816592      8.6629404    
   1792000   1.0273874      17.519574      8.582187     
   1793000   0.9744248      17.185155      8.622735     
   1794000   0.9986696      16.893318      8.7588099    
   1795000   0.99376171     17.293053      8.7925736    
   1796000   1.0575965      17.112621      8.7008094    
   1797000   1.0044004      17.350975      8.5905866    
   1798000   0.95987592     16.394103      8.4610305    
   1799000   0.94809376     17.064106      8.4355589    
   1800000   1.0220701      16.641666      8.2950258    
   1801000   0.96158653     17.094228      8.0918347    
   1802000   1.0346363      17.477514      8.0263555    
   1803000   0.9712057      16.990755      8.0885359    
   1804000   0.98839903     17.552507      8.2363467    
   1805000   1.002606       17.736936      8.1372842    
   1806000   1.010167       17.534333      8.0091597    
   1807000   0.99614833     17.389773      7.7541886    
   1808000   0.97787504     17.072288      7.6967675    
   1809000   0.97594108     17.23648       7.5786926    
   1810000   0.97916268     16.92887       7.5715939    
   1811000   1.005362       17.38284       7.300053     
   1812000   0.97043952     16.935758      7.2335412    
Fix halt condition for fix-id 3 met on step 1813000 with value 6.954510545531526 (src/fix_halt.cpp:237)
   1813000   1.0227064      17.218098      6.9545105    
Loop time of 3040.52 on 2 procs for 1713000 steps with 1099 atoms

Performance: 486769.015 tau/day, 563.390 timesteps/s
126.9% CPU use with 1 MPI tasks x 2 OpenMP threads

MPI task timing breakdown:
Section |  min time  |  avg time  |  max time  |%varavg| %total
---------------------------------------------------------------
Pair    | 617.24     | 617.24     | 617.24     |   0.0 | 20.30
Bond    | 49.607     | 49.607     | 49.607     |   0.0 |  1.63
Neigh   | 2254.8     | 2254.8     | 2254.8     |   0.0 | 74.16
Comm    | 0.75741    | 0.75741    | 0.75741    |   0.0 |  0.02
Output  | 5.3827     | 5.3827     | 5.3827     |   0.0 |  0.18
Modify  | 104.44     | 104.44     | 104.44     |   0.0 |  3.43
Other   |            | 8.338      |            |       |  0.27

Nlocal:           1099 ave        1099 max        1099 min
Histogram: 1 0 0 0 0 0 0 0 0 0
Nghost:              0 ave           0 max           0 min
Histogram: 1 0 0 0 0 0 0 0 0 0
Neighs:         245874 ave      245874 max      245874 min
Histogram: 1 0 0 0 0 0 0 0 0 0

Total # of neighbors = 245874
Ave neighs/atom = 223.7252
Ave special neighs/atom = 1.9981802
Neighbor list builds = 16526
Dangerous builds = 0

# This simulation is done
# Move onto the next one
clear
  using 2 OpenMP thread(s) per MPI task
package omp 0
using multi-threaded neighbor list subroutines
next f
jump SELF

###
# Reference paper:
# K. Kremer and G. S. Grest
# Dynamics of entangled linear polymer melts: A molecular-dynamics simulation
# J Chem Phys 92, 5057 (1990)

##################################
# MIHIR: for branched polymers
# LJ minimum first to expand and explore, then collapse
###

###
# Looping through the various tshaped polymers to simulate,
# define variables to switch through
#variable f index bb66nuc1bl33bn3d30tot100 bb133nuc1bl66bn3d30tot200 bb200nuc1bl100bn3d30tot300 bb266nuc1bl133bn3d30tot400 bb333nuc1bl166bn3d30tot500 bb400nuc1bl200bn3d30tot600 bb466nuc1bl233bn3d30tot700 bb533nuc1bl266bn3d30tot800 bb600nuc1bl300bn3d30tot900 bb666nuc1bl333bn3d30tot1000 bb733nuc1bl366bn3d30tot1100 bb800nuc1bl400bn3d30tot1200
variable f index bb333nuc1bl166bn3d30tot500 bb400nuc1bl200bn3d30tot600 bb466nuc1bl233bn3d30tot700 bb533nuc1bl266bn3d30tot800 bb600nuc1bl300bn3d30tot900 bb666nuc1bl333bn3d30tot1000 bb733nuc1bl366bn3d30tot1100 bb800nuc1bl400bn3d30tot1200
###


###
# Box and units  (use LJ units and periodic boundaries)
###

units lj
log tshaped/logs2/$f.log
log tshaped/logs2/bb800nuc1bl400bn3d30tot1200.log
