#atom_style bond #no stiffness
atom_style angle #with stiffness

boundary        p p p
###
# Pair interactions require lists of neighbours to be calculated
###

#neighbor 0.3 bin
neighbor 4 bin

neigh_modify every 1 delay 1 check yes
atom_modify sort 0 0
### Generate RESTART file, SPECIAL format, not a .txt file ###
### Useful if simulation crashes ###

restart 1000000 nuc5branch4/restarts3/$f.restart
restart 1000000 nuc5branch4/restarts3/bb187nuc5bl31bn4d30tot500.restart
#############################



### READ "start" data file ###

read_data nuc5branch4/$f.dat
read_data nuc5branch4/bb187nuc5bl31bn4d30tot500.dat
Reading data file ...
  orthogonal box = (-1000 -1000 -1000) to (1000 1000 1000)
  1 by 1 by 1 MPI processor grid
  reading atoms ...
  497 atoms
  scanning bonds ...
  3 = max bonds/atom
  scanning angles ...
  6 = max angles/atom
  reading bonds ...
  496 bonds
  reading angles ...
  510 angles
Finding 1-2 1-3 1-4 neighbors ...
  special bond factors lj:    0        0        0       
  special bond factors coul:  0        0        0       
     4 = max # of 1-2 neighbors
     4 = max # of 1-3 neighbors
     8 = max # of 1-4 neighbors
    12 = max # of special neighbors
  special bonds CPU = 0.001 seconds
  read_data CPU = 0.052 seconds

######################

### READ "REstart" data file ###

######################



###
# Define groups (atom type 1 is group 'all')
###
group all type 1
497 atoms in group all


###
# Dump configs - "simple dumpings"
###

###
# Dump configs + box coords
###

dump   1   all   custom   1000  nuc5branch4/trjs3/$f.lammpstrj  id  x y z  ix iy iz
dump   1   all   custom   1000  nuc5branch4/trjs3/bb187nuc5bl31bn4d30tot500.lammpstrj  id  x y z  ix iy iz
dump_modify   1   format line "%d %.5f %.5f %.5f %d %d %d"

########################################################################


###################################################################
# Stiffness term
#
# E = K * (1+cos(theta)), K>0
#
angle_style   cosine
#change this coefficient to change stiffness (e.g. 1,5,10)
angle_coeff   1 1.0
###################################################################

###################################################################
# Pair interaction between non-bonded atoms
#
#  Lennard-Jones 12-6 potential with cutoff:
#  potential E=4epsilon[ (sigma/r)^12 - (sigma/r)^6]  for r<r_cut
#
#  1.12246 = 2^(1/6) is the minimum of the potential


pair_style      lj/cut 1.12246152962189
#pair_style      lj/cut 3

#
#  pair_modify shift yes adds a constant to the potential such

#  that E(r_cut)=0. Forces remains unchanged.
#

pair_modify     shift yes

#
#  pair_coeff for lj/cut, specify 4:
#    * atom type interacting with
#    * atom type
#    * epsilon (energy units)
#    * sigma (distance units)
#

pair_coeff      1 1 1.0 1.0
###################################################################

###################################################################
# Pair interaction between non-bonded atoms
#
#  soft potential, for PUSHING apart overlapping atoms
#  potential E=A*(1 + cos(pi*r/r_c))
#
#  1.12246 = 2^(1/6) is the cut-off r_c

#pair_style     soft 1.12246152962189

#
#  pair_coeff for soft, specify 3:
#    * atom type interacting with
#    * atom type
#    * A
#
#

#pair_coeff      1 1 100.0
###################################################################

###################################################################
# Pair interaction between bonded atoms
#
# Fene potential + Lennard Jones 12-6:

#
#  E= - 0.5 K R0^2 ln[ 1- (r/R0)^2]
#     + 4epsilon[ (sigma/r)^12 - (sigma/r)^6] + epsilon
#

bond_style   fene


#
# For style fene, specify:
#   * bond type
#   * K (energy/distance^2)
#   * R0 (distance)
#   * epsilon (energy)  (LJ component)
#   * sigma (distance)  (LJ component)
#


special_bonds fene #<=== I M P O R T A N T (new command)
Finding 1-2 1-3 1-4 neighbors ...
  special bond factors lj:    0        1        1       
  special bond factors coul:  0        1        1       
     4 = max # of 1-2 neighbors
    12 = max # of special neighbors
  special bonds CPU = 0.000 seconds

bond_coeff   1   30   2   1.0   1.0


###################################################

###################################################################
# Pair interaction between bonded atoms
#
# Harmonic potential:
#
#  E= K * (R-R0)^2
#

#bond_style   harmonic

#
# For style harmonic, specify:
#   * bond type
#   * K (energy/distance^2)
#   * R0 (distance)
#

#bond_coeff   1   60.0   1.0
#bond_coeff   2   harmonic 0.1   1.0

###################################################
compute 1 all gyration
variable rog equal c_1
#compute 2 all coord/atom cutoff 1.1

#dump 2 all custom 10000 contact_number.dump id c_2


###
# Set up fixes
###
thermo_style   custom   step  temp enthalpy c_1
fix 1 all nve   ###NVE ensemble

fix 2 all   langevin   1.0 1.0 1.0  158102   ###Langevin integrator Tstart Tstop 1/friction rndseed


##### Sample thermodynamic info  (temperature, energy, pressure, etc.) #####
thermo 1000









############################################################################

###
# set timestep of integrator

timestep 0.01

###
# run integration for a number of steps
###
#run 0
#variable r equal c_1
#if "$r < 63.1" then "quit 1"

# lj potential minimum, cause molecule to explore
run 100000
Generated 0 of 0 mixed pair_coeff terms from geometric mixing rule
Last active /omp style is angle_style cosine/omp
Neighbor list info ...
  update: every = 1 steps, delay = 1 steps, check = yes
  max neighbors/atom: 2000, page size: 100000
  master list distance cutoff = 5.1224615
  ghost atom cutoff = 5.1224615
  binsize = 2.5612308, bins = 781 781 781
  1 neighbor lists, perpetual/occasional/extra = 1 0 0
  (1) pair lj/cut/omp, perpetual
      attributes: half, newton on, omp
      pair build: half/bin/newton/omp
      stencil: half/bin/3d
      bin: standard
WARNING: Communication cutoff 5.12246152962189 is shorter than a bond length based estimate of 5.455. This may lead to errors. (src/comm.cpp:723)
Per MPI rank memory allocation (min/avg/max) = 1861 | 1861 | 1861 Mbytes
   Step          Temp         Enthalpy         c_1      
         0   0              13.258451      38.704835    
      1000   1.0838178      18.925164      37.560997    
      2000   1.0114926      19.774214      36.756524    
      3000   1.0016702      20.117593      36.06627     
      4000   1.0205998      19.981824      35.563902    
      5000   1.0520178      20.398445      34.917658    
      6000   1.0110657      19.957824      34.501666    
      7000   0.99463281     20.009712      34.212387    
      8000   1.0010742      20.412906      33.75123     
      9000   1.0436523      19.948257      33.828276    
     10000   1.0306288      20.470306      33.496171    
     11000   1.0572798      19.979128      33.15455     
     12000   0.98171178     20.501691      32.814914    
     13000   1.0040961      21.687882      32.713286    
     14000   1.128509       21.409196      32.780548    
     15000   0.98522863     20.192348      32.22689     
     16000   0.98763026     20.623032      31.977169    
     17000   1.0405882      19.809132      31.499465    
     18000   1.0833221      20.748291      31.577341    
     19000   0.98352573     20.640228      31.413679    
     20000   0.9860771      20.128563      31.313808    
     21000   1.0025448      20.075256      30.994153    
     22000   1.0422184      21.330116      30.664067    
     23000   0.99848548     20.906685      30.245036    
     24000   0.95972433     20.99422       30.052199    
     25000   0.94385013     20.275568      29.917725    
     26000   1.0413699      20.477678      29.834529    
     27000   0.94885421     20.358871      29.523385    
     28000   1.00703        20.237191      29.622713    
     29000   1.0756695      20.475684      29.44215     
     30000   1.0077014      20.062705      29.315723    
     31000   1.0071265      20.098033      29.371346    
     32000   0.98044083     20.412978      29.156954    
     33000   0.98529813     20.892861      28.720958    
     34000   0.97463742     20.575068      28.453573    
     35000   0.94867516     20.342553      28.165674    
     36000   1.0215875      19.851574      28.068725    
     37000   0.96430692     20.562845      27.644356    
     38000   1.0491751      20.44034       27.490126    
     39000   1.0249828      20.377238      27.499192    
     40000   1.0148454      20.126345      27.381464    
     41000   0.99285057     20.332629      27.407995    
     42000   1.0270369      21.394244      27.442841    
     43000   1.0074728      20.833753      27.596899    
     44000   0.95924817     20.825109      27.420793    
     45000   0.97223977     19.809652      27.057758    
     46000   0.9846415      20.535773      27.068945    
     47000   1.0054756      20.206291      27.171491    
     48000   0.99870804     20.557776      26.978238    
     49000   1.053204       21.165314      26.654529    
     50000   0.96490904     20.637487      26.41198     
     51000   0.98312175     20.11138       26.615196    
     52000   0.96826451     20.783794      26.713622    
     53000   0.97794733     21.187909      26.698551    
     54000   0.99961391     20.477765      26.575969    
     55000   0.91674054     20.919475      26.464219    
     56000   0.9934539      21.594931      26.35585     
     57000   0.95452016     20.406772      26.321845    
     58000   0.98225073     20.805169      26.57573     
     59000   1.0681896      20.819496      26.529094    
     60000   1.0307877      20.781323      26.241805    
     61000   1.0507052      20.443983      26.381133    
     62000   1.0159176      20.397562      26.117064    
     63000   0.99619627     20.532646      26.141882    
     64000   0.98946393     20.870971      26.102711    
     65000   0.98484467     20.127752      26.291108    
     66000   0.96005856     20.527956      26.189297    
     67000   1.0068536      20.96527       26.513246    
     68000   1.0316866      20.310343      26.81384     
     69000   1.0517912      20.162995      26.766854    
     70000   0.97819426     20.937809      26.55018     
     71000   0.9995761      20.212579      26.383615    
     72000   1.018646       20.167811      26.343502    
     73000   1.0395087      20.387582      26.289508    
     74000   1.0130404      20.534359      26.124351    
     75000   1.0278422      19.98794       26.179323    
     76000   0.99384509     19.899681      26.225317    
     77000   1.0064997      20.838192      26.013204    
     78000   0.97186127     20.167336      25.97276     
     79000   1.0584585      20.078013      25.845895    
     80000   0.98431309     20.709473      25.609374    
     81000   1.0528819      20.813506      25.970061    
     82000   1.0711495      20.888756      26.096728    
     83000   1.0721955      21.030277      26.093518    
     84000   0.96193709     20.346316      26.184257    
     85000   0.9549057      20.623925      26.078258    
     86000   0.92943466     20.72041       25.774014    
     87000   1.0194195      19.559908      25.68549     
     88000   1.0118084      20.688481      26.000516    
     89000   0.93275129     20.810688      26.104075    
     90000   1.0167259      21.254809      25.79536     
     91000   0.9690744      21.035248      25.899249    
     92000   1.1049503      21.166475      25.991972    
     93000   1.0094916      20.750763      26.058477    
     94000   1.0358927      20.211224      25.637017    
     95000   1.0198402      20.203565      25.576294    
     96000   0.99364686     20.770969      25.796201    
     97000   1.0140182      20.936965      25.6608      
     98000   1.0687138      19.993026      25.591632    
     99000   0.96178165     19.96341       25.53311     
    100000   0.92738147     20.024276      25.578822    
Loop time of 500.555 on 2 procs for 100000 steps with 497 atoms

Performance: 172608.293 tau/day, 199.778 timesteps/s
101.2% CPU use with 1 MPI tasks x 2 OpenMP threads

MPI task timing breakdown:
Section |  min time  |  avg time  |  max time  |%varavg| %total
---------------------------------------------------------------
Pair    | 0.89232    | 0.89232    | 0.89232    |   0.0 |  0.18
Bond    | 1.104      | 1.104      | 1.104      |   0.0 |  0.22
Neigh   | 495.9      | 495.9      | 495.9      |   0.0 | 99.07
Comm    | 0.026682   | 0.026682   | 0.026682   |   0.0 |  0.01
Output  | 0.20886    | 0.20886    | 0.20886    |   0.0 |  0.04
Modify  | 2.2249     | 2.2249     | 2.2249     |   0.0 |  0.44
Other   |            | 0.1986     |            |       |  0.04

Nlocal:            497 ave         497 max         497 min
Histogram: 1 0 0 0 0 0 0 0 0 0
Nghost:              0 ave           0 max           0 min
Histogram: 1 0 0 0 0 0 0 0 0 0
Neighs:           6164 ave        6164 max        6164 min
Histogram: 1 0 0 0 0 0 0 0 0 0

Total # of neighbors = 6164
Ave neighs/atom = 12.402414
Ave special neighs/atom = 1.9959759
Neighbor list builds = 1129
Dangerous builds = 0

# Replace lj potential, now collapse
pair_style      lj/cut 3

# Cutoff simul when gyration under 10
# Variable created with equal requires v_ + 'name'
fix 3 all halt 1000 v_rog < 7

run 3000000
Generated 0 of 0 mixed pair_coeff terms from geometric mixing rule
Last active /omp style is angle_style cosine/omp
Per MPI rank memory allocation (min/avg/max) = 1861 | 1861 | 1861 Mbytes
   Step          Temp         Enthalpy         c_1      
    100000   0.92738147     19.06447       25.578822    
    101000   0.95599826     19.365071      25.17527     
    102000   1.0158546      19.024214      24.592169    
    103000   1.0561639      19.327741      24.001018    
    104000   1.0402325      17.730661      23.697762    
    105000   1.0379982      18.234879      23.763908    
    106000   0.96860258     18.468718      23.467967    
    107000   1.0332041      19.219174      23.040757    
    108000   1.0277286      18.283343      22.727453    
    109000   1.0058843      18.690421      22.346466    
    110000   1.0234464      18.127922      22.298761    
    111000   1.0321654      18.370556      21.913907    
    112000   1.00877        17.749937      21.564867    
    113000   0.97172957     18.649536      21.351897    
    114000   1.0765162      18.438044      21.536555    
    115000   0.99352327     17.419747      21.45958     
    116000   0.98342844     18.246627      21.302738    
    117000   0.99929403     16.799227      21.506577    
    118000   0.97118256     18.352752      21.180707    
    119000   0.99469871     18.245105      21.061524    
    120000   1.0120388      18.3287        20.584008    
    121000   0.96908609     17.802505      20.241047    
    122000   1.0170947      18.129883      20.047416    
    123000   0.98992208     17.372018      19.851172    
    124000   1.0844307      17.98082       19.499156    
    125000   0.93825965     18.565289      19.359803    
    126000   0.97488121     18.305182      18.804814    
    127000   0.97552696     17.754979      18.599386    
    128000   1.0456747      17.851929      18.637709    
    129000   1.0514953      18.194892      18.412976    
    130000   1.0112587      17.436781      18.128046    
    131000   0.97946601     17.285809      17.991382    
    132000   0.94571652     18.583224      17.896694    
    133000   1.0356182      17.970725      17.663723    
    134000   1.0001016      18.188158      16.863028    
    135000   1.0342463      18.070208      16.372463    
    136000   0.95020587     17.449374      16.551436    
    137000   0.94850596     17.509001      16.400673    
    138000   1.0028085      18.232734      16.373973    
    139000   1.0025189      18.013728      16.04658     
    140000   0.9785022      17.097338      15.902702    
    141000   0.95110747     17.443746      15.892364    
    142000   1.0201939      17.166921      15.979136    
    143000   1.0147312      18.499135      15.857657    
    144000   0.95672684     18.339922      16.132223    
    145000   0.98557605     17.405275      15.976923    
    146000   1.0481965      18.386469      15.946316    
    147000   0.97059119     18.263017      15.735951    
    148000   0.95278054     17.495466      15.619519    
    149000   0.97342934     17.711259      15.989662    
    150000   0.96166047     17.188257      15.890692    
    151000   1.0013023      17.969009      15.808307    
    152000   1.0770789      17.986212      15.370711    
    153000   0.99521764     18.095352      15.175155    
    154000   1.0390782      18.226316      14.83677     
    155000   1.0271743      18.412166      14.587809    
    156000   0.91928204     17.681991      14.298062    
    157000   0.99913347     17.429967      14.029657    
    158000   1.0042635      17.540309      13.579757    
    159000   1.0605789      18.158506      13.377929    
    160000   0.98781282     17.481085      12.842759    
    161000   0.996079       17.183068      12.864753    
    162000   0.99222808     17.432175      12.625206    
    163000   1.0130506      17.205156      12.389209    
    164000   0.98811233     17.931644      12.290708    
    165000   1.0018491      17.045499      12.458432    
    166000   1.026315       18.020353      12.387239    
    167000   1.0023744      17.553247      12.377578    
    168000   0.93266798     17.051397      12.379808    
    169000   0.99331843     16.882844      12.218583    
    170000   1.0125385      17.614441      11.999054    
    171000   1.0345687      18.176967      12.086786    
    172000   0.94946838     17.65137       11.939825    
    173000   1.0038235      17.868842      11.8014      
    174000   1.0258949      18.009498      11.712464    
    175000   1.0538536      17.299352      11.617769    
    176000   1.0095844      17.524705      11.483937    
    177000   0.99864209     16.856799      10.967964    
    178000   0.97054833     17.551849      10.908969    
    179000   1.0446339      17.861374      10.717238    
    180000   0.99693412     17.371347      10.669763    
    181000   1.132761       17.654432      10.632655    
    182000   1.0628412      18.343857      10.297038    
    183000   0.9818953      16.85898       9.9653721    
    184000   0.98680758     17.624201      10.150694    
    185000   1.0554151      18.471229      10.00986     
    186000   0.9874045      17.557847      9.9528892    
    187000   0.98517653     17.998664      9.7513729    
    188000   1.0433444      17.231409      9.752517     
    189000   1.0053993      17.182265      9.6163722    
    190000   0.99340222     16.667372      9.3868114    
    191000   0.93528142     17.006331      9.2297789    
    192000   0.96426533     17.476787      9.242063     
    193000   1.0387084      18.230437      9.1662058    
    194000   1.0117376      17.168356      9.3897226    
    195000   0.93271863     17.500016      9.194514     
    196000   0.97714574     17.074321      9.2749148    
    197000   1.0327218      17.551478      9.1596341    
    198000   1.0025095      17.800866      8.8042193    
    199000   0.9955412      16.863763      8.6128083    
    200000   0.95357208     17.365637      8.5759223    
    201000   0.93070422     16.730223      8.3814549    
    202000   1.0818361      18.047923      8.5653777    
    203000   0.95510588     17.310526      8.742432     
    204000   1.0288376      17.748563      8.4949317    
    205000   0.99376287     17.460012      8.0306792    
    206000   0.98541913     16.86856       8.0104512    
    207000   0.98993884     16.567375      7.9563011    
    208000   0.98863917     17.828433      7.8544144    
    209000   0.95841632     17.181452      7.7454486    
    210000   1.0377744      17.623238      7.7342472    
    211000   1.0355318      18.267624      7.8019029    
    212000   0.97739634     17.406986      7.4408084    
    213000   1.0276154      17.333465      7.4272519    
    214000   1.03747        17.39291       7.5240601    
    215000   0.95602602     17.41333       7.3617098    
    216000   1.0746056      17.272243      7.2858513    
    217000   0.97431707     16.683209      7.0143126    
Fix halt condition for fix-id 3 met on step 218000 with value 6.926219724180627 (src/fix_halt.cpp:237)
    218000   0.96203855     17.686096      6.9262197    
Loop time of 167.157 on 2 procs for 118000 steps with 497 atoms

Performance: 609918.604 tau/day, 705.924 timesteps/s
112.9% CPU use with 1 MPI tasks x 2 OpenMP threads

MPI task timing breakdown:
Section |  min time  |  avg time  |  max time  |%varavg| %total
---------------------------------------------------------------
Pair    | 15.765     | 15.765     | 15.765     |   0.0 |  9.43
Bond    | 1.3817     | 1.3817     | 1.3817     |   0.0 |  0.83
Neigh   | 146.72     | 146.72     | 146.72     |   0.0 | 87.77
Comm    | 0.031088   | 0.031088   | 0.031088   |   0.0 |  0.02
Output  | 0.24962    | 0.24962    | 0.24962    |   0.0 |  0.15
Modify  | 2.7646     | 2.7646     | 2.7646     |   0.0 |  1.65
Other   |            | 0.2443     |            |       |  0.15

Nlocal:            497 ave         497 max         497 min
Histogram: 1 0 0 0 0 0 0 0 0 0
Nghost:              0 ave           0 max           0 min
Histogram: 1 0 0 0 0 0 0 0 0 0
Neighs:          59542 ave       59542 max       59542 min
Histogram: 1 0 0 0 0 0 0 0 0 0

Total # of neighbors = 59542
Ave neighs/atom = 119.80282
Ave special neighs/atom = 1.9959759
Neighbor list builds = 903
Dangerous builds = 0

# This simulation is done
# Move onto the next one
clear
  using 2 OpenMP thread(s) per MPI task
package omp 0
using multi-threaded neighbor list subroutines
next f
jump SELF

###
# Reference paper:
# K. Kremer and G. S. Grest
# Dynamics of entangled linear polymer melts: A molecular-dynamics simulation
# J Chem Phys 92, 5057 (1990)

##################################
# MIHIR: for branched polymers
# LJ minimum first to expand and explore, then collapse
###

###
# Looping through the various nuc5branch4 polymers to simulate,
# define variables to switch through
variable f index bb37nuc5bl6bn4d30tot100 bb75nuc5bl12bn4d30tot200 bb112nuc5bl18bn4d30tot300 bb150nuc5bl25bn4d30tot400 bb187nuc5bl31bn4d30tot500 bb225nuc5bl37bn4d30tot600 bb262nuc5bl43bn4d30tot700 bb300nuc5bl50bn4d30tot800 bb337nuc5bl56bn4d30tot900 bb375nuc5bl62bn4d30tot1000 bb412nuc5bl68bn4d30tot1100 bb450nuc5bl75bn4d30tot1200
# variable f index bb75nuc5bl12bn4d30tot200
# variable f index bb337nuc5bl56bn4d30tot900
###


###
# Box and units  (use LJ units and periodic boundaries)
###

units lj
log nuc5branch4/logs3/$f.log
log nuc5branch4/logs3/bb225nuc5bl37bn4d30tot600.log
