#atom_style bond #no stiffness
atom_style angle #with stiffness

boundary        p p p
###
# Pair interactions require lists of neighbours to be calculated
###

#neighbor 0.3 bin
neighbor 4 bin

neigh_modify every 1 delay 1 check yes
atom_modify sort 0 0
### Generate RESTART file, SPECIAL format, not a .txt file ###
### Useful if simulation crashes ###

restart 1000000 nuc5branch4/restarts3/$f.restart
restart 1000000 nuc5branch4/restarts3/bb225nuc5bl37bn4d30tot600.restart
#############################



### READ "start" data file ###

read_data nuc5branch4/$f.dat
read_data nuc5branch4/bb225nuc5bl37bn4d30tot600.dat
Reading data file ...
  orthogonal box = (-1000 -1000 -1000) to (1000 1000 1000)
  1 by 1 by 1 MPI processor grid
  reading atoms ...
  597 atoms
  scanning bonds ...
  3 = max bonds/atom
  scanning angles ...
  6 = max angles/atom
  reading bonds ...
  596 bonds
  reading angles ...
  610 angles
Finding 1-2 1-3 1-4 neighbors ...
  special bond factors lj:    0        0        0       
  special bond factors coul:  0        0        0       
     4 = max # of 1-2 neighbors
     4 = max # of 1-3 neighbors
     8 = max # of 1-4 neighbors
    12 = max # of special neighbors
  special bonds CPU = 0.000 seconds
  read_data CPU = 0.052 seconds

######################

### READ "REstart" data file ###

######################



###
# Define groups (atom type 1 is group 'all')
###
group all type 1
597 atoms in group all


###
# Dump configs - "simple dumpings"
###

###
# Dump configs + box coords
###

dump   1   all   custom   1000  nuc5branch4/trjs3/$f.lammpstrj  id  x y z  ix iy iz
dump   1   all   custom   1000  nuc5branch4/trjs3/bb225nuc5bl37bn4d30tot600.lammpstrj  id  x y z  ix iy iz
dump_modify   1   format line "%d %.5f %.5f %.5f %d %d %d"

########################################################################


###################################################################
# Stiffness term
#
# E = K * (1+cos(theta)), K>0
#
angle_style   cosine
#change this coefficient to change stiffness (e.g. 1,5,10)
angle_coeff   1 1.0
###################################################################

###################################################################
# Pair interaction between non-bonded atoms
#
#  Lennard-Jones 12-6 potential with cutoff:
#  potential E=4epsilon[ (sigma/r)^12 - (sigma/r)^6]  for r<r_cut
#
#  1.12246 = 2^(1/6) is the minimum of the potential


pair_style      lj/cut 1.12246152962189
#pair_style      lj/cut 3

#
#  pair_modify shift yes adds a constant to the potential such

#  that E(r_cut)=0. Forces remains unchanged.
#

pair_modify     shift yes

#
#  pair_coeff for lj/cut, specify 4:
#    * atom type interacting with
#    * atom type
#    * epsilon (energy units)
#    * sigma (distance units)
#

pair_coeff      1 1 1.0 1.0
###################################################################

###################################################################
# Pair interaction between non-bonded atoms
#
#  soft potential, for PUSHING apart overlapping atoms
#  potential E=A*(1 + cos(pi*r/r_c))
#
#  1.12246 = 2^(1/6) is the cut-off r_c

#pair_style     soft 1.12246152962189

#
#  pair_coeff for soft, specify 3:
#    * atom type interacting with
#    * atom type
#    * A
#
#

#pair_coeff      1 1 100.0
###################################################################

###################################################################
# Pair interaction between bonded atoms
#
# Fene potential + Lennard Jones 12-6:

#
#  E= - 0.5 K R0^2 ln[ 1- (r/R0)^2]
#     + 4epsilon[ (sigma/r)^12 - (sigma/r)^6] + epsilon
#

bond_style   fene


#
# For style fene, specify:
#   * bond type
#   * K (energy/distance^2)
#   * R0 (distance)
#   * epsilon (energy)  (LJ component)
#   * sigma (distance)  (LJ component)
#


special_bonds fene #<=== I M P O R T A N T (new command)
Finding 1-2 1-3 1-4 neighbors ...
  special bond factors lj:    0        1        1       
  special bond factors coul:  0        1        1       
     4 = max # of 1-2 neighbors
    12 = max # of special neighbors
  special bonds CPU = 0.000 seconds

bond_coeff   1   30   2   1.0   1.0


###################################################

###################################################################
# Pair interaction between bonded atoms
#
# Harmonic potential:
#
#  E= K * (R-R0)^2
#

#bond_style   harmonic

#
# For style harmonic, specify:
#   * bond type
#   * K (energy/distance^2)
#   * R0 (distance)
#

#bond_coeff   1   60.0   1.0
#bond_coeff   2   harmonic 0.1   1.0

###################################################
compute 1 all gyration
variable rog equal c_1
#compute 2 all coord/atom cutoff 1.1

#dump 2 all custom 10000 contact_number.dump id c_2


###
# Set up fixes
###
thermo_style   custom   step  temp enthalpy c_1
fix 1 all nve   ###NVE ensemble

fix 2 all   langevin   1.0 1.0 1.0  158102   ###Langevin integrator Tstart Tstop 1/friction rndseed


##### Sample thermodynamic info  (temperature, energy, pressure, etc.) #####
thermo 1000









############################################################################

###
# set timestep of integrator

timestep 0.01

###
# run integration for a number of steps
###
#run 0
#variable r equal c_1
#if "$r < 63.1" then "quit 1"

# lj potential minimum, cause molecule to explore
run 100000
Generated 0 of 0 mixed pair_coeff terms from geometric mixing rule
Last active /omp style is angle_style cosine/omp
Neighbor list info ...
  update: every = 1 steps, delay = 1 steps, check = yes
  max neighbors/atom: 2000, page size: 100000
  master list distance cutoff = 5.1224615
  ghost atom cutoff = 5.1224615
  binsize = 2.5612308, bins = 781 781 781
  1 neighbor lists, perpetual/occasional/extra = 1 0 0
  (1) pair lj/cut/omp, perpetual
      attributes: half, newton on, omp
      pair build: half/bin/newton/omp
      stencil: half/bin/3d
      bin: standard
WARNING: Communication cutoff 5.12246152962189 is shorter than a bond length based estimate of 5.455. This may lead to errors. (src/comm.cpp:723)
Per MPI rank memory allocation (min/avg/max) = 1861 | 1861 | 1861 Mbytes
   Step          Temp         Enthalpy         c_1      
         0   0              13.233278      46.672122    
      1000   0.94869604     19.071979      45.999656    
      2000   1.0057915      19.694978      45.190579    
      3000   1.0162992      19.592106      44.819604    
      4000   1.0501464      20.075771      44.55726     
      5000   1.0021145      20.348176      44.630009    
      6000   0.93920718     19.528327      44.286484    
      7000   1.0236092      20.606211      44.095385    
      8000   1.0576613      20.598214      43.403712    
      9000   1.0116485      20.459083      43.121999    
     10000   1.0271759      20.337203      42.512047    
     11000   0.94180964     19.461659      42.128042    
     12000   0.97005065     20.046395      42.102986    
     13000   0.95013887     20.302301      42.062851    
     14000   0.98375263     20.673543      42.047452    
     15000   0.98553903     19.92859       42.22016     
     16000   1.0235496      20.602783      41.8659      
     17000   1.0312704      20.369205      41.796899    
     18000   0.99687143     20.377822      41.411765    
     19000   0.98310686     20.857987      41.215664    
     20000   0.98361226     20.291431      41.111632    
     21000   1.0291775      20.060522      40.963854    
     22000   0.95421454     20.332167      40.808729    
     23000   1.0065196      19.83881       40.649439    
     24000   0.99395027     20.561888      40.41971     
     25000   0.99634085     20.283375      40.289588    
     26000   0.99568759     20.419193      40.328251    
     27000   1.0378812      20.325314      40.14738     
     28000   0.99925151     20.97731       39.943029    
     29000   0.98202221     20.103187      40.070408    
     30000   0.97087243     21.078998      40.11789     
     31000   1.014767       20.48039       39.82536     
     32000   0.96290695     19.899682      39.60987     
     33000   1.0133657      20.200145      39.441809    
     34000   1.0000568      19.841585      39.384733    
     35000   1.0075892      19.531874      39.076534    
     36000   0.98029489     19.842815      38.741903    
     37000   1.0099798      19.955571      38.716605    
     38000   1.0089442      20.340948      38.765335    
     39000   0.96351221     20.21454       38.814179    
     40000   1.0213956      20.665756      38.958225    
     41000   0.99782082     20.685855      38.750135    
     42000   1.0354921      20.090728      38.861204    
     43000   0.9726422      20.470701      38.550058    
     44000   0.99078788     20.659699      38.567928    
     45000   0.97834702     20.238536      38.608809    
     46000   0.97717448     20.721844      38.379147    
     47000   1.0152092      20.231319      38.508878    
     48000   1.0200414      20.66324       38.294862    
     49000   1.0118696      20.219193      38.027465    
     50000   1.0110506      20.693821      37.981297    
     51000   0.98358159     20.753825      37.783739    
     52000   1.0563168      20.730091      37.978326    
     53000   0.99093973     20.403413      37.882368    
     54000   1.0062083      20.469227      37.978086    
     55000   0.97768201     20.024656      37.77705     
     56000   0.96182119     20.320086      37.43904     
     57000   0.93735089     20.986482      37.3285      
     58000   0.99803145     20.676172      37.232813    
     59000   1.0470404      20.373942      37.059405    
     60000   1.013624       20.705902      36.89997     
     61000   1.0043826      20.468993      36.773763    
     62000   0.99205164     20.293208      36.595596    
     63000   0.98802153     20.97241       36.492186    
     64000   0.98531868     20.429898      36.42611     
     65000   0.97662311     20.582176      36.386362    
     66000   0.97721746     20.360569      36.550881    
     67000   0.98156851     20.718998      36.281025    
     68000   1.0085132      20.443248      35.925599    
     69000   0.96603784     20.297893      35.974447    
     70000   1.0137461      20.467366      35.901669    
     71000   0.99384948     21.22592       35.807015    
     72000   1.0162995      20.915296      36.046572    
     73000   1.037747       21.027726      35.868024    
     74000   1.0443389      21.275665      35.837847    
     75000   1.0021464      20.37217       35.825315    
     76000   1.0033757      20.300433      35.845035    
     77000   0.98299781     20.300173      36.07085     
     78000   1.0539064      20.112056      36.005384    
     79000   1.0270037      20.37288       36.0147      
     80000   0.99295488     20.623788      36.096661    
     81000   0.93395817     20.129734      35.779399    
     82000   1.0278284      20.588377      35.755557    
     83000   0.98201511     20.180373      35.514821    
     84000   1.0119094      20.47915       35.301692    
     85000   0.98421126     20.69474       35.031593    
     86000   0.9565981      19.925945      35.006335    
     87000   1.00494        20.163713      35.262084    
     88000   1.0190227      20.405656      35.171734    
     89000   1.0115408      20.758056      34.846192    
     90000   0.97792192     20.563018      34.727645    
     91000   1.0479393      20.961053      34.528926    
     92000   1.0429743      20.63407       34.217197    
     93000   0.98421444     20.967721      33.689903    
     94000   0.96515288     20.677382      33.539057    
     95000   0.9895009      20.169578      33.223755    
     96000   0.92929306     19.390485      33.243349    
     97000   0.99254861     21.035499      33.26183     
     98000   1.0310542      20.153206      33.375752    
     99000   0.98364204     20.39365       33.258899    
    100000   0.98826992     20.992522      33.37095     
Loop time of 463.872 on 2 procs for 100000 steps with 597 atoms

Performance: 186258.175 tau/day, 215.577 timesteps/s
101.4% CPU use with 1 MPI tasks x 2 OpenMP threads

MPI task timing breakdown:
Section |  min time  |  avg time  |  max time  |%varavg| %total
---------------------------------------------------------------
Pair    | 0.92751    | 0.92751    | 0.92751    |   0.0 |  0.20
Bond    | 1.2834     | 1.2834     | 1.2834     |   0.0 |  0.28
Neigh   | 458.56     | 458.56     | 458.56     |   0.0 | 98.85
Comm    | 0.026984   | 0.026984   | 0.026984   |   0.0 |  0.01
Output  | 0.2139     | 0.2139     | 0.2139     |   0.0 |  0.05
Modify  | 2.6292     | 2.6292     | 2.6292     |   0.0 |  0.57
Other   |            | 0.2306     |            |       |  0.05

Nlocal:            597 ave         597 max         597 min
Histogram: 1 0 0 0 0 0 0 0 0 0
Nghost:              0 ave           0 max           0 min
Histogram: 1 0 0 0 0 0 0 0 0 0
Neighs:           5946 ave        5946 max        5946 min
Histogram: 1 0 0 0 0 0 0 0 0 0

Total # of neighbors = 5946
Ave neighs/atom = 9.959799
Ave special neighs/atom = 1.9966499
Neighbor list builds = 1141
Dangerous builds = 0

# Replace lj potential, now collapse
pair_style      lj/cut 3

# Cutoff simul when gyration under 10
# Variable created with equal requires v_ + 'name'
fix 3 all halt 1000 v_rog < 7

run 3000000
Generated 0 of 0 mixed pair_coeff terms from geometric mixing rule
Last active /omp style is angle_style cosine/omp
Per MPI rank memory allocation (min/avg/max) = 1861 | 1861 | 1861 Mbytes
   Step          Temp         Enthalpy         c_1      
    100000   0.98826992     20.042925      33.37095     
    101000   1.0089747      19.49525       33.080779    
    102000   0.97508253     19.045721      32.903012    
    103000   1.0172178      18.886523      32.955545    
    104000   1.0367202      19.017004      32.708474    
    105000   0.93192112     18.648783      32.426641    
    106000   0.99267349     19.534904      32.213954    
    107000   1.0569021      18.525625      31.836236    
    108000   0.97975186     19.195047      31.659891    
    109000   0.99571831     18.161844      31.420662    
    110000   1.0145914      18.738206      31.353644    
    111000   1.0161923      18.767083      31.37823     
    112000   0.98822306     17.816595      31.221942    
    113000   0.99210637     17.49686       31.235168    
    114000   0.98033593     17.520318      31.014389    
    115000   1.0051098      18.657259      31.116404    
    116000   1.0732681      18.578759      31.087273    
    117000   1.0632775      17.931006      31.026727    
    118000   1.0003645      18.949051      31.065799    
    119000   1.000197       18.783758      30.755852    
    120000   1.0403609      18.33917       30.63137     
    121000   1.0221444      18.131048      30.611708    
    122000   1.0724174      18.52393       30.588479    
    123000   1.0496204      19.081958      30.225497    
    124000   0.97673591     17.995758      29.991242    
    125000   0.99302454     18.99829       29.821393    
    126000   1.0617587      18.91632       29.657044    
    127000   1.0161956      17.348246      29.512371    
    128000   0.98748823     18.235655      29.418598    
    129000   1.0254973      17.703928      29.411925    
    130000   0.99942519     18.004316      29.224582    
    131000   1.0168015      18.663383      29.107042    
    132000   0.99217322     18.420806      28.970011    
    133000   1.0088712      18.343287      28.746502    
    134000   0.99132783     18.388446      28.761177    
    135000   0.99695005     18.399703      28.719884    
    136000   0.96536554     18.347794      28.778233    
    137000   1.0039825      18.287155      28.466638    
    138000   0.97623146     18.485669      28.282085    
    139000   1.0042372      18.487261      28.033651    
    140000   1.0386086      18.903838      27.885951    
    141000   0.96713007     18.989397      27.67991     
    142000   1.0001731      18.040342      27.641357    
    143000   0.9635393      17.604614      27.515921    
    144000   1.0185002      17.950304      27.508627    
    145000   0.98610019     17.734827      27.42288     
    146000   1.0191897      18.236747      27.275344    
    147000   1.036753       18.410513      26.894682    
    148000   1.0228485      17.949432      26.581314    
    149000   1.0310799      18.530344      26.389639    
    150000   1.0259326      18.011345      26.372014    
    151000   1.0301147      17.653693      26.352945    
    152000   1.039066       18.442361      26.173323    
    153000   0.96186428     18.202549      25.717405    
    154000   1.0087448      18.107717      25.127063    
    155000   0.99286023     18.456588      24.884673    
    156000   1.0353669      17.928171      24.748567    
    157000   1.0051585      17.947199      24.8352      
    158000   1.0453671      17.55571       24.523352    
    159000   0.99741251     18.109669      24.186488    
    160000   1.0090564      17.85605       23.75685     
    161000   1.001447       17.447111      23.476381    
    162000   0.9931317      17.621077      23.436503    
    163000   1.0130853      17.945125      23.649673    
    164000   1.0622726      18.31584       23.456387    
    165000   0.99933994     18.107155      23.02502     
    166000   0.99607415     17.244237      22.922108    
    167000   0.98007381     18.408437      23.033332    
    168000   1.0119016      18.189423      23.024155    
    169000   1.0132913      17.946246      22.882934    
    170000   0.97950932     18.439825      22.705536    
    171000   1.0007689      17.551345      22.734237    
    172000   0.9924949      17.716296      22.633972    
    173000   0.95248947     18.114784      22.479872    
    174000   0.95409693     17.512724      22.82401     
    175000   0.99321925     18.430698      22.485987    
    176000   1.0456246      17.88669       22.472595    
    177000   1.0181167      18.006001      22.211396    
    178000   0.96303267     17.567683      21.946301    
    179000   1.0065384      17.769171      21.760493    
    180000   1.0036542      17.856244      21.628517    
    181000   0.95452066     18.328655      21.559359    
    182000   0.97695393     17.995543      21.46369     
    183000   1.0142082      18.292831      20.990349    
    184000   0.98240011     18.573705      21.02227     
    185000   1.0338243      17.597084      20.788359    
    186000   1.0508041      17.603485      20.327129    
    187000   0.99834256     17.900391      20.073998    
    188000   0.97600304     18.196878      19.852125    
    189000   0.98709156     18.001785      19.544796    
    190000   0.96174786     18.02028       19.604508    
    191000   0.9616611      18.466921      19.701639    
    192000   1.075029       17.991993      19.666696    
    193000   1.0233728      17.404953      19.448314    
    194000   0.94776955     18.160502      19.154232    
    195000   0.97331608     17.701702      19.099706    
    196000   0.93665842     17.868274      19.014563    
    197000   0.95803153     18.457916      18.678997    
    198000   0.98622381     17.49971       18.518659    
    199000   1.0184003      18.167363      18.461602    
    200000   1.00374        17.424386      18.037067    
    201000   0.975551       17.591421      17.891547    
    202000   0.9902527      17.801035      17.883178    
    203000   0.97840094     17.471324      17.87327     
    204000   1.1024603      17.665031      17.90377     
    205000   1.0060713      17.575848      17.810679    
    206000   1.0057021      17.891471      17.502674    
    207000   0.9706613      17.222676      17.054459    
    208000   0.96171975     18.392977      16.88323     
    209000   0.98694454     17.806185      16.887051    
    210000   0.99396491     17.033603      16.713367    
    211000   0.9629475      17.857236      16.619367    
    212000   0.9414584      16.788067      16.508251    
    213000   0.97025392     17.467534      16.252805    
    214000   0.9227848      16.641175      16.25198     
    215000   0.99980582     18.132766      16.131035    
    216000   1.0160032      18.114186      16.082543    
    217000   1.0228178      17.751381      16.048159    
    218000   1.0015008      17.6871        15.883438    
    219000   1.0384417      17.516117      15.795979    
    220000   1.0554221      17.662         15.687621    
    221000   1.0486265      17.439704      15.687101    
    222000   1.05373        18.142424      15.572984    
    223000   1.1050741      17.739458      15.499608    
    224000   1.022519       18.045071      15.004355    
    225000   1.0339898      16.803625      14.708649    
    226000   0.97709329     17.499249      14.896032    
    227000   0.96838036     17.326574      14.857449    
    228000   0.99572331     17.905927      14.660193    
    229000   0.99308873     17.168804      14.409677    
    230000   1.0346478      17.925568      14.043015    
    231000   1.0235874      18.653934      14.024285    
    232000   0.98255751     17.838287      14.113452    
    233000   1.0473309      17.270364      14.13165     
    234000   0.97735909     17.307415      13.944656    
    235000   1.0397127      17.235225      13.982652    
    236000   0.97307307     16.540811      13.647303    
    237000   0.9477553      17.61942       13.391098    
    238000   0.97827003     17.638584      13.334088    
    239000   1.0047357      17.668318      13.007489    
    240000   1.011714       17.988878      12.778766    
    241000   1.026302       17.76613       12.725273    
    242000   0.94788145     16.926012      12.507946    
    243000   0.9389994      16.739828      12.314213    
    244000   1.0397419      16.83318       12.007827    
    245000   0.98621443     17.607958      11.742229    
    246000   1.0307001      17.549649      11.686027    
    247000   1.0376899      16.941397      11.818684    
    248000   1.0130434      17.269713      11.71823     
    249000   1.0352336      17.780519      11.522996    
    250000   0.96034021     17.000398      11.455287    
    251000   1.0382425      17.325042      11.379508    
    252000   0.96338141     17.278622      11.320604    
    253000   1.0057469      17.040963      11.544361    
    254000   1.0012444      17.512469      11.416012    
    255000   1.0022498      17.794173      11.479543    
    256000   1.0117514      16.964751      11.348432    
    257000   1.0110648      17.724381      11.321914    
    258000   1.0090006      18.271963      11.387692    
    259000   1.0268861      17.89203       11.256264    
    260000   0.99734777     17.373373      11.079109    
    261000   0.98493022     17.750976      11.055648    
    262000   1.0327798      18.334102      11.08867     
    263000   0.95866412     17.281228      10.848714    
    264000   1.0186252      17.026496      10.706151    
    265000   0.94868566     18.365121      10.539038    
    266000   0.97767966     17.764643      10.609378    
    267000   0.98192506     17.392194      10.379017    
    268000   1.0162283      17.576055      10.286872    
    269000   1.0459769      17.848432      10.138006    
    270000   0.96394495     17.313993      9.9408288    
    271000   1.0089663      17.282469      10.014642    
    272000   0.9643805      17.336103      9.7628648    
    273000   1.0487723      17.505942      9.813848     
    274000   0.98764246     16.768009      9.7615312    
    275000   0.9633977      16.882881      9.6737166    
    276000   0.98536925     17.280693      9.6679666    
    277000   1.0285394      16.646626      9.6929122    
    278000   0.99519801     17.487134      9.5973076    
    279000   1.018572       17.602785      9.4538222    
    280000   1.0071719      17.082421      9.2148783    
    281000   0.90068946     17.186714      9.1436047    
    282000   0.98919718     16.785295      8.970362     
    283000   1.0189438      17.054489      8.7822261    
    284000   0.98916601     17.767694      8.6637605    
    285000   1.0294039      17.086524      8.4076346    
    286000   0.95684237     17.080012      8.461497     
    287000   0.91735167     18.012238      8.2435941    
    288000   0.93227564     17.314882      8.0070015    
    289000   1.0282408      16.777737      7.9371101    
    290000   0.99212889     16.828479      8.0334462    
    291000   1.030161       17.990339      7.851588     
    292000   1.0618307      17.175236      7.7200166    
    293000   1.0261348      17.933342      7.61207      
    294000   1.0195155      17.783036      7.8327955    
    295000   0.99364689     17.30431       7.8269885    
    296000   0.99954622     17.530794      7.5987883    
    297000   1.0294917      17.234445      7.477684     
    298000   1.0104541      16.794378      7.4114509    
    299000   1.0273377      17.411781      7.3055878    
    300000   1.0544585      17.639667      7.5457122    
    301000   0.99624095     17.225201      7.4415346    
    302000   1.0224166      16.942515      7.6600984    
    303000   1.0072277      18.503586      7.7450931    
    304000   1.0427235      18.01383       7.3982415    
    305000   1.002643       16.93003       7.386487     
    306000   0.99794068     16.18237       7.3721223    
    307000   0.99966554     17.189918      7.2097618    
    308000   0.99278873     17.243906      7.2046724    
Fix halt condition for fix-id 3 met on step 309000 with value 6.897044849795843 (src/fix_halt.cpp:237)
    309000   1.0252409      17.461094      6.8970448    
Loop time of 296.972 on 2 procs for 209000 steps with 597 atoms

Performance: 608058.043 tau/day, 703.771 timesteps/s
114.5% CPU use with 1 MPI tasks x 2 OpenMP threads

MPI task timing breakdown:
Section |  min time  |  avg time  |  max time  |%varavg| %total
---------------------------------------------------------------
Pair    | 31.382     | 31.382     | 31.382     |   0.0 | 10.57
Bond    | 2.8679     | 2.8679     | 2.8679     |   0.0 |  0.97
Neigh   | 255.86     | 255.86     | 255.86     |   0.0 | 86.16
Comm    | 0.057996   | 0.057996   | 0.057996   |   0.0 |  0.02
Output  | 0.4661     | 0.4661     | 0.4661     |   0.0 |  0.16
Modify  | 5.822      | 5.822      | 5.822      |   0.0 |  1.96
Other   |            | 0.5126     |            |       |  0.17

Nlocal:            597 ave         597 max         597 min
Histogram: 1 0 0 0 0 0 0 0 0 0
Nghost:              0 ave           0 max           0 min
Histogram: 1 0 0 0 0 0 0 0 0 0
Neighs:          83481 ave       83481 max       83481 min
Histogram: 1 0 0 0 0 0 0 0 0 0

Total # of neighbors = 83481
Ave neighs/atom = 139.83417
Ave special neighs/atom = 1.9966499
Neighbor list builds = 1671
Dangerous builds = 0

# This simulation is done
# Move onto the next one
clear
  using 2 OpenMP thread(s) per MPI task
package omp 0
using multi-threaded neighbor list subroutines
next f
jump SELF

###
# Reference paper:
# K. Kremer and G. S. Grest
# Dynamics of entangled linear polymer melts: A molecular-dynamics simulation
# J Chem Phys 92, 5057 (1990)

##################################
# MIHIR: for branched polymers
# LJ minimum first to expand and explore, then collapse
###

###
# Looping through the various nuc5branch4 polymers to simulate,
# define variables to switch through
variable f index bb37nuc5bl6bn4d30tot100 bb75nuc5bl12bn4d30tot200 bb112nuc5bl18bn4d30tot300 bb150nuc5bl25bn4d30tot400 bb187nuc5bl31bn4d30tot500 bb225nuc5bl37bn4d30tot600 bb262nuc5bl43bn4d30tot700 bb300nuc5bl50bn4d30tot800 bb337nuc5bl56bn4d30tot900 bb375nuc5bl62bn4d30tot1000 bb412nuc5bl68bn4d30tot1100 bb450nuc5bl75bn4d30tot1200
# variable f index bb75nuc5bl12bn4d30tot200
# variable f index bb337nuc5bl56bn4d30tot900
###


###
# Box and units  (use LJ units and periodic boundaries)
###

units lj
log nuc5branch4/logs3/$f.log
log nuc5branch4/logs3/bb262nuc5bl43bn4d30tot700.log
