#atom_style bond #no stiffness
atom_style angle #with stiffness

boundary        p p p
###
# Pair interactions require lists of neighbours to be calculated
###

#neighbor 0.3 bin
neighbor 4 bin

neigh_modify every 1 delay 1 check yes
atom_modify sort 0 0
### Generate RESTART file, SPECIAL format, not a .txt file ###
### Useful if simulation crashes ###

restart 1000000 nuc5branch4/restarts3/$f.restart
restart 1000000 nuc5branch4/restarts3/bb262nuc5bl43bn4d30tot700.restart
#############################



### READ "start" data file ###

read_data nuc5branch4/$f.dat
read_data nuc5branch4/bb262nuc5bl43bn4d30tot700.dat
Reading data file ...
  orthogonal box = (-1000 -1000 -1000) to (1000 1000 1000)
  1 by 1 by 1 MPI processor grid
  reading atoms ...
  693 atoms
  scanning bonds ...
  3 = max bonds/atom
  scanning angles ...
  6 = max angles/atom
  reading bonds ...
  692 bonds
  reading angles ...
  706 angles
Finding 1-2 1-3 1-4 neighbors ...
  special bond factors lj:    0        0        0       
  special bond factors coul:  0        0        0       
     4 = max # of 1-2 neighbors
     4 = max # of 1-3 neighbors
     8 = max # of 1-4 neighbors
    12 = max # of special neighbors
  special bonds CPU = 0.001 seconds
  read_data CPU = 0.051 seconds

######################

### READ "REstart" data file ###

######################



###
# Define groups (atom type 1 is group 'all')
###
group all type 1
693 atoms in group all


###
# Dump configs - "simple dumpings"
###

###
# Dump configs + box coords
###

dump   1   all   custom   1000  nuc5branch4/trjs3/$f.lammpstrj  id  x y z  ix iy iz
dump   1   all   custom   1000  nuc5branch4/trjs3/bb262nuc5bl43bn4d30tot700.lammpstrj  id  x y z  ix iy iz
dump_modify   1   format line "%d %.5f %.5f %.5f %d %d %d"

########################################################################


###################################################################
# Stiffness term
#
# E = K * (1+cos(theta)), K>0
#
angle_style   cosine
#change this coefficient to change stiffness (e.g. 1,5,10)
angle_coeff   1 1.0
###################################################################

###################################################################
# Pair interaction between non-bonded atoms
#
#  Lennard-Jones 12-6 potential with cutoff:
#  potential E=4epsilon[ (sigma/r)^12 - (sigma/r)^6]  for r<r_cut
#
#  1.12246 = 2^(1/6) is the minimum of the potential


pair_style      lj/cut 1.12246152962189
#pair_style      lj/cut 3

#
#  pair_modify shift yes adds a constant to the potential such

#  that E(r_cut)=0. Forces remains unchanged.
#

pair_modify     shift yes

#
#  pair_coeff for lj/cut, specify 4:
#    * atom type interacting with
#    * atom type
#    * epsilon (energy units)
#    * sigma (distance units)
#

pair_coeff      1 1 1.0 1.0
###################################################################

###################################################################
# Pair interaction between non-bonded atoms
#
#  soft potential, for PUSHING apart overlapping atoms
#  potential E=A*(1 + cos(pi*r/r_c))
#
#  1.12246 = 2^(1/6) is the cut-off r_c

#pair_style     soft 1.12246152962189

#
#  pair_coeff for soft, specify 3:
#    * atom type interacting with
#    * atom type
#    * A
#
#

#pair_coeff      1 1 100.0
###################################################################

###################################################################
# Pair interaction between bonded atoms
#
# Fene potential + Lennard Jones 12-6:

#
#  E= - 0.5 K R0^2 ln[ 1- (r/R0)^2]
#     + 4epsilon[ (sigma/r)^12 - (sigma/r)^6] + epsilon
#

bond_style   fene


#
# For style fene, specify:
#   * bond type
#   * K (energy/distance^2)
#   * R0 (distance)
#   * epsilon (energy)  (LJ component)
#   * sigma (distance)  (LJ component)
#


special_bonds fene #<=== I M P O R T A N T (new command)
Finding 1-2 1-3 1-4 neighbors ...
  special bond factors lj:    0        1        1       
  special bond factors coul:  0        1        1       
     4 = max # of 1-2 neighbors
    12 = max # of special neighbors
  special bonds CPU = 0.000 seconds

bond_coeff   1   30   2   1.0   1.0


###################################################

###################################################################
# Pair interaction between bonded atoms
#
# Harmonic potential:
#
#  E= K * (R-R0)^2
#

#bond_style   harmonic

#
# For style harmonic, specify:
#   * bond type
#   * K (energy/distance^2)
#   * R0 (distance)
#

#bond_coeff   1   60.0   1.0
#bond_coeff   2   harmonic 0.1   1.0

###################################################
compute 1 all gyration
variable rog equal c_1
#compute 2 all coord/atom cutoff 1.1

#dump 2 all custom 10000 contact_number.dump id c_2


###
# Set up fixes
###
thermo_style   custom   step  temp enthalpy c_1
fix 1 all nve   ###NVE ensemble

fix 2 all   langevin   1.0 1.0 1.0  158102   ###Langevin integrator Tstart Tstop 1/friction rndseed


##### Sample thermodynamic info  (temperature, energy, pressure, etc.) #####
thermo 1000









############################################################################

###
# set timestep of integrator

timestep 0.01

###
# run integration for a number of steps
###
#run 0
#variable r equal c_1
#if "$r < 63.1" then "quit 1"

# lj potential minimum, cause molecule to explore
run 100000
Generated 0 of 0 mixed pair_coeff terms from geometric mixing rule
Last active /omp style is angle_style cosine/omp
Neighbor list info ...
  update: every = 1 steps, delay = 1 steps, check = yes
  max neighbors/atom: 2000, page size: 100000
  master list distance cutoff = 5.1224615
  ghost atom cutoff = 5.1224615
  binsize = 2.5612308, bins = 781 781 781
  1 neighbor lists, perpetual/occasional/extra = 1 0 0
  (1) pair lj/cut/omp, perpetual
      attributes: half, newton on, omp
      pair build: half/bin/newton/omp
      stencil: half/bin/3d
      bin: standard
WARNING: Communication cutoff 5.12246152962189 is shorter than a bond length based estimate of 5.455. This may lead to errors. (src/comm.cpp:723)
Per MPI rank memory allocation (min/avg/max) = 1862 | 1862 | 1862 Mbytes
   Step          Temp         Enthalpy         c_1      
         0   0              13.254802      51.600201    
      1000   1.027049       19.350889      50.447325    
      2000   0.97754014     19.231277      49.749257    
      3000   1.0556953      19.611709      49.051608    
      4000   0.97166051     19.437297      48.344137    
      5000   1.0420866      19.96492       47.910134    
      6000   0.99763908     19.866921      47.792451    
      7000   0.99578674     19.518462      47.702946    
      8000   0.92251786     19.751288      47.483926    
      9000   0.99802367     20.24999       47.207558    
     10000   1.0683295      20.287798      46.916885    
     11000   0.97874624     19.694651      46.579214    
     12000   0.98154488     19.611291      46.017347    
     13000   0.98018622     20.55272       45.924917    
     14000   1.011481       20.188797      45.963017    
     15000   0.98194187     20.027931      45.599781    
     16000   1.0096056      19.709355      45.465917    
     17000   0.98878206     20.483599      45.057982    
     18000   0.9711702      20.512414      44.964128    
     19000   1.0187326      20.131153      45.085184    
     20000   0.95277016     20.555257      44.628132    
     21000   1.0340022      20.332727      44.647461    
     22000   0.99348223     21.0432        44.662753    
     23000   0.98983233     20.444338      44.276953    
     24000   0.98841376     19.572901      44.245158    
     25000   1.0204401      19.890926      44.079474    
     26000   0.96376702     20.030151      43.783044    
     27000   0.94777753     20.106457      43.706649    
     28000   0.99262868     20.618671      43.433386    
     29000   0.98265999     20.630832      43.181605    
     30000   0.98464444     20.504688      42.930498    
     31000   1.0000242      20.191395      42.683421    
     32000   0.99134471     19.929899      42.391708    
     33000   1.007639       20.276062      42.081332    
     34000   1.0242718      21.376014      42.053319    
     35000   1.037428       20.084001      41.917139    
     36000   1.0803519      20.274136      41.976379    
     37000   1.0305002      20.558833      41.943102    
     38000   1.0290273      21.030689      41.653322    
     39000   0.98494231     20.544237      41.563559    
     40000   1.0411545      20.564511      41.239016    
     41000   1.0044187      20.506276      41.019671    
     42000   1.0050039      20.406258      40.891703    
     43000   1.0395203      20.451375      40.828584    
     44000   1.013285       20.27408       40.797739    
     45000   1.0407381      20.603967      40.37736     
     46000   0.94564456     19.970269      40.170714    
     47000   0.96240375     20.29305       40.282191    
     48000   0.98430602     20.452671      40.157939    
     49000   0.97986664     20.720258      40.166819    
     50000   1.0417876      21.103528      39.778057    
     51000   1.0099888      20.693766      39.677014    
     52000   0.9976919      20.65371       39.478849    
     53000   1.0013472      20.857161      39.561818    
     54000   1.0433147      20.401162      39.386821    
     55000   1.0335239      21.289334      39.455786    
     56000   0.97580246     20.014643      39.447122    
     57000   0.98892796     21.055132      39.406078    
     58000   1.0466366      20.797907      39.165164    
     59000   1.0147528      20.297139      38.945595    
     60000   0.98225939     20.28379       39.27043     
     61000   0.9704271      20.159191      38.981414    
     62000   1.0137871      20.460837      39.040599    
     63000   0.97115358     21.375714      38.932392    
     64000   1.007346       21.228369      39.094427    
     65000   1.0066439      20.341868      39.304724    
     66000   0.98308317     20.455912      39.087098    
     67000   0.97263827     20.798745      39.048934    
     68000   1.0325762      20.659318      38.971519    
     69000   0.97784853     20.526371      38.701828    
     70000   0.98766828     20.179049      38.559728    
     71000   1.0200077      20.911305      38.565074    
     72000   0.9968738      20.385244      38.400526    
     73000   0.99668584     20.431432      38.212871    
     74000   1.0339495      21.466839      38.237077    
     75000   1.0115097      20.425379      38.503775    
     76000   0.96335098     20.617676      38.688606    
     77000   0.97955621     20.717082      38.531757    
     78000   0.99599586     20.115908      38.430527    
     79000   0.99860381     20.84138       37.82844     
     80000   0.9489646      20.648678      37.831347    
     81000   1.0347113      20.277624      37.791629    
     82000   0.96518797     20.459225      37.684959    
     83000   0.97031328     20.323425      37.666682    
     84000   1.0171912      20.389848      37.390535    
     85000   1.0086354      21.257872      37.398541    
     86000   1.042773       20.217172      37.208987    
     87000   1.0141747      20.278382      37.004598    
     88000   1.0618025      20.574093      36.858785    
     89000   0.97611807     20.715438      36.569703    
     90000   1.0189131      20.623244      36.577339    
     91000   0.97262075     20.242602      36.232109    
     92000   0.9998155      20.570095      36.159929    
     93000   0.99240837     20.439969      36.227837    
     94000   0.99448799     21.11357       36.361213    
     95000   0.9856663      20.343612      36.335989    
     96000   0.99892424     20.504955      36.20825     
     97000   0.94808724     20.345572      36.193923    
     98000   0.94856401     20.865775      36.267672    
     99000   1.0514133      20.890752      35.995068    
    100000   1.081834       20.750104      35.894867    
Loop time of 443.221 on 2 procs for 100000 steps with 693 atoms

Performance: 194936.550 tau/day, 225.621 timesteps/s
101.7% CPU use with 1 MPI tasks x 2 OpenMP threads

MPI task timing breakdown:
Section |  min time  |  avg time  |  max time  |%varavg| %total
---------------------------------------------------------------
Pair    | 1.0105     | 1.0105     | 1.0105     |   0.0 |  0.23
Bond    | 1.4452     | 1.4452     | 1.4452     |   0.0 |  0.33
Neigh   | 437.25     | 437.25     | 437.25     |   0.0 | 98.65
Comm    | 0.027846   | 0.027846   | 0.027846   |   0.0 |  0.01
Output  | 0.22686    | 0.22686    | 0.22686    |   0.0 |  0.05
Modify  | 3.0173     | 3.0173     | 3.0173     |   0.0 |  0.68
Other   |            | 0.2422     |            |       |  0.05

Nlocal:            693 ave         693 max         693 min
Histogram: 1 0 0 0 0 0 0 0 0 0
Nghost:              0 ave           0 max           0 min
Histogram: 1 0 0 0 0 0 0 0 0 0
Neighs:           6988 ave        6988 max        6988 min
Histogram: 1 0 0 0 0 0 0 0 0 0

Total # of neighbors = 6988
Ave neighs/atom = 10.083694
Ave special neighs/atom = 1.997114
Neighbor list builds = 1153
Dangerous builds = 0

# Replace lj potential, now collapse
pair_style      lj/cut 3

# Cutoff simul when gyration under 10
# Variable created with equal requires v_ + 'name'
fix 3 all halt 1000 v_rog < 7

run 3000000
Generated 0 of 0 mixed pair_coeff terms from geometric mixing rule
Last active /omp style is angle_style cosine/omp
Per MPI rank memory allocation (min/avg/max) = 1862 | 1862 | 1862 Mbytes
   Step          Temp         Enthalpy         c_1      
    100000   1.081834       19.750329      35.894867    
    101000   0.97165976     18.936461      35.783494    
    102000   0.99058254     18.95292       35.389445    
    103000   1.0252068      18.854293      35.678766    
    104000   0.98972912     19.142133      35.593347    
    105000   1.0167769      19.149323      35.593019    
    106000   1.0395514      19.014226      35.306068    
    107000   0.9330427      18.756927      35.052376    
    108000   0.97435835     18.108564      34.67137     
    109000   1.0110068      17.609781      34.717221    
    110000   1.0164609      18.001141      34.678074    
    111000   1.0573845      18.31689       35.00678     
    112000   0.94096438     18.11967       34.843451    
    113000   1.0575055      17.971962      34.204518    
    114000   1.0520066      18.307685      33.97191     
    115000   0.9741634      18.440574      33.487908    
    116000   0.96791359     17.620921      33.296511    
    117000   0.99050226     17.871969      33.266329    
    118000   0.98282793     17.972152      33.008986    
    119000   0.99592176     18.303249      32.82924     
    120000   0.98887742     18.40549       32.593491    
    121000   1.0153712      18.483573      32.280642    
    122000   0.99505691     18.597964      32.212914    
    123000   0.97377427     18.312183      32.179206    
    124000   0.95971843     18.053689      32.068286    
    125000   1.0078654      17.311349      31.804177    
    126000   0.96403849     18.020863      31.575911    
    127000   0.9882587      18.272192      31.191945    
    128000   0.99248936     18.185791      31.188218    
    129000   1.0467698      18.501183      31.131916    
    130000   1.0314186      17.939471      30.926712    
    131000   0.96864486     17.654183      30.634124    
    132000   0.92413014     17.201238      30.693876    
    133000   1.0541946      18.585835      30.835002    
    134000   1.0014298      18.062832      30.727814    
    135000   1.0472266      18.2984        30.482229    
    136000   0.95156169     17.915177      30.525966    
    137000   0.99137893     18.207785      30.235957    
    138000   1.0110517      18.139543      30.148607    
    139000   0.99408713     17.512839      30.077632    
    140000   1.0169869      18.17042       29.880868    
    141000   0.9719548      18.179572      29.868509    
    142000   1.0467126      17.768266      29.810784    
    143000   1.0103298      18.203908      29.728391    
    144000   0.9699441      17.690959      29.655054    
    145000   0.98449381     18.046034      29.598289    
    146000   1.0018799      18.398336      29.584583    
    147000   1.023446       18.063306      29.140906    
    148000   1.0320042      17.546555      28.992644    
    149000   0.97997382     17.842342      28.994285    
    150000   1.0190657      18.281428      29.002186    
    151000   1.014041       17.746392      28.757218    
    152000   0.96717699     18.130324      28.694461    
    153000   0.98806519     18.158863      28.528602    
    154000   1.0179057      18.958133      28.554194    
    155000   0.96744546     17.44527       28.244151    
    156000   1.0440116      18.172664      28.01835     
    157000   0.99926708     18.175524      27.837227    
    158000   0.98285195     17.47597       27.820203    
    159000   0.97789453     18.110727      27.757501    
    160000   0.99771848     18.524797      27.825447    
    161000   0.9617968      18.064986      27.994076    
    162000   0.96352007     17.730661      27.953246    
    163000   0.99594775     18.504411      28.108317    
    164000   0.98820748     18.447458      27.999932    
    165000   0.9610514      18.399701      28.037706    
    166000   1.0225402      18.151344      28.245463    
    167000   0.9520604      18.024373      28.327268    
    168000   1.0175904      17.793277      28.157578    
    169000   1.0125845      18.108266      28.191383    
    170000   1.0047159      18.098638      27.865472    
    171000   1.0564929      18.647281      27.57993     
    172000   0.97273946     18.181942      27.32249     
    173000   0.99163485     17.403538      27.183368    
    174000   0.99627588     17.63217       26.895487    
    175000   0.9675644      17.96446       26.786209    
    176000   0.99873552     18.279278      26.689812    
    177000   1.0260682      18.005567      26.597654    
    178000   0.98645809     17.563602      26.282032    
    179000   0.9889523      18.055758      26.341884    
    180000   1.0306165      17.995158      26.291537    
    181000   0.95245738     18.180692      25.982424    
    182000   0.97687712     18.129397      25.782237    
    183000   1.0149717      18.044643      25.485277    
    184000   0.93785996     17.550992      25.434212    
    185000   0.99541483     18.264252      25.283836    
    186000   1.0465441      17.779052      24.71794     
    187000   0.98345164     17.327049      24.638987    
    188000   0.94283784     17.959632      24.687411    
    189000   0.97757516     17.959949      24.392929    
    190000   1.0055707      17.946003      24.175648    
    191000   0.98340785     17.400704      23.852008    
    192000   1.045194       17.300377      23.735947    
    193000   0.98664532     17.667208      23.697114    
    194000   0.96039793     18.036122      23.308861    
    195000   1.0298262      17.683806      23.355899    
    196000   0.99682516     18.050479      23.250228    
    197000   0.97415561     18.046797      23.351728    
    198000   0.99562082     18.240278      23.016375    
    199000   1.0074904      17.701149      22.838525    
    200000   1.0310929      17.727514      22.953736    
    201000   0.93472034     17.608641      22.637726    
    202000   0.95464006     17.448165      22.565771    
    203000   1.0047058      17.751961      22.453017    
    204000   1.0328402      17.375869      22.660048    
    205000   1.0691757      17.881506      22.588672    
    206000   0.98188432     17.191239      22.449689    
    207000   0.98106364     17.394453      22.414319    
    208000   1.0442021      17.714278      22.524455    
    209000   1.0194539      18.106039      22.487334    
    210000   1.022803       17.508101      22.486323    
    211000   0.99955016     16.735285      22.151177    
    212000   0.95137193     17.509468      21.837694    
    213000   1.0174442      17.266141      21.583184    
    214000   0.97614696     17.202633      21.471837    
    215000   0.97621284     17.645151      21.495641    
    216000   1.0067966      17.472764      21.090099    
    217000   1.0165581      18.197164      21.314224    
    218000   0.98706817     17.475518      21.087224    
    219000   1.0259689      17.38784       21.254454    
    220000   1.0267505      17.455669      21.175117    
    221000   1.0094721      17.93802       20.963751    
    222000   1.0080464      17.329356      21.242365    
    223000   0.98642482     17.721482      20.999698    
    224000   0.9956316      17.140366      20.940494    
    225000   1.057422       17.222467      20.69992     
    226000   0.99805861     17.848836      20.592123    
    227000   0.98383888     17.125062      20.622721    
    228000   1.0526646      18.151508      20.709825    
    229000   1.0330838      16.887936      20.250527    
    230000   0.98683714     17.624878      20.262884    
    231000   1.0147685      17.343114      20.161365    
    232000   0.96877716     17.297113      20.030756    
    233000   1.0206828      18.36618       20.094098    
    234000   0.94011661     17.826542      19.9865      
    235000   1.0253408      17.975533      19.977972    
    236000   1.0330397      17.247226      20.187631    
    237000   1.0152176      17.941039      20.089253    
    238000   0.97897202     17.650995      19.854553    
    239000   1.0002828      17.548404      19.873185    
    240000   1.0182861      17.375468      19.914743    
    241000   0.95933118     17.335608      19.920013    
    242000   0.97710719     17.560324      19.84986     
    243000   1.0250659      18.020017      19.963942    
    244000   1.0097092      17.65248       20.058041    
    245000   0.99436112     17.397876      19.958134    
    246000   0.99873011     17.029875      19.536       
    247000   1.0202871      17.700982      19.580143    
    248000   1.0316433      17.791465      19.362467    
    249000   1.0217555      17.676031      19.574693    
    250000   0.97674826     17.31296       19.44359     
    251000   1.0104145      17.818143      19.46451     
    252000   1.0035395      17.976271      19.388501    
    253000   0.91774439     17.434567      19.416269    
    254000   1.0361735      16.674401      19.372127    
    255000   0.94756224     17.44855       19.075464    
    256000   1.0212264      17.325807      18.751693    
    257000   1.109862       17.907092      18.714663    
    258000   0.96233294     17.724974      18.578454    
    259000   0.99853642     17.056931      18.678543    
    260000   0.99250858     17.890933      18.612939    
    261000   1.1002857      17.88532       18.413817    
    262000   1.0216979      17.361823      18.467967    
    263000   1.0151799      17.579719      18.250376    
    264000   0.9843013      17.778749      18.251323    
    265000   1.0085702      18.076591      17.926906    
    266000   1.0167584      17.843915      17.9067      
    267000   1.0464259      17.635405      17.71371     
    268000   1.0429464      17.651733      17.630758    
    269000   0.98396877     16.888806      17.484844    
    270000   1.0023211      17.745108      17.526838    
    271000   1.0410821      18.124006      17.438419    
    272000   1.0046922      17.693458      17.464343    
    273000   1.0409906      18.183108      17.308275    
    274000   1.0357682      17.481906      17.165339    
    275000   1.0119524      17.862144      16.961368    
    276000   1.0053743      17.25327       16.727644    
    277000   0.96276208     17.166931      16.889629    
    278000   1.0219498      17.267305      16.740583    
    279000   1.0076898      17.056344      16.471447    
    280000   0.9682399      16.85162       16.296158    
    281000   1.0498635      17.034159      16.163215    
    282000   0.97623618     17.457986      15.927674    
    283000   0.98872523     17.546819      15.711764    
    284000   0.98668691     17.087091      15.538559    
    285000   1.036392       17.613638      15.477848    
    286000   0.9691469      17.085038      15.404728    
    287000   0.98337197     16.992028      15.287554    
    288000   0.99895784     17.200037      15.444269    
    289000   1.0091324      17.727966      15.459333    
    290000   0.97655619     17.295944      15.431663    
    291000   1.0357145      17.424302      15.404265    
    292000   0.98007112     18.094168      15.053171    
    293000   0.98252695     17.154861      14.865       
    294000   1.0527504      17.318221      14.904299    
    295000   0.9661294      17.406671      14.599144    
    296000   1.015835       18.153595      14.365799    
    297000   0.99200864     17.479574      14.623529    
    298000   1.0446022      16.893269      14.673846    
    299000   1.0184018      17.930491      14.496666    
    300000   0.95887333     17.054064      14.15788     
    301000   0.98906924     17.540183      13.928655    
    302000   0.9436913      17.357328      13.793154    
    303000   1.0133324      17.849218      13.461199    
    304000   1.0041464      17.244402      13.067264    
    305000   1.0018994      16.775576      12.645579    
    306000   1.0311399      17.203401      12.550143    
    307000   0.99550068     16.947326      12.292189    
    308000   0.98732597     17.474473      12.169328    
    309000   1.0090655      17.134007      12.147912    
    310000   0.98989884     17.20084       12.15175     
    311000   1.0050159      17.602772      12.110231    
    312000   1.0303761      17.480238      11.85503     
    313000   0.96111636     17.564467      11.689743    
    314000   0.99047609     17.630912      11.538581    
    315000   0.9853145      16.999506      11.634535    
    316000   0.99274102     17.701138      11.642973    
    317000   1.0205892      17.044769      11.562177    
    318000   0.96627246     17.638093      11.513175    
    319000   0.97695137     16.292997      11.381614    
    320000   1.0090564      17.434262      11.306809    
    321000   1.0892846      16.823673      11.189689    
    322000   1.0337989      17.508514      10.830474    
    323000   0.9999593      16.885707      10.790804    
    324000   0.99567264     16.492427      10.649656    
    325000   1.0039348      17.84633       10.7224      
    326000   0.97947158     17.712508      10.816026    
    327000   0.97290278     17.386728      10.872667    
    328000   1.0014219      17.440422      10.894624    
    329000   1.0334064      17.188377      10.81958     
    330000   1.0271379      17.27354       10.79085     
    331000   0.97644248     17.355417      10.722444    
    332000   1.0545129      17.362109      10.684132    
    333000   0.98937028     16.918144      10.926099    
    334000   1.0021775      18.299672      10.534218    
    335000   0.98189992     17.239998      10.487478    
    336000   1.0468702      17.151667      10.395878    
    337000   1.0088436      16.887545      10.400262    
    338000   0.96298182     17.254429      10.165437    
    339000   0.94173637     17.48815       10.307189    
    340000   1.0170529      17.871165      9.9651041    
    341000   1.0892985      17.823049      9.8350057    
    342000   0.98898964     17.287102      9.7217284    
    343000   0.97629803     17.590789      9.6120295    
    344000   1.0545815      17.455843      9.3791911    
    345000   1.0033517      16.973825      9.3268023    
    346000   0.97535801     17.409927      9.4415854    
    347000   1.0032253      17.158265      9.2305693    
    348000   0.98509404     17.460796      9.4264295    
    349000   0.97440335     17.032814      9.5258797    
    350000   0.99179179     17.638901      9.401919     
    351000   1.0310502      17.735685      9.1431628    
    352000   1.0079577      17.412387      9.0223309    
    353000   1.0481823      16.931308      8.9236282    
    354000   0.96919764     17.303266      8.7315003    
    355000   0.98043064     17.473194      8.5598051    
    356000   1.0056763      17.080526      8.5818747    
    357000   0.98586339     16.510724      8.576237     
    358000   0.97726236     16.577464      8.4814124    
    359000   0.99814086     17.412378      8.489318     
    360000   1.0270292      17.235791      8.4015161    
    361000   1.0122024      17.809245      8.4456172    
    362000   0.96318657     16.792512      8.175652     
    363000   1.02962        16.992759      8.4262136    
    364000   1.0167303      17.249643      8.3718104    
    365000   1.0644856      17.76707       8.0251181    
    366000   0.99581375     16.984144      7.7709964    
    367000   0.98439567     17.741134      7.6836392    
    368000   0.9910254      17.787356      7.5461456    
    369000   1.0324777      17.138399      7.5592187    
    370000   0.99253969     17.132556      7.3414143    
    371000   0.97194678     17.647696      7.3007015    
    372000   1.012633       17.558146      7.3168114    
    373000   0.97121576     17.446843      7.3369529    
    374000   0.98819183     17.057811      7.5596014    
    375000   1.031281       18.112338      7.2859684    
    376000   0.97961461     16.766515      7.1122726    
    377000   0.9850082      17.059022      7.2570834    
    378000   1.0176124      17.294232      7.2875642    
    379000   1.0495889      17.314043      7.2261646    
    380000   0.96646425     17.438539      7.259621     
    381000   1.0155025      17.06782       7.2848337    
    382000   1.0646698      17.903521      7.2173447    
    383000   1.0556807      17.770415      7.0037274    
    384000   1.0099618      17.054619      7.0104912    
Fix halt condition for fix-id 3 met on step 385000 with value 6.77606746103107 (src/fix_halt.cpp:237)
    385000   1.0052469      17.826046      6.7760675    
Loop time of 394.008 on 2 procs for 285000 steps with 693 atoms

Performance: 624962.473 tau/day, 723.336 timesteps/s
120.2% CPU use with 1 MPI tasks x 2 OpenMP threads

MPI task timing breakdown:
Section |  min time  |  avg time  |  max time  |%varavg| %total
---------------------------------------------------------------
Pair    | 60.896     | 60.896     | 60.896     |   0.0 | 15.46
Bond    | 4.64       | 4.64       | 4.64       |   0.0 |  1.18
Neigh   | 317.55     | 317.55     | 317.55     |   0.0 | 80.59
Comm    | 0.087321   | 0.087321   | 0.087321   |   0.0 |  0.02
Output  | 0.66439    | 0.66439    | 0.66439    |   0.0 |  0.17
Modify  | 9.404      | 9.404      | 9.404      |   0.0 |  2.39
Other   |            | 0.7697     |            |       |  0.20

Nlocal:            693 ave         693 max         693 min
Histogram: 1 0 0 0 0 0 0 0 0 0
Nghost:              0 ave           0 max           0 min
Histogram: 1 0 0 0 0 0 0 0 0 0
Neighs:         111749 ave      111749 max      111749 min
Histogram: 1 0 0 0 0 0 0 0 0 0

Total # of neighbors = 111749
Ave neighs/atom = 161.25397
Ave special neighs/atom = 1.997114
Neighbor list builds = 2267
Dangerous builds = 0

# This simulation is done
# Move onto the next one
clear
  using 2 OpenMP thread(s) per MPI task
package omp 0
using multi-threaded neighbor list subroutines
next f
jump SELF

###
# Reference paper:
# K. Kremer and G. S. Grest
# Dynamics of entangled linear polymer melts: A molecular-dynamics simulation
# J Chem Phys 92, 5057 (1990)

##################################
# MIHIR: for branched polymers
# LJ minimum first to expand and explore, then collapse
###

###
# Looping through the various nuc5branch4 polymers to simulate,
# define variables to switch through
variable f index bb37nuc5bl6bn4d30tot100 bb75nuc5bl12bn4d30tot200 bb112nuc5bl18bn4d30tot300 bb150nuc5bl25bn4d30tot400 bb187nuc5bl31bn4d30tot500 bb225nuc5bl37bn4d30tot600 bb262nuc5bl43bn4d30tot700 bb300nuc5bl50bn4d30tot800 bb337nuc5bl56bn4d30tot900 bb375nuc5bl62bn4d30tot1000 bb412nuc5bl68bn4d30tot1100 bb450nuc5bl75bn4d30tot1200
# variable f index bb75nuc5bl12bn4d30tot200
# variable f index bb337nuc5bl56bn4d30tot900
###


###
# Box and units  (use LJ units and periodic boundaries)
###

units lj
log nuc5branch4/logs3/$f.log
log nuc5branch4/logs3/bb300nuc5bl50bn4d30tot800.log
