#atom_style bond #no stiffness
atom_style angle #with stiffness

boundary        p p p
###
# Pair interactions require lists of neighbours to be calculated
###

#neighbor 0.3 bin
neighbor 4 bin

neigh_modify every 1 delay 1 check yes
atom_modify sort 0 0
### Generate RESTART file, SPECIAL format, not a .txt file ###
### Useful if simulation crashes ###

restart 1000000 nuc5branch4/restarts3/$f.restart
restart 1000000 nuc5branch4/restarts3/bb300nuc5bl50bn4d30tot800.restart
#############################



### READ "start" data file ###

read_data nuc5branch4/$f.dat
read_data nuc5branch4/bb300nuc5bl50bn4d30tot800.dat
Reading data file ...
  orthogonal box = (-1000 -1000 -1000) to (1000 1000 1000)
  1 by 1 by 1 MPI processor grid
  reading atoms ...
  801 atoms
  scanning bonds ...
  3 = max bonds/atom
  scanning angles ...
  6 = max angles/atom
  reading bonds ...
  800 bonds
  reading angles ...
  814 angles
Finding 1-2 1-3 1-4 neighbors ...
  special bond factors lj:    0        0        0       
  special bond factors coul:  0        0        0       
     4 = max # of 1-2 neighbors
     4 = max # of 1-3 neighbors
     8 = max # of 1-4 neighbors
    12 = max # of special neighbors
  special bonds CPU = 0.001 seconds
  read_data CPU = 0.064 seconds

######################

### READ "REstart" data file ###

######################



###
# Define groups (atom type 1 is group 'all')
###
group all type 1
801 atoms in group all


###
# Dump configs - "simple dumpings"
###

###
# Dump configs + box coords
###

dump   1   all   custom   1000  nuc5branch4/trjs3/$f.lammpstrj  id  x y z  ix iy iz
dump   1   all   custom   1000  nuc5branch4/trjs3/bb300nuc5bl50bn4d30tot800.lammpstrj  id  x y z  ix iy iz
dump_modify   1   format line "%d %.5f %.5f %.5f %d %d %d"

########################################################################


###################################################################
# Stiffness term
#
# E = K * (1+cos(theta)), K>0
#
angle_style   cosine
#change this coefficient to change stiffness (e.g. 1,5,10)
angle_coeff   1 1.0
###################################################################

###################################################################
# Pair interaction between non-bonded atoms
#
#  Lennard-Jones 12-6 potential with cutoff:
#  potential E=4epsilon[ (sigma/r)^12 - (sigma/r)^6]  for r<r_cut
#
#  1.12246 = 2^(1/6) is the minimum of the potential


pair_style      lj/cut 1.12246152962189
#pair_style      lj/cut 3

#
#  pair_modify shift yes adds a constant to the potential such

#  that E(r_cut)=0. Forces remains unchanged.
#

pair_modify     shift yes

#
#  pair_coeff for lj/cut, specify 4:
#    * atom type interacting with
#    * atom type
#    * epsilon (energy units)
#    * sigma (distance units)
#

pair_coeff      1 1 1.0 1.0
###################################################################

###################################################################
# Pair interaction between non-bonded atoms
#
#  soft potential, for PUSHING apart overlapping atoms
#  potential E=A*(1 + cos(pi*r/r_c))
#
#  1.12246 = 2^(1/6) is the cut-off r_c

#pair_style     soft 1.12246152962189

#
#  pair_coeff for soft, specify 3:
#    * atom type interacting with
#    * atom type
#    * A
#
#

#pair_coeff      1 1 100.0
###################################################################

###################################################################
# Pair interaction between bonded atoms
#
# Fene potential + Lennard Jones 12-6:

#
#  E= - 0.5 K R0^2 ln[ 1- (r/R0)^2]
#     + 4epsilon[ (sigma/r)^12 - (sigma/r)^6] + epsilon
#

bond_style   fene


#
# For style fene, specify:
#   * bond type
#   * K (energy/distance^2)
#   * R0 (distance)
#   * epsilon (energy)  (LJ component)
#   * sigma (distance)  (LJ component)
#


special_bonds fene #<=== I M P O R T A N T (new command)
Finding 1-2 1-3 1-4 neighbors ...
  special bond factors lj:    0        1        1       
  special bond factors coul:  0        1        1       
     4 = max # of 1-2 neighbors
    12 = max # of special neighbors
  special bonds CPU = 0.000 seconds

bond_coeff   1   30   2   1.0   1.0


###################################################

###################################################################
# Pair interaction between bonded atoms
#
# Harmonic potential:
#
#  E= K * (R-R0)^2
#

#bond_style   harmonic

#
# For style harmonic, specify:
#   * bond type
#   * K (energy/distance^2)
#   * R0 (distance)
#

#bond_coeff   1   60.0   1.0
#bond_coeff   2   harmonic 0.1   1.0

###################################################
compute 1 all gyration
variable rog equal c_1
#compute 2 all coord/atom cutoff 1.1

#dump 2 all custom 10000 contact_number.dump id c_2


###
# Set up fixes
###
thermo_style   custom   step  temp enthalpy c_1
fix 1 all nve   ###NVE ensemble

fix 2 all   langevin   1.0 1.0 1.0  158102   ###Langevin integrator Tstart Tstop 1/friction rndseed


##### Sample thermodynamic info  (temperature, energy, pressure, etc.) #####
thermo 1000









############################################################################

###
# set timestep of integrator

timestep 0.01

###
# run integration for a number of steps
###
#run 0
#variable r equal c_1
#if "$r < 63.1" then "quit 1"

# lj potential minimum, cause molecule to explore
run 100000
Generated 0 of 0 mixed pair_coeff terms from geometric mixing rule
Last active /omp style is angle_style cosine/omp
Neighbor list info ...
  update: every = 1 steps, delay = 1 steps, check = yes
  max neighbors/atom: 2000, page size: 100000
  master list distance cutoff = 5.1224615
  ghost atom cutoff = 5.1224615
  binsize = 2.5612308, bins = 781 781 781
  1 neighbor lists, perpetual/occasional/extra = 1 0 0
  (1) pair lj/cut/omp, perpetual
      attributes: half, newton on, omp
      pair build: half/bin/newton/omp
      stencil: half/bin/3d
      bin: standard
WARNING: Communication cutoff 5.12246152962189 is shorter than a bond length based estimate of 5.455. This may lead to errors. (src/comm.cpp:723)
Per MPI rank memory allocation (min/avg/max) = 1862 | 1862 | 1862 Mbytes
   Step          Temp         Enthalpy         c_1      
         0   0              13.259332      61.008859    
      1000   0.9975633      18.816027      60.125697    
      2000   1.0223582      19.167102      59.20719     
      3000   1.0055361      19.168645      58.880967    
      4000   1.0468661      19.64707       58.411552    
      5000   0.96578027     19.577613      57.895704    
      6000   0.96875863     19.907075      57.484604    
      7000   1.0282086      19.613194      57.061779    
      8000   1.0540932      19.899796      56.673027    
      9000   0.9956085      20.277341      56.591028    
     10000   0.97857025     19.810668      56.565835    
     11000   1.0497236      19.825579      56.260776    
     12000   1.029043       20.619823      56.124843    
     13000   1.0313078      20.21145       55.939257    
     14000   0.99660774     20.116236      55.694084    
     15000   0.99750159     20.577847      55.610723    
     16000   1.0048206      20.236349      55.353719    
     17000   0.96467235     20.517253      55.332197    
     18000   1.0354967      20.15412       55.010515    
     19000   0.98638767     20.163336      54.811756    
     20000   1.0719172      20.478939      54.409423    
     21000   1.0284144      20.184511      54.360177    
     22000   1.0149516      20.272591      54.128643    
     23000   0.98851914     20.438344      54.024185    
     24000   1.0144379      20.118005      53.999178    
     25000   0.96779436     20.081043      53.748882    
     26000   1.0134317      20.037088      53.931655    
     27000   1.0037131      20.173004      53.549131    
     28000   0.96274353     20.271784      53.441039    
     29000   0.97736163     19.908986      53.424652    
     30000   1.0503555      20.699581      53.368069    
     31000   0.95179012     20.288796      53.280572    
     32000   0.99904266     20.301422      53.216449    
     33000   1.0044299      20.247351      53.141232    
     34000   1.0252119      20.653479      52.813012    
     35000   0.98155553     20.470057      52.416725    
     36000   0.99267794     20.124065      52.088716    
     37000   0.93213819     20.058166      52.001675    
     38000   1.0265996      20.650989      52.146575    
     39000   1.0410381      20.885159      51.859472    
     40000   1.0020417      20.118592      51.773904    
     41000   1.047691       20.607532      51.573445    
     42000   1.0208246      20.112134      51.114662    
     43000   1.0071272      20.561147      50.768523    
     44000   1.0117023      20.073824      50.68627     
     45000   1.0020104      20.297178      50.374343    
     46000   0.98637931     20.05439       50.29387     
     47000   1.0066313      20.78694       50.345774    
     48000   1.0257299      20.245696      50.125712    
     49000   0.96735509     20.379719      50.120397    
     50000   0.98310596     21.096981      49.716861    
     51000   1.0368399      20.22327       49.28973     
     52000   0.96756168     20.016091      49.264571    
     53000   0.96545849     20.349497      48.940089    
     54000   1.0383215      20.543064      48.869731    
     55000   1.0580983      20.949303      48.843204    
     56000   0.97197333     20.259684      48.77513     
     57000   0.97516904     21.091887      48.770876    
     58000   1.0181756      20.824005      48.894872    
     59000   1.0103701      20.575854      48.520452    
     60000   0.95195274     20.730441      48.408942    
     61000   0.98606536     20.604641      48.434741    
     62000   1.0511958      20.257623      48.300791    
     63000   1.0009891      20.404247      47.859399    
     64000   0.93045416     20.152322      47.655837    
     65000   1.0269439      20.363663      47.607505    
     66000   0.97507774     20.1264        47.679336    
     67000   0.95085567     20.556512      47.401829    
     68000   0.96594675     20.45746       47.360793    
     69000   0.98579221     20.585084      47.520464    
     70000   0.96604829     20.427944      47.572548    
     71000   1.0150886      21.121559      47.580345    
     72000   1.0230219      20.15665       47.586881    
     73000   0.9854585      20.486189      47.396244    
     74000   0.97553909     19.991627      47.207796    
     75000   0.96333311     20.218088      47.255472    
     76000   1.0220785      20.685435      47.1301      
     77000   0.98828216     21.035113      46.892129    
     78000   0.94285552     20.269979      46.592399    
     79000   0.94761849     20.348508      46.563563    
     80000   0.98564131     20.440431      46.484113    
     81000   1.0369664      20.998738      46.65978     
     82000   0.96443788     20.830231      46.492377    
     83000   1.0113915      20.303492      46.509068    
     84000   0.97605013     20.518333      46.430539    
     85000   1.027758       20.585109      46.501629    
     86000   0.98587336     20.279398      46.396316    
     87000   0.99677267     20.510785      46.167231    
     88000   0.97450839     21.313652      46.003194    
     89000   0.96825169     20.676397      46.18117     
     90000   0.94128005     19.966125      45.980116    
     91000   1.0291066      20.910554      45.906545    
     92000   1.0074484      20.339562      45.832981    
     93000   0.99294521     20.474396      45.939409    
     94000   0.97972462     20.560002      45.921722    
     95000   0.94000979     20.232079      45.887163    
     96000   0.99784818     19.862945      45.917458    
     97000   0.99876701     20.036556      45.736507    
     98000   0.94701448     19.865483      45.759578    
     99000   1.0406123      20.919137      45.851683    
    100000   0.98235894     20.312543      45.878773    
Loop time of 515.324 on 2 procs for 100000 steps with 801 atoms

Performance: 167661.609 tau/day, 194.053 timesteps/s
101.6% CPU use with 1 MPI tasks x 2 OpenMP threads

MPI task timing breakdown:
Section |  min time  |  avg time  |  max time  |%varavg| %total
---------------------------------------------------------------
Pair    | 1.1849     | 1.1849     | 1.1849     |   0.0 |  0.23
Bond    | 1.7224     | 1.7224     | 1.7224     |   0.0 |  0.33
Neigh   | 508.3      | 508.3      | 508.3      |   0.0 | 98.64
Comm    | 0.032907   | 0.032907   | 0.032907   |   0.0 |  0.01
Output  | 0.25165    | 0.25165    | 0.25165    |   0.0 |  0.05
Modify  | 3.531      | 3.531      | 3.531      |   0.0 |  0.69
Other   |            | 0.2982     |            |       |  0.06

Nlocal:            801 ave         801 max         801 min
Histogram: 1 0 0 0 0 0 0 0 0 0
Nghost:              0 ave           0 max           0 min
Histogram: 1 0 0 0 0 0 0 0 0 0
Neighs:           7731 ave        7731 max        7731 min
Histogram: 1 0 0 0 0 0 0 0 0 0

Total # of neighbors = 7731
Ave neighs/atom = 9.6516854
Ave special neighs/atom = 1.9975031
Neighbor list builds = 1174
Dangerous builds = 0

# Replace lj potential, now collapse
pair_style      lj/cut 3

# Cutoff simul when gyration under 10
# Variable created with equal requires v_ + 'name'
fix 3 all halt 1000 v_rog < 7

run 3000000
Generated 0 of 0 mixed pair_coeff terms from geometric mixing rule
Last active /omp style is angle_style cosine/omp
Per MPI rank memory allocation (min/avg/max) = 1862 | 1862 | 1862 Mbytes
   Step          Temp         Enthalpy         c_1      
    100000   0.98235894     19.42125       45.878773    
    101000   0.99724577     19.857911      45.820129    
    102000   0.94083142     19.033891      45.790134    
    103000   0.96744428     19.244767      45.456372    
    104000   1.022007       19.048597      45.314708    
    105000   0.96513242     18.550634      45.164773    
    106000   1.0352188      19.011645      44.870372    
    107000   1.0104708      18.679751      44.592156    
    108000   1.0370695      18.734439      44.473455    
    109000   1.0115222      18.247395      44.39954     
    110000   1.0556185      18.654543      44.296427    
    111000   1.004789       18.250827      44.166314    
    112000   1.0302652      18.218256      43.932913    
    113000   1.0159532      17.637266      43.861438    
    114000   0.98277038     18.389946      44.021399    
    115000   1.0513597      18.558459      43.798124    
    116000   1.0440232      18.398913      43.687545    
    117000   1.014341       18.396066      43.406844    
    118000   1.0305511      18.570478      43.303349    
    119000   1.0174061      17.79413       43.187089    
    120000   0.99185233     18.215156      43.145095    
    121000   0.96234845     17.462664      43.133674    
    122000   1.0066801      18.6779        42.846841    
    123000   1.005178       18.012771      42.707169    
    124000   1.0227477      18.126329      42.555476    
    125000   1.0057         18.003485      42.659656    
    126000   1.0043593      18.348637      42.547212    
    127000   1.0043797      18.793694      42.21569     
    128000   1.0143077      18.39465       41.670404    
    129000   1.0216156      18.296952      41.494035    
    130000   0.97927039     18.117922      41.255918    
    131000   1.0089358      17.798259      41.277214    
    132000   1.0107183      17.406534      41.085912    
    133000   1.0276195      17.538449      41.177094    
    134000   1.0114843      18.308438      41.001951    
    135000   1.0189624      18.410746      40.907926    
    136000   0.95668118     17.739156      40.793917    
    137000   0.99336046     17.691463      40.585806    
    138000   1.0528957      18.61958       40.349942    
    139000   0.96519021     17.899495      40.213981    
    140000   1.0218877      17.927212      39.96841     
    141000   0.96131256     17.680632      39.961543    
    142000   1.0298119      18.215257      39.960736    
    143000   0.99927209     17.520507      39.931634    
    144000   0.99383532     18.582797      39.773249    
    145000   0.97531561     17.801061      39.856968    
    146000   0.99296314     18.535152      39.669285    
    147000   1.0111169      18.391833      39.612032    
    148000   1.0164304      17.696935      39.651703    
    149000   1.0083024      17.334441      39.765233    
    150000   0.96954407     18.443167      39.549191    
    151000   1.0392752      18.170577      39.328038    
    152000   0.95323496     18.536537      38.95004     
    153000   0.99265689     18.654877      38.99104     
    154000   0.98323862     17.615855      38.795418    
    155000   0.99753776     17.744143      38.580387    
    156000   1.0369726      18.390399      38.532239    
    157000   0.97309026     17.839799      38.071457    
    158000   1.00244        18.070016      37.959008    
    159000   1.0060662      18.4118        37.970757    
    160000   1.0207061      18.009808      37.877001    
    161000   0.99335694     18.002697      37.709179    
    162000   0.91928808     18.302958      37.665571    
    163000   1.0254682      17.77314       37.7306      
    164000   1.0318833      17.567982      37.61067     
    165000   1.041837       18.002841      37.602768    
    166000   0.98636913     17.795869      37.455436    
    167000   1.0388316      18.529927      37.542549    
    168000   0.99413776     18.036597      37.356309    
    169000   0.99559899     18.168539      37.46888     
    170000   1.0084611      18.444038      37.244597    
    171000   1.0028195      17.788512      37.147427    
    172000   1.0024435      17.511783      36.955476    
    173000   0.98037907     17.798995      36.778342    
    174000   1.0153665      18.012355      36.706735    
    175000   1.0202627      17.810455      36.750964    
    176000   0.97769926     17.596162      36.742322    
    177000   0.98145583     18.811746      36.746805    
    178000   1.0109106      18.191818      36.655549    
    179000   0.99016251     17.677102      36.455665    
    180000   1.0284727      18.112928      36.4482      
    181000   0.95926297     17.29083       36.72773     
    182000   1.0053571      18.211937      36.672453    
    183000   0.97903366     18.163018      36.389004    
    184000   0.9757192      18.210861      36.372332    
    185000   1.0081903      17.952343      36.490547    
    186000   1.0194246      17.437274      36.244723    
    187000   0.99550388     17.940695      36.184589    
    188000   1.0136605      17.873632      36.150805    
    189000   1.0586859      18.073375      35.95114     
    190000   1.0035527      18.137309      35.769046    
    191000   0.98645131     17.694725      35.578818    
    192000   1.0034586      17.775679      35.472551    
    193000   1.0032644      17.850121      35.471427    
    194000   1.0324151      18.842763      35.499269    
    195000   1.0215163      17.801691      35.551126    
    196000   0.98850107     17.147241      35.304622    
    197000   1.0111438      17.655036      35.197982    
    198000   1.0197119      18.225502      34.933695    
    199000   0.98132927     17.875712      34.881549    
    200000   0.93501957     17.132535      34.835028    
    201000   1.0144462      17.820753      34.80412     
    202000   0.98301434     17.761783      34.765748    
    203000   0.9840657      18.018545      34.936924    
    204000   1.0041637      18.4434        35.303134    
    205000   1.0219441      17.991813      35.055098    
    206000   1.0239332      18.128553      35.031523    
    207000   1.0106326      17.326449      34.875475    
    208000   0.96163863     17.3881        34.649496    
    209000   1.0169176      17.909661      34.613353    
    210000   0.99474946     18.053762      34.764922    
    211000   0.99685578     17.351164      34.368596    
    212000   0.99614705     17.905791      34.001425    
    213000   1.0326668      17.210122      33.850339    
    214000   0.95652108     17.713872      33.880221    
    215000   1.0213073      17.623398      33.81651     
    216000   0.97801978     17.891137      33.678674    
    217000   0.98571893     18.010497      33.631543    
    218000   1.0462071      17.761028      33.702283    
    219000   0.99967956     18.53292       33.663844    
    220000   1.002745       17.822893      33.577674    
    221000   0.97259247     17.755167      33.65538     
    222000   0.99004848     18.137085      33.486083    
    223000   1.0012573      17.74255       33.346331    
    224000   1.0734058      17.281933      33.249652    
    225000   1.0029555      17.955926      33.130774    
    226000   1.0311938      17.6481        32.816024    
    227000   1.0280909      17.804006      32.522783    
    228000   0.96313303     17.865863      32.304828    
    229000   0.99683262     17.581437      32.294474    
    230000   0.96884994     17.653173      32.259037    
    231000   0.96156425     17.680923      32.154831    
    232000   0.95757991     17.86354       32.210151    
    233000   0.99271852     18.303951      31.992204    
    234000   0.99782854     17.794631      31.834301    
    235000   1.0540133      18.30637       31.73921     
    236000   1.0259706      17.941139      31.675834    
    237000   0.9854303      18.1207        31.556469    
    238000   0.98998081     17.57884       31.810199    
    239000   1.0319359      17.75328       31.915471    
    240000   1.0268847      17.104593      31.607459    
    241000   1.0095506      17.854504      31.622684    
    242000   0.97992187     17.666046      31.853938    
    243000   0.95390486     18.055412      31.859825    
    244000   1.0516598      17.77682       31.684358    
    245000   1.0328684      18.213505      31.519929    
    246000   1.0568298      18.121269      31.047464    
    247000   0.99598615     17.635108      30.779476    
    248000   1.0313848      17.992944      30.570554    
    249000   1.0135723      18.142865      30.265557    
    250000   1.0181938      17.834873      30.216734    
    251000   0.97442015     17.148234      30.011384    
    252000   0.99840364     17.131032      29.961069    
    253000   1.0598472      17.960783      29.743734    
    254000   1.0332151      17.77207       29.439157    
    255000   1.0091277      17.855182      29.51853     
    256000   0.98269975     18.104099      29.260616    
    257000   1.0064219      17.196828      29.442949    
    258000   0.96965312     17.820301      29.145523    
    259000   1.0463206      18.669108      29.146793    
    260000   1.018329       18.14363       28.812515    
    261000   1.0006761      17.707541      28.568142    
    262000   1.0168508      17.688266      28.230928    
    263000   1.0514762      18.358991      27.933409    
    264000   0.99617457     17.343758      27.827962    
    265000   0.94757718     17.753163      27.725479    
    266000   0.94392879     18.08866       27.742665    
    267000   0.98363298     18.095483      27.758663    
    268000   0.9550439      17.211014      27.584403    
    269000   1.0111432      17.403315      27.413497    
    270000   1.0332951      18.207734      27.134323    
    271000   1.0557818      17.510517      26.835398    
    272000   1.0109729      18.358577      26.508632    
    273000   0.9501427      17.830744      26.402081    
    274000   1.0440979      17.752827      26.48081     
    275000   1.0121856      17.485937      26.290069    
    276000   1.0251117      17.723115      26.346947    
    277000   0.95121237     17.38211       26.091817    
    278000   0.96211116     17.661237      25.794803    
    279000   0.9359318      17.217602      25.728603    
    280000   1.0230759      16.969605      25.663239    
    281000   0.99951065     17.324456      25.567301    
    282000   1.0028262      17.666162      25.606977    
    283000   1.0392063      17.802916      25.419306    
    284000   1.0291527      18.185147      25.460917    
    285000   1.0089722      18.392704      25.192116    
    286000   1.0031088      17.361413      25.011356    
    287000   0.99166768     17.926315      25.1537      
    288000   1.0361313      17.600436      25.180847    
    289000   1.0147384      17.652566      25.102493    
    290000   0.98855905     17.587445      24.964558    
    291000   0.97107557     17.388095      24.765261    
    292000   0.98963625     17.506909      24.478785    
    293000   0.97793251     17.505588      24.355726    
    294000   0.97902888     17.699602      24.277924    
    295000   0.9605484      17.252926      24.083544    
    296000   1.0291275      17.54839       24.138806    
    297000   1.0463374      17.71887       23.928258    
    298000   1.0239504      17.710152      23.962734    
    299000   1.0398598      18.129825      24.085793    
    300000   1.0378337      17.881156      24.020185    
    301000   0.99334229     17.35011       24.167564    
    302000   1.0373729      17.729116      24.084344    
    303000   1.0375346      17.907809      24.023038    
    304000   0.94569935     17.26555       23.863421    
    305000   1.0350957      18.092578      23.856445    
    306000   1.0172226      18.420615      23.827562    
    307000   1.0481183      17.668144      23.818716    
    308000   1.006416       17.079822      23.787166    
    309000   0.98785906     17.245514      23.554655    
    310000   1.0209928      18.152629      23.423584    
    311000   0.96234158     17.476699      23.289797    
    312000   0.95524013     17.580803      23.278979    
    313000   1.005327       17.58961       23.213448    
    314000   1.0038883      18.07246       22.959114    
    315000   1.0065438      18.015635      22.893074    
    316000   1.0150044      18.446006      23.054736    
    317000   0.97890999     17.849188      23.063779    
    318000   0.99701105     17.983602      23.079426    
    319000   1.0056491      17.915207      22.767274    
    320000   0.98414823     17.188575      22.54789     
    321000   0.9786598      17.643174      22.413019    
    322000   0.9617354      17.047955      22.510847    
    323000   1.0323029      18.067981      22.311413    
    324000   0.96693314     17.917949      22.268681    
    325000   1.0503833      18.038229      22.42952     
    326000   0.99383413     17.869113      22.307359    
    327000   0.96403892     17.939848      22.252259    
    328000   1.0066002      17.660576      22.160834    
    329000   0.97204272     18.076842      22.056533    
    330000   1.0151329      17.81347       22.20746     
    331000   1.0266427      17.535137      22.267777    
    332000   1.0446652      18.017646      22.168906    
    333000   1.0584125      17.70776       22.005248    
    334000   1.0485221      17.751434      22.077983    
    335000   1.0288481      17.749161      22.152692    
    336000   1.0010605      17.724522      22.192638    
    337000   1.0523971      17.613744      22.020885    
    338000   0.99698184     18.131439      21.965489    
    339000   0.95950321     17.425762      21.956004    
    340000   1.0694152      17.992118      21.942157    
    341000   1.0256224      17.18363       21.80652     
    342000   0.96589682     17.399079      21.734403    
    343000   0.97002954     17.577565      21.652536    
    344000   1.0118655      16.856008      21.660981    
    345000   1.0439387      17.597246      21.531565    
    346000   0.99632017     17.064422      21.349138    
    347000   1.0099112      17.751103      21.400742    
    348000   0.94243428     17.462373      21.08453     
    349000   0.98227057     17.358727      20.915406    
    350000   0.98487003     17.312941      20.665931    
    351000   1.002396       17.632687      20.566978    
    352000   0.97350002     16.616507      20.387198    
    353000   0.97208924     17.162133      20.205941    
    354000   0.9749682      17.327748      20.124672    
    355000   1.0258942      17.021233      20.10143     
    356000   0.96620947     17.962222      20.171585    
    357000   0.98854186     17.633572      20.03825     
    358000   0.95449769     17.579154      19.836121    
    359000   0.96818628     17.36739       19.764735    
    360000   0.99800658     17.358043      19.633728    
    361000   1.0319918      17.794807      19.664428    
    362000   1.0100687      17.302511      19.827859    
    363000   1.0549522      17.315801      19.681377    
    364000   0.98001425     17.33858       19.390609    
    365000   1.0192915      17.736952      19.059038    
    366000   0.96677907     17.800472      18.725063    
    367000   0.96661416     17.504642      19.02858     
    368000   1.027698       17.874669      19.06347     
    369000   1.0276699      17.825496      19.187965    
    370000   0.97627113     18.205919      19.123485    
    371000   1.0348614      17.130517      19.116031    
    372000   1.0019537      17.342472      18.773466    
    373000   0.98498868     17.262556      18.572654    
    374000   1.0008365      17.035481      18.649038    
    375000   0.96102736     18.07515       18.121264    
    376000   1.0458688      17.857159      18.102924    
    377000   0.97499695     17.322841      18.010086    
    378000   0.99572764     17.528676      17.919782    
    379000   1.0123902      17.699491      17.803663    
    380000   1.0039312      17.970086      17.733588    
    381000   1.0349655      17.75825       17.617862    
    382000   0.9924573      18.769716      17.461432    
    383000   1.0057842      17.472753      17.321283    
    384000   1.0167637      17.910479      17.323927    
    385000   0.99665383     17.842035      17.280451    
    386000   0.99604858     17.196136      17.247683    
    387000   1.0311204      17.752212      17.018459    
    388000   0.98920446     17.731555      16.849782    
    389000   0.98136346     17.235689      16.853591    
    390000   1.0200901      17.595461      16.628814    
    391000   1.0191483      18.005685      16.60953     
    392000   1.0168948      17.742194      16.41658     
    393000   1.0064885      17.930389      16.329883    
    394000   0.97207118     17.255081      16.380723    
    395000   1.0138067      17.363605      16.404612    
    396000   1.0294353      17.269683      16.036348    
    397000   1.0057256      17.375675      16.211608    
    398000   1.0179478      17.709116      16.143168    
    399000   1.0065551      17.278191      15.993431    
    400000   1.003298       17.65857       15.957044    
    401000   0.94422597     17.807325      15.808655    
    402000   1.0187517      16.758681      15.627448    
    403000   1.0320432      18.181588      15.544326    
    404000   1.0590893      18.242251      15.429564    
    405000   1.035609       17.536598      15.325328    
    406000   1.0151767      17.933748      15.160986    
    407000   0.99536512     16.584845      15.06179     
    408000   1.0098555      17.579983      15.122316    
    409000   1.0020698      17.498609      15.179318    
    410000   0.99379786     18.012043      15.12173     
    411000   0.96703447     17.683948      15.090658    
    412000   1.0545925      17.218693      14.782297    
    413000   0.99135322     17.577385      14.726769    
    414000   1.0171613      17.35175       14.824173    
    415000   1.02127        17.823669      14.941593    
    416000   0.97061367     17.024979      14.681882    
    417000   0.97459574     17.36653       14.695698    
    418000   1.0384778      17.091203      14.822019    
    419000   1.0131656      17.63651       14.742205    
    420000   0.95233301     17.069432      14.393815    
    421000   1.0398037      17.020452      14.128018    
    422000   0.97097694     17.422796      14.133659    
    423000   1.0055978      17.916441      14.176812    
    424000   1.0230924      17.110558      13.803589    
    425000   1.0365834      17.082372      13.939349    
    426000   1.0396471      18.048171      13.816099    
    427000   0.98928837     17.051134      13.684829    
    428000   0.99159805     16.807005      13.179456    
    429000   1.0062806      17.604801      13.232404    
    430000   0.99357921     16.889387      13.311303    
    431000   1.0151167      17.859623      13.074152    
    432000   1.0034334      17.613328      12.969312    
    433000   1.0327886      17.640513      12.599213    
    434000   1.0020107      16.528384      12.362033    
    435000   0.99316416     16.962992      12.063384    
    436000   1.0330088      17.307976      11.86556     
    437000   0.98897429     16.310689      11.697015    
    438000   1.0253743      16.930651      11.400169    
    439000   1.0365459      17.097125      11.170669    
    440000   0.98924072     17.264542      11.010732    
    441000   0.96485995     17.712534      11.176318    
    442000   0.97322794     16.853539      11.18505     
    443000   0.98133464     17.456105      11.112172    
    444000   1.0200254      17.460751      11.138781    
    445000   1.0515181      17.463947      11.21527     
    446000   1.0251363      16.958624      11.258942    
    447000   1.0050267      17.297479      11.211515    
    448000   1.0250576      16.823763      10.914828    
    449000   0.96315583     17.007321      10.89535     
    450000   1.0423616      17.014085      10.858429    
    451000   0.95528534     17.345083      10.78209     
    452000   0.98060503     16.930188      10.664944    
    453000   0.98413818     16.835492      10.482559    
    454000   1.0060454      17.355897      10.151879    
    455000   0.99984384     17.104227      10.179456    
    456000   0.9777189      16.862726      9.960153     
    457000   1.0066419      17.840183      9.7607345    
    458000   0.97706738     17.409872      9.8072379    
    459000   1.0334878      18.529346      9.8772115    
    460000   1.0214468      16.449857      9.8302239    
    461000   1.0569326      17.627126      9.7965909    
    462000   1.0025017      17.59102       9.702579     
    463000   0.98080656     17.292577      9.8458633    
    464000   0.92935344     16.984244      10.078685    
    465000   0.99144813     16.849628      10.036927    
    466000   1.0208827      17.981928      9.9211798    
    467000   1.0168985      17.893197      9.8153427    
    468000   0.97801961     16.941581      9.7367641    
    469000   1.0453219      17.326206      9.5532627    
    470000   0.98253742     17.497965      9.3922816    
    471000   1.0448124      17.972515      9.355535     
    472000   0.99487278     17.737056      9.3498795    
    473000   1.0502617      17.638645      9.2264768    
    474000   1.0136777      17.264908      9.0942595    
    475000   1.0501196      17.653882      9.0595508    
    476000   0.99594846     17.202224      9.0027693    
    477000   0.98564132     17.2824        9.0529835    
    478000   1.0302295      17.893477      9.0589756    
    479000   0.98611397     17.003497      8.8268649    
    480000   1.0308048      17.497973      8.9231919    
    481000   0.9699221      17.247765      8.7317053    
    482000   1.0324007      17.140575      8.6764808    
    483000   0.98559647     17.367893      8.7007804    
    484000   0.98740081     17.440609      8.4563194    
    485000   0.93079702     17.089012      8.4843701    
    486000   0.96475101     17.100106      8.5731847    
    487000   1.0109754      17.53594       8.6719212    
    488000   0.97812156     16.977387      8.5876949    
    489000   1.0209369      17.589535      8.4573864    
    490000   1.0141582      17.217545      8.5770487    
    491000   0.95450477     17.221392      8.3663606    
    492000   0.98435857     17.481275      8.2027304    
    493000   0.99133401     17.071071      7.9701289    
    494000   1.0165851      17.093158      7.8619407    
    495000   1.0255981      17.188851      7.6818655    
    496000   0.98231986     17.739098      7.6115398    
    497000   0.97514095     17.579371      7.4728783    
    498000   1.0375407      17.626348      7.3951215    
    499000   1.0583251      16.41746       7.1663233    
Fix halt condition for fix-id 3 met on step 500000 with value 6.916162018584693 (src/fix_halt.cpp:237)
    500000   0.97854289     16.883232      6.916162     
Loop time of 646.47 on 2 procs for 400000 steps with 801 atoms

Performance: 534595.797 tau/day, 618.745 timesteps/s
119.8% CPU use with 1 MPI tasks x 2 OpenMP threads

MPI task timing breakdown:
Section |  min time  |  avg time  |  max time  |%varavg| %total
---------------------------------------------------------------
Pair    | 97.497     | 97.497     | 97.497     |   0.0 | 15.08
Bond    | 7.7538     | 7.7538     | 7.7538     |   0.0 |  1.20
Neigh   | 523.15     | 523.15     | 523.15     |   0.0 | 80.92
Comm    | 0.14183    | 0.14183    | 0.14183    |   0.0 |  0.02
Output  | 1.0453     | 1.0453     | 1.0453     |   0.0 |  0.16
Modify  | 15.546     | 15.546     | 15.546     |   0.0 |  2.40
Other   |            | 1.333      |            |       |  0.21

Nlocal:            801 ave         801 max         801 min
Histogram: 1 0 0 0 0 0 0 0 0 0
Nghost:              0 ave           0 max           0 min
Histogram: 1 0 0 0 0 0 0 0 0 0
Neighs:         141285 ave      141285 max      141285 min
Histogram: 1 0 0 0 0 0 0 0 0 0

Total # of neighbors = 141285
Ave neighs/atom = 176.38577
Ave special neighs/atom = 1.9975031
Neighbor list builds = 3307
Dangerous builds = 0

# This simulation is done
# Move onto the next one
clear
  using 2 OpenMP thread(s) per MPI task
package omp 0
using multi-threaded neighbor list subroutines
next f
jump SELF

###
# Reference paper:
# K. Kremer and G. S. Grest
# Dynamics of entangled linear polymer melts: A molecular-dynamics simulation
# J Chem Phys 92, 5057 (1990)

##################################
# MIHIR: for branched polymers
# LJ minimum first to expand and explore, then collapse
###

###
# Looping through the various nuc5branch4 polymers to simulate,
# define variables to switch through
variable f index bb37nuc5bl6bn4d30tot100 bb75nuc5bl12bn4d30tot200 bb112nuc5bl18bn4d30tot300 bb150nuc5bl25bn4d30tot400 bb187nuc5bl31bn4d30tot500 bb225nuc5bl37bn4d30tot600 bb262nuc5bl43bn4d30tot700 bb300nuc5bl50bn4d30tot800 bb337nuc5bl56bn4d30tot900 bb375nuc5bl62bn4d30tot1000 bb412nuc5bl68bn4d30tot1100 bb450nuc5bl75bn4d30tot1200
# variable f index bb75nuc5bl12bn4d30tot200
# variable f index bb337nuc5bl56bn4d30tot900
###


###
# Box and units  (use LJ units and periodic boundaries)
###

units lj
log nuc5branch4/logs3/$f.log
log nuc5branch4/logs3/bb337nuc5bl56bn4d30tot900.log
