#atom_style bond #no stiffness
atom_style angle #with stiffness

boundary        p p p
###
# Pair interactions require lists of neighbours to be calculated
###

#neighbor 0.3 bin
neighbor 4 bin

neigh_modify every 1 delay 1 check yes
atom_modify sort 0 0
### Generate RESTART file, SPECIAL format, not a .txt file ###
### Useful if simulation crashes ###

restart 1000000 nuc5branch4/restarts3/$f.restart
restart 1000000 nuc5branch4/restarts3/bb412nuc5bl68bn4d30tot1100.restart
#############################



### READ "start" data file ###

read_data nuc5branch4/$f.dat
read_data nuc5branch4/bb412nuc5bl68bn4d30tot1100.dat
Reading data file ...
  orthogonal box = (-1000 -1000 -1000) to (1000 1000 1000)
  1 by 1 by 1 MPI processor grid
  reading atoms ...
  1093 atoms
  scanning bonds ...
  3 = max bonds/atom
  scanning angles ...
  6 = max angles/atom
  reading bonds ...
  1092 bonds
  reading angles ...
  1106 angles
Finding 1-2 1-3 1-4 neighbors ...
  special bond factors lj:    0        0        0       
  special bond factors coul:  0        0        0       
     4 = max # of 1-2 neighbors
     4 = max # of 1-3 neighbors
     8 = max # of 1-4 neighbors
    12 = max # of special neighbors
  special bonds CPU = 0.002 seconds
  read_data CPU = 0.135 seconds

######################

### READ "REstart" data file ###

######################



###
# Define groups (atom type 1 is group 'all')
###
group all type 1
1093 atoms in group all


###
# Dump configs - "simple dumpings"
###

###
# Dump configs + box coords
###

dump   1   all   custom   1000  nuc5branch4/trjs3/$f.lammpstrj  id  x y z  ix iy iz
dump   1   all   custom   1000  nuc5branch4/trjs3/bb412nuc5bl68bn4d30tot1100.lammpstrj  id  x y z  ix iy iz
dump_modify   1   format line "%d %.5f %.5f %.5f %d %d %d"

########################################################################


###################################################################
# Stiffness term
#
# E = K * (1+cos(theta)), K>0
#
angle_style   cosine
#change this coefficient to change stiffness (e.g. 1,5,10)
angle_coeff   1 1.0
###################################################################

###################################################################
# Pair interaction between non-bonded atoms
#
#  Lennard-Jones 12-6 potential with cutoff:
#  potential E=4epsilon[ (sigma/r)^12 - (sigma/r)^6]  for r<r_cut
#
#  1.12246 = 2^(1/6) is the minimum of the potential


pair_style      lj/cut 1.12246152962189
#pair_style      lj/cut 3

#
#  pair_modify shift yes adds a constant to the potential such

#  that E(r_cut)=0. Forces remains unchanged.
#

pair_modify     shift yes

#
#  pair_coeff for lj/cut, specify 4:
#    * atom type interacting with
#    * atom type
#    * epsilon (energy units)
#    * sigma (distance units)
#

pair_coeff      1 1 1.0 1.0
###################################################################

###################################################################
# Pair interaction between non-bonded atoms
#
#  soft potential, for PUSHING apart overlapping atoms
#  potential E=A*(1 + cos(pi*r/r_c))
#
#  1.12246 = 2^(1/6) is the cut-off r_c

#pair_style     soft 1.12246152962189

#
#  pair_coeff for soft, specify 3:
#    * atom type interacting with
#    * atom type
#    * A
#
#

#pair_coeff      1 1 100.0
###################################################################

###################################################################
# Pair interaction between bonded atoms
#
# Fene potential + Lennard Jones 12-6:

#
#  E= - 0.5 K R0^2 ln[ 1- (r/R0)^2]
#     + 4epsilon[ (sigma/r)^12 - (sigma/r)^6] + epsilon
#

bond_style   fene


#
# For style fene, specify:
#   * bond type
#   * K (energy/distance^2)
#   * R0 (distance)
#   * epsilon (energy)  (LJ component)
#   * sigma (distance)  (LJ component)
#


special_bonds fene #<=== I M P O R T A N T (new command)
Finding 1-2 1-3 1-4 neighbors ...
  special bond factors lj:    0        1        1       
  special bond factors coul:  0        1        1       
     4 = max # of 1-2 neighbors
    12 = max # of special neighbors
  special bonds CPU = 0.000 seconds

bond_coeff   1   30   2   1.0   1.0


###################################################

###################################################################
# Pair interaction between bonded atoms
#
# Harmonic potential:
#
#  E= K * (R-R0)^2
#

#bond_style   harmonic

#
# For style harmonic, specify:
#   * bond type
#   * K (energy/distance^2)
#   * R0 (distance)
#

#bond_coeff   1   60.0   1.0
#bond_coeff   2   harmonic 0.1   1.0

###################################################
compute 1 all gyration
variable rog equal c_1
#compute 2 all coord/atom cutoff 1.1

#dump 2 all custom 10000 contact_number.dump id c_2


###
# Set up fixes
###
thermo_style   custom   step  temp enthalpy c_1
fix 1 all nve   ###NVE ensemble

fix 2 all   langevin   1.0 1.0 1.0  158102   ###Langevin integrator Tstart Tstop 1/friction rndseed


##### Sample thermodynamic info  (temperature, energy, pressure, etc.) #####
thermo 1000









############################################################################

###
# set timestep of integrator

timestep 0.01

###
# run integration for a number of steps
###
#run 0
#variable r equal c_1
#if "$r < 63.1" then "quit 1"

# lj potential minimum, cause molecule to explore
run 100000
Generated 0 of 0 mixed pair_coeff terms from geometric mixing rule
Last active /omp style is angle_style cosine/omp
Neighbor list info ...
  update: every = 1 steps, delay = 1 steps, check = yes
  max neighbors/atom: 2000, page size: 100000
  master list distance cutoff = 5.1224615
  ghost atom cutoff = 5.1224615
  binsize = 2.5612308, bins = 781 781 781
  1 neighbor lists, perpetual/occasional/extra = 1 0 0
  (1) pair lj/cut/omp, perpetual
      attributes: half, newton on, omp
      pair build: half/bin/newton/omp
      stencil: half/bin/3d
      bin: standard
WARNING: Communication cutoff 5.12246152962189 is shorter than a bond length based estimate of 5.455. This may lead to errors. (src/comm.cpp:723)
Per MPI rank memory allocation (min/avg/max) = 1862 | 1862 | 1862 Mbytes
   Step          Temp         Enthalpy         c_1      
         0   0              13.268231      82.563339    
      1000   0.99234721     18.787859      81.736144    
      2000   1.0087301      18.865475      80.895982    
      3000   1.0043006      19.017699      80.56504     
      4000   0.99410449     19.360291      80.130829    
      5000   0.96621262     19.201568      79.580633    
      6000   0.95951175     19.145742      79.358369    
      7000   1.0029621      19.480024      78.726009    
      8000   1.0161354      20.037353      78.156157    
      9000   1.0330767      19.583863      77.775061    
     10000   1.0121358      19.856234      77.554068    
     11000   0.99919199     19.550353      76.964287    
     12000   1.0168099      19.928484      76.64045     
     13000   0.98987341     19.657859      76.429612    
     14000   1.0200116      20.063518      75.959621    
     15000   1.0011206      20.312373      76.030627    
     16000   1.0485078      20.190718      76.091655    
     17000   0.97696321     20.501183      75.841953    
     18000   0.93831697     19.774142      75.563518    
     19000   0.99831079     20.290816      75.426436    
     20000   0.98185818     19.655165      75.5265      
     21000   1.0042694      19.784021      75.354231    
     22000   0.99631258     19.724363      75.026104    
     23000   0.99150677     20.212094      74.807383    
     24000   1.0199196      20.22834       74.632332    
     25000   0.99870595     20.104054      74.487525    
     26000   1.0034905      19.891929      74.57991     
     27000   1.0547657      20.839857      74.478032    
     28000   0.97450425     19.783036      74.272407    
     29000   0.98065242     20.119721      74.264448    
     30000   0.99582911     19.995792      74.278991    
     31000   1.0077837      20.538459      74.018002    
     32000   1.0110826      19.983273      73.911327    
     33000   0.97042196     20.334217      73.861192    
     34000   1.0098755      20.544944      73.810616    
     35000   0.98401683     20.041451      73.667508    
     36000   1.0190341      20.252425      73.388294    
     37000   1.02424        20.083738      73.285949    
     38000   0.99588674     20.440011      73.092422    
     39000   1.0140607      19.941757      73.120414    
     40000   0.95110981     20.919713      72.972503    
     41000   1.0325028      20.349944      73.048198    
     42000   1.0273815      20.411909      73.028294    
     43000   1.032268       20.548222      72.663681    
     44000   0.97958951     19.828622      72.419527    
     45000   1.0055721      20.57284       72.092999    
     46000   1.0105219      20.019721      71.940491    
     47000   0.95615531     19.665886      71.87728     
     48000   1.016895       20.12131       71.747146    
     49000   1.0249201      20.446064      71.834015    
     50000   1.0059219      20.314949      71.584696    
     51000   1.0047928      20.204544      71.62437     
     52000   0.97125997     20.309443      71.768999    
     53000   0.98354004     20.187027      71.707031    
     54000   0.99932803     20.203632      71.75132     
     55000   1.0125686      20.598825      71.808772    
     56000   1.0238554      20.044129      71.54365     
     57000   0.94085632     19.833944      71.41053     
     58000   1.0393015      20.489856      71.457661    
     59000   1.0084334      20.166244      71.419676    
     60000   1.0000687      20.360643      71.229312    
     61000   1.0234587      20.062785      71.332338    
     62000   1.004739       20.338735      71.173858    
     63000   1.0355621      20.861116      70.936354    
     64000   0.99901688     20.507818      70.906074    
     65000   1.0270209      20.652669      70.957222    
     66000   1.0125919      20.618875      70.925278    
     67000   1.0037676      20.354518      70.858785    
     68000   0.97043486     20.218549      70.71618     
     69000   1.0205098      20.044039      70.500182    
     70000   0.98181544     20.034869      70.62546     
     71000   1.010797       20.512411      70.499953    
     72000   0.98765841     20.655438      70.331699    
     73000   1.0140539      20.731579      69.936662    
     74000   1.0052973      21.10943       69.770191    
     75000   1.012896       20.571373      69.590536    
     76000   0.98493551     20.025362      69.456085    
     77000   1.0034222      20.619489      69.210832    
     78000   1.0178869      20.720142      69.122041    
     79000   1.0214736      20.800848      68.977345    
     80000   1.048037       20.343472      68.849365    
     81000   1.0228151      21.019284      68.691295    
     82000   1.0145971      20.930757      68.757236    
     83000   1.0072902      20.470505      68.732494    
     84000   1.0271783      20.4779        68.758369    
     85000   1.0182899      20.637358      68.823086    
     86000   1.0401124      20.274826      68.678878    
     87000   0.99059699     20.470051      68.57433     
     88000   1.0162478      20.624999      68.488839    
     89000   0.96300683     20.381057      68.268346    
     90000   1.0079965      20.170888      68.381461    
     91000   1.0066083      20.313582      68.427502    
     92000   1.0001905      20.514871      68.346935    
     93000   1.0022619      19.840703      68.37783     
     94000   0.96083561     19.60319       68.447337    
     95000   0.97118905     20.661674      68.38368     
     96000   0.99984497     20.572679      68.213159    
     97000   1.0046459      20.883043      68.252965    
     98000   0.99683927     20.200069      68.20085     
     99000   1.0002993      20.366437      68.003155    
    100000   1.0199112      20.377861      67.942839    
Loop time of 531.173 on 2 procs for 100000 steps with 1093 atoms

Performance: 162658.841 tau/day, 188.263 timesteps/s
103.0% CPU use with 1 MPI tasks x 2 OpenMP threads

MPI task timing breakdown:
Section |  min time  |  avg time  |  max time  |%varavg| %total
---------------------------------------------------------------
Pair    | 2.1953     | 2.1953     | 2.1953     |   0.0 |  0.41
Bond    | 3.5528     | 3.5528     | 3.5528     |   0.0 |  0.67
Neigh   | 517.37     | 517.37     | 517.37     |   0.0 | 97.40
Comm    | 0.057079   | 0.057079   | 0.057079   |   0.0 |  0.01
Output  | 0.36222    | 0.36222    | 0.36222    |   0.0 |  0.07
Modify  | 7.08       | 7.08       | 7.08       |   0.0 |  1.33
Other   |            | 0.557      |            |       |  0.10

Nlocal:           1093 ave        1093 max        1093 min
Histogram: 1 0 0 0 0 0 0 0 0 0
Nghost:              0 ave           0 max           0 min
Histogram: 1 0 0 0 0 0 0 0 0 0
Neighs:           9034 ave        9034 max        9034 min
Histogram: 1 0 0 0 0 0 0 0 0 0

Total # of neighbors = 9034
Ave neighs/atom = 8.2653248
Ave special neighs/atom = 1.9981702
Neighbor list builds = 1188
Dangerous builds = 0

# Replace lj potential, now collapse
pair_style      lj/cut 3

# Cutoff simul when gyration under 10
# Variable created with equal requires v_ + 'name'
fix 3 all halt 1000 v_rog < 7

run 3000000
Generated 0 of 0 mixed pair_coeff terms from geometric mixing rule
Last active /omp style is angle_style cosine/omp
Per MPI rank memory allocation (min/avg/max) = 1862 | 1862 | 1862 Mbytes
   Step          Temp         Enthalpy         c_1      
    100000   1.0199112      19.548597      67.942839    
    101000   1.0048629      19.676084      67.938016    
    102000   0.97105444     19.305382      67.93396     
    103000   1.0158589      19.658148      67.671506    
    104000   1.0423706      19.586967      67.483079    
    105000   0.99728709     19.258718      67.14593     
    106000   0.97617661     18.620705      67.103114    
    107000   0.98203093     18.812043      66.979923    
    108000   1.0076898      18.770048      66.758317    
    109000   0.98245618     18.332946      66.585371    
    110000   0.98208756     19.164881      66.460703    
    111000   1.003879       18.452538      66.549281    
    112000   1.007218       18.277701      66.528973    
    113000   0.98855868     18.670979      66.361137    
    114000   0.98080231     18.565871      65.901703    
    115000   0.97575539     18.595984      65.56187     
    116000   1.0187682      19.062907      65.329498    
    117000   0.95900894     18.317959      65.169327    
    118000   0.99512571     18.692347      65.095101    
    119000   1.0458821      18.82267       64.918128    
    120000   1.0108153      18.183683      64.943237    
    121000   0.99393383     18.272964      64.721348    
    122000   0.95783203     17.897626      64.686287    
    123000   1.0297423      18.463285      64.577806    
    124000   0.98321397     18.372347      64.543853    
    125000   1.0070821      18.289487      64.363265    
    126000   1.022584       18.29832       64.432675    
    127000   1.0388146      18.808994      64.33612     
    128000   1.0597019      17.84551       64.332401    
    129000   0.98019518     18.11791       64.12041     
    130000   0.98984299     18.107603      64.044026    
    131000   0.99807392     18.048198      63.825636    
    132000   1.0121662      18.083028      63.612212    
    133000   0.97960473     17.81015       63.180407    
    134000   0.94588311     18.298881      63.137237    
    135000   1.0292089      18.108035      63.11179     
    136000   1.0811143      17.680649      62.967452    
    137000   1.0109538      17.880363      62.903528    
    138000   1.0219233      18.105894      62.766775    
    139000   1.0125514      18.210391      62.68515     
    140000   1.0117137      17.867646      62.42726     
    141000   1.0246875      18.075695      62.238305    
    142000   1.043387       17.760429      62.261973    
    143000   1.0076584      17.720248      62.015839    
    144000   1.0132538      17.769061      61.836411    
    145000   0.98640303     18.273519      61.59758     
    146000   1.0037349      18.360266      61.501651    
    147000   1.0199938      17.985107      61.336971    
    148000   1.0119143      18.050453      61.032634    
    149000   0.97387531     18.104326      61.094152    
    150000   1.0124134      17.954447      60.900682    
    151000   1.0252522      18.270905      60.753147    
    152000   1.0092383      18.089237      60.858895    
    153000   0.95314191     17.878563      60.793461    
    154000   0.98332489     17.834925      60.729537    
    155000   1.0092046      17.885527      60.855418    
    156000   1.004948       17.855789      60.871122    
    157000   0.97157517     17.53041       60.637536    
    158000   1.0111782      17.419686      60.493894    
    159000   0.99855866     17.826912      60.308691    
    160000   1.0388343      18.577268      60.199307    
    161000   0.99617013     18.288658      60.22838     
    162000   1.043085       17.914767      59.897673    
    163000   0.97931739     17.970875      59.717433    
    164000   1.0133409      17.774203      59.545288    
    165000   1.033439       17.844076      59.439955    
    166000   0.98892755     18.197514      59.216144    
    167000   0.98836822     18.008557      59.095841    
    168000   1.0184027      17.674253      58.92946     
    169000   1.0061449      17.682655      59.078154    
    170000   1.0195721      18.007172      59.141422    
    171000   1.0124456      17.704999      58.928063    
    172000   0.98210668     18.197493      58.779813    
    173000   1.0227067      18.035899      58.848325    
    174000   1.010309       17.774447      58.712047    
    175000   1.0286019      18.720232      58.770505    
    176000   1.0155315      18.267595      58.535632    
    177000   1.0446593      17.932924      58.44428     
    178000   1.0021149      18.051704      58.265439    
    179000   1.033315       18.419026      58.276735    
    180000   1.0154346      18.054149      58.226198    
    181000   0.99840495     17.762099      57.943822    
    182000   0.99913486     18.35718       57.963826    
    183000   0.98953274     17.92466       57.860294    
    184000   0.99839437     17.880419      57.655566    
    185000   1.0006155      18.672374      57.594621    
    186000   0.97652576     17.921137      57.346835    
    187000   0.99252558     18.613228      57.160492    
    188000   1.0289447      17.814008      56.777836    
    189000   0.99844874     17.682397      56.571771    
    190000   0.9760549      18.045097      56.503955    
    191000   1.0429619      18.273538      56.646912    
    192000   0.99825645     17.568927      56.390762    
    193000   1.0153105      17.556616      56.235341    
    194000   1.0368315      17.746865      56.219913    
    195000   1.0093578      18.058705      56.049035    
    196000   0.99678861     18.159306      56.025009    
    197000   0.99448792     18.025135      56.160775    
    198000   0.95932649     18.054932      56.325268    
    199000   1.0152911      18.281318      56.285835    
    200000   1.012476       17.629232      56.229221    
    201000   1.007413       17.860099      56.21127     
    202000   1.0400635      18.056754      56.128109    
    203000   1.0026415      17.464785      55.829326    
    204000   0.99894584     17.951634      55.434263    
    205000   1.027432       18.245055      55.269107    
    206000   1.0004653      18.178406      55.185428    
    207000   0.95525918     18.140089      54.942955    
    208000   0.99764176     18.460288      54.735002    
    209000   0.98449738     17.84106       54.547703    
    210000   1.0014398      17.900837      54.504988    
    211000   1.0012282      17.52381       54.517548    
    212000   1.0025057      18.147788      54.393602    
    213000   1.0227062      18.141936      54.134394    
    214000   1.0190717      17.778542      54.247993    
    215000   0.96507634     17.741163      54.126348    
    216000   0.99327689     18.040921      54.122603    
    217000   0.97578428     17.399728      53.854788    
    218000   0.99981463     17.653803      53.993615    
    219000   0.98682695     17.968056      53.973861    
    220000   1.0062857      18.113111      53.96704     
    221000   0.99406162     17.893826      53.746827    
    222000   0.995515       18.019523      53.738025    
    223000   0.99947034     17.531227      53.847763    
    224000   0.9510322      17.822246      53.795656    
    225000   0.98064742     17.747852      53.617492    
    226000   1.0156235      17.946386      53.424411    
    227000   0.96983603     17.742637      53.371891    
    228000   0.9897505      18.243766      53.52892     
    229000   1.0084756      17.894122      53.446195    
    230000   0.99696485     17.649485      53.191953    
    231000   0.99444346     18.29454       53.206546    
    232000   0.99874111     17.80207       53.063001    
    233000   0.95882369     18.38502       52.990844    
    234000   0.98844757     17.920439      52.992783    
    235000   0.99005224     17.756594      53.053834    
    236000   0.94254253     17.397711      53.22783     
    237000   1.0413841      18.479491      53.06562     
    238000   0.99768582     17.811475      53.00295     
    239000   0.94884026     17.275133      52.99686     
    240000   1.0084026      17.886201      53.022298    
    241000   1.0256308      17.541633      53.151444    
    242000   1.0195106      17.699175      53.361819    
    243000   0.99874721     17.681167      53.235787    
    244000   0.9850217      17.880823      52.970644    
    245000   1.0316008      17.360669      52.733297    
    246000   0.98074644     17.871965      52.664316    
    247000   0.98807927     17.884386      52.574699    
    248000   0.98291545     18.132057      52.496188    
    249000   0.99658506     17.861634      52.373909    
    250000   1.0166867      18.160889      52.209352    
    251000   0.97274112     17.561759      52.109596    
    252000   0.99356248     17.725458      52.048101    
    253000   0.98183151     17.856058      52.055073    
    254000   1.0320506      18.034874      51.835239    
    255000   0.99037458     18.205726      51.803079    
    256000   0.99174605     18.194813      51.783239    
    257000   0.96180609     17.978994      51.718999    
    258000   0.99587259     18.221728      51.775631    
    259000   0.96071459     17.568976      51.751085    
    260000   1.0047862      17.864741      51.827324    
    261000   0.98971699     17.775867      51.73203     
    262000   0.99621066     17.393295      51.619149    
    263000   0.98895517     17.802573      51.6678      
    264000   0.98919932     18.651995      51.533229    
    265000   1.0154022      17.927358      51.691057    
    266000   1.0014131      18.006529      51.813993    
    267000   0.97922997     17.817995      51.953787    
    268000   0.95928805     17.784475      52.045121    
    269000   0.98797278     18.254948      52.190362    
    270000   1.0431804      18.125072      52.230886    
    271000   1.0062035      18.057267      51.968498    
    272000   0.98644544     18.028101      52.046424    
    273000   1.031792       18.13733       51.981546    
    274000   1.0113661      18.118822      52.153607    
    275000   0.9721306      17.599675      51.905304    
    276000   0.93148675     17.76853       51.736224    
    277000   0.98698803     17.595982      51.732323    
    278000   0.96666939     17.025517      51.647322    
    279000   0.99569535     18.334907      51.456044    
    280000   0.99582239     17.939174      51.234814    
    281000   1.0179778      18.014115      51.190779    
    282000   1.0126393      18.023697      51.190578    
    283000   0.99266607     17.429134      51.165249    
    284000   1.0107066      18.472688      50.92566     
    285000   0.96869375     18.166623      50.721744    
    286000   1.0027202      17.521393      50.649565    
    287000   0.9469842      17.533685      50.539992    
    288000   1.0053715      17.910079      50.498891    
    289000   0.99617147     17.787805      50.348356    
    290000   1.0029716      18.476396      50.213113    
    291000   0.99466626     17.829819      50.300571    
    292000   1.0475274      17.963678      50.040379    
    293000   1.0092194      17.643423      49.932786    
    294000   1.0388148      18.435167      49.54242     
    295000   1.0028343      18.158901      49.595879    
    296000   0.9832404      18.318523      49.64684     
    297000   1.0005156      18.048393      49.346875    
    298000   1.0078374      17.266066      49.45105     
    299000   1.0122782      16.848946      49.653745    
    300000   0.97365931     18.312064      49.555006    
    301000   1.000501       18.016636      49.519581    
    302000   0.95266601     17.818782      49.493032    
    303000   0.97229005     18.033239      49.505422    
    304000   1.0440997      17.986758      49.508266    
    305000   0.94939246     18.104534      49.468785    
    306000   0.96456464     17.327649      49.537823    
    307000   0.99983654     17.344886      49.282882    
    308000   0.97964246     17.965498      49.06769     
    309000   1.0212009      17.512859      48.890285    
    310000   1.0232612      18.282701      48.597778    
    311000   0.9869301      17.485342      48.64099     
    312000   1.0115182      17.815185      48.436562    
    313000   1.0188058      18.24219       48.449768    
    314000   0.96924045     17.686564      48.434821    
    315000   1.023235       17.803681      48.467706    
    316000   1.0359244      17.718117      48.481536    
    317000   1.0199276      18.044326      48.457148    
    318000   1.0025727      17.942484      48.508376    
    319000   0.98032024     17.743014      48.382751    
    320000   0.97727669     17.004751      48.450503    
    321000   0.99361551     17.948623      48.330986    
    322000   1.0161528      17.929505      48.25186     
    323000   1.0265542      17.823261      48.003938    
    324000   1.011968       17.436814      47.929467    
    325000   0.99836871     17.723916      48.047559    
    326000   0.99851229     17.60578       48.15157     
    327000   1.0305155      17.628011      47.919481    
    328000   0.98325091     17.616924      48.000942    
    329000   1.061617       18.255069      47.822552    
    330000   1.0593143      17.492773      47.630908    
    331000   1.0253957      18.137016      47.494805    
    332000   0.96569707     17.124127      47.161636    
    333000   0.97378463     18.095455      46.985569    
    334000   0.97948089     17.738511      47.11684     
    335000   0.95439596     17.847758      46.781071    
    336000   1.0212778      18.02665       46.732537    
    337000   0.98853174     17.97998       46.792567    
    338000   1.008409       17.427235      46.589856    
    339000   0.98714694     17.716849      46.467822    
    340000   0.99924559     17.582143      46.30762     
    341000   1.0257718      17.707658      46.143713    
    342000   0.99866384     17.965091      45.870727    
    343000   1.0129809      17.603689      45.921111    
    344000   0.96012166     17.916729      45.790409    
    345000   0.99565651     17.968677      45.666494    
    346000   1.024531       17.999607      45.694546    
    347000   1.0269794      18.281767      45.518589    
    348000   0.97864738     17.696073      45.152421    
    349000   1.0431062      17.965087      45.232982    
    350000   1.0251117      18.563357      44.968576    
    351000   1.0139825      17.752007      44.87616     
    352000   1.0001756      17.829862      44.565134    
    353000   1.015922       18.283939      44.684598    
    354000   1.0325907      18.094098      44.741068    
    355000   0.97452481     17.42652       44.776653    
    356000   1.0197686      17.6835        44.714557    
    357000   1.0134325      17.944916      44.731479    
    358000   0.98931116     17.379537      44.575112    
    359000   0.98609316     17.418743      44.699566    
    360000   0.97832249     17.447466      44.701189    
    361000   1.0130534      17.550142      44.619649    
    362000   1.0111702      17.942735      44.718037    
    363000   1.0060225      17.994603      44.61302     
    364000   1.0152487      18.151593      44.629699    
    365000   1.010969       17.866661      44.490341    
    366000   1.0294957      17.695747      44.352196    
    367000   1.0015093      17.93655       44.353169    
    368000   1.0533778      17.563702      44.06577     
    369000   0.9793392      17.766452      43.890033    
    370000   0.95642575     17.449387      43.979014    
    371000   1.0097685      17.522232      43.801019    
    372000   0.98411354     17.871223      43.667642    
    373000   0.97417625     17.521579      43.873799    
    374000   0.99865616     16.992098      43.971933    
    375000   1.0127344      17.967327      43.892071    
    376000   1.0103444      17.661036      44.033612    
    377000   1.0293987      18.036426      43.862159    
    378000   1.0086165      17.898645      43.752555    
    379000   1.0401959      17.881806      43.75146     
    380000   0.96505521     17.763098      43.790379    
    381000   1.02107        18.055148      43.535249    
    382000   0.97843382     17.412402      43.539503    
    383000   0.96547177     17.857136      43.612271    
    384000   0.97012613     17.776094      43.454084    
    385000   0.97581335     17.225951      43.748652    
    386000   0.99819681     17.737493      43.750331    
    387000   0.99994714     18.122461      43.593794    
    388000   0.98407215     17.78582       43.574402    
    389000   0.99630547     17.367577      43.400628    
    390000   0.99345902     18.018576      43.393468    
    391000   1.0252817      17.39383       43.029038    
    392000   0.97029454     18.067398      43.198396    
    393000   0.98803599     17.768212      43.061741    
    394000   1.0013172      17.53329       42.874284    
    395000   0.97007055     17.435222      43.012313    
    396000   1.0225734      17.634843      42.920516    
    397000   1.0044355      17.749225      42.691126    
    398000   1.0130647      18.229088      42.522593    
    399000   1.0056819      17.661576      42.32273     
    400000   1.0061924      18.008912      42.220208    
    401000   0.98926547     18.19608       42.059282    
    402000   0.99454437     17.619109      42.079972    
    403000   1.0362851      17.844702      42.198274    
    404000   1.0096442      17.489355      42.019111    
    405000   0.99671814     17.298992      41.790308    
    406000   1.0471777      17.831332      41.60819     
    407000   0.95712267     16.914026      41.445188    
    408000   0.97391533     17.45004       41.306148    
    409000   0.98453709     17.378157      41.383566    
    410000   1.0034912      18.09537       41.493422    
    411000   1.0032669      17.959535      41.474488    
    412000   1.003072       17.736552      41.487353    
    413000   0.98562777     17.094541      41.560424    
    414000   0.99490103     17.191187      41.719518    
    415000   0.98128215     17.36526       41.812658    
    416000   1.0125786      17.889672      41.462677    
    417000   0.99362992     17.574692      41.426207    
    418000   0.9738068      17.719232      41.318865    
    419000   1.0260295      17.431948      41.306009    
    420000   0.98820188     17.690701      41.190917    
    421000   0.97438074     18.024482      41.048013    
    422000   1.0398948      17.240597      40.811559    
    423000   0.97738454     16.986991      40.628701    
    424000   1.0022732      16.951225      40.55067     
    425000   1.0198817      17.440941      40.609204    
    426000   1.0130487      17.729611      40.512345    
    427000   0.98674244     17.850885      40.46234     
    428000   1.0229765      17.483896      40.449476    
    429000   0.96526266     17.44234       40.422744    
    430000   1.0395536      17.611645      40.519523    
    431000   1.0008422      17.404557      40.415097    
    432000   0.96746966     17.112118      40.255657    
    433000   0.97313725     17.424221      40.177821    
    434000   0.98854565     17.741724      39.929599    
    435000   1.0392019      17.832048      39.945311    
    436000   1.0137779      18.032097      40.044057    
    437000   0.96790609     17.168624      39.950275    
    438000   0.98518026     17.325406      39.858141    
    439000   1.0268676      17.42186       39.850903    
    440000   1.035692       18.160351      39.792416    
    441000   0.97776805     17.248142      39.844455    
    442000   0.96821354     17.337619      39.93991     
    443000   1.0408888      17.380575      40.066947    
    444000   0.99572229     17.164766      39.893391    
    445000   1.0247422      17.879185      39.854726    
    446000   0.97899394     18.287454      39.855535    
    447000   0.99205811     18.133772      39.816896    
    448000   1.0151739      18.17566       39.701326    
    449000   0.99857514     17.564194      39.739166    
    450000   1.005926       18.023298      39.754964    
    451000   0.99920775     17.624609      39.748645    
    452000   1.0149311      17.492794      39.616554    
    453000   0.96800891     17.373976      39.648111    
    454000   0.98276779     17.075874      39.714714    
    455000   0.99114322     17.394252      39.82557     
    456000   1.0074317      17.721473      39.886114    
    457000   0.99656982     17.649309      39.865673    
    458000   1.0110831      17.598348      39.74843     
    459000   0.99703877     16.618101      39.832093    
    460000   1.0027661      17.46283       39.901987    
    461000   0.98724707     17.726626      39.961402    
    462000   1.0022585      17.897164      39.92678     
    463000   1.0012581      17.793477      40.05012     
    464000   1.0284533      17.432773      39.981131    
    465000   0.99388163     17.734311      39.926026    
    466000   1.0239749      17.538245      39.489838    
    467000   1.0212209      17.088806      39.378714    
    468000   1.0222473      18.216754      39.492723    
    469000   0.97571265     16.366002      39.358361    
    470000   0.96646342     17.499723      39.518113    
    471000   1.0223618      17.878182      39.377472    
    472000   1.0241645      17.799121      39.282004    
    473000   0.9970273      17.551899      39.369248    
    474000   1.0205186      17.914311      39.452993    
    475000   1.011547       17.523601      39.258506    
    476000   0.97798715     17.195884      39.192005    
    477000   0.99446046     17.096061      39.00114     
    478000   0.98659761     16.717744      39.015723    
    479000   1.025914       17.499974      38.829316    
    480000   0.99445625     17.854386      38.95239     
    481000   0.98435276     17.63755       38.905186    
    482000   0.9464276      17.230336      38.883556    
    483000   0.99955974     17.829566      38.85785     
    484000   1.0367595      18.218187      38.675982    
    485000   1.0061798      17.894459      38.812936    
    486000   1.0171722      17.935563      38.652864    
    487000   1.0413425      17.518924      38.757554    
    488000   1.019759       17.639562      38.767831    
    489000   0.98949446     17.008944      38.739705    
    490000   1.0398817      17.63847       38.606171    
    491000   1.0175947      17.52439       38.364561    
    492000   0.99732161     17.232733      38.126424    
    493000   1.004455       17.568255      37.964009    
    494000   1.0217577      16.986146      37.897332    
    495000   0.99229199     17.219314      37.637437    
    496000   1.0182011      17.041102      37.476821    
    497000   0.97360804     17.65585       37.187339    
    498000   1.0035211      17.49914       37.066559    
    499000   1.0258783      17.548354      37.059472    
    500000   0.95406628     17.545443      36.906342    
    501000   0.98783643     17.293796      36.862085    
    502000   0.97926417     17.548276      36.644971    
    503000   1.0193099      17.366276      36.572331    
    504000   1.0077563      16.951904      36.50565     
    505000   0.97384502     17.341505      36.490585    
    506000   0.95232046     17.51374       36.307416    
    507000   1.0188756      17.0963        36.043986    
    508000   1.0223711      17.498909      35.958105    
    509000   1.0460425      17.4409        35.821386    
    510000   1.0300168      17.117508      35.833791    
    511000   0.99984237     17.194395      35.888768    
    512000   1.013354       17.064905      35.930129    
    513000   1.0290322      17.469392      35.806731    
    514000   1.0127535      17.029286      35.910754    
    515000   0.99768285     17.573763      35.691011    
    516000   0.98794323     17.415763      35.400095    
    517000   0.97324791     17.449376      35.123747    
    518000   0.99671906     16.747928      34.888225    
    519000   0.97746515     17.485025      34.939999    
    520000   1.0397974      17.499144      35.001063    
    521000   0.98517793     16.751306      34.804342    
    522000   1.0262108      17.038526      34.68341     
    523000   1.0268711      17.36836       34.519108    
    524000   1.0068267      17.680564      34.406693    
    525000   1.0243131      17.077385      34.48988     
    526000   1.0063721      17.006913      34.332749    
    527000   0.99833569     17.63988       34.392127    
    528000   1.0192716      18.207574      34.443683    
    529000   1.025436       17.648019      34.394336    
    530000   0.97508294     17.768716      34.36082     
    531000   1.0269345      17.211432      34.310959    
    532000   0.9958002      16.971603      34.239584    
    533000   0.98796114     16.965601      34.11643     
    534000   1.0266319      17.630087      33.925657    
    535000   1.0338596      17.273284      33.942609    
    536000   0.984166       17.672474      33.885477    
    537000   1.0029351      17.720709      34.100708    
    538000   1.0312593      17.978132      33.965614    
    539000   1.0177293      17.140027      34.084782    
    540000   1.0282827      17.392237      34.066558    
    541000   1.0093728      18.020988      33.858687    
    542000   0.99405446     16.79199       33.777983    
    543000   1.0101997      17.914103      33.990532    
    544000   1.0502838      17.707757      34.090285    
    545000   1.0057077      17.114322      33.918627    
    546000   1.03396        17.685501      33.531354    
    547000   0.99682676     17.414031      33.420476    
    548000   0.97250047     17.690222      33.326624    
    549000   0.9784825      17.296513      33.316339    
    550000   0.99072305     17.487439      33.106615    
    551000   0.98078124     17.346186      33.13725     
    552000   0.97535932     17.302193      33.096159    
    553000   1.0316708      17.733514      33.334908    
    554000   0.998318       17.339813      33.376623    
    555000   0.96548273     16.692151      33.173102    
    556000   1.0151197      17.616778      33.011798    
    557000   0.98433006     16.940352      33.032608    
    558000   0.9795357      16.919989      32.919494    
    559000   1.0154036      17.154502      32.860503    
    560000   1.0066202      17.50495       32.887785    
    561000   0.9233368      17.328013      33.00305     
    562000   0.96550499     17.00735       33.007193    
    563000   1.0717853      17.538148      32.895831    
    564000   1.019531       17.428452      32.924791    
    565000   0.99169267     17.15437       32.875796    
    566000   0.97571027     17.86889       32.632318    
    567000   1.0535934      18.009601      32.419401    
    568000   1.0504756      17.976849      32.320495    
    569000   1.0103048      17.369617      32.116442    
    570000   1.0098634      17.17733       32.264757    
    571000   1.0250717      17.58016       32.078838    
    572000   0.96613909     17.143311      32.073941    
    573000   0.98099071     17.645304      32.073497    
    574000   1.0032972      17.35676       32.200279    
    575000   0.97105574     17.393859      32.363104    
    576000   1.0294882      17.316187      32.398108    
    577000   1.0280437      16.823073      32.38773     
    578000   1.0044015      17.753385      32.358473    
    579000   1.0049966      17.197435      32.094714    
    580000   0.98079063     17.765988      32.140428    
    581000   0.96548637     17.866823      31.963574    
    582000   1.0253984      17.87411       31.815015    
    583000   1.0228945      17.070516      31.587183    
    584000   0.98638485     17.135347      31.456362    
    585000   0.99282383     17.01221       31.495192    
    586000   0.98388994     17.900631      31.477068    
    587000   0.97417982     17.194471      31.326346    
    588000   0.99005054     17.208419      31.351134    
    589000   1.0108023      16.545972      31.391467    
    590000   1.0107244      17.060901      31.535446    
    591000   0.97062821     16.686696      31.683703    
    592000   1.0145966      16.985616      31.749193    
    593000   1.0282395      17.157734      31.641007    
    594000   1.0394708      17.477969      31.570822    
    595000   1.051552       17.669604      31.665662    
    596000   1.0124772      17.685354      31.642956    
    597000   0.97170299     17.563356      31.768417    
    598000   0.98894202     17.379052      31.538444    
    599000   0.96708636     17.299767      31.439564    
    600000   0.99196932     17.113416      31.283033    
    601000   1.0036877      16.890119      31.047611    
    602000   0.99032608     17.989015      30.773333    
    603000   0.99721873     17.485096      30.646261    
    604000   1.0029466      17.368933      30.598576    
    605000   0.99542289     17.562855      30.659726    
    606000   1.0082672      17.701322      30.400942    
    607000   0.99390732     17.608434      30.488526    
    608000   0.98547821     17.570768      30.27993     
    609000   1.0071486      17.333985      30.268398    
    610000   1.0288949      17.51067       30.156456    
    611000   1.0038109      17.244709      30.060752    
    612000   1.0299047      17.43636       30.148311    
    613000   1.0386436      17.245881      30.2546      
    614000   0.95511095     16.96116       30.263448    
    615000   1.0162687      17.524537      30.298374    
    616000   0.95820892     16.755518      30.274339    
    617000   1.0048091      16.880525      30.125727    
    618000   0.97521648     17.852362      29.847743    
    619000   1.0061136      16.880822      29.58524     
    620000   1.0186991      17.44628       29.651523    
    621000   1.0223966      17.29385       29.448999    
    622000   0.98706124     17.275503      29.470383    
    623000   0.97023852     17.106169      29.416533    
    624000   0.9687742      17.725515      29.136135    
    625000   0.94749879     16.962898      29.168445    
    626000   1.0471877      17.200546      29.082214    
    627000   0.99005863     17.634039      28.923711    
    628000   0.99283218     16.969889      29.074689    
    629000   0.9817837      16.907509      28.87534     
    630000   1.0152401      17.103582      28.999048    
    631000   1.0013879      17.042065      29.195558    
    632000   1.0312934      17.887569      29.297935    
    633000   0.97998678     17.892696      29.245116    
    634000   1.0185977      16.694097      29.213028    
    635000   1.0197385      17.435515      29.229995    
    636000   0.96154916     17.805497      29.000467    
    637000   1.0016952      17.66982       28.919266    
    638000   0.98969783     17.242256      28.877513    
    639000   1.0377056      17.244752      28.703305    
    640000   0.99184105     17.157693      28.849761    
    641000   1.0385708      17.547977      28.684327    
    642000   0.96638038     16.987489      28.852218    
    643000   1.0028292      17.375637      28.784645    
    644000   1.0119144      17.353251      28.762154    
    645000   0.98330521     17.98776       28.784309    
    646000   1.012929       17.530839      28.691889    
    647000   0.97322466     17.187497      28.55423     
    648000   1.0004311      16.885799      28.477567    
    649000   1.0316053      17.514058      28.361587    
    650000   0.99432315     17.779664      28.469362    
    651000   1.0189142      17.470045      28.383698    
    652000   1.0526478      17.582782      28.329569    
    653000   1.000776       17.611185      28.151438    
    654000   0.99100211     17.327099      27.745534    
    655000   0.98608982     17.292716      27.612353    
    656000   1.0275481      17.314818      27.611162    
    657000   1.0179212      17.492515      27.233926    
    658000   1.0052751      17.012113      27.519209    
    659000   1.0111888      16.946726      27.457302    
    660000   1.0475774      17.530756      27.385123    
    661000   1.0135722      17.407069      27.141017    
    662000   0.9772088      17.297169      27.11943     
    663000   0.97085254     16.927457      27.117378    
    664000   0.97980822     17.18491       27.217305    
    665000   0.98559408     17.138857      27.064975    
    666000   1.0151438      17.377476      27.049079    
    667000   0.97631774     17.546301      26.837659    
    668000   0.99152428     16.976348      26.658954    
    669000   1.018174       17.177066      26.803783    
    670000   0.99751002     17.121686      26.598275    
    671000   0.99163709     17.356255      26.616419    
    672000   0.98598408     17.435902      26.493811    
    673000   1.0141335      17.216934      26.661782    
    674000   1.013092       18.358815      26.635914    
    675000   1.0342175      17.225667      26.728739    
    676000   0.98905274     17.294002      26.776399    
    677000   0.97940957     17.864488      26.978451    
    678000   1.0058634      17.726761      27.242277    
    679000   1.0016806      17.005594      27.124504    
    680000   1.0063043      17.230559      27.127864    
    681000   1.0262758      17.807161      26.898728    
    682000   1.0059533      17.722055      26.87008     
    683000   0.96858501     17.724708      26.802931    
    684000   1.0192603      17.707755      26.720933    
    685000   0.98850603     16.750644      26.743421    
    686000   0.99466647     17.786464      26.740525    
    687000   1.0098483      17.105189      26.86241     
    688000   1.0044583      17.307767      26.881709    
    689000   0.98942723     16.985426      26.803196    
    690000   1.0243541      17.615858      26.68421     
    691000   0.96488041     17.320973      26.663354    
    692000   1.0450081      16.920119      26.505998    
    693000   1.0008545      17.156097      26.549613    
    694000   1.0462198      17.243925      26.4938      
    695000   0.98858803     17.497136      26.404982    
    696000   1.0059937      16.804502      26.433558    
    697000   0.98256451     17.554379      26.267722    
    698000   1.0471303      17.280461      26.378842    
    699000   0.98805896     17.616869      26.20239     
    700000   1.0342855      17.357086      26.280537    
    701000   1.0044203      17.571695      26.363956    
    702000   1.0013564      17.262494      26.333851    
    703000   0.96362422     16.998652      26.308762    
    704000   0.95619753     17.291292      26.363454    
    705000   1.0021667      17.609617      26.155362    
    706000   1.0056637      17.229015      25.912159    
    707000   1.0025803      17.080111      26.038131    
    708000   1.0338533      17.726288      26.065503    
    709000   0.96975879     17.440974      25.889513    
    710000   1.0090643      16.859811      25.683232    
    711000   0.9866169      16.714589      25.327914    
    712000   1.0009218      17.16448       25.360095    
    713000   0.99960043     17.355498      25.269119    
    714000   1.0061561      17.267654      25.252464    
    715000   1.0053933      17.579642      25.19052     
    716000   1.0407074      17.38436       25.125652    
    717000   1.0238666      17.332064      25.105093    
    718000   1.0092636      17.263534      24.891324    
    719000   1.007906       17.537657      24.962583    
    720000   0.99855111     17.399985      25.097613    
    721000   0.98885279     17.444179      25.017826    
    722000   0.95872978     16.763874      24.93056     
    723000   0.98133076     17.472868      24.815588    
    724000   0.96733207     17.183988      24.677736    
    725000   0.99748207     17.276386      24.596011    
    726000   0.99394316     17.851466      24.517197    
    727000   1.0171808      17.456184      24.354101    
    728000   1.0090122      17.476873      24.307703    
    729000   1.0051316      17.273405      24.209272    
    730000   1.0329573      17.738776      24.222461    
    731000   1.0066142      17.224332      24.012501    
    732000   1.0362336      17.614914      23.949467    
    733000   1.0268172      17.052775      23.681884    
    734000   1.0022572      17.443508      23.616543    
    735000   0.99302769     17.083965      23.488523    
    736000   0.9945411      17.751168      23.356457    
    737000   1.0286831      17.17417       23.20343     
    738000   1.033715       17.757257      23.030598    
    739000   1.0087049      17.361236      22.881688    
    740000   0.98021524     17.514831      22.878629    
    741000   1.0015038      17.169476      22.692304    
    742000   0.99756684     17.356024      22.574012    
    743000   0.97965796     16.873766      22.472193    
    744000   1.0039158      17.549311      22.333868    
    745000   1.0097511      17.4415        22.396101    
    746000   1.0207219      17.40154       22.585945    
    747000   0.99671087     17.547071      22.57624     
    748000   0.98974748     16.765941      22.495565    
    749000   0.97516957     17.113737      22.475401    
    750000   0.99532087     17.038701      22.501181    
    751000   0.97924828     16.874679      22.750139    
    752000   1.0352466      17.419921      22.76374     
    753000   1.0420057      17.4037        22.653537    
    754000   0.97734761     17.364081      22.722955    
    755000   0.99258587     17.215358      22.638469    
    756000   0.98171833     17.78104       22.413982    
    757000   0.99417173     17.579672      22.487445    
    758000   0.99151459     17.393069      22.521126    
    759000   1.0032163      17.282093      22.432768    
    760000   0.98915443     16.93386       22.347493    
    761000   0.97374189     17.346339      22.32282     
    762000   0.99238073     17.662818      22.179682    
    763000   0.962558       17.564445      22.160886    
    764000   1.0032696      17.554723      22.068467    
    765000   1.0002042      17.817616      22.173307    
    766000   0.97900144     17.55503       22.26054     
    767000   0.99626932     17.408577      22.421627    
    768000   0.96771463     17.279873      22.342893    
    769000   0.9721806      17.017754      22.387841    
    770000   1.0127909      17.438475      22.408662    
    771000   0.99551254     16.989771      22.537088    
    772000   1.011445       17.47709       22.474992    
    773000   0.9635784      17.579831      22.248834    
    774000   1.0267288      17.491817      22.265859    
    775000   0.99647861     17.149146      22.061829    
    776000   1.0371975      16.926343      22.097824    
    777000   0.95784656     17.677634      22.206856    
    778000   1.0221948      17.681519      21.930284    
    779000   1.015438       17.510746      21.754357    
    780000   0.99542062     17.737073      21.810661    
    781000   1.0284024      17.507294      21.86033     
    782000   0.99452631     17.203488      21.865969    
    783000   0.97956086     17.120603      21.548308    
    784000   0.95685086     16.923613      21.563458    
    785000   0.98856442     16.918869      21.593315    
    786000   0.98223794     17.463268      21.475626    
    787000   1.0071694      17.357243      21.340383    
    788000   1.020531       16.9199        21.162371    
    789000   0.97132558     17.116964      21.137138    
    790000   0.96637663     17.042073      21.233028    
    791000   1.0032366      17.998426      21.198108    
    792000   1.0227333      17.678109      20.861854    
    793000   0.98279307     17.708057      20.338255    
    794000   1.0339447      17.978567      20.08904     
    795000   0.97473771     16.717561      20.090302    
    796000   1.0311214      17.060126      20.152217    
    797000   0.97516924     16.956032      20.100657    
    798000   0.99821914     17.027953      20.219284    
    799000   1.0076726      17.68604       20.333964    
    800000   1.0115762      16.817913      20.296086    
    801000   0.94959804     17.115002      20.318494    
    802000   1.0216506      17.402123      20.1566      
    803000   1.0180891      17.534804      20.23923     
    804000   0.98888028     17.144475      20.016342    
    805000   1.0070196      17.286325      19.920579    
    806000   1.0058412      17.116804      19.882066    
    807000   0.98972684     17.49983       19.869324    
    808000   0.96520851     17.844576      19.77921     
    809000   0.99208879     17.01038       19.621272    
    810000   0.98405377     16.873707      19.446113    
    811000   1.0109498      17.05363       19.290943    
    812000   1.0102222      17.15057       19.382631    
    813000   0.97929675     16.945133      19.379686    
    814000   1.0195758      17.648582      19.161462    
    815000   0.99675756     17.720443      19.028299    
    816000   0.9629777      17.238845      19.142798    
    817000   1.0066252      17.258974      19.136453    
    818000   0.96609597     17.192686      18.92501     
    819000   0.98225765     17.206941      18.996606    
    820000   1.0348327      17.567412      19.018506    
    821000   0.99105719     17.112563      18.899319    
    822000   0.98673502     17.252242      18.857615    
    823000   1.020337       17.009541      18.772198    
    824000   1.0375627      17.075616      18.49536     
    825000   0.97192966     17.731919      18.234937    
    826000   1.0056071      17.368974      18.040774    
    827000   1.0015915      16.93659       17.902319    
    828000   1.0711261      17.943486      18.061158    
    829000   1.0114443      17.18274       17.971238    
    830000   1.0027886      17.452137      18.127966    
    831000   0.97231763     16.743045      18.005583    
    832000   0.99664435     16.763263      17.914562    
    833000   0.99622322     17.363788      17.838585    
    834000   1.0106156      17.435778      17.848403    
    835000   1.0002678      17.542252      17.668086    
    836000   1.0040691      16.561348      17.656289    
    837000   0.98672324     17.325912      17.443628    
    838000   1.0044247      17.531755      17.479305    
    839000   1.0124113      17.477367      17.392125    
    840000   0.99068135     17.35377       17.350281    
    841000   1.0220206      17.203409      17.316785    
    842000   0.9661326      16.986299      17.366564    
    843000   1.0340214      17.378705      17.544361    
    844000   1.0018273      17.039536      17.372619    
    845000   1.0024591      17.509902      17.280037    
    846000   0.99489449     17.116226      17.415179    
    847000   1.0029514      16.964045      17.379585    
    848000   0.97463472     17.032656      17.26534     
    849000   1.012206       17.818459      17.226315    
    850000   0.97523782     17.259989      17.080126    
    851000   0.99517314     17.444228      16.788862    
    852000   1.0267937      17.79674       16.618475    
    853000   1.0163398      17.350699      16.563466    
    854000   1.0152996      17.488798      16.687142    
    855000   1.006319       17.164268      16.474866    
    856000   1.0100809      17.678602      16.431088    
    857000   0.98817593     16.859916      16.50483     
    858000   1.0136835      17.219488      16.577376    
    859000   1.0047205      17.138137      16.392485    
    860000   1.0109218      17.711401      16.108139    
    861000   0.98191423     17.369586      16.047738    
    862000   0.98738087     17.306736      16.043428    
    863000   1.0083697      17.420961      15.707011    
    864000   0.97900748     17.178956      15.672023    
    865000   0.98152213     17.070169      15.514004    
    866000   0.98395453     16.933293      15.301038    
    867000   0.98305525     17.436836      15.158493    
    868000   0.94764819     17.027125      14.937645    
    869000   0.99394618     17.158664      14.764454    
    870000   0.9828827      17.021811      14.586546    
    871000   1.0255255      17.153015      14.515855    
    872000   1.017024       17.168955      14.64932     
    873000   1.0054426      16.558023      14.334042    
    874000   1.0137491      17.35934       14.453596    
    875000   1.0368697      17.498175      14.602148    
    876000   1.0114834      17.435447      14.368933    
    877000   0.98248313     17.212719      14.283497    
    878000   1.0134375      17.024454      14.173048    
    879000   0.98212652     17.012444      14.054491    
    880000   1.0258895      17.068691      14.04271     
    881000   1.021625       17.136683      13.877857    
    882000   1.0210565      16.898044      13.750747    
    883000   0.98518253     17.029706      13.631963    
    884000   1.0323651      17.686707      13.660732    
    885000   0.97557789     16.893278      13.541839    
    886000   1.027485       16.722311      13.446958    
    887000   1.0006254      16.798325      13.450706    
    888000   1.0001323      17.097921      13.355774    
    889000   1.0022529      17.40654       13.491429    
    890000   1.0169582      17.064828      13.454274    
    891000   1.0220188      16.791943      13.458035    
    892000   0.97788376     16.867635      13.329939    
    893000   0.99432003     16.973726      13.095023    
    894000   1.0044956      16.74158       13.182771    
    895000   1.0019778      16.774288      12.907277    
    896000   1.0026061      17.423911      12.950225    
    897000   0.94491277     17.192418      12.874389    
    898000   1.0259568      17.654806      12.728158    
    899000   1.0000945      16.885985      12.645193    
    900000   0.96884385     17.165269      12.346249    
    901000   0.9649924      16.947403      12.241202    
    902000   1.0071422      16.891898      12.324184    
    903000   1.0016441      16.408147      12.192619    
    904000   1.0295034      16.613483      12.239044    
    905000   1.0149255      17.277905      12.115513    
    906000   0.97685229     17.133958      12.112975    
    907000   0.99170799     17.654271      12.091455    
    908000   1.0130117      17.515147      12.037392    
    909000   1.0177516      17.09663       12.095344    
    910000   1.0066687      17.289837      12.067628    
    911000   1.0303959      17.596853      11.984407    
    912000   1.0411023      17.734277      11.760891    
    913000   1.0197479      17.199326      11.711817    
    914000   1.0348403      17.564538      11.801148    
    915000   1.0129049      16.935326      11.737596    
    916000   1.0003101      17.094138      11.798303    
    917000   1.0260122      17.208431      11.813669    
    918000   1.0113003      17.159592      11.733825    
    919000   0.993118       17.297951      11.768996    
    920000   1.0077179      16.694038      11.631698    
    921000   0.94125696     17.430114      11.311649    
    922000   1.0460491      17.254194      11.310778    
    923000   1.0256931      17.351726      10.986828    
    924000   1.022371       17.011724      10.826745    
    925000   1.0158426      17.383083      11.013426    
    926000   1.0174118      17.136912      10.696783    
    927000   1.0402868      17.287497      10.533822    
    928000   0.9829252      16.502816      10.364503    
    929000   1.0236084      16.617754      10.099066    
    930000   0.98077273     16.757564      9.9902241    
    931000   1.0068829      17.153449      9.9172565    
    932000   1.0337519      17.480822      9.6721663    
    933000   0.98148204     17.162666      9.6760148    
    934000   1.0166209      17.337024      9.6841805    
    935000   0.99839238     17.122764      9.7173218    
    936000   1.0297307      17.302829      9.6817834    
    937000   1.0226937      16.661493      9.7307359    
    938000   1.0351079      17.221839      9.9132513    
    939000   1.0364332      17.33201       9.9302444    
    940000   0.99869108     16.921032      9.9338608    
    941000   1.0004324      17.270006      9.9651511    
    942000   1.0056751      17.17464       9.8865564    
    943000   1.0231286      16.621055      9.7944233    
    944000   1.0508003      17.174825      9.7751934    
    945000   0.97022745     16.735942      9.5443398    
    946000   0.96204858     16.796771      9.5526948    
    947000   1.0165032      17.06129       9.4245562    
    948000   1.0282916      17.018274      9.4580318    
    949000   0.99287202     16.722198      9.4237746    
    950000   0.96901094     17.314267      9.4155058    
    951000   1.010731       16.735999      9.4279788    
    952000   1.0303227      17.729933      9.4511361    
    953000   0.97238634     17.217591      9.1469229    
    954000   1.0087621      17.126414      9.011551     
    955000   1.0401325      17.199849      8.9355867    
    956000   1.0066799      16.871367      8.9810936    
    957000   1.0420367      17.348226      8.9529475    
    958000   1.0200507      16.965383      8.8959444    
    959000   0.97059774     17.125353      8.8216054    
    960000   0.98636665     17.391225      8.6131549    
    961000   1.0565003      16.874775      8.4570299    
    962000   1.0129805      17.148451      8.2354474    
    963000   1.0094311      17.045556      8.1330043    
    964000   0.99002967     16.451625      7.9468517    
    965000   1.005634       17.364905      7.7847506    
    966000   1.0057391      16.620675      7.6292522    
    967000   1.0200682      16.821841      7.4467036    
    968000   0.94171099     16.351509      7.1966824    
Fix halt condition for fix-id 3 met on step 969000 with value 6.959609007015919 (src/fix_halt.cpp:237)
    969000   0.98081053     17.400582      6.959609     
Loop time of 1775.53 on 2 procs for 869000 steps with 1093 atoms

Performance: 422869.281 tau/day, 489.432 timesteps/s
133.0% CPU use with 1 MPI tasks x 2 OpenMP threads

MPI task timing breakdown:
Section |  min time  |  avg time  |  max time  |%varavg| %total
---------------------------------------------------------------
Pair    | 467.77     | 467.77     | 467.77     |   0.0 | 26.35
Bond    | 31.439     | 31.439     | 31.439     |   0.0 |  1.77
Neigh   | 1205.3     | 1205.3     | 1205.3     |   0.0 | 67.88
Comm    | 0.52687    | 0.52687    | 0.52687    |   0.0 |  0.03
Output  | 3.1422     | 3.1422     | 3.1422     |   0.0 |  0.18
Modify  | 61.962     | 61.962     | 61.962     |   0.0 |  3.49
Other   |            | 5.429      |            |       |  0.31

Nlocal:           1093 ave        1093 max        1093 min
Histogram: 1 0 0 0 0 0 0 0 0 0
Nghost:              0 ave           0 max           0 min
Histogram: 1 0 0 0 0 0 0 0 0 0
Neighs:         241266 ave      241266 max      241266 min
Histogram: 1 0 0 0 0 0 0 0 0 0

Total # of neighbors = 241266
Ave neighs/atom = 220.73742
Ave special neighs/atom = 1.9981702
Neighbor list builds = 7449
Dangerous builds = 0

# This simulation is done
# Move onto the next one
clear
  using 2 OpenMP thread(s) per MPI task
package omp 0
using multi-threaded neighbor list subroutines
next f
jump SELF

###
# Reference paper:
# K. Kremer and G. S. Grest
# Dynamics of entangled linear polymer melts: A molecular-dynamics simulation
# J Chem Phys 92, 5057 (1990)

##################################
# MIHIR: for branched polymers
# LJ minimum first to expand and explore, then collapse
###

###
# Looping through the various nuc5branch4 polymers to simulate,
# define variables to switch through
variable f index bb37nuc5bl6bn4d30tot100 bb75nuc5bl12bn4d30tot200 bb112nuc5bl18bn4d30tot300 bb150nuc5bl25bn4d30tot400 bb187nuc5bl31bn4d30tot500 bb225nuc5bl37bn4d30tot600 bb262nuc5bl43bn4d30tot700 bb300nuc5bl50bn4d30tot800 bb337nuc5bl56bn4d30tot900 bb375nuc5bl62bn4d30tot1000 bb412nuc5bl68bn4d30tot1100 bb450nuc5bl75bn4d30tot1200
# variable f index bb75nuc5bl12bn4d30tot200
# variable f index bb337nuc5bl56bn4d30tot900
###


###
# Box and units  (use LJ units and periodic boundaries)
###

units lj
log nuc5branch4/logs3/$f.log
log nuc5branch4/logs3/bb450nuc5bl75bn4d30tot1200.log
