#atom_style bond #no stiffness
atom_style angle #with stiffness

boundary        p p p
###
# Pair interactions require lists of neighbours to be calculated
###

#neighbor 0.3 bin
neighbor 4 bin

neigh_modify every 1 delay 1 check yes
atom_modify sort 0 0
### Generate RESTART file, SPECIAL format, not a .txt file ###
### Useful if simulation crashes ###

restart 1000000 nuc3branch4/restarts/$f.restart
restart 1000000 nuc3branch4/restarts/bb120nuc3bl30bn4d30tot300.restart
#############################



### READ "start" data file ###

read_data nuc3branch4/$f.dat
read_data nuc3branch4/bb120nuc3bl30bn4d30tot300.dat
Reading data file ...
  orthogonal box = (-1000 -1000 -1000) to (1000 1000 1000)
  1 by 1 by 1 MPI processor grid
  reading atoms ...
  301 atoms
  scanning bonds ...
  3 = max bonds/atom
  scanning angles ...
  6 = max angles/atom
  reading bonds ...
  300 bonds
  reading angles ...
  308 angles
Finding 1-2 1-3 1-4 neighbors ...
  special bond factors lj:    0        0        0       
  special bond factors coul:  0        0        0       
     4 = max # of 1-2 neighbors
     4 = max # of 1-3 neighbors
     8 = max # of 1-4 neighbors
    12 = max # of special neighbors
  special bonds CPU = 0.001 seconds
  read_data CPU = 0.023 seconds

######################

### READ "REstart" data file ###

######################



###
# Define groups (atom type 1 is group 'all')
###
group all type 1
301 atoms in group all


###
# Dump configs - "simple dumpings"
###

###
# Dump configs + box coords
###

dump   1   all   custom   1000  nuc3branch4/trjs/$f.lammpstrj  id  x y z  ix iy iz
dump   1   all   custom   1000  nuc3branch4/trjs/bb120nuc3bl30bn4d30tot300.lammpstrj  id  x y z  ix iy iz
dump_modify   1   format line "%d %.5f %.5f %.5f %d %d %d"

########################################################################


###################################################################
# Stiffness term
#
# E = K * (1+cos(theta)), K>0
#
angle_style   cosine
#change this coefficient to change stiffness (e.g. 1,5,10)
angle_coeff   1 1.0
###################################################################

###################################################################
# Pair interaction between non-bonded atoms
#
#  Lennard-Jones 12-6 potential with cutoff:
#  potential E=4epsilon[ (sigma/r)^12 - (sigma/r)^6]  for r<r_cut
#
#  1.12246 = 2^(1/6) is the minimum of the potential


pair_style      lj/cut 1.12246152962189
#pair_style      lj/cut 3

#
#  pair_modify shift yes adds a constant to the potential such

#  that E(r_cut)=0. Forces remains unchanged.
#

pair_modify     shift yes

#
#  pair_coeff for lj/cut, specify 4:
#    * atom type interacting with
#    * atom type
#    * epsilon (energy units)
#    * sigma (distance units)
#

pair_coeff      1 1 1.0 1.0
###################################################################

###################################################################
# Pair interaction between non-bonded atoms
#
#  soft potential, for PUSHING apart overlapping atoms
#  potential E=A*(1 + cos(pi*r/r_c))
#
#  1.12246 = 2^(1/6) is the cut-off r_c

#pair_style     soft 1.12246152962189

#
#  pair_coeff for soft, specify 3:
#    * atom type interacting with
#    * atom type
#    * A
#
#

#pair_coeff      1 1 100.0
###################################################################

###################################################################
# Pair interaction between bonded atoms
#
# Fene potential + Lennard Jones 12-6:

#
#  E= - 0.5 K R0^2 ln[ 1- (r/R0)^2]
#     + 4epsilon[ (sigma/r)^12 - (sigma/r)^6] + epsilon
#

bond_style   fene


#
# For style fene, specify:
#   * bond type
#   * K (energy/distance^2)
#   * R0 (distance)
#   * epsilon (energy)  (LJ component)
#   * sigma (distance)  (LJ component)
#


special_bonds fene #<=== I M P O R T A N T (new command)
Finding 1-2 1-3 1-4 neighbors ...
  special bond factors lj:    0        1        1       
  special bond factors coul:  0        1        1       
     4 = max # of 1-2 neighbors
    12 = max # of special neighbors
  special bonds CPU = 0.000 seconds

bond_coeff   1   30   2   1.0   1.0


###################################################

###################################################################
# Pair interaction between bonded atoms
#
# Harmonic potential:
#
#  E= K * (R-R0)^2
#

#bond_style   harmonic

#
# For style harmonic, specify:
#   * bond type
#   * K (energy/distance^2)
#   * R0 (distance)
#

#bond_coeff   1   60.0   1.0
#bond_coeff   2   harmonic 0.1   1.0

###################################################
compute 1 all gyration
variable rog equal c_1
#compute 2 all coord/atom cutoff 1.1

#dump 2 all custom 10000 contact_number.dump id c_2


###
# Set up fixes
###
thermo_style   custom   step  temp enthalpy c_1
fix 1 all nve   ###NVE ensemble

fix 2 all   langevin   1.0 1.0 1.0  100103   ###Langevin integrator Tstart Tstop 1/friction rndseed


##### Sample thermodynamic info  (temperature, energy, pressure, etc.) #####
thermo 1000









############################################################################

###
# set timestep of integrator

timestep 0.01

###
# run integration for a number of steps
###
#run 0
#variable r equal c_1
#if "$r < 63.1" then "quit 1"

# lj potential minimum, cause molecule to explore
run 100000
Generated 0 of 0 mixed pair_coeff terms from geometric mixing rule
Neighbor list info ...
  update: every = 1 steps, delay = 1 steps, check = yes
  max neighbors/atom: 2000, page size: 100000
  master list distance cutoff = 5.1224615
  ghost atom cutoff = 5.1224615
  binsize = 2.5612308, bins = 781 781 781
  1 neighbor lists, perpetual/occasional/extra = 1 0 0
  (1) pair lj/cut, perpetual
      attributes: half, newton on
      pair build: half/bin/newton
      stencil: half/bin/3d
      bin: standard
WARNING: Communication cutoff 5.12246152962189 is shorter than a bond length based estimate of 5.455. This may lead to errors. (src/comm.cpp:723)
Per MPI rank memory allocation (min/avg/max) = 1861 | 1861 | 1861 Mbytes
   Step          Temp         Enthalpy         c_1      
         0   0              13.222617      27.127588    
      1000   0.90976036     19.444627      25.418482    
      2000   0.9624784      20.303012      24.715374    
      3000   0.91413705     19.668323      23.461603    
      4000   0.94592997     20.879004      22.694388    
      5000   0.99052706     21.29211       22.0906      
      6000   1.0977067      20.335437      21.835282    
      7000   1.034518       20.497101      21.610428    
      8000   1.0071814      20.673885      20.936462    
      9000   0.97692035     19.831963      20.613304    
     10000   1.0246218      20.00725       19.896313    
     11000   0.99780015     20.965216      19.790974    
     12000   0.96362253     20.137685      19.601433    
     13000   0.96934741     21.621055      19.385654    
     14000   0.99492364     20.563897      19.178232    
     15000   0.96197643     20.935326      18.942834    
     16000   0.98997644     19.049114      18.611525    
     17000   1.0828141      21.349255      18.573415    
     18000   1.0295794      21.102995      18.656181    
     19000   0.8950561      20.558849      18.355791    
     20000   1.0198495      20.739756      18.451075    
     21000   0.98319517     19.481254      18.370505    
     22000   1.1215132      20.160759      17.809766    
     23000   1.0336722      20.505959      17.675918    
     24000   0.97555715     19.959149      17.733987    
     25000   0.95923171     20.763875      17.49637     
     26000   1.0277526      21.679017      17.460807    
     27000   0.96178841     20.540053      16.66699     
     28000   0.9976091      20.680461      16.955422    
     29000   1.0084594      20.571446      16.990453    
     30000   1.0007441      19.954454      17.00584     
     31000   0.95902528     19.699026      16.942296    
     32000   1.029224       20.240349      17.102499    
     33000   0.91229465     20.12713       16.834575    
     34000   0.96113391     21.219703      16.480905    
     35000   1.033904       19.685937      16.548798    
     36000   0.94820342     20.00092       16.93759     
     37000   0.97104083     20.464992      17.189122    
     38000   1.0072851      21.365711      17.208263    
     39000   0.98039501     19.993513      17.454955    
     40000   1.0253452      20.88097       17.431054    
     41000   1.0467834      21.044275      17.303631    
     42000   0.9583301      20.748522      17.289651    
     43000   1.0148892      21.605781      16.57131     
     44000   1.0778472      20.732651      16.081844    
     45000   1.0232171      20.908865      16.07985     
     46000   0.99876424     20.645263      16.273513    
     47000   1.0704614      20.692239      16.062079    
     48000   0.95021977     20.486934      15.746523    
     49000   1.0557653      19.989428      15.359138    
     50000   0.99732638     20.4381        14.947405    
     51000   0.99118544     19.825385      14.673957    
     52000   1.0447785      20.862565      14.568294    
     53000   1.0596127      21.574083      14.325011    
     54000   1.026905       21.401926      14.207226    
     55000   1.0096704      20.802051      14.321889    
     56000   1.0260354      20.316239      14.658318    
     57000   0.97396954     20.323901      14.135002    
     58000   0.99771809     21.634512      13.773443    
     59000   1.0667169      21.260537      13.477598    
     60000   1.0333652      20.536921      13.587618    
     61000   0.93395903     20.394834      13.837969    
     62000   0.97300246     20.159619      13.770128    
     63000   0.95946126     21.107846      13.502021    
     64000   1.0110016      21.257364      13.208719    
     65000   1.0816283      21.005522      13.265618    
     66000   0.99653466     20.064536      12.930351    
     67000   0.99196024     20.234358      13.155525    
     68000   0.96892135     21.117625      13.021996    
     69000   1.0794188      20.629179      13.015095    
     70000   0.95372025     20.116345      13.171683    
     71000   0.97944327     20.274357      13.258057    
     72000   0.92815067     20.876533      13.512513    
     73000   0.96715582     19.71193       13.498507    
     74000   0.99953065     21.246545      13.313184    
     75000   1.0242026      20.102338      13.279898    
     76000   1.058807       20.4974        13.433024    
     77000   0.99712529     19.72407       13.784317    
     78000   1.0170201      20.780639      13.879064    
     79000   1.0205446      21.493133      14.437115    
     80000   0.93682427     20.28029       13.973843    
     81000   0.97103387     21.210761      13.943223    
     82000   1.0416133      20.187942      13.901565    
     83000   0.98664828     20.334984      13.775681    
     84000   0.96544534     20.414186      13.985425    
     85000   1.0115086      20.139366      14.220446    
     86000   1.0097645      21.173225      13.822188    
     87000   1.0937321      20.88534       13.674003    
     88000   1.0190072      19.739326      13.682658    
     89000   1.0474082      21.289906      14.212985    
     90000   0.95688621     20.177796      13.991423    
     91000   1.0470316      20.158445      13.91454     
     92000   0.98639156     21.054626      13.826545    
     93000   1.0240915      20.323311      13.252236    
     94000   1.0049913      20.933992      12.872084    
     95000   0.96698474     20.006329      12.732525    
     96000   1.0370535      20.457417      12.964729    
     97000   0.98773253     20.704382      12.790013    
     98000   1.069476       20.732529      13.393047    
     99000   0.93991665     20.038595      13.349064    
    100000   0.97540088     20.975199      13.725459    
Loop time of 239.07 on 1 procs for 100000 steps with 301 atoms

Performance: 361400.277 tau/day, 418.287 timesteps/s
100.0% CPU use with 1 MPI tasks x 1 OpenMP threads

MPI task timing breakdown:
Section |  min time  |  avg time  |  max time  |%varavg| %total
---------------------------------------------------------------
Pair    | 0.98167    | 0.98167    | 0.98167    |   0.0 |  0.41
Bond    | 1.2827     | 1.2827     | 1.2827     |   0.0 |  0.54
Neigh   | 235.17     | 235.17     | 235.17     |   0.0 | 98.37
Comm    | 0.018819   | 0.018819   | 0.018819   |   0.0 |  0.01
Output  | 0.13446    | 0.13446    | 0.13446    |   0.0 |  0.06
Modify  | 1.3624     | 1.3624     | 1.3624     |   0.0 |  0.57
Other   |            | 0.1218     |            |       |  0.05

Nlocal:            301 ave         301 max         301 min
Histogram: 1 0 0 0 0 0 0 0 0 0
Nghost:              0 ave           0 max           0 min
Histogram: 1 0 0 0 0 0 0 0 0 0
Neighs:           3914 ave        3914 max        3914 min
Histogram: 1 0 0 0 0 0 0 0 0 0

Total # of neighbors = 3914
Ave neighs/atom = 13.003322
Ave special neighs/atom = 1.9933555
Neighbor list builds = 1070
Dangerous builds = 0

# Replace lj potential, now collapse
pair_style      lj/cut 3

# Cutoff simul when gyration under 10
# Variable created with equal requires v_ + 'name'
fix 3 all halt 1000 v_rog < 7

run 3000000
Generated 0 of 0 mixed pair_coeff terms from geometric mixing rule
Per MPI rank memory allocation (min/avg/max) = 1861 | 1861 | 1861 Mbytes
   Step          Temp         Enthalpy         c_1      
    100000   0.97540088     19.866708      13.725459    
    101000   1.0098634      19.15844       13.120803    
    102000   1.0635266      18.673709      12.457658    
    103000   1.0066455      18.738525      12.126386    
    104000   1.0879417      18.52464       12.129631    
    105000   1.0045983      18.854305      11.783714    
    106000   1.0926424      19.181739      11.587678    
    107000   0.98510818     18.458555      11.538714    
    108000   0.96781371     18.450712      11.356617    
    109000   1.0476608      17.848341      11.07782     
    110000   1.1062548      17.58728       10.730059    
    111000   1.1074881      18.769519      10.440449    
    112000   1.0435495      18.401887      10.379685    
    113000   0.97383869     17.888732      10.047949    
    114000   1.0084282      16.964395      10.063238    
    115000   0.92259861     16.961862      9.5223101    
    116000   1.0155051      17.851569      9.2354147    
    117000   0.94468155     18.423592      9.1067822    
    118000   1.0955347      17.802608      9.3270268    
    119000   1.0005426      18.340422      8.9860334    
    120000   1.0124177      17.850992      8.5746449    
    121000   0.91817931     16.676098      8.4706451    
    122000   1.0660499      17.46962       7.9689138    
    123000   0.92046387     16.95581       8.1136833    
    124000   0.99078267     17.852293      7.6456823    
Fix halt condition for fix-id 3 met on step 125000 with value 6.989811737293273 (src/fix_halt.cpp:237)
    125000   1.0705358      17.003301      6.9898117    
Loop time of 20.0588 on 1 procs for 25000 steps with 301 atoms

Performance: 1076834.865 tau/day, 1246.337 timesteps/s
99.9% CPU use with 1 MPI tasks x 1 OpenMP threads

MPI task timing breakdown:
Section |  min time  |  avg time  |  max time  |%varavg| %total
---------------------------------------------------------------
Pair    | 3.1521     | 3.1521     | 3.1521     |   0.0 | 15.71
Bond    | 0.31604    | 0.31604    | 0.31604    |   0.0 |  1.58
Neigh   | 16.177     | 16.177     | 16.177     |   0.0 | 80.65
Comm    | 0.0051582  | 0.0051582  | 0.0051582  |   0.0 |  0.03
Output  | 0.033916   | 0.033916   | 0.033916   |   0.0 |  0.17
Modify  | 0.34101    | 0.34101    | 0.34101    |   0.0 |  1.70
Other   |            | 0.03386    |            |       |  0.17

Nlocal:            301 ave         301 max         301 min
Histogram: 1 0 0 0 0 0 0 0 0 0
Nghost:              0 ave           0 max           0 min
Histogram: 1 0 0 0 0 0 0 0 0 0
Neighs:          23100 ave       23100 max       23100 min
Histogram: 1 0 0 0 0 0 0 0 0 0

Total # of neighbors = 23100
Ave neighs/atom = 76.744186
Ave special neighs/atom = 1.9933555
Neighbor list builds = 189
Dangerous builds = 0

# This simulation is done
# Move onto the next one
clear
OMP_NUM_THREADS environment is not set. Defaulting to 1 thread. (src/comm.cpp:98)
  using 1 OpenMP thread(s) per MPI task
next f
jump SELF

###
# Reference paper:
# K. Kremer and G. S. Grest
# Dynamics of entangled linear polymer melts: A molecular-dynamics simulation
# J Chem Phys 92, 5057 (1990)

##################################
# MIHIR: for branched polymers
# LJ minimum first to expand and explore, then collapse
###

###
# Looping through the various nuc3branch4 polymers to simulate,
# define variables to switch through
variable f index bb40nuc3bl10bn4d30tot100 bb80nuc3bl20bn4d30tot200 bb120nuc3bl30bn4d30tot300 bb160nuc3bl40bn4d30tot400 bb200nuc3bl50bn4d30tot500 bb240nuc3bl60bn4d30tot600 bb280nuc3bl70bn4d30tot700 bb320nuc3bl80bn4d30tot800 bb360nuc3bl90bn4d30tot900 bb400nuc3bl100bn4d30tot1000 bb440nuc3bl110bn4d30tot1100 bb480nuc3bl120bn4d30tot1200
###


###
# Box and units  (use LJ units and periodic boundaries)
###

units lj
log nuc3branch4/logs/$f.log
log nuc3branch4/logs/bb160nuc3bl40bn4d30tot400.log
