#atom_style bond #no stiffness
atom_style angle #with stiffness

boundary        p p p
###
# Pair interactions require lists of neighbours to be calculated
###

#neighbor 0.3 bin
neighbor 4 bin

neigh_modify every 1 delay 1 check yes
atom_modify sort 0 0
### Generate RESTART file, SPECIAL format, not a .txt file ###
### Useful if simulation crashes ###

restart 1000000 nuc3branch4/restarts/$f.restart
restart 1000000 nuc3branch4/restarts/bb200nuc3bl50bn4d30tot500.restart
#############################



### READ "start" data file ###

read_data nuc3branch4/$f.dat
read_data nuc3branch4/bb200nuc3bl50bn4d30tot500.dat
Reading data file ...
  orthogonal box = (-1000 -1000 -1000) to (1000 1000 1000)
  1 by 1 by 1 MPI processor grid
  reading atoms ...
  501 atoms
  scanning bonds ...
  3 = max bonds/atom
  scanning angles ...
  6 = max angles/atom
  reading bonds ...
  500 bonds
  reading angles ...
  508 angles
Finding 1-2 1-3 1-4 neighbors ...
  special bond factors lj:    0        0        0       
  special bond factors coul:  0        0        0       
     4 = max # of 1-2 neighbors
     4 = max # of 1-3 neighbors
     8 = max # of 1-4 neighbors
    12 = max # of special neighbors
  special bonds CPU = 0.001 seconds
  read_data CPU = 0.032 seconds

######################

### READ "REstart" data file ###

######################



###
# Define groups (atom type 1 is group 'all')
###
group all type 1
501 atoms in group all


###
# Dump configs - "simple dumpings"
###

###
# Dump configs + box coords
###

dump   1   all   custom   1000  nuc3branch4/trjs/$f.lammpstrj  id  x y z  ix iy iz
dump   1   all   custom   1000  nuc3branch4/trjs/bb200nuc3bl50bn4d30tot500.lammpstrj  id  x y z  ix iy iz
dump_modify   1   format line "%d %.5f %.5f %.5f %d %d %d"

########################################################################


###################################################################
# Stiffness term
#
# E = K * (1+cos(theta)), K>0
#
angle_style   cosine
#change this coefficient to change stiffness (e.g. 1,5,10)
angle_coeff   1 1.0
###################################################################

###################################################################
# Pair interaction between non-bonded atoms
#
#  Lennard-Jones 12-6 potential with cutoff:
#  potential E=4epsilon[ (sigma/r)^12 - (sigma/r)^6]  for r<r_cut
#
#  1.12246 = 2^(1/6) is the minimum of the potential


pair_style      lj/cut 1.12246152962189
#pair_style      lj/cut 3

#
#  pair_modify shift yes adds a constant to the potential such

#  that E(r_cut)=0. Forces remains unchanged.
#

pair_modify     shift yes

#
#  pair_coeff for lj/cut, specify 4:
#    * atom type interacting with
#    * atom type
#    * epsilon (energy units)
#    * sigma (distance units)
#

pair_coeff      1 1 1.0 1.0
###################################################################

###################################################################
# Pair interaction between non-bonded atoms
#
#  soft potential, for PUSHING apart overlapping atoms
#  potential E=A*(1 + cos(pi*r/r_c))
#
#  1.12246 = 2^(1/6) is the cut-off r_c

#pair_style     soft 1.12246152962189

#
#  pair_coeff for soft, specify 3:
#    * atom type interacting with
#    * atom type
#    * A
#
#

#pair_coeff      1 1 100.0
###################################################################

###################################################################
# Pair interaction between bonded atoms
#
# Fene potential + Lennard Jones 12-6:

#
#  E= - 0.5 K R0^2 ln[ 1- (r/R0)^2]
#     + 4epsilon[ (sigma/r)^12 - (sigma/r)^6] + epsilon
#

bond_style   fene


#
# For style fene, specify:
#   * bond type
#   * K (energy/distance^2)
#   * R0 (distance)
#   * epsilon (energy)  (LJ component)
#   * sigma (distance)  (LJ component)
#


special_bonds fene #<=== I M P O R T A N T (new command)
Finding 1-2 1-3 1-4 neighbors ...
  special bond factors lj:    0        1        1       
  special bond factors coul:  0        1        1       
     4 = max # of 1-2 neighbors
    12 = max # of special neighbors
  special bonds CPU = 0.000 seconds

bond_coeff   1   30   2   1.0   1.0


###################################################

###################################################################
# Pair interaction between bonded atoms
#
# Harmonic potential:
#
#  E= K * (R-R0)^2
#

#bond_style   harmonic

#
# For style harmonic, specify:
#   * bond type
#   * K (energy/distance^2)
#   * R0 (distance)
#

#bond_coeff   1   60.0   1.0
#bond_coeff   2   harmonic 0.1   1.0

###################################################
compute 1 all gyration
variable rog equal c_1
#compute 2 all coord/atom cutoff 1.1

#dump 2 all custom 10000 contact_number.dump id c_2


###
# Set up fixes
###
thermo_style   custom   step  temp enthalpy c_1
fix 1 all nve   ###NVE ensemble

fix 2 all   langevin   1.0 1.0 1.0  100103   ###Langevin integrator Tstart Tstop 1/friction rndseed


##### Sample thermodynamic info  (temperature, energy, pressure, etc.) #####
thermo 1000









############################################################################

###
# set timestep of integrator

timestep 0.01

###
# run integration for a number of steps
###
#run 0
#variable r equal c_1
#if "$r < 63.1" then "quit 1"

# lj potential minimum, cause molecule to explore
run 100000
Generated 0 of 0 mixed pair_coeff terms from geometric mixing rule
Neighbor list info ...
  update: every = 1 steps, delay = 1 steps, check = yes
  max neighbors/atom: 2000, page size: 100000
  master list distance cutoff = 5.1224615
  ghost atom cutoff = 5.1224615
  binsize = 2.5612308, bins = 781 781 781
  1 neighbor lists, perpetual/occasional/extra = 1 0 0
  (1) pair lj/cut, perpetual
      attributes: half, newton on
      pair build: half/bin/newton
      stencil: half/bin/3d
      bin: standard
WARNING: Communication cutoff 5.12246152962189 is shorter than a bond length based estimate of 5.455. This may lead to errors. (src/comm.cpp:723)
Per MPI rank memory allocation (min/avg/max) = 1861 | 1861 | 1861 Mbytes
   Step          Temp         Enthalpy         c_1      
         0   0              13.257425      44.841509    
      1000   0.97182479     19.049012      43.705197    
      2000   1.04291        19.322882      42.703495    
      3000   0.98200443     19.224269      41.811594    
      4000   1.0431361      19.598674      41.148962    
      5000   1.0017481      20.088932      40.440637    
      6000   0.99352428     20.084746      39.924773    
      7000   1.0097501      20.25009       39.650088    
      8000   0.98834631     20.132211      39.386123    
      9000   0.92937417     20.025231      38.927357    
     10000   0.98755758     19.895185      38.212825    
     11000   1.0479924      19.578641      37.93206     
     12000   1.0340358      20.905266      37.648239    
     13000   1.0129307      20.208298      37.185112    
     14000   1.0205057      20.509876      36.699011    
     15000   1.0217488      20.597766      36.810082    
     16000   0.98873436     20.044497      36.672759    
     17000   0.98583968     20.641992      36.406275    
     18000   1.0078616      20.151703      35.935833    
     19000   0.98924767     20.159089      35.993232    
     20000   0.94448851     20.420551      35.682854    
     21000   1.0494118      20.276131      35.488649    
     22000   0.98920901     20.436414      35.187769    
     23000   0.97981842     19.906007      35.019027    
     24000   0.9783149      19.596126      34.757246    
     25000   1.0092654      20.507175      34.21338     
     26000   0.95137782     20.163417      33.934635    
     27000   1.0683245      20.196149      33.56493     
     28000   1.0556011      20.918034      33.061905    
     29000   0.98226923     20.028135      32.814326    
     30000   1.01366        20.898137      32.819013    
     31000   1.0176653      20.31301       32.825854    
     32000   0.96203775     20.207787      32.723164    
     33000   1.0392936      20.876054      32.645155    
     34000   0.96888894     20.234152      32.496664    
     35000   0.93892213     20.679888      32.659332    
     36000   0.97431413     20.126317      32.253017    
     37000   0.99963266     20.980568      32.120956    
     38000   1.0219428      20.495505      32.046059    
     39000   1.0274839      20.209957      32.081791    
     40000   1.035737       20.532728      32.09645     
     41000   1.0573287      21.855861      31.915535    
     42000   0.98603355     20.407272      31.840633    
     43000   0.98019978     20.743035      31.660348    
     44000   0.98219046     19.663105      31.603478    
     45000   1.0535745      20.569833      31.539535    
     46000   1.0041656      20.257476      31.54157     
     47000   0.96102222     20.528464      31.31449     
     48000   0.99210047     20.986737      31.191278    
     49000   1.0356374      20.53803       31.203903    
     50000   0.98937692     20.258253      31.276141    
     51000   1.0121899      20.665712      31.31445     
     52000   1.0022043      21.249493      31.125667    
     53000   1.023603       20.760048      30.928525    
     54000   1.0298488      19.964412      30.895493    
     55000   0.92923088     19.995305      30.851447    
     56000   1.03918        20.287744      30.798883    
     57000   1.0804832      20.324423      30.649243    
     58000   1.0221642      20.012863      30.70991     
     59000   1.002852       20.266747      30.59889     
     60000   0.9861518      20.592421      30.703197    
     61000   1.024983       21.148556      30.491092    
     62000   1.0151487      20.523506      30.531169    
     63000   0.95764478     21.564394      30.418071    
     64000   1.008556       20.088077      30.002499    
     65000   0.980615       20.595156      29.923618    
     66000   1.0266045      20.591946      29.514014    
     67000   0.97608202     20.067458      28.942207    
     68000   0.98336583     20.03881       28.687183    
     69000   1.0182662      20.403853      28.575101    
     70000   1.0872599      20.641025      28.510293    
     71000   0.99533174     20.064992      28.270978    
     72000   0.99024091     20.839895      28.490058    
     73000   1.0472878      21.378835      28.465487    
     74000   1.0180894      20.395016      28.339952    
     75000   1.0061754      20.582071      28.388895    
     76000   1.0234062      20.718244      28.548373    
     77000   0.98909118     20.636509      28.513532    
     78000   0.99776314     21.368358      28.568766    
     79000   0.98008536     20.6224        28.66601     
     80000   0.94775155     20.617419      28.757468    
     81000   0.92069566     20.752659      28.691864    
     82000   1.0052766      20.550447      28.5293      
     83000   1.0335614      20.658901      28.496133    
     84000   1.040726       20.150649      28.555466    
     85000   1.0652791      21.156301      28.708228    
     86000   1.0464901      19.917064      28.634017    
     87000   0.95332803     19.956115      28.29957     
     88000   0.94752593     20.069691      28.207821    
     89000   1.0080043      21.001412      28.088635    
     90000   0.95731517     20.5501        27.860882    
     91000   1.0366862      20.439624      28.049904    
     92000   1.0119054      21.386305      28.00411     
     93000   0.93338497     20.3351        27.789638    
     94000   0.9939471      20.913267      27.554685    
     95000   1.0327356      20.410857      27.436554    
     96000   1.0381608      20.814602      27.523112    
     97000   0.95588005     20.408244      27.536584    
     98000   0.96666313     21.628319      27.466846    
     99000   1.0263635      20.87235       28.145584    
    100000   0.91673717     20.774025      28.193103    
Loop time of 250.655 on 1 procs for 100000 steps with 501 atoms

Performance: 344697.046 tau/day, 398.955 timesteps/s
100.0% CPU use with 1 MPI tasks x 1 OpenMP threads

MPI task timing breakdown:
Section |  min time  |  avg time  |  max time  |%varavg| %total
---------------------------------------------------------------
Pair    | 1.3327     | 1.3327     | 1.3327     |   0.0 |  0.53
Bond    | 2.162      | 2.162      | 2.162      |   0.0 |  0.86
Neigh   | 244.54     | 244.54     | 244.54     |   0.0 | 97.56
Comm    | 0.023142   | 0.023142   | 0.023142   |   0.0 |  0.01
Output  | 0.16733    | 0.16733    | 0.16733    |   0.0 |  0.07
Modify  | 2.2557     | 2.2557     | 2.2557     |   0.0 |  0.90
Other   |            | 0.1746     |            |       |  0.07

Nlocal:            501 ave         501 max         501 min
Histogram: 1 0 0 0 0 0 0 0 0 0
Nghost:              0 ave           0 max           0 min
Histogram: 1 0 0 0 0 0 0 0 0 0
Neighs:           5101 ave        5101 max        5101 min
Histogram: 1 0 0 0 0 0 0 0 0 0

Total # of neighbors = 5101
Ave neighs/atom = 10.181637
Ave special neighs/atom = 1.996008
Neighbor list builds = 1113
Dangerous builds = 0

# Replace lj potential, now collapse
pair_style      lj/cut 3

# Cutoff simul when gyration under 10
# Variable created with equal requires v_ + 'name'
fix 3 all halt 1000 v_rog < 7

run 3000000
Generated 0 of 0 mixed pair_coeff terms from geometric mixing rule
Per MPI rank memory allocation (min/avg/max) = 1861 | 1861 | 1861 Mbytes
   Step          Temp         Enthalpy         c_1      
    100000   0.91673717     19.839734      28.193103    
    101000   1.0322928      19.427211      27.943575    
    102000   1.0496499      19.257271      27.619895    
    103000   1.0256137      18.768316      27.443689    
    104000   0.93640174     18.775177      27.065811    
    105000   1.0336401      17.423316      26.873259    
    106000   1.0186945      18.154025      26.871306    
    107000   0.97649174     18.701287      27.102888    
    108000   0.9969032      18.069242      26.914628    
    109000   1.0024832      18.360417      26.924675    
    110000   0.99397675     18.361319      26.696058    
    111000   1.0679369      18.047893      26.551443    
    112000   1.0475134      18.213985      26.512993    
    113000   0.91763406     18.212267      25.825752    
    114000   0.98387759     17.856501      25.71511     
    115000   0.99393006     17.841594      25.443044    
    116000   1.0362954      18.292462      25.339801    
    117000   1.0459444      17.096586      25.548889    
    118000   1.0219122      18.247521      25.351799    
    119000   1.0574709      18.435359      24.903757    
    120000   0.98886875     18.345559      24.54161     
    121000   0.9715517      17.805744      24.202578    
    122000   0.99754663     17.330938      24.354679    
    123000   1.0447406      18.626796      24.185151    
    124000   0.96535326     17.897005      24.117609    
    125000   1.0698201      17.524603      23.978383    
    126000   0.97102129     18.167397      23.887641    
    127000   1.0457547      18.578029      23.348832    
    128000   1.0439266      18.32004       23.291905    
    129000   0.93475847     18.195644      23.07044     
    130000   0.98863714     18.568959      22.883822    
    131000   0.95717644     18.536407      22.726778    
    132000   1.0113804      17.128538      22.406995    
    133000   1.0413171      17.631194      22.391295    
    134000   0.99111598     17.005592      22.0712      
    135000   1.0238712      17.986209      21.702911    
    136000   0.96825523     18.678712      21.521059    
    137000   1.0025074      17.659629      21.314545    
    138000   0.99213849     17.832539      21.136343    
    139000   1.015519       17.676775      20.749852    
    140000   1.0002023      17.418272      20.348096    
    141000   1.0006207      17.628251      20.021368    
    142000   1.0242931      17.984781      20.266028    
    143000   1.034957       18.135518      20.281716    
    144000   1.0303478      18.538261      20.20904     
    145000   1.0423481      17.654138      19.714859    
    146000   0.98348578     18.047639      19.416653    
    147000   0.96620702     17.776151      19.357615    
    148000   0.95890849     17.456906      19.72728     
    149000   1.0472099      17.246956      19.664119    
    150000   0.96613936     18.512199      19.843825    
    151000   0.99172008     18.657091      19.543139    
    152000   0.98133788     17.155353      19.521901    
    153000   1.0611769      18.099678      19.608149    
    154000   0.95167737     17.553944      19.218467    
    155000   0.97697849     17.498694      19.007634    
    156000   0.99278031     18.456517      18.89834     
    157000   1.0069736      18.493065      18.790633    
    158000   1.0220367      18.160801      18.300561    
    159000   0.9568197      16.610801      18.120344    
    160000   0.98397867     17.23185       17.884968    
    161000   1.0086519      17.340429      17.603884    
    162000   1.002098       18.50539       17.081555    
    163000   1.0347602      17.729053      16.984475    
    164000   0.96811822     17.161613      16.999563    
    165000   0.99157899     17.782939      16.945738    
    166000   1.0243159      17.933782      16.908924    
    167000   1.0849499      18.096914      16.89188     
    168000   1.0235364      18.525529      16.757264    
    169000   1.0392789      18.19394       16.559939    
    170000   0.99248884     18.662724      16.497166    
    171000   1.0609163      18.065154      16.422348    
    172000   0.96540525     17.009758      15.939351    
    173000   1.0253274      18.238543      16.213794    
    174000   0.98558772     17.388487      16.100189    
    175000   0.97549952     17.759909      16.269743    
    176000   1.0309962      18.302337      16.119048    
    177000   0.96502282     17.464339      16.002496    
    178000   0.9517773      18.535137      15.691161    
    179000   0.9998359      18.727002      15.403065    
    180000   1.0299436      17.227502      14.841125    
    181000   1.0365037      17.560558      14.748371    
    182000   0.99563476     17.767008      14.677562    
    183000   0.9730285      17.439557      14.607882    
    184000   0.94588284     17.497721      14.475098    
    185000   0.99213955     17.321013      14.521896    
    186000   0.93514353     17.845804      14.46319     
    187000   0.99639288     18.507771      14.321175    
    188000   0.96964392     17.789636      14.007265    
    189000   0.94213678     17.788009      13.936505    
    190000   1.0481586      18.08571       13.468015    
    191000   1.0406792      18.160472      13.304568    
    192000   1.0145365      18.058033      13.089195    
    193000   0.98163378     18.462667      13.183727    
    194000   1.0439721      16.747493      12.904328    
    195000   0.98968956     17.717284      12.951742    
    196000   0.99819171     17.36778       13.084076    
    197000   0.95651217     18.083011      13.045637    
    198000   1.0003435      18.1565        12.841987    
    199000   1.0231136      17.820654      13.133097    
    200000   1.0378909      17.631323      12.979024    
    201000   0.98719822     17.912145      13.051105    
    202000   0.97071438     17.934342      13.203303    
    203000   0.98397448     17.536577      13.133673    
    204000   1.0373511      17.973277      12.878127    
    205000   0.99646103     17.673619      12.74097     
    206000   1.0329784      18.25289       12.578518    
    207000   1.0026976      18.095401      12.868855    
    208000   1.0735872      17.60117       12.400048    
    209000   1.0216176      17.636131      12.078637    
    210000   1.0423376      17.943475      11.816344    
    211000   0.99205153     18.29066       11.492813    
    212000   0.93121194     17.916495      11.249273    
    213000   0.9851122      17.754989      11.11119     
    214000   0.95531961     17.589366      10.979766    
    215000   1.0614034      18.281232      10.94642     
    216000   0.99535966     17.905301      10.3492      
    217000   1.0398604      17.503604      10.278647    
    218000   1.0655508      17.861094      10.322054    
    219000   0.98175566     17.201124      9.9660836    
    220000   1.0234377      17.974055      9.6617447    
    221000   0.97031884     17.069187      9.6099537    
    222000   0.99688981     17.886935      9.5069216    
    223000   0.9288752      17.372659      9.056821     
    224000   0.98325686     18.292693      8.9725583    
    225000   1.0251964      17.777805      8.9108162    
    226000   1.0507925      17.691483      8.6819303    
    227000   0.97139896     16.257762      8.429277     
    228000   1.0597505      17.264026      8.1910965    
    229000   1.0307297      17.532785      8.077825     
    230000   0.97692988     17.130048      8.1816161    
    231000   0.96169486     17.818807      7.9085462    
    232000   1.014132       17.701184      7.8257036    
    233000   1.0392661      17.027798      7.7422455    
    234000   0.9794489      17.167575      7.560327     
    235000   0.9782936      17.042847      7.6687614    
    236000   1.0030412      16.98097       7.4593255    
    237000   1.0004891      17.004017      7.6132184    
    238000   0.97769675     16.786382      7.6901689    
    239000   0.98451751     17.030445      7.9456597    
    240000   1.0050328      17.484531      8.0525276    
    241000   1.04966        17.25898       8.0369896    
    242000   1.0085328      17.256227      8.2572134    
    243000   1.0205113      17.236073      8.1498977    
    244000   0.97224647     17.899907      8.1517342    
    245000   1.0065577      17.857291      8.0337983    
    246000   1.0584622      17.225747      8.307615     
    247000   0.96487002     17.55912       8.0996265    
    248000   1.03926        17.860332      7.9748577    
    249000   1.0262627      18.543835      7.6751018    
    250000   1.0104332      16.574337      7.5655267    
    251000   0.99939831     17.11194       7.3839826    
    252000   1.0088847      18.000033      7.0772568    
Fix halt condition for fix-id 3 met on step 253000 with value 6.9048763494104515 (src/fix_halt.cpp:237)
    253000   0.98488922     17.037753      6.9048763    
Loop time of 151.746 on 1 procs for 153000 steps with 501 atoms

Performance: 871138.781 tau/day, 1008.262 timesteps/s
99.9% CPU use with 1 MPI tasks x 1 OpenMP threads

MPI task timing breakdown:
Section |  min time  |  avg time  |  max time  |%varavg| %total
---------------------------------------------------------------
Pair    | 41.426     | 41.426     | 41.426     |   0.0 | 27.30
Bond    | 3.3931     | 3.3931     | 3.3931     |   0.0 |  2.24
Neigh   | 102.75     | 102.75     | 102.75     |   0.0 | 67.71
Comm    | 0.04451    | 0.04451    | 0.04451    |   0.0 |  0.03
Output  | 0.2661     | 0.2661     | 0.2661     |   0.0 |  0.18
Modify  | 3.5541     | 3.5541     | 3.5541     |   0.0 |  2.34
Other   |            | 0.3128     |            |       |  0.21

Nlocal:            501 ave         501 max         501 min
Histogram: 1 0 0 0 0 0 0 0 0 0
Nghost:              0 ave           0 max           0 min
Histogram: 1 0 0 0 0 0 0 0 0 0
Neighs:          62270 ave       62270 max       62270 min
Histogram: 1 0 0 0 0 0 0 0 0 0

Total # of neighbors = 62270
Ave neighs/atom = 124.29142
Ave special neighs/atom = 1.996008
Neighbor list builds = 1194
Dangerous builds = 0

# This simulation is done
# Move onto the next one
clear
OMP_NUM_THREADS environment is not set. Defaulting to 1 thread. (src/comm.cpp:98)
  using 1 OpenMP thread(s) per MPI task
next f
jump SELF

###
# Reference paper:
# K. Kremer and G. S. Grest
# Dynamics of entangled linear polymer melts: A molecular-dynamics simulation
# J Chem Phys 92, 5057 (1990)

##################################
# MIHIR: for branched polymers
# LJ minimum first to expand and explore, then collapse
###

###
# Looping through the various nuc3branch4 polymers to simulate,
# define variables to switch through
variable f index bb40nuc3bl10bn4d30tot100 bb80nuc3bl20bn4d30tot200 bb120nuc3bl30bn4d30tot300 bb160nuc3bl40bn4d30tot400 bb200nuc3bl50bn4d30tot500 bb240nuc3bl60bn4d30tot600 bb280nuc3bl70bn4d30tot700 bb320nuc3bl80bn4d30tot800 bb360nuc3bl90bn4d30tot900 bb400nuc3bl100bn4d30tot1000 bb440nuc3bl110bn4d30tot1100 bb480nuc3bl120bn4d30tot1200
###


###
# Box and units  (use LJ units and periodic boundaries)
###

units lj
log nuc3branch4/logs/$f.log
log nuc3branch4/logs/bb240nuc3bl60bn4d30tot600.log
