#atom_style bond #no stiffness
atom_style angle #with stiffness

boundary        p p p
###
# Pair interactions require lists of neighbours to be calculated
###

#neighbor 0.3 bin
neighbor 4 bin

neigh_modify every 1 delay 1 check yes
atom_modify sort 0 0
### Generate RESTART file, SPECIAL format, not a .txt file ###
### Useful if simulation crashes ###

restart 1000000 nuc3branch4/restarts/$f.restart
restart 1000000 nuc3branch4/restarts/bb280nuc3bl70bn4d30tot700.restart
#############################



### READ "start" data file ###

read_data nuc3branch4/$f.dat
read_data nuc3branch4/bb280nuc3bl70bn4d30tot700.dat
Reading data file ...
  orthogonal box = (-1000 -1000 -1000) to (1000 1000 1000)
  1 by 1 by 1 MPI processor grid
  reading atoms ...
  701 atoms
  scanning bonds ...
  3 = max bonds/atom
  scanning angles ...
  6 = max angles/atom
  reading bonds ...
  700 bonds
  reading angles ...
  708 angles
Finding 1-2 1-3 1-4 neighbors ...
  special bond factors lj:    0        0        0       
  special bond factors coul:  0        0        0       
     4 = max # of 1-2 neighbors
     4 = max # of 1-3 neighbors
     8 = max # of 1-4 neighbors
    12 = max # of special neighbors
  special bonds CPU = 0.001 seconds
  read_data CPU = 0.051 seconds

######################

### READ "REstart" data file ###

######################



###
# Define groups (atom type 1 is group 'all')
###
group all type 1
701 atoms in group all


###
# Dump configs - "simple dumpings"
###

###
# Dump configs + box coords
###

dump   1   all   custom   1000  nuc3branch4/trjs/$f.lammpstrj  id  x y z  ix iy iz
dump   1   all   custom   1000  nuc3branch4/trjs/bb280nuc3bl70bn4d30tot700.lammpstrj  id  x y z  ix iy iz
dump_modify   1   format line "%d %.5f %.5f %.5f %d %d %d"

########################################################################


###################################################################
# Stiffness term
#
# E = K * (1+cos(theta)), K>0
#
angle_style   cosine
#change this coefficient to change stiffness (e.g. 1,5,10)
angle_coeff   1 1.0
###################################################################

###################################################################
# Pair interaction between non-bonded atoms
#
#  Lennard-Jones 12-6 potential with cutoff:
#  potential E=4epsilon[ (sigma/r)^12 - (sigma/r)^6]  for r<r_cut
#
#  1.12246 = 2^(1/6) is the minimum of the potential


pair_style      lj/cut 1.12246152962189
#pair_style      lj/cut 3

#
#  pair_modify shift yes adds a constant to the potential such

#  that E(r_cut)=0. Forces remains unchanged.
#

pair_modify     shift yes

#
#  pair_coeff for lj/cut, specify 4:
#    * atom type interacting with
#    * atom type
#    * epsilon (energy units)
#    * sigma (distance units)
#

pair_coeff      1 1 1.0 1.0
###################################################################

###################################################################
# Pair interaction between non-bonded atoms
#
#  soft potential, for PUSHING apart overlapping atoms
#  potential E=A*(1 + cos(pi*r/r_c))
#
#  1.12246 = 2^(1/6) is the cut-off r_c

#pair_style     soft 1.12246152962189

#
#  pair_coeff for soft, specify 3:
#    * atom type interacting with
#    * atom type
#    * A
#
#

#pair_coeff      1 1 100.0
###################################################################

###################################################################
# Pair interaction between bonded atoms
#
# Fene potential + Lennard Jones 12-6:

#
#  E= - 0.5 K R0^2 ln[ 1- (r/R0)^2]
#     + 4epsilon[ (sigma/r)^12 - (sigma/r)^6] + epsilon
#

bond_style   fene


#
# For style fene, specify:
#   * bond type
#   * K (energy/distance^2)
#   * R0 (distance)
#   * epsilon (energy)  (LJ component)
#   * sigma (distance)  (LJ component)
#


special_bonds fene #<=== I M P O R T A N T (new command)
Finding 1-2 1-3 1-4 neighbors ...
  special bond factors lj:    0        1        1       
  special bond factors coul:  0        1        1       
     4 = max # of 1-2 neighbors
    12 = max # of special neighbors
  special bonds CPU = 0.000 seconds

bond_coeff   1   30   2   1.0   1.0


###################################################

###################################################################
# Pair interaction between bonded atoms
#
# Harmonic potential:
#
#  E= K * (R-R0)^2
#

#bond_style   harmonic

#
# For style harmonic, specify:
#   * bond type
#   * K (energy/distance^2)
#   * R0 (distance)
#

#bond_coeff   1   60.0   1.0
#bond_coeff   2   harmonic 0.1   1.0

###################################################
compute 1 all gyration
variable rog equal c_1
#compute 2 all coord/atom cutoff 1.1

#dump 2 all custom 10000 contact_number.dump id c_2


###
# Set up fixes
###
thermo_style   custom   step  temp enthalpy c_1
fix 1 all nve   ###NVE ensemble

fix 2 all   langevin   1.0 1.0 1.0  100103   ###Langevin integrator Tstart Tstop 1/friction rndseed


##### Sample thermodynamic info  (temperature, energy, pressure, etc.) #####
thermo 1000









############################################################################

###
# set timestep of integrator

timestep 0.01

###
# run integration for a number of steps
###
#run 0
#variable r equal c_1
#if "$r < 63.1" then "quit 1"

# lj potential minimum, cause molecule to explore
run 100000
Generated 0 of 0 mixed pair_coeff terms from geometric mixing rule
Neighbor list info ...
  update: every = 1 steps, delay = 1 steps, check = yes
  max neighbors/atom: 2000, page size: 100000
  master list distance cutoff = 5.1224615
  ghost atom cutoff = 5.1224615
  binsize = 2.5612308, bins = 781 781 781
  1 neighbor lists, perpetual/occasional/extra = 1 0 0
  (1) pair lj/cut, perpetual
      attributes: half, newton on
      pair build: half/bin/newton
      stencil: half/bin/3d
      bin: standard
WARNING: Communication cutoff 5.12246152962189 is shorter than a bond length based estimate of 5.455. This may lead to errors. (src/comm.cpp:723)
Per MPI rank memory allocation (min/avg/max) = 1861 | 1861 | 1861 Mbytes
   Step          Temp         Enthalpy         c_1      
         0   0              13.257882      62.554062    
      1000   0.98068107     18.119209      61.678607    
      2000   1.0108387      18.828148      60.628207    
      3000   0.92819327     19.162647      60.074957    
      4000   0.97264852     19.146524      59.614784    
      5000   1.0238353      19.631003      59.042276    
      6000   0.97491127     19.558991      58.473545    
      7000   0.95023119     19.53192       57.825614    
      8000   1.0370136      19.888947      57.456632    
      9000   0.97596824     19.950744      56.999671    
     10000   1.0279177      20.416225      56.825524    
     11000   0.98296836     19.830258      56.436709    
     12000   0.98964283     19.5679        56.037797    
     13000   1.0162737      19.972924      55.761194    
     14000   0.93104594     19.501762      55.659316    
     15000   1.0449638      19.816203      55.161451    
     16000   0.95979455     19.814257      54.723798    
     17000   1.008592       20.4673        54.518165    
     18000   1.0303443      19.731775      54.385877    
     19000   0.99337252     20.010228      54.10009     
     20000   1.0292264      20.106406      53.94314     
     21000   0.95740309     19.358019      53.61691     
     22000   1.0283764      20.24646       53.414425    
     23000   1.0386393      20.649439      53.46813     
     24000   1.0245835      20.633299      53.272718    
     25000   1.0159734      19.99389       52.961755    
     26000   0.98676992     20.329439      52.599373    
     27000   0.96909004     20.597786      52.170871    
     28000   1.0143803      20.569889      52.091051    
     29000   0.98129341     20.51373       51.895998    
     30000   0.96985607     20.284847      51.807991    
     31000   1.0506531      20.403313      51.460795    
     32000   1.0170368      19.796412      51.265951    
     33000   0.9912395      20.489637      50.904799    
     34000   1.0007098      20.361224      50.583816    
     35000   1.0671252      20.025131      50.503708    
     36000   1.016101       20.767371      50.358995    
     37000   0.97846435     20.349544      50.015107    
     38000   1.0370808      20.228934      49.910597    
     39000   1.0580958      20.388511      49.730322    
     40000   1.0125488      20.426713      49.32458     
     41000   1.0011777      19.944104      49.249314    
     42000   0.93624504     20.16679       48.974187    
     43000   1.0022758      20.683402      48.890288    
     44000   1.0192913      20.660047      48.639205    
     45000   1.0063001      20.184974      48.521778    
     46000   1.0273101      19.80533       48.193422    
     47000   1.0176091      20.545287      48.043525    
     48000   1.0462024      20.667172      48.091333    
     49000   0.95909276     20.024283      47.918986    
     50000   1.0096261      20.061999      47.814791    
     51000   1.0063185      19.96637       47.37596     
     52000   1.0233488      20.561753      47.261436    
     53000   0.97632713     20.737948      47.255074    
     54000   1.0181877      20.684621      47.157797    
     55000   1.0532211      20.700247      46.742613    
     56000   1.0587023      20.15452       46.587025    
     57000   0.97776613     20.731532      46.572807    
     58000   0.96686718     20.46209       46.684512    
     59000   0.99411959     20.666848      46.71282     
     60000   1.029067       20.467809      46.646934    
     61000   1.0071343      19.738223      46.844276    
     62000   1.0019053      20.32573       46.808547    
     63000   1.0065348      20.584532      46.511886    
     64000   1.0517084      20.943217      46.389072    
     65000   0.99665757     20.797013      46.269759    
     66000   0.99149234     20.538324      45.914987    
     67000   0.99833679     20.1566        45.742765    
     68000   1.0110636      20.79476       45.553594    
     69000   1.0381897      20.330462      45.596225    
     70000   0.99649119     20.46617       45.626671    
     71000   1.016636       20.424829      45.43064     
     72000   1.008863       20.588836      45.169263    
     73000   0.99590611     20.136405      44.845599    
     74000   0.96998549     20.101877      44.679659    
     75000   1.0120704      20.389034      44.493516    
     76000   1.0346323      20.356342      44.501403    
     77000   1.0001154      20.692813      44.641495    
     78000   1.0376885      20.806166      44.375369    
     79000   1.0209124      21.058107      44.255247    
     80000   0.96920642     20.437265      44.128939    
     81000   1.0238744      20.544819      44.071193    
     82000   0.98665972     20.763002      44.165417    
     83000   0.97528859     19.984623      44.263757    
     84000   1.0008878      21.029612      44.323992    
     85000   0.98286224     20.402929      44.220286    
     86000   1.0378934      20.437032      44.026426    
     87000   1.0109625      20.237337      43.716442    
     88000   1.0146978      19.978288      43.706607    
     89000   1.0285853      20.726102      43.556491    
     90000   0.99398197     20.499534      43.59709     
     91000   1.0106926      20.864991      43.434241    
     92000   0.98886355     21.149161      43.299302    
     93000   1.0013739      20.824515      43.222909    
     94000   0.99068772     20.326174      43.400251    
     95000   0.99624143     20.348902      43.455359    
     96000   1.0359991      19.978693      43.323562    
     97000   0.98399733     20.62406       43.001609    
     98000   1.0131434      20.94226       43.062478    
     99000   1.0029682      20.33891       43.04876     
    100000   0.98003797     20.967977      42.880599    
Loop time of 274.126 on 1 procs for 100000 steps with 701 atoms

Performance: 315183.165 tau/day, 364.795 timesteps/s
100.0% CPU use with 1 MPI tasks x 1 OpenMP threads

MPI task timing breakdown:
Section |  min time  |  avg time  |  max time  |%varavg| %total
---------------------------------------------------------------
Pair    | 1.6572     | 1.6572     | 1.6572     |   0.0 |  0.60
Bond    | 2.9187     | 2.9187     | 2.9187     |   0.0 |  1.06
Neigh   | 265.94     | 265.94     | 265.94     |   0.0 | 97.01
Comm    | 0.029568   | 0.029568   | 0.029568   |   0.0 |  0.01
Output  | 0.20579    | 0.20579    | 0.20579    |   0.0 |  0.08
Modify  | 3.134      | 3.134      | 3.134      |   0.0 |  1.14
Other   |            | 0.2447     |            |       |  0.09

Nlocal:            701 ave         701 max         701 min
Histogram: 1 0 0 0 0 0 0 0 0 0
Nghost:              0 ave           0 max           0 min
Histogram: 1 0 0 0 0 0 0 0 0 0
Neighs:           5918 ave        5918 max        5918 min
Histogram: 1 0 0 0 0 0 0 0 0 0

Total # of neighbors = 5918
Ave neighs/atom = 8.4422254
Ave special neighs/atom = 1.9971469
Neighbor list builds = 1139
Dangerous builds = 0

# Replace lj potential, now collapse
pair_style      lj/cut 3

# Cutoff simul when gyration under 10
# Variable created with equal requires v_ + 'name'
fix 3 all halt 1000 v_rog < 7

run 3000000
Generated 0 of 0 mixed pair_coeff terms from geometric mixing rule
Per MPI rank memory allocation (min/avg/max) = 1861 | 1861 | 1861 Mbytes
   Step          Temp         Enthalpy         c_1      
    100000   0.98003797     20.110446      42.880599    
    101000   0.98551903     19.939872      42.822505    
    102000   0.96066388     19.015705      42.618977    
    103000   0.98087605     19.643245      42.2864      
    104000   0.99699577     19.500849      41.969723    
    105000   1.0032168      18.621915      41.848862    
    106000   1.0104734      19.529549      41.749525    
    107000   1.0639608      19.112316      41.540169    
    108000   0.9575848      19.12889       41.124783    
    109000   0.96116145     19.316354      40.817306    
    110000   1.0336847      18.58238       40.41009     
    111000   0.95905382     19.480506      40.329148    
    112000   0.99547099     19.079664      40.026101    
    113000   1.0107682      18.995205      40.03696     
    114000   1.0273763      18.746771      39.855768    
    115000   0.97167877     18.849903      39.568442    
    116000   0.94730083     18.703234      39.342747    
    117000   0.98071887     18.801533      38.891859    
    118000   1.0491675      18.318842      38.670825    
    119000   1.0212006      18.584607      38.584052    
    120000   1.0113728      19.190858      38.129472    
    121000   0.99678189     18.638079      37.756874    
    122000   0.95575368     18.795533      37.697428    
    123000   1.0205969      17.942743      37.23831     
    124000   1.0036649      18.669584      37.259328    
    125000   1.0364203      18.736703      37.094737    
    126000   0.95609962     18.525271      37.039498    
    127000   1.018167       18.462582      36.694339    
    128000   1.0260239      18.142333      36.658395    
    129000   1.0386108      18.330528      36.411206    
    130000   0.96462426     18.589061      36.081402    
    131000   1.0141029      18.481309      35.989054    
    132000   0.97324147     17.912732      35.523684    
    133000   0.96944121     18.693031      35.235133    
    134000   1.0160807      18.542316      35.319054    
    135000   0.97070607     18.023652      35.456299    
    136000   1.0268159      17.844324      35.384918    
    137000   0.99637774     17.583151      35.401923    
    138000   1.0097502      18.353427      35.124455    
    139000   0.96202597     17.747296      35.058596    
    140000   1.0074945      17.868693      34.791083    
    141000   0.98067435     18.158176      34.64278     
    142000   1.0324014      17.80969       34.745939    
    143000   1.0033574      17.771447      34.508828    
    144000   1.0458845      17.402794      34.416522    
    145000   0.98451934     18.078625      33.928848    
    146000   1.0234738      17.638425      33.986383    
    147000   1.0095075      17.907947      33.742771    
    148000   1.040431       18.801851      33.496146    
    149000   1.0111536      18.591762      33.463621    
    150000   0.99744007     18.669663      33.217257    
    151000   1.0250441      18.027244      33.228313    
    152000   1.0327929      17.948237      33.143098    
    153000   1.0201559      17.361907      33.073824    
    154000   1.0060996      17.875182      32.739523    
    155000   1.042262       18.500206      32.662915    
    156000   1.0280984      17.904566      32.923271    
    157000   1.064727       17.920168      33.039888    
    158000   0.97410043     17.527777      32.872003    
    159000   1.0076825      17.903432      32.794132    
    160000   1.0023044      17.928905      32.742607    
    161000   0.98901041     18.085898      32.719072    
    162000   1.028274       17.258455      32.613435    
    163000   1.0189171      18.219703      32.664517    
    164000   0.97952212     17.774147      32.455136    
    165000   0.96104697     17.93249       32.313035    
    166000   0.9815319      18.009029      32.093623    
    167000   0.9490115      18.338318      32.124174    
    168000   1.0239117      17.692521      32.092708    
    169000   1.0283939      17.575682      31.986538    
    170000   0.9901097      17.476827      32.043941    
    171000   0.99034965     17.321572      31.713734    
    172000   0.93986018     17.023052      31.32073     
    173000   1.0215073      17.008112      30.980642    
    174000   1.0398596      17.653954      30.694286    
    175000   1.064124       17.766836      30.772765    
    176000   1.0236831      18.072098      30.659133    
    177000   0.99145163     18.127722      30.25197     
    178000   0.95201078     17.44415       29.912044    
    179000   0.96901947     17.664779      29.87861     
    180000   0.9989099      18.413258      29.869467    
    181000   0.97828767     17.356895      29.70375     
    182000   0.98759191     17.770907      29.474992    
    183000   1.0014706      17.559048      29.534747    
    184000   0.98337053     17.159796      29.480338    
    185000   1.0355842      18.131303      29.609154    
    186000   0.97823467     17.382724      29.305233    
    187000   1.0145561      18.213244      29.238689    
    188000   0.98989823     17.941282      29.416831    
    189000   1.0387979      17.69874       29.113776    
    190000   0.97451103     17.452626      29.129268    
    191000   1.0427916      17.968937      28.811449    
    192000   1.0410296      17.770474      28.907258    
    193000   0.99152546     18.068389      28.983631    
    194000   1.006749       17.935214      28.722817    
    195000   0.93873304     17.436101      28.822116    
    196000   1.0133666      17.764119      28.7981      
    197000   1.0396383      17.584008      28.882073    
    198000   1.0093255      18.537013      29.097023    
    199000   1.0657922      17.919487      29.06695     
    200000   1.0009519      18.370101      29.091081    
    201000   1.032677       17.631899      28.887463    
    202000   0.98882579     17.733515      28.789846    
    203000   1.01697        18.616339      28.623572    
    204000   1.026911       17.962772      28.395122    
    205000   0.99315813     17.875925      28.494233    
    206000   0.96149075     17.943039      28.356408    
    207000   1.0050203      17.308906      28.420038    
    208000   1.0014238      17.751672      28.316311    
    209000   1.0003497      17.273543      28.302031    
    210000   0.99890834     17.487895      28.01984     
    211000   1.0318123      17.846548      27.639692    
    212000   0.99873662     17.108575      27.43965     
    213000   1.0174593      17.477315      27.330098    
    214000   1.0446527      17.622999      26.932062    
    215000   0.95527872     17.100207      26.631398    
    216000   0.98138619     18.544857      26.40779     
    217000   1.0034376      17.768821      26.29671     
    218000   1.0341163      18.16526       26.272614    
    219000   1.0158228      17.316865      26.259259    
    220000   1.003586       17.797079      26.099449    
    221000   1.0060518      17.542758      25.819888    
    222000   1.0007686      17.32854       25.64436     
    223000   0.97910847     18.223529      25.380764    
    224000   0.93764857     17.139001      25.475153    
    225000   0.97948869     18.158748      25.417518    
    226000   0.99128489     17.636216      25.189271    
    227000   0.99614338     17.385873      25.154607    
    228000   1.0055498      18.219247      24.803174    
    229000   0.99829415     17.245036      24.827302    
    230000   0.99137572     16.896582      24.842027    
    231000   0.98249779     17.398535      24.60261     
    232000   0.96341386     18.063138      24.595003    
    233000   1.0675564      17.532197      24.363938    
    234000   1.015631       17.684307      24.48567     
    235000   1.0148895      17.403614      24.492342    
    236000   1.0006745      17.341758      24.386731    
    237000   1.0911756      17.661304      24.232135    
    238000   0.9800262      17.80487       23.957695    
    239000   1.0519909      17.404265      23.671244    
    240000   1.0088297      17.717956      23.522175    
    241000   1.0008476      17.346742      23.30532     
    242000   1.0365416      17.002005      23.228259    
    243000   1.0023592      17.97486       23.032399    
    244000   1.0523592      17.837487      23.257851    
    245000   1.0156363      17.93478       23.42722     
    246000   1.069314       17.11378       23.444242    
    247000   1.0423546      17.774771      23.375881    
    248000   0.97289008     18.000838      23.220857    
    249000   1.0580488      18.020905      22.988668    
    250000   0.98927741     17.903298      22.894866    
    251000   0.9583813      17.392524      22.791126    
    252000   1.0270282      17.607062      22.779371    
    253000   1.0076619      18.034077      22.442432    
    254000   0.99783754     17.958599      22.15486     
    255000   1.0105614      17.92582       22.157126    
    256000   0.99011024     18.644863      21.753491    
    257000   0.97026403     17.845902      21.549974    
    258000   1.0106853      17.252468      21.480741    
    259000   1.0060982      17.546994      21.618367    
    260000   0.9863138      17.578487      21.589036    
    261000   0.97539758     17.919332      21.318762    
    262000   0.98456682     17.437935      21.330628    
    263000   0.93136788     17.864419      21.120214    
    264000   0.99490664     17.854405      20.968971    
    265000   1.036993       18.274357      20.686197    
    266000   1.0369823      17.760606      20.811711    
    267000   0.98299677     17.693785      20.721573    
    268000   0.95010063     17.444708      20.727623    
    269000   0.98391918     17.714164      20.707548    
    270000   1.0294212      17.227686      20.373123    
    271000   0.99274755     16.920487      20.325504    
    272000   0.99156458     17.227623      20.291242    
    273000   0.95879978     18.161933      20.097149    
    274000   0.99245241     17.714899      20.096105    
    275000   0.98000987     17.906237      20.030583    
    276000   0.98677904     16.977119      19.829254    
    277000   1.0282134      17.463224      19.474602    
    278000   1.0022767      16.953015      19.710172    
    279000   1.0385004      17.832579      19.34743     
    280000   0.98771957     17.90459       19.507535    
    281000   1.0241327      17.488362      19.534766    
    282000   1.0055491      17.279935      19.642435    
    283000   0.99735304     17.19894       19.614269    
    284000   1.0498909      16.560506      19.482084    
    285000   0.98945026     17.446157      19.604197    
    286000   0.99906249     16.983378      19.443615    
    287000   0.97778262     17.494259      19.318114    
    288000   0.98265854     17.678833      19.15369     
    289000   1.0010763      17.88791       19.143182    
    290000   1.0127287      18.257198      19.243914    
    291000   0.95053684     17.725053      19.261782    
    292000   0.99042669     18.034813      19.490059    
    293000   0.99744058     17.679008      19.399515    
    294000   0.97803265     17.435378      19.131871    
    295000   0.97914789     17.33103       19.254375    
    296000   0.97317821     17.467255      19.487324    
    297000   0.98563163     17.130373      19.422118    
    298000   1.012506       16.715127      19.17803     
    299000   0.97339611     17.290233      19.077571    
    300000   1.0139124      17.446084      18.926901    
    301000   1.0254531      17.452697      18.710321    
    302000   1.0123866      17.66589       18.475942    
    303000   1.0270657      17.819887      18.190419    
    304000   1.0168707      17.586152      18.327268    
    305000   1.0040759      17.553994      18.461489    
    306000   1.0308782      17.262909      18.256222    
    307000   0.97893309     17.16324       18.092118    
    308000   1.0238934      17.266991      18.089221    
    309000   0.96830072     17.021631      17.929055    
    310000   1.0190883      17.481526      17.826442    
    311000   0.96919662     17.830254      17.97416     
    312000   1.0527817      17.637343      17.948767    
    313000   0.99393386     17.561463      17.965298    
    314000   0.98838344     17.423539      17.956067    
    315000   0.99348424     17.127576      17.97948     
    316000   1.0536138      17.794198      17.864459    
    317000   0.95748361     17.293543      17.593134    
    318000   0.94953546     17.755315      17.519796    
    319000   1.0185646      17.842646      17.650331    
    320000   0.93672099     17.09729       17.604508    
    321000   0.99228466     17.14945       17.261164    
    322000   0.99856948     18.41711       17.20246     
    323000   0.98865784     17.361243      17.013102    
    324000   1.0342683      17.148713      17.16727     
    325000   1.0823351      17.30468       17.307842    
    326000   1.0266421      17.220468      17.365643    
    327000   0.95550306     16.90526       17.172952    
    328000   0.99313303     17.379693      16.850613    
    329000   0.93268876     17.267159      16.603821    
    330000   0.99755617     17.895347      16.476948    
    331000   0.99243708     16.994345      16.506931    
    332000   0.94228784     17.177342      16.436042    
    333000   1.0378417      18.243451      16.228442    
    334000   0.98136785     17.570278      16.126517    
    335000   0.97644294     17.589426      15.935108    
    336000   0.99404198     16.670251      16.046585    
    337000   0.9538169      18.008978      16.085973    
    338000   1.0605231      17.935966      15.996307    
    339000   1.0048335      18.126727      15.70401     
    340000   0.99251966     17.762011      15.359884    
    341000   1.01696        17.439993      15.309601    
    342000   1.0535034      17.945888      15.400578    
    343000   1.0088979      18.092678      15.50627     
    344000   1.0105553      18.055423      15.616575    
    345000   0.98688315     17.952381      15.792482    
    346000   1.0548483      18.272641      15.625924    
    347000   0.99447004     17.684904      15.570967    
    348000   1.0088904      17.25887       15.246891    
    349000   1.0118185      17.618856      15.201073    
    350000   1.0120268      16.86173       14.803217    
    351000   1.0203727      17.296783      14.420658    
    352000   0.97807332     17.24713       14.42642     
    353000   1.0069919      18.202703      14.288307    
    354000   0.94025793     17.016236      14.168993    
    355000   1.0253175      17.580275      14.204064    
    356000   1.0314377      17.048382      14.140904    
    357000   1.0119233      18.022592      14.0477      
    358000   1.0118876      17.634689      14.048809    
    359000   0.98624501     18.153792      14.366556    
    360000   1.0188598      18.111036      14.442902    
    361000   1.0419707      17.801038      14.20204     
    362000   1.0279714      17.480261      14.078793    
    363000   1.0230535      17.208857      14.036284    
    364000   1.0137969      17.391421      14.06451     
    365000   0.96738919     17.962799      14.025862    
    366000   1.0073807      17.708601      14.032722    
    367000   0.99232662     17.307478      13.78547     
    368000   0.95739682     17.658252      13.768999    
    369000   0.99843587     17.941085      13.568539    
    370000   1.0151412      16.72188       13.683159    
    371000   1.0254499      17.742626      13.745765    
    372000   1.0131915      17.402942      13.498497    
    373000   0.98460202     18.191163      13.457287    
    374000   1.0824248      17.706648      13.334515    
    375000   0.99970461     17.056387      13.173089    
    376000   1.0039054      17.844402      13.137744    
    377000   0.9888561      17.162937      13.023334    
    378000   1.046814       17.6089        13.003092    
    379000   1.0226125      17.230765      12.883013    
    380000   1.0802416      17.562103      12.67401     
    381000   0.99256833     18.198665      12.495081    
    382000   0.98674369     17.726545      12.350458    
    383000   1.0407294      17.680999      12.152918    
    384000   1.0037635      17.988748      12.059059    
    385000   1.0111065      17.32978       11.89728     
    386000   0.99015145     17.623034      11.88637     
    387000   0.9790807      16.63962       11.731784    
    388000   0.98279508     17.793666      11.451177    
    389000   0.99490205     17.489937      11.386044    
    390000   1.0446688      17.513526      11.201144    
    391000   1.0069338      18.126563      11.161038    
    392000   1.0191495      17.779729      11.284213    
    393000   1.0020189      17.278989      11.437865    
    394000   1.0012467      17.736267      11.468113    
    395000   0.99802563     17.505512      11.717528    
    396000   0.98527991     17.185691      11.426712    
    397000   0.92520953     17.633169      11.219327    
    398000   0.97779584     17.277713      11.295203    
    399000   1.0034331      18.275005      11.146874    
    400000   1.0478501      17.618778      11.069811    
    401000   1.0195457      18.711415      10.928553    
    402000   1.0233145      17.750777      10.646792    
    403000   1.0187008      17.19573       10.482106    
    404000   1.0365288      17.183126      10.272784    
    405000   0.97528011     17.300204      9.9850458    
    406000   0.98953823     17.402693      9.6222344    
    407000   0.96909982     17.296697      9.5964967    
    408000   0.95966839     17.354735      9.2762112    
    409000   1.0231512      17.615123      9.2057414    
    410000   0.93869544     17.425075      9.1907125    
    411000   1.0799023      17.514466      9.0397224    
    412000   1.0511103      17.167576      9.1802692    
    413000   1.0263223      17.496686      8.713574     
    414000   0.99860182     17.497854      8.563377     
    415000   1.0572613      17.587525      8.3623455    
    416000   0.96334299     17.543957      8.2070158    
    417000   0.955615       17.476158      8.1760898    
    418000   1.0072901      17.652488      8.2169275    
    419000   1.0458405      17.380121      8.278369     
    420000   1.0141848      17.083811      8.3895186    
    421000   0.9980094      16.835811      8.2836454    
    422000   0.99404053     17.264836      8.3253827    
    423000   1.0299248      16.758641      8.2954694    
    424000   1.018815       17.630592      8.5078654    
    425000   0.9572691      17.843876      8.6936011    
    426000   1.0110676      17.236157      8.5463445    
    427000   0.98626006     17.260635      8.2665725    
    428000   0.9503985      17.193543      8.1880615    
    429000   0.98968328     17.763091      7.9231162    
    430000   0.98810024     18.297925      7.7440941    
    431000   0.93351148     17.021092      7.5666489    
    432000   0.99905841     17.231924      7.7308402    
    433000   1.0161635      17.448959      7.5251268    
    434000   1.0206355      16.82485       7.4590884    
    435000   1.053754       17.380499      7.2899304    
Fix halt condition for fix-id 3 met on step 436000 with value 6.867208716553804 (src/fix_halt.cpp:237)
    436000   0.98396463     17.187885      6.8672087    
Loop time of 423.434 on 1 procs for 336000 steps with 701 atoms

Performance: 685595.155 tau/day, 793.513 timesteps/s
99.9% CPU use with 1 MPI tasks x 1 OpenMP threads

MPI task timing breakdown:
Section |  min time  |  avg time  |  max time  |%varavg| %total
---------------------------------------------------------------
Pair    | 140.64     | 140.64     | 140.64     |   0.0 | 33.21
Bond    | 10.136     | 10.136     | 10.136     |   0.0 |  2.39
Neigh   | 259.9      | 259.9      | 259.9      |   0.0 | 61.38
Comm    | 0.12905    | 0.12905    | 0.12905    |   0.0 |  0.03
Output  | 0.69521    | 0.69521    | 0.69521    |   0.0 |  0.16
Modify  | 10.92      | 10.92      | 10.92      |   0.0 |  2.58
Other   |            | 1.014      |            |       |  0.24

Nlocal:            701 ave         701 max         701 min
Histogram: 1 0 0 0 0 0 0 0 0 0
Nghost:              0 ave           0 max           0 min
Histogram: 1 0 0 0 0 0 0 0 0 0
Neighs:         115973 ave      115973 max      115973 min
Histogram: 1 0 0 0 0 0 0 0 0 0

Total # of neighbors = 115973
Ave neighs/atom = 165.43937
Ave special neighs/atom = 1.9971469
Neighbor list builds = 2728
Dangerous builds = 0

# This simulation is done
# Move onto the next one
clear
OMP_NUM_THREADS environment is not set. Defaulting to 1 thread. (src/comm.cpp:98)
  using 1 OpenMP thread(s) per MPI task
next f
jump SELF

###
# Reference paper:
# K. Kremer and G. S. Grest
# Dynamics of entangled linear polymer melts: A molecular-dynamics simulation
# J Chem Phys 92, 5057 (1990)

##################################
# MIHIR: for branched polymers
# LJ minimum first to expand and explore, then collapse
###

###
# Looping through the various nuc3branch4 polymers to simulate,
# define variables to switch through
variable f index bb40nuc3bl10bn4d30tot100 bb80nuc3bl20bn4d30tot200 bb120nuc3bl30bn4d30tot300 bb160nuc3bl40bn4d30tot400 bb200nuc3bl50bn4d30tot500 bb240nuc3bl60bn4d30tot600 bb280nuc3bl70bn4d30tot700 bb320nuc3bl80bn4d30tot800 bb360nuc3bl90bn4d30tot900 bb400nuc3bl100bn4d30tot1000 bb440nuc3bl110bn4d30tot1100 bb480nuc3bl120bn4d30tot1200
###


###
# Box and units  (use LJ units and periodic boundaries)
###

units lj
log nuc3branch4/logs/$f.log
log nuc3branch4/logs/bb320nuc3bl80bn4d30tot800.log
