#atom_style bond #no stiffness
atom_style angle #with stiffness

boundary        p p p
###
# Pair interactions require lists of neighbours to be calculated
###

#neighbor 0.3 bin
neighbor 4 bin

neigh_modify every 1 delay 1 check yes
atom_modify sort 0 0
### Generate RESTART file, SPECIAL format, not a .txt file ###
### Useful if simulation crashes ###

restart 1000000 nuc3branch4/restarts/$f.restart
restart 1000000 nuc3branch4/restarts/bb360nuc3bl90bn4d30tot900.restart
#############################



### READ "start" data file ###

read_data nuc3branch4/$f.dat
read_data nuc3branch4/bb360nuc3bl90bn4d30tot900.dat
Reading data file ...
  orthogonal box = (-1000 -1000 -1000) to (1000 1000 1000)
  1 by 1 by 1 MPI processor grid
  reading atoms ...
  901 atoms
  scanning bonds ...
  3 = max bonds/atom
  scanning angles ...
  6 = max angles/atom
  reading bonds ...
  900 bonds
  reading angles ...
  908 angles
Finding 1-2 1-3 1-4 neighbors ...
  special bond factors lj:    0        0        0       
  special bond factors coul:  0        0        0       
     4 = max # of 1-2 neighbors
     4 = max # of 1-3 neighbors
     8 = max # of 1-4 neighbors
    12 = max # of special neighbors
  special bonds CPU = 0.001 seconds
  read_data CPU = 0.064 seconds

######################

### READ "REstart" data file ###

######################



###
# Define groups (atom type 1 is group 'all')
###
group all type 1
901 atoms in group all


###
# Dump configs - "simple dumpings"
###

###
# Dump configs + box coords
###

dump   1   all   custom   1000  nuc3branch4/trjs/$f.lammpstrj  id  x y z  ix iy iz
dump   1   all   custom   1000  nuc3branch4/trjs/bb360nuc3bl90bn4d30tot900.lammpstrj  id  x y z  ix iy iz
dump_modify   1   format line "%d %.5f %.5f %.5f %d %d %d"

########################################################################


###################################################################
# Stiffness term
#
# E = K * (1+cos(theta)), K>0
#
angle_style   cosine
#change this coefficient to change stiffness (e.g. 1,5,10)
angle_coeff   1 1.0
###################################################################

###################################################################
# Pair interaction between non-bonded atoms
#
#  Lennard-Jones 12-6 potential with cutoff:
#  potential E=4epsilon[ (sigma/r)^12 - (sigma/r)^6]  for r<r_cut
#
#  1.12246 = 2^(1/6) is the minimum of the potential


pair_style      lj/cut 1.12246152962189
#pair_style      lj/cut 3

#
#  pair_modify shift yes adds a constant to the potential such

#  that E(r_cut)=0. Forces remains unchanged.
#

pair_modify     shift yes

#
#  pair_coeff for lj/cut, specify 4:
#    * atom type interacting with
#    * atom type
#    * epsilon (energy units)
#    * sigma (distance units)
#

pair_coeff      1 1 1.0 1.0
###################################################################

###################################################################
# Pair interaction between non-bonded atoms
#
#  soft potential, for PUSHING apart overlapping atoms
#  potential E=A*(1 + cos(pi*r/r_c))
#
#  1.12246 = 2^(1/6) is the cut-off r_c

#pair_style     soft 1.12246152962189

#
#  pair_coeff for soft, specify 3:
#    * atom type interacting with
#    * atom type
#    * A
#
#

#pair_coeff      1 1 100.0
###################################################################

###################################################################
# Pair interaction between bonded atoms
#
# Fene potential + Lennard Jones 12-6:

#
#  E= - 0.5 K R0^2 ln[ 1- (r/R0)^2]
#     + 4epsilon[ (sigma/r)^12 - (sigma/r)^6] + epsilon
#

bond_style   fene


#
# For style fene, specify:
#   * bond type
#   * K (energy/distance^2)
#   * R0 (distance)
#   * epsilon (energy)  (LJ component)
#   * sigma (distance)  (LJ component)
#


special_bonds fene #<=== I M P O R T A N T (new command)
Finding 1-2 1-3 1-4 neighbors ...
  special bond factors lj:    0        1        1       
  special bond factors coul:  0        1        1       
     4 = max # of 1-2 neighbors
    12 = max # of special neighbors
  special bonds CPU = 0.000 seconds

bond_coeff   1   30   2   1.0   1.0


###################################################

###################################################################
# Pair interaction between bonded atoms
#
# Harmonic potential:
#
#  E= K * (R-R0)^2
#

#bond_style   harmonic

#
# For style harmonic, specify:
#   * bond type
#   * K (energy/distance^2)
#   * R0 (distance)
#

#bond_coeff   1   60.0   1.0
#bond_coeff   2   harmonic 0.1   1.0

###################################################
compute 1 all gyration
variable rog equal c_1
#compute 2 all coord/atom cutoff 1.1

#dump 2 all custom 10000 contact_number.dump id c_2


###
# Set up fixes
###
thermo_style   custom   step  temp enthalpy c_1
fix 1 all nve   ###NVE ensemble

fix 2 all   langevin   1.0 1.0 1.0  100103   ###Langevin integrator Tstart Tstop 1/friction rndseed


##### Sample thermodynamic info  (temperature, energy, pressure, etc.) #####
thermo 1000









############################################################################

###
# set timestep of integrator

timestep 0.01

###
# run integration for a number of steps
###
#run 0
#variable r equal c_1
#if "$r < 63.1" then "quit 1"

# lj potential minimum, cause molecule to explore
run 100000
Generated 0 of 0 mixed pair_coeff terms from geometric mixing rule
Neighbor list info ...
  update: every = 1 steps, delay = 1 steps, check = yes
  max neighbors/atom: 2000, page size: 100000
  master list distance cutoff = 5.1224615
  ghost atom cutoff = 5.1224615
  binsize = 2.5612308, bins = 781 781 781
  1 neighbor lists, perpetual/occasional/extra = 1 0 0
  (1) pair lj/cut, perpetual
      attributes: half, newton on
      pair build: half/bin/newton
      stencil: half/bin/3d
      bin: standard
WARNING: Communication cutoff 5.12246152962189 is shorter than a bond length based estimate of 5.455. This may lead to errors. (src/comm.cpp:723)
Per MPI rank memory allocation (min/avg/max) = 1861 | 1861 | 1861 Mbytes
   Step          Temp         Enthalpy         c_1      
         0   0              13.257249      76.91073     
      1000   1.0281407      17.897045      76.264194    
      2000   0.95781339     18.109968      75.527251    
      3000   1.015959       19.082064      74.956112    
      4000   1.0341113      19.266842      74.089931    
      5000   0.98198805     19.398828      73.528265    
      6000   1.0005973      18.941877      72.744555    
      7000   0.98280592     19.250631      72.179794    
      8000   1.0014278      19.998775      71.975202    
      9000   0.99324314     19.297037      71.619899    
     10000   0.97937899     19.710205      71.079199    
     11000   0.97366805     19.509159      70.863553    
     12000   0.98339784     19.885522      70.574532    
     13000   1.0141823      19.457889      70.309421    
     14000   0.96814754     20.036693      69.984509    
     15000   0.98300227     19.585861      69.499416    
     16000   1.0038208      19.77109       69.266998    
     17000   1.0304089      20.215309      68.914698    
     18000   0.9836457      19.575574      68.643971    
     19000   1.0338097      20.074568      68.336496    
     20000   0.99135804     19.860757      68.35909     
     21000   0.97729729     19.528371      68.244102    
     22000   1.0138994      19.880222      67.968381    
     23000   0.99424884     20.116498      67.65185     
     24000   0.93903519     19.94291       67.389678    
     25000   0.9981713      20.265631      67.035859    
     26000   0.96387775     19.601069      66.986452    
     27000   1.0097228      20.274377      66.784782    
     28000   1.009119       20.101163      66.52808     
     29000   0.97561515     20.057044      66.294394    
     30000   0.95172227     20.238907      66.033291    
     31000   1.0375689      20.127185      65.855488    
     32000   0.99745626     20.121973      65.696891    
     33000   0.99400754     20.010473      65.54484     
     34000   1.0119517      20.154365      65.32327     
     35000   0.98907078     20.490044      65.089653    
     36000   0.97291516     19.920253      65.139096    
     37000   1.0306947      20.151309      65.01154     
     38000   0.98876591     20.340749      64.858851    
     39000   0.99463074     20.28085       64.847169    
     40000   1.0002043      20.440666      64.801018    
     41000   0.99481068     20.29827       64.490937    
     42000   1.0272303      20.030746      64.022471    
     43000   0.96144907     20.406898      63.973984    
     44000   1.0436075      20.363192      63.411077    
     45000   1.0022736      19.942224      63.257675    
     46000   0.94702082     19.840285      63.233815    
     47000   0.98874967     20.193297      63.0189      
     48000   1.0023571      20.070168      62.787412    
     49000   1.0440638      20.377851      62.433464    
     50000   0.97937374     20.408875      62.576907    
     51000   0.98909293     20.283574      62.302673    
     52000   1.0764313      20.122249      61.86566     
     53000   0.9877356      20.294501      61.811886    
     54000   0.99634756     20.136019      61.776319    
     55000   1.018328       19.737381      61.78387     
     56000   1.0155138      20.514106      61.681563    
     57000   0.97227044     20.404107      61.322636    
     58000   0.96599812     19.769227      61.186756    
     59000   0.92068773     20.085364      61.077839    
     60000   0.97435087     20.433747      60.823021    
     61000   1.0434367      20.390635      60.64799     
     62000   0.9847601      19.882844      60.656659    
     63000   1.0502249      20.61839       60.318006    
     64000   1.0155193      20.252777      60.19232     
     65000   1.0069803      20.506128      60.184542    
     66000   0.97083966     20.066078      60.087009    
     67000   0.99448993     20.444427      60.015449    
     68000   1.0186003      20.75769       59.886614    
     69000   1.0598601      21.125128      59.800879    
     70000   1.0256101      20.354583      59.798328    
     71000   1.0069194      20.294284      59.782919    
     72000   1.0215221      20.335776      59.703905    
     73000   1.042157       20.697802      59.57155     
     74000   1.0187821      20.628925      59.641841    
     75000   1.0058407      20.106917      59.811212    
     76000   1.0062969      21.005733      59.64112     
     77000   0.99499114     20.527173      59.220425    
     78000   0.9958574      20.006861      58.97595     
     79000   0.97636395     20.885356      58.684837    
     80000   0.98652818     20.071184      58.448844    
     81000   1.0454679      20.314151      58.498423    
     82000   0.99656147     20.101713      58.530943    
     83000   0.99899508     20.342873      58.434835    
     84000   1.0220516      20.221527      58.365623    
     85000   1.0051441      20.49866       58.275372    
     86000   1.0287916      20.628634      57.952456    
     87000   0.98297901     20.465049      57.77422     
     88000   0.99316492     20.719409      57.510351    
     89000   0.99800391     19.991484      57.334727    
     90000   0.99071578     19.820077      57.35001     
     91000   0.99350017     20.644856      57.297944    
     92000   1.0061074      20.11849       57.457605    
     93000   0.99100457     19.993678      57.437568    
     94000   1.0165277      19.981012      57.599127    
     95000   0.96499507     20.389685      57.633325    
     96000   0.97500796     20.558604      57.574216    
     97000   0.99658308     20.392645      57.368621    
     98000   0.92775112     19.661695      57.163082    
     99000   1.0272852      20.360138      57.164153    
    100000   0.99389864     20.406336      57.151012    
Loop time of 291.928 on 1 procs for 100000 steps with 901 atoms

Performance: 295963.348 tau/day, 342.550 timesteps/s
100.0% CPU use with 1 MPI tasks x 1 OpenMP threads

MPI task timing breakdown:
Section |  min time  |  avg time  |  max time  |%varavg| %total
---------------------------------------------------------------
Pair    | 2.0204     | 2.0204     | 2.0204     |   0.0 |  0.69
Bond    | 3.9732     | 3.9732     | 3.9732     |   0.0 |  1.36
Neigh   | 281.3      | 281.3      | 281.3      |   0.0 | 96.36
Comm    | 0.032639   | 0.032639   | 0.032639   |   0.0 |  0.01
Output  | 0.22056    | 0.22056    | 0.22056    |   0.0 |  0.08
Modify  | 4.0827     | 4.0827     | 4.0827     |   0.0 |  1.40
Other   |            | 0.2954     |            |       |  0.10

Nlocal:            901 ave         901 max         901 min
Histogram: 1 0 0 0 0 0 0 0 0 0
Nghost:              0 ave           0 max           0 min
Histogram: 1 0 0 0 0 0 0 0 0 0
Neighs:           6971 ave        6971 max        6971 min
Histogram: 1 0 0 0 0 0 0 0 0 0

Total # of neighbors = 6971
Ave neighs/atom = 7.7369589
Ave special neighs/atom = 1.9977802
Neighbor list builds = 1155
Dangerous builds = 0

# Replace lj potential, now collapse
pair_style      lj/cut 3

# Cutoff simul when gyration under 10
# Variable created with equal requires v_ + 'name'
fix 3 all halt 1000 v_rog < 7

run 3000000
Generated 0 of 0 mixed pair_coeff terms from geometric mixing rule
Per MPI rank memory allocation (min/avg/max) = 1861 | 1861 | 1861 Mbytes
   Step          Temp         Enthalpy         c_1      
    100000   0.99389864     19.609382      57.151012    
    101000   0.98983757     19.448453      56.961966    
    102000   1.0031358      19.38978       56.732419    
    103000   0.99968689     19.443935      56.504113    
    104000   1.0300893      18.789767      56.266704    
    105000   0.97377071     19.614489      56.000194    
    106000   1.0240668      19.595761      55.945905    
    107000   0.98915569     19.435552      55.932843    
    108000   0.976672       19.10329       55.728271    
    109000   0.94962736     19.180115      55.464588    
    110000   0.99229224     19.414516      55.171419    
    111000   0.99243942     19.264822      54.913814    
    112000   0.97914799     19.739604      54.79033     
    113000   0.99572743     19.402408      54.565158    
    114000   0.99284067     18.952779      54.212441    
    115000   0.99729736     19.248402      54.070947    
    116000   1.0176482      18.930285      53.941283    
    117000   1.0136142      18.829515      53.834351    
    118000   1.0175049      19.191925      53.618531    
    119000   1.0162811      18.27577       53.245019    
    120000   1.0261309      19.435402      53.015616    
    121000   0.96361993     18.757633      53.029968    
    122000   0.99463403     19.089751      52.962712    
    123000   0.99932567     18.456066      52.546865    
    124000   0.99469956     18.784943      52.612607    
    125000   0.9960327      18.413871      52.641195    
    126000   1.0139245      18.491322      52.621662    
    127000   1.0072469      19.005688      52.557286    
    128000   1.0237905      18.78832       52.726239    
    129000   1.0147192      18.71596       52.694316    
    130000   1.0007537      18.242505      52.660124    
    131000   0.99028418     18.70872       52.452354    
    132000   0.996917       18.070161      52.414015    
    133000   1.0632106      17.743264      52.116751    
    134000   1.0127985      17.938147      51.878625    
    135000   1.0105796      18.869722      51.791349    
    136000   0.98119323     18.364191      51.601502    
    137000   1.0144504      18.358388      51.418842    
    138000   1.0115066      18.288816      51.250319    
    139000   1.0162245      18.276715      51.10798     
    140000   1.0462597      18.321024      51.039511    
    141000   0.99526057     18.584527      50.865444    
    142000   0.98903153     18.945769      50.501341    
    143000   0.99417189     17.734248      50.471906    
    144000   0.97993265     18.904018      50.41677     
    145000   0.96208911     17.809288      50.460954    
    146000   1.0396891      18.179873      50.520843    
    147000   0.98167501     18.196062      50.28013     
    148000   1.0432369      18.718955      50.10702     
    149000   1.016689       18.266373      49.886545    
    150000   0.97955491     18.337036      49.721797    
    151000   1.0008928      18.621107      49.573228    
    152000   0.97898825     18.109228      49.089515    
    153000   0.99234616     18.036018      48.781068    
    154000   0.99213091     18.165838      48.725607    
    155000   0.95252051     18.117945      48.665478    
    156000   0.99010249     17.76737       48.680361    
    157000   1.0034026      18.109466      48.540931    
    158000   1.0030586      17.886197      48.522455    
    159000   1.0279827      18.389171      48.404396    
    160000   1.014129       18.304602      48.160328    
    161000   1.0070689      17.730836      48.146052    
    162000   0.99774865     17.548316      48.063081    
    163000   0.97970094     18.015753      48.086643    
    164000   0.98263753     18.32674       47.845504    
    165000   1.0151552      18.324091      47.668011    
    166000   1.0143582      17.136355      47.5378      
    167000   1.0003398      17.760964      47.697427    
    168000   0.98489579     17.756304      47.287825    
    169000   1.0095554      17.881478      47.171395    
    170000   0.99103293     17.784583      47.009472    
    171000   0.96579841     17.558463      46.751919    
    172000   0.99075048     17.716518      46.43287     
    173000   0.99246524     17.445089      46.257335    
    174000   1.0164578      17.652381      46.149339    
    175000   0.99602258     17.731646      46.186938    
    176000   0.96824944     17.90455       46.095326    
    177000   0.98798054     17.304349      45.989422    
    178000   1.0171116      17.965512      45.593216    
    179000   1.0346978      17.771564      45.541249    
    180000   1.0081633      17.756579      45.401067    
    181000   1.0225557      17.703263      45.402871    
    182000   1.0640448      17.994768      45.461444    
    183000   0.99993723     17.464063      45.467079    
    184000   1.0345769      17.473218      45.293223    
    185000   0.97989294     17.42112       45.363812    
    186000   0.99670333     17.421206      45.296986    
    187000   0.96084477     17.913903      45.252526    
    188000   0.99874829     17.860519      45.240638    
    189000   0.99801409     17.365011      45.09546     
    190000   0.99499376     17.46324       44.948485    
    191000   0.98273137     17.950533      44.781356    
    192000   1.0622038      17.920662      44.57234     
    193000   0.99920625     17.506736      44.484367    
    194000   1.0197693      17.921073      44.47798     
    195000   1.0173801      17.535541      44.608848    
    196000   1.0380353      17.738134      44.503377    
    197000   0.96952355     17.400801      44.545272    
    198000   1.0097712      17.864622      44.435835    
    199000   1.0227238      17.422788      44.170212    
    200000   0.99149707     17.068881      43.86751     
    201000   1.0027284      18.151402      44.019831    
    202000   1.0050775      18.180406      43.776565    
    203000   1.0055128      18.204828      43.218644    
    204000   1.0531402      17.886732      43.196424    
    205000   1.0011628      17.552506      43.150945    
    206000   0.93155148     17.275831      43.077653    
    207000   1.0476711      17.276647      42.919381    
    208000   1.0580976      17.837618      42.921013    
    209000   1.0317743      17.657413      42.940282    
    210000   1.0123541      17.217782      42.912703    
    211000   0.98670413     18.390835      42.722126    
    212000   1.0297394      18.162259      42.795054    
    213000   0.9696269      17.793096      42.795654    
    214000   1.008617       17.72301       42.559468    
    215000   1.0136621      17.416441      42.398007    
    216000   1.0052314      17.480815      42.172716    
    217000   0.98128671     18.259684      42.134032    
    218000   1.0067387      17.70001       42.071748    
    219000   1.0622048      18.301385      41.82687     
    220000   1.0246721      17.486939      41.680678    
    221000   0.9719909      17.010662      41.659036    
    222000   0.99426518     17.578425      41.194579    
    223000   1.0666401      17.697285      41.027129    
    224000   1.021517       17.83725       40.938462    
    225000   0.97864555     17.81565       40.887599    
    226000   0.98708514     18.065292      40.741687    
    227000   1.0026283      17.283607      40.822589    
    228000   1.0004009      17.385214      40.94251     
    229000   0.98660746     17.644063      40.911616    
    230000   1.0162296      17.363471      40.499564    
    231000   0.96945527     17.831307      40.317351    
    232000   1.0011879      18.159671      39.913183    
    233000   0.99093296     18.111375      39.831633    
    234000   1.0206544      18.012024      39.662795    
    235000   0.98347123     17.482085      39.641319    
    236000   0.9741775      17.61803       39.564261    
    237000   1.0321864      17.965025      39.306837    
    238000   0.9785683      17.369468      39.196804    
    239000   0.98481004     17.219297      39.201218    
    240000   1.0115072      17.393668      38.968719    
    241000   0.95448658     17.651038      39.017525    
    242000   0.99532485     16.910104      39.116909    
    243000   0.98245868     17.230321      38.772538    
    244000   1.0160866      17.202674      38.932966    
    245000   0.98759837     17.965204      38.808783    
    246000   1.0136272      18.489695      38.555024    
    247000   0.98183958     17.548334      38.388626    
    248000   1.0043492      18.262038      38.48298     
    249000   1.0339329      17.087765      38.481917    
    250000   0.98406471     17.424686      38.574159    
    251000   0.99776075     17.541727      38.848842    
    252000   0.992167       16.843016      38.942334    
    253000   1.0096366      17.633779      38.913099    
    254000   1.0452049      18.235231      38.975941    
    255000   1.0098624      17.874075      39.064814    
    256000   1.01764        18.533353      38.86293     
    257000   1.0415633      17.685963      38.994991    
    258000   0.97763077     18.154167      38.953618    
    259000   0.99678992     17.648169      38.925839    
    260000   0.99649334     17.302186      38.713061    
    261000   0.99757257     17.481679      38.820295    
    262000   0.97331966     17.617906      38.603294    
    263000   0.99695436     18.206298      38.52164     
    264000   1.0395988      17.029419      38.50675     
    265000   0.9902767      17.70644       38.068619    
    266000   0.98420163     17.355225      37.905477    
    267000   1.0032379      17.382074      37.846073    
    268000   0.96370725     17.51933       37.612442    
    269000   1.0588091      18.189658      37.491634    
    270000   0.98253257     17.679031      37.526245    
    271000   1.0093234      17.986647      37.477757    
    272000   0.98117506     17.721832      37.364348    
    273000   0.98729444     17.650681      37.18523     
    274000   0.9664729      17.81428       37.14625     
    275000   0.98979919     17.19611       37.014912    
    276000   0.99247336     17.282585      37.000003    
    277000   0.99648791     17.827924      36.873922    
    278000   1.0159407      17.368912      36.790594    
    279000   0.97606161     17.61819       36.727768    
    280000   0.9881934      17.639986      36.730793    
    281000   1.028741       17.677458      36.493523    
    282000   0.96784028     17.687568      36.414561    
    283000   1.0009308      17.586426      36.453016    
    284000   0.98803609     18.302944      36.582679    
    285000   1.0666932      17.695775      36.459523    
    286000   1.0117588      17.654119      36.385983    
    287000   0.95973562     17.453068      36.45203     
    288000   1.030642       16.9758        36.381585    
    289000   0.98800835     17.634628      36.540264    
    290000   0.97714427     17.386715      36.236405    
    291000   1.0039944      17.237564      36.320665    
    292000   0.9571473      17.560958      36.492747    
    293000   0.97878357     17.582172      36.27034     
    294000   1.0173101      17.131653      36.200636    
    295000   1.0210027      17.780901      36.001795    
    296000   0.98661139     17.569993      36.027099    
    297000   1.0163811      17.424638      36.070631    
    298000   1.0017643      17.882937      36.148229    
    299000   1.0524308      18.162399      36.250713    
    300000   1.0543103      17.585733      36.132133    
    301000   1.0165741      17.705534      36.099466    
    302000   0.99142599     17.460168      35.533226    
    303000   0.96503121     17.410273      35.563236    
    304000   1.0028056      17.658691      35.150277    
    305000   0.99190334     17.601889      35.237026    
    306000   1.0381714      17.936319      35.253909    
    307000   1.0067707      17.396571      35.065316    
    308000   1.0243357      17.281279      35.116702    
    309000   1.0375111      17.352747      34.994319    
    310000   0.99172624     16.891162      34.928375    
    311000   1.0263933      17.453314      34.999166    
    312000   0.99357746     17.861418      34.83728     
    313000   0.94809114     17.149239      34.592707    
    314000   0.9695554      17.643446      34.41943     
    315000   1.0006246      17.576447      34.549279    
    316000   1.0405963      17.237804      34.42475     
    317000   1.0065915      17.656717      34.268352    
    318000   1.0344859      17.793054      34.087098    
    319000   0.9452575      17.277341      34.018       
    320000   0.9655367      17.199219      33.919854    
    321000   1.0196102      17.724926      33.939324    
    322000   1.0450423      17.974506      33.89033     
    323000   1.0112831      17.873637      33.868574    
    324000   0.98023115     17.533804      33.727439    
    325000   1.0204445      17.731306      33.5439      
    326000   1.0326201      18.363521      33.293911    
    327000   1.0193654      17.415994      33.286281    
    328000   0.99964132     17.401741      33.165922    
    329000   0.97894809     17.765367      33.028615    
    330000   0.96633413     17.435601      32.916684    
    331000   0.94947926     17.745221      32.998906    
    332000   0.99872191     17.667285      32.939029    
    333000   0.98961813     17.537323      32.890642    
    334000   1.0384365      17.853453      32.91858     
    335000   0.96573902     17.601251      32.86823     
    336000   0.99348115     16.780834      32.816736    
    337000   1.0189345      17.03547       33.018161    
    338000   0.99481985     17.563305      32.977522    
    339000   1.0013038      17.092963      32.938366    
    340000   1.0052526      17.502956      32.802151    
    341000   0.99872896     18.437669      32.646948    
    342000   1.0002126      17.478295      32.437481    
    343000   1.0270988      17.990657      32.557351    
    344000   0.95362591     17.544859      32.676525    
    345000   1.0069192      17.450017      32.635751    
    346000   1.0073728      17.83117       32.579661    
    347000   1.0451867      18.103253      32.266044    
    348000   0.9932085      17.949752      32.228513    
    349000   0.94902162     17.195563      32.201912    
    350000   1.0365683      17.762184      32.023659    
    351000   1.0342715      17.345619      32.163503    
    352000   1.028658       17.478256      31.987975    
    353000   0.9979106      17.430028      31.952549    
    354000   1.0637021      17.695744      31.858369    
    355000   1.0108608      17.127798      31.793865    
    356000   0.98164828     18.102182      31.903661    
    357000   0.97153518     18.14796       31.759998    
    358000   0.98875458     17.993333      31.837886    
    359000   1.0500966      17.64322       31.384264    
    360000   0.9767654      17.185995      30.983994    
    361000   0.97620933     17.083648      30.98076     
    362000   0.98295958     17.757896      30.928003    
    363000   0.98351724     17.702185      30.882788    
    364000   1.0396802      17.438234      30.850843    
    365000   1.0012158      17.377409      30.957984    
    366000   1.0096306      17.192206      30.656955    
    367000   0.97642386     17.495652      30.451948    
    368000   0.96802816     18.030173      30.612035    
    369000   0.98899086     17.238582      30.563055    
    370000   1.0196286      17.050701      30.674365    
    371000   0.94950226     17.562342      30.739108    
    372000   0.96683024     17.565434      30.758146    
    373000   1.0256715      17.382882      30.615378    
    374000   1.0058092      16.690351      30.268118    
    375000   0.98969404     17.356125      30.243145    
    376000   0.97131357     17.430375      29.973472    
    377000   1.0364017      17.711532      29.880174    
    378000   0.98588564     17.931956      29.624592    
    379000   1.0267182      17.409869      29.355336    
    380000   1.0338658      17.951177      29.380116    
    381000   0.97676538     17.382023      29.11044     
    382000   0.97958588     17.379123      29.004562    
    383000   1.014007       17.782969      28.707956    
    384000   0.98126949     17.542913      28.580975    
    385000   0.99611256     17.099326      28.372301    
    386000   1.0056206      17.682017      28.045964    
    387000   1.0265965      17.703187      27.628283    
    388000   1.0167548      17.810727      27.629452    
    389000   1.0479991      17.834469      27.443977    
    390000   1.0523516      17.547378      27.246851    
    391000   0.95945297     17.172977      26.85818     
    392000   0.98047912     17.40294       27.015217    
    393000   0.99871713     17.60535       26.976121    
    394000   0.9936512      17.926199      26.927108    
    395000   0.97312996     17.983412      26.785032    
    396000   0.94756902     16.563487      26.967479    
    397000   1.0304062      17.231153      26.74301     
    398000   0.96428104     17.36777       26.413051    
    399000   1.0109016      17.947299      26.481204    
    400000   0.97536668     17.049648      26.176852    
    401000   1.0144528      17.697693      26.052466    
    402000   0.96069602     16.786507      25.729351    
    403000   0.96155744     17.905677      25.771375    
    404000   0.9682491      17.126055      25.532506    
    405000   1.0441983      17.314176      25.41139     
    406000   0.99417257     17.340907      25.050132    
    407000   0.98489833     17.654161      24.927489    
    408000   1.0148415      17.529756      25.011672    
    409000   1.0542353      17.65476       25.068467    
    410000   1.0117895      17.017488      24.974899    
    411000   0.94855598     17.464009      24.891289    
    412000   1.0178381      17.691451      24.733008    
    413000   0.94961065     16.989094      24.439277    
    414000   1.0400178      18.102936      24.168716    
    415000   1.0707278      17.600935      24.108689    
    416000   0.9627619      17.162668      23.955597    
    417000   0.9869784      17.754012      23.805209    
    418000   0.99265141     17.404554      23.5591      
    419000   1.0139721      17.812225      23.602387    
    420000   0.96765053     17.434512      23.544956    
    421000   1.0475671      18.222003      23.49549     
    422000   0.99948936     17.540855      23.607462    
    423000   0.98463587     18.115634      23.38843     
    424000   1.0028473      17.077296      23.363026    
    425000   0.97865962     18.063232      23.10994     
    426000   1.0009823      17.334225      22.9103      
    427000   0.9809137      17.473232      22.744397    
    428000   0.99348052     17.490526      22.689826    
    429000   0.98472624     17.7378        22.609108    
    430000   1.0334221      17.976271      22.462952    
    431000   1.0268473      17.777285      22.344373    
    432000   0.99624566     17.450926      22.385732    
    433000   1.0583049      17.891277      22.224805    
    434000   1.0449885      17.51543       21.837769    
    435000   0.98909448     17.501828      21.828764    
    436000   1.0116775      18.118596      21.851983    
    437000   1.0437121      17.514579      21.738432    
    438000   1.0341254      18.320763      21.468677    
    439000   1.0299412      17.379468      21.107418    
    440000   0.98314426     17.390617      20.70507     
    441000   0.98970485     17.604717      20.533159    
    442000   1.015908       17.733013      20.661753    
    443000   0.98611539     17.041826      20.472591    
    444000   1.0175058      17.408463      20.4271      
    445000   1.0051957      17.284427      20.36519     
    446000   0.96261449     17.036332      20.395014    
    447000   0.96903294     17.443611      20.196512    
    448000   1.0231575      16.684963      20.117528    
    449000   1.0253753      17.514082      20.153753    
    450000   1.0158728      17.484939      19.875795    
    451000   0.99252693     17.129035      19.816795    
    452000   0.96987006     16.888416      19.630885    
    453000   1.0150088      17.336782      19.530371    
    454000   1.049169       16.850237      19.338641    
    455000   0.99017119     16.87626       19.114718    
    456000   1.0302379      17.78935       18.906214    
    457000   0.9907806      17.178224      18.666016    
    458000   1.0095063      16.43218       18.492291    
    459000   0.98373128     17.893705      18.593984    
    460000   0.94548696     16.881972      18.634022    
    461000   0.9863005      17.288722      18.57459     
    462000   0.99634501     16.797295      18.5409      
    463000   1.0088865      16.78745       18.676306    
    464000   0.96983874     17.177094      18.513705    
    465000   1.0354184      16.985287      18.57016     
    466000   0.98016316     17.283395      18.404957    
    467000   0.98984898     17.266398      18.416268    
    468000   1.0116722      17.845753      18.205357    
    469000   0.99745058     16.923484      18.03325     
    470000   0.93923198     16.7649        17.991748    
    471000   1.0170574      17.029396      17.815158    
    472000   1.006502       17.114646      17.983217    
    473000   0.95033805     17.191916      17.989619    
    474000   0.98918545     17.481174      17.895277    
    475000   1.0061572      17.427257      18.049054    
    476000   0.99114893     16.91796       17.676563    
    477000   1.0181075      17.858294      17.422265    
    478000   1.0157937      17.312372      16.935542    
    479000   0.98987599     17.470336      16.816355    
    480000   0.96581487     17.409266      16.74598     
    481000   0.99690016     16.532336      16.781479    
    482000   1.0086944      17.112121      16.619347    
    483000   1.0047697      17.217575      16.369317    
    484000   0.99479189     17.3268        16.083729    
    485000   1.0029918      17.21778       15.844601    
    486000   0.98631438     17.472663      15.898876    
    487000   0.97694877     17.336167      15.988629    
    488000   1.0122061      17.231835      16.019289    
    489000   1.0236219      17.293407      15.759559    
    490000   1.0207472      17.191323      15.484527    
    491000   1.0254968      16.873605      15.273304    
    492000   1.0274596      17.622021      15.118097    
    493000   1.0321054      17.480048      14.930072    
    494000   0.97261433     16.39618       14.944403    
    495000   0.97652439     17.102282      14.749333    
    496000   0.97838381     17.18593       14.642684    
    497000   1.0166337      17.819023      14.443485    
    498000   1.0090206      17.717076      14.319538    
    499000   0.99725579     17.17985       14.232189    
    500000   1.0505913      17.976705      14.246448    
    501000   0.97177246     16.71874       14.195533    
    502000   1.0006018      17.273014      14.060776    
    503000   0.99669691     17.42702       14.141195    
    504000   1.0137438      17.550819      14.103542    
    505000   0.98246692     17.182557      14.171719    
    506000   0.95907708     17.113132      14.242344    
    507000   1.0086179      17.669965      14.285238    
    508000   0.98087437     17.320348      14.248194    
    509000   1.0173153      17.250675      14.287161    
    510000   1.0385769      17.332046      14.075606    
    511000   1.0592817      17.419556      13.854329    
    512000   1.0174932      17.575891      13.668258    
    513000   1.0163779      17.677265      13.542064    
    514000   0.97826322     17.309445      13.716881    
    515000   0.96609514     17.36656       13.722186    
    516000   1.025202       17.430454      13.893278    
    517000   0.96494334     16.707851      13.957597    
    518000   1.0054536      17.194329      13.969833    
    519000   1.0437227      17.006418      13.975407    
    520000   0.94748988     17.199752      13.919859    
    521000   0.96589195     16.551086      13.720816    
    522000   1.0376237      16.983655      13.528104    
    523000   0.98160222     17.674731      13.33942     
    524000   1.0063979      17.516298      13.479955    
    525000   1.0076218      17.292401      13.638917    
    526000   0.99932696     17.329161      13.561548    
    527000   0.99716171     17.459502      13.61044     
    528000   0.98712684     17.133307      13.718547    
    529000   1.0335386      17.204256      13.642232    
    530000   1.0130136      17.009767      13.650255    
    531000   1.0303433      17.220996      13.664913    
    532000   0.96373804     16.910533      13.544414    
    533000   1.018478       17.840275      13.169702    
    534000   1.0252992      17.409175      13.283062    
    535000   1.0585476      17.585842      13.059565    
    536000   0.96132122     17.381667      12.979797    
    537000   0.97787027     17.020328      12.941274    
    538000   0.99316602     16.795667      12.851495    
    539000   0.94314041     16.970249      12.740894    
    540000   0.99068034     17.704749      12.562332    
    541000   1.0279352      17.651123      12.475817    
    542000   0.9878588      16.725167      12.560255    
    543000   0.99741826     16.944582      12.618746    
    544000   1.0123677      17.538589      12.563744    
    545000   0.97898331     16.631355      12.524897    
    546000   1.0166477      17.236392      12.515032    
    547000   1.0108694      17.280556      12.566995    
    548000   1.0032976      17.270746      12.471246    
    549000   0.96513197     17.427819      12.409299    
    550000   0.99522185     17.26283       12.200052    
    551000   1.0045735      16.587929      12.116437    
    552000   0.99938026     17.309371      11.990107    
    553000   1.0132047      16.831905      11.883142    
    554000   1.027566       18.043931      12.052412    
    555000   1.0276032      16.541137      11.846405    
    556000   0.99660683     17.454845      11.605015    
    557000   0.99312447     17.399937      11.529939    
    558000   0.96593927     16.892673      11.444669    
    559000   0.95636101     17.481522      11.514734    
    560000   1.0419331      17.563691      11.421127    
    561000   1.0469565      16.569849      11.328794    
    562000   1.0099785      17.309959      11.383676    
    563000   0.99687067     17.097257      11.13552     
    564000   0.98205424     17.577559      11.193014    
    565000   0.99361768     17.369412      10.953085    
    566000   0.9743792      16.938467      10.75797     
    567000   1.0382814      16.724402      10.627412    
    568000   1.0221342      17.045936      10.425114    
    569000   1.0249523      17.169783      10.361195    
    570000   0.99832899     17.232567      10.420357    
    571000   0.97993685     16.619483      10.421251    
    572000   1.0302718      17.170348      10.655728    
    573000   1.0438064      17.460713      10.525272    
    574000   0.97227935     17.5696        10.426117    
    575000   0.97471297     16.74184       10.17828     
    576000   1.0058922      16.918332      9.9600015    
    577000   0.98455334     17.067395      9.9621609    
    578000   0.96411593     17.107542      10.10669     
    579000   0.98696574     16.943998      10.014844    
    580000   0.98018948     17.561928      9.9630695    
    581000   0.98335151     17.374849      9.9215083    
    582000   0.98598516     17.367252      10.004282    
    583000   0.97902886     17.434704      10.10484     
    584000   0.98840415     17.169785      10.071046    
    585000   0.96243845     17.136095      10.041388    
    586000   0.95679415     17.018052      10.031547    
    587000   0.98530331     16.425623      10.231319    
    588000   0.98722801     17.347947      10.312175    
    589000   0.94653964     16.991795      10.198955    
    590000   0.97981037     16.618272      10.054568    
    591000   1.0102511      17.045358      10.01724     
    592000   1.0014555      17.211599      9.9228262    
    593000   1.053773       17.259557      9.8458975    
    594000   0.97893071     17.576753      9.8551074    
    595000   0.97779222     17.38352       9.825939     
    596000   0.96640194     16.542133      9.6583278    
    597000   1.0251455      17.839801      9.5663882    
    598000   0.99304325     17.230513      9.4436475    
    599000   0.97444646     17.068343      9.4004493    
    600000   0.96939089     17.439636      9.3591824    
    601000   1.0154902      16.942252      9.3591845    
    602000   0.97833551     17.433592      9.2199105    
    603000   0.95174145     17.451439      9.1297817    
    604000   1.027571       17.769107      9.1078057    
    605000   0.9356719      17.208458      9.0115684    
    606000   0.99769331     17.424061      8.9006902    
    607000   0.99090306     16.998701      8.8634685    
    608000   1.0200427      18.18274       8.7907667    
    609000   1.0112048      17.297171      8.6933259    
    610000   0.97942375     17.148095      8.6197602    
    611000   1.0219649      17.033797      8.5968212    
    612000   0.97885707     16.852634      8.4670051    
    613000   1.0157321      16.876716      8.4039746    
    614000   0.98855756     17.167581      8.590168     
    615000   0.99041169     17.385576      8.5798896    
    616000   0.95846483     17.55574       8.3187584    
    617000   0.99921802     16.696486      8.1712428    
    618000   1.0291786      16.90476       8.1583092    
    619000   1.0304266      17.031463      8.2168883    
    620000   1.0200424      16.892759      8.0989567    
    621000   1.0360973      17.176341      7.856792     
    622000   0.97881345     17.289005      7.8125457    
    623000   1.0325817      17.038063      7.680107     
    624000   0.97432043     17.128769      7.4759717    
    625000   1.0646678      17.335089      7.2721462    
    626000   1.0271604      16.811298      7.128802     
Fix halt condition for fix-id 3 met on step 627000 with value 6.920511565935143 (src/fix_halt.cpp:237)
    627000   0.98687826     16.734581      6.9205116    
Loop time of 778.646 on 1 procs for 527000 steps with 901 atoms

Performance: 584768.693 tau/day, 676.816 timesteps/s
99.9% CPU use with 1 MPI tasks x 1 OpenMP threads

MPI task timing breakdown:
Section |  min time  |  avg time  |  max time  |%varavg| %total
---------------------------------------------------------------
Pair    | 324.3      | 324.3      | 324.3      |   0.0 | 41.65
Bond    | 20.681     | 20.681     | 20.681     |   0.0 |  2.66
Neigh   | 408.8      | 408.8      | 408.8      |   0.0 | 52.50
Comm    | 0.22137    | 0.22137    | 0.22137    |   0.0 |  0.03
Output  | 1.1653     | 1.1653     | 1.1653     |   0.0 |  0.15
Modify  | 21.486     | 21.486     | 21.486     |   0.0 |  2.76
Other   |            | 1.997      |            |       |  0.26

Nlocal:            901 ave         901 max         901 min
Histogram: 1 0 0 0 0 0 0 0 0 0
Nghost:              0 ave           0 max           0 min
Histogram: 1 0 0 0 0 0 0 0 0 0
Neighs:         178170 ave      178170 max      178170 min
Histogram: 1 0 0 0 0 0 0 0 0 0

Total # of neighbors = 178170
Ave neighs/atom = 197.74695
Ave special neighs/atom = 1.9977802
Neighbor list builds = 4420
Dangerous builds = 0

# This simulation is done
# Move onto the next one
clear
OMP_NUM_THREADS environment is not set. Defaulting to 1 thread. (src/comm.cpp:98)
  using 1 OpenMP thread(s) per MPI task
next f
jump SELF

###
# Reference paper:
# K. Kremer and G. S. Grest
# Dynamics of entangled linear polymer melts: A molecular-dynamics simulation
# J Chem Phys 92, 5057 (1990)

##################################
# MIHIR: for branched polymers
# LJ minimum first to expand and explore, then collapse
###

###
# Looping through the various nuc3branch4 polymers to simulate,
# define variables to switch through
variable f index bb40nuc3bl10bn4d30tot100 bb80nuc3bl20bn4d30tot200 bb120nuc3bl30bn4d30tot300 bb160nuc3bl40bn4d30tot400 bb200nuc3bl50bn4d30tot500 bb240nuc3bl60bn4d30tot600 bb280nuc3bl70bn4d30tot700 bb320nuc3bl80bn4d30tot800 bb360nuc3bl90bn4d30tot900 bb400nuc3bl100bn4d30tot1000 bb440nuc3bl110bn4d30tot1100 bb480nuc3bl120bn4d30tot1200
###


###
# Box and units  (use LJ units and periodic boundaries)
###

units lj
log nuc3branch4/logs/$f.log
log nuc3branch4/logs/bb400nuc3bl100bn4d30tot1000.log
