#atom_style bond #no stiffness
atom_style angle #with stiffness

boundary        p p p
###
# Pair interactions require lists of neighbours to be calculated
###

#neighbor 0.3 bin
neighbor 4 bin

neigh_modify every 1 delay 1 check yes
atom_modify sort 0 0
### Generate RESTART file, SPECIAL format, not a .txt file ###
### Useful if simulation crashes ###

restart 1000000 nuc3branch4/restarts/$f.restart
restart 1000000 nuc3branch4/restarts/bb400nuc3bl100bn4d30tot1000.restart
#############################



### READ "start" data file ###

read_data nuc3branch4/$f.dat
read_data nuc3branch4/bb400nuc3bl100bn4d30tot1000.dat
Reading data file ...
  orthogonal box = (-1000 -1000 -1000) to (1000 1000 1000)
  1 by 1 by 1 MPI processor grid
  reading atoms ...
  1001 atoms
  scanning bonds ...
  3 = max bonds/atom
  scanning angles ...
  6 = max angles/atom
  reading bonds ...
  1000 bonds
  reading angles ...
  1008 angles
Finding 1-2 1-3 1-4 neighbors ...
  special bond factors lj:    0        0        0       
  special bond factors coul:  0        0        0       
     4 = max # of 1-2 neighbors
     4 = max # of 1-3 neighbors
     8 = max # of 1-4 neighbors
    12 = max # of special neighbors
  special bonds CPU = 0.001 seconds
  read_data CPU = 0.053 seconds

######################

### READ "REstart" data file ###

######################



###
# Define groups (atom type 1 is group 'all')
###
group all type 1
1001 atoms in group all


###
# Dump configs - "simple dumpings"
###

###
# Dump configs + box coords
###

dump   1   all   custom   1000  nuc3branch4/trjs/$f.lammpstrj  id  x y z  ix iy iz
dump   1   all   custom   1000  nuc3branch4/trjs/bb400nuc3bl100bn4d30tot1000.lammpstrj  id  x y z  ix iy iz
dump_modify   1   format line "%d %.5f %.5f %.5f %d %d %d"

########################################################################


###################################################################
# Stiffness term
#
# E = K * (1+cos(theta)), K>0
#
angle_style   cosine
#change this coefficient to change stiffness (e.g. 1,5,10)
angle_coeff   1 1.0
###################################################################

###################################################################
# Pair interaction between non-bonded atoms
#
#  Lennard-Jones 12-6 potential with cutoff:
#  potential E=4epsilon[ (sigma/r)^12 - (sigma/r)^6]  for r<r_cut
#
#  1.12246 = 2^(1/6) is the minimum of the potential


pair_style      lj/cut 1.12246152962189
#pair_style      lj/cut 3

#
#  pair_modify shift yes adds a constant to the potential such

#  that E(r_cut)=0. Forces remains unchanged.
#

pair_modify     shift yes

#
#  pair_coeff for lj/cut, specify 4:
#    * atom type interacting with
#    * atom type
#    * epsilon (energy units)
#    * sigma (distance units)
#

pair_coeff      1 1 1.0 1.0
###################################################################

###################################################################
# Pair interaction between non-bonded atoms
#
#  soft potential, for PUSHING apart overlapping atoms
#  potential E=A*(1 + cos(pi*r/r_c))
#
#  1.12246 = 2^(1/6) is the cut-off r_c

#pair_style     soft 1.12246152962189

#
#  pair_coeff for soft, specify 3:
#    * atom type interacting with
#    * atom type
#    * A
#
#

#pair_coeff      1 1 100.0
###################################################################

###################################################################
# Pair interaction between bonded atoms
#
# Fene potential + Lennard Jones 12-6:

#
#  E= - 0.5 K R0^2 ln[ 1- (r/R0)^2]
#     + 4epsilon[ (sigma/r)^12 - (sigma/r)^6] + epsilon
#

bond_style   fene


#
# For style fene, specify:
#   * bond type
#   * K (energy/distance^2)
#   * R0 (distance)
#   * epsilon (energy)  (LJ component)
#   * sigma (distance)  (LJ component)
#


special_bonds fene #<=== I M P O R T A N T (new command)
Finding 1-2 1-3 1-4 neighbors ...
  special bond factors lj:    0        1        1       
  special bond factors coul:  0        1        1       
     4 = max # of 1-2 neighbors
    12 = max # of special neighbors
  special bonds CPU = 0.000 seconds

bond_coeff   1   30   2   1.0   1.0


###################################################

###################################################################
# Pair interaction between bonded atoms
#
# Harmonic potential:
#
#  E= K * (R-R0)^2
#

#bond_style   harmonic

#
# For style harmonic, specify:
#   * bond type
#   * K (energy/distance^2)
#   * R0 (distance)
#

#bond_coeff   1   60.0   1.0
#bond_coeff   2   harmonic 0.1   1.0

###################################################
compute 1 all gyration
variable rog equal c_1
#compute 2 all coord/atom cutoff 1.1

#dump 2 all custom 10000 contact_number.dump id c_2


###
# Set up fixes
###
thermo_style   custom   step  temp enthalpy c_1
fix 1 all nve   ###NVE ensemble

fix 2 all   langevin   1.0 1.0 1.0  100103   ###Langevin integrator Tstart Tstop 1/friction rndseed


##### Sample thermodynamic info  (temperature, energy, pressure, etc.) #####
thermo 1000









############################################################################

###
# set timestep of integrator

timestep 0.01

###
# run integration for a number of steps
###
#run 0
#variable r equal c_1
#if "$r < 63.1" then "quit 1"

# lj potential minimum, cause molecule to explore
run 100000
Generated 0 of 0 mixed pair_coeff terms from geometric mixing rule
Neighbor list info ...
  update: every = 1 steps, delay = 1 steps, check = yes
  max neighbors/atom: 2000, page size: 100000
  master list distance cutoff = 5.1224615
  ghost atom cutoff = 5.1224615
  binsize = 2.5612308, bins = 781 781 781
  1 neighbor lists, perpetual/occasional/extra = 1 0 0
  (1) pair lj/cut, perpetual
      attributes: half, newton on
      pair build: half/bin/newton
      stencil: half/bin/3d
      bin: standard
WARNING: Communication cutoff 5.12246152962189 is shorter than a bond length based estimate of 5.455. This may lead to errors. (src/comm.cpp:723)
Per MPI rank memory allocation (min/avg/max) = 1861 | 1861 | 1861 Mbytes
   Step          Temp         Enthalpy         c_1      
         0   0              13.27894       91.099931    
      1000   1.0054093      18.176209      90.127297    
      2000   1.0095178      18.530247      89.492179    
      3000   1.0231943      18.509879      89.067204    
      4000   0.97621405     19.019663      88.363494    
      5000   0.98946977     19.08552       87.752091    
      6000   0.98899435     19.120305      87.367829    
      7000   0.99335616     19.062155      87.117145    
      8000   1.0356903      19.383751      86.813859    
      9000   1.0118745      18.959527      86.325958    
     10000   0.98703872     19.428515      85.657269    
     11000   1.0160493      19.097992      85.348575    
     12000   0.94869614     19.686008      84.883358    
     13000   0.96827658     19.293868      84.595819    
     14000   1.0313247      19.498403      84.374433    
     15000   0.95663639     19.736491      84.125422    
     16000   1.0060034      19.910643      84.029965    
     17000   1.0316978      19.87509       83.863191    
     18000   0.97319882     19.49154       83.665149    
     19000   0.99084352     20.022139      83.137332    
     20000   1.0207256      19.559132      82.865438    
     21000   0.98986709     19.953237      82.543129    
     22000   0.99045807     19.198056      82.259449    
     23000   1.0154104      20.32013       82.063454    
     24000   1.0148114      19.74342       81.737332    
     25000   0.97727371     19.904466      81.394185    
     26000   1.0305628      19.839355      81.319757    
     27000   0.96308781     19.919807      80.843618    
     28000   0.99475657     20.007444      80.599544    
     29000   1.0053683      19.515445      80.370886    
     30000   1.0262377      19.981027      80.309125    
     31000   1.0351052      20.096196      80.04002     
     32000   1.0029247      19.907789      80.110596    
     33000   0.97244427     19.613751      79.820746    
     34000   0.99855901     20.085588      79.775572    
     35000   1.0035518      20.310289      79.528336    
     36000   1.0079775      19.624193      79.423748    
     37000   0.99802607     19.925628      79.340552    
     38000   0.99089043     20.368092      79.332529    
     39000   0.98583077     19.962395      79.111631    
     40000   0.99336059     20.172931      78.867234    
     41000   0.97398246     19.639901      78.628043    
     42000   1.0241158      20.095834      78.396283    
     43000   0.98973467     19.975594      78.170396    
     44000   1.0036894      20.413388      77.978226    
     45000   1.0107399      20.461067      77.950363    
     46000   1.0120609      19.757061      77.738079    
     47000   1.0397222      20.077543      77.772298    
     48000   0.98888534     20.128875      77.684881    
     49000   0.98359568     20.066566      77.839439    
     50000   1.0087861      20.13772       77.891268    
     51000   1.0409696      20.636726      77.508811    
     52000   0.99403558     19.940423      77.263952    
     53000   1.0485185      20.223207      77.10834     
     54000   1.0256896      20.628219      77.081737    
     55000   1.0084658      20.196044      76.937602    
     56000   1.0196818      19.86353       76.819343    
     57000   0.97485934     20.062816      76.882884    
     58000   0.99449894     19.90587       76.712664    
     59000   1.0017303      20.569745      76.72653     
     60000   0.95897943     20.014368      76.608299    
     61000   0.98521576     20.102067      76.367825    
     62000   0.9788923      20.486326      76.412179    
     63000   1.0096075      20.762736      76.48091     
     64000   1.018872       20.052824      76.505638    
     65000   0.97052291     20.068947      76.472485    
     66000   1.0025562      20.894434      76.1891      
     67000   1.0389882      20.88518       76.002007    
     68000   0.96204917     19.954839      75.684678    
     69000   0.99654019     19.917372      75.744323    
     70000   1.0035186      20.553871      75.657038    
     71000   1.0061468      20.38609       75.563771    
     72000   0.98451629     20.26336       75.642201    
     73000   0.97982378     20.442089      75.714246    
     74000   1.0355589      20.253683      75.490005    
     75000   1.0118132      20.584731      75.459852    
     76000   1.0230364      20.319689      75.302075    
     77000   0.98930438     20.288267      75.063992    
     78000   1.0251882      19.792761      75.174475    
     79000   0.99215984     20.308077      75.094281    
     80000   1.0172556      20.537401      74.92925     
     81000   1.0472115      20.664214      74.724121    
     82000   1.0229756      20.35937       74.519231    
     83000   1.0068235      20.337061      74.137802    
     84000   1.0308468      20.603965      74.149794    
     85000   1.0098664      20.362441      74.116542    
     86000   0.98520347     19.904299      74.140049    
     87000   1.0072827      20.084512      73.957515    
     88000   1.0223335      20.27886       73.978802    
     89000   0.9830011      20.286084      73.698612    
     90000   0.94594203     20.36433       73.607306    
     91000   1.0122183      21.034561      73.334388    
     92000   1.005105       20.074888      73.424842    
     93000   0.97872951     19.743269      73.387619    
     94000   1.0019325      19.999997      73.421217    
     95000   1.0186718      20.310549      73.6598      
     96000   1.0452097      19.927978      73.601816    
     97000   1.0052744      20.141134      73.480659    
     98000   1.0074362      20.393247      73.402783    
     99000   0.97902907     20.616173      73.078346    
    100000   0.98453294     20.178247      72.870532    
Loop time of 249.377 on 1 procs for 100000 steps with 1001 atoms

Performance: 346463.380 tau/day, 400.999 timesteps/s
100.0% CPU use with 1 MPI tasks x 1 OpenMP threads

MPI task timing breakdown:
Section |  min time  |  avg time  |  max time  |%varavg| %total
---------------------------------------------------------------
Pair    | 2.0084     | 2.0084     | 2.0084     |   0.0 |  0.81
Bond    | 4.1195     | 4.1195     | 4.1195     |   0.0 |  1.65
Neigh   | 238.39     | 238.39     | 238.39     |   0.0 | 95.59
Comm    | 0.031036   | 0.031036   | 0.031036   |   0.0 |  0.01
Output  | 0.24083    | 0.24083    | 0.24083    |   0.0 |  0.10
Modify  | 4.2733     | 4.2733     | 4.2733     |   0.0 |  1.71
Other   |            | 0.3123     |            |       |  0.13

Nlocal:           1001 ave        1001 max        1001 min
Histogram: 1 0 0 0 0 0 0 0 0 0
Nghost:              0 ave           0 max           0 min
Histogram: 1 0 0 0 0 0 0 0 0 0
Neighs:           7057 ave        7057 max        7057 min
Histogram: 1 0 0 0 0 0 0 0 0 0

Total # of neighbors = 7057
Ave neighs/atom = 7.04995
Ave special neighs/atom = 1.998002
Neighbor list builds = 1162
Dangerous builds = 0

# Replace lj potential, now collapse
pair_style      lj/cut 3

# Cutoff simul when gyration under 10
# Variable created with equal requires v_ + 'name'
fix 3 all halt 1000 v_rog < 7

run 3000000
Generated 0 of 0 mixed pair_coeff terms from geometric mixing rule
Per MPI rank memory allocation (min/avg/max) = 1861 | 1861 | 1861 Mbytes
   Step          Temp         Enthalpy         c_1      
    100000   0.98453294     19.431614      72.870532    
    101000   0.97464322     19.341659      72.638964    
    102000   0.96596731     19.487464      72.532089    
    103000   1.0170323      19.74235       72.445697    
    104000   1.0216008      19.554624      72.38218     
    105000   1.0495531      19.617547      72.364781    
    106000   1.0024707      19.331677      72.212223    
    107000   1.0099641      19.49297       72.085383    
    108000   0.97803294     19.022489      71.934046    
    109000   1.0191232      19.376073      71.827643    
    110000   1.0131746      19.440631      71.614874    
    111000   0.98224202     19.067309      71.545566    
    112000   1.0234168      19.542286      71.335129    
    113000   0.97301859     19.41417       71.227705    
    114000   1.0034359      18.327551      71.179797    
    115000   1.0095033      18.968702      70.990482    
    116000   0.96579581     18.947418      70.986896    
    117000   0.98699999     18.792406      70.731558    
    118000   0.97976588     19.205625      70.719184    
    119000   0.98680639     19.656777      70.557485    
    120000   1.0142754      18.99468       70.339616    
    121000   1.0032636      19.62668       70.334616    
    122000   1.0078617      18.606899      70.096231    
    123000   0.96275023     19.244832      69.896461    
    124000   0.99933391     19.140705      69.73095     
    125000   0.95105354     18.928592      69.339025    
    126000   1.0139298      19.000792      68.988448    
    127000   1.0068091      19.023913      68.856003    
    128000   0.97679316     18.668722      68.70303     
    129000   0.9860226      19.017659      68.557317    
    130000   1.0297696      19.192406      68.533487    
    131000   1.0242369      18.894123      68.382236    
    132000   0.98224152     18.572444      68.336968    
    133000   0.97533557     18.968904      68.324606    
    134000   0.97623541     18.901647      68.44515     
    135000   1.0586802      18.991466      68.312807    
    136000   0.94621742     18.061676      68.119672    
    137000   1.0160892      19.382742      67.763642    
    138000   1.0007789      19.139178      67.582422    
    139000   1.0399439      18.934066      67.273724    
    140000   0.99813485     18.843573      67.349095    
    141000   1.0626525      18.579944      67.290825    
    142000   0.97905588     18.595775      66.9231      
    143000   0.98676546     19.097409      67.029231    
    144000   0.99274718     18.731165      66.780723    
    145000   1.0559077      18.974903      66.430339    
    146000   0.98538552     19.127725      66.454182    
    147000   0.9989889      19.123839      66.431429    
    148000   0.96483222     19.069525      66.262243    
    149000   0.98655229     18.730653      66.125719    
    150000   0.97703655     18.811947      65.92183     
    151000   0.99516422     18.528664      65.79901     
    152000   1.0362697      18.627843      65.609042    
    153000   1.0162515      18.336163      65.513334    
    154000   0.97968907     17.966677      65.455969    
    155000   0.98265981     18.775006      65.418232    
    156000   0.99758935     17.916622      65.341842    
    157000   1.0059071      18.695091      65.151088    
    158000   1.0034127      18.497607      65.026607    
    159000   1.0314927      19.083401      64.751768    
    160000   1.0445871      18.546481      64.736717    
    161000   1.0425782      18.727159      64.594818    
    162000   1.0126764      18.591458      64.300641    
    163000   0.99063191     18.610904      64.109412    
    164000   1.0119163      17.976067      63.928915    
    165000   1.0152909      18.256247      63.730544    
    166000   0.96896075     18.191126      63.372163    
    167000   0.97790517     18.396367      63.070213    
    168000   0.99580498     18.670563      62.821277    
    169000   1.0013113      18.198904      62.799445    
    170000   1.0226672      18.667252      62.751053    
    171000   0.97190687     18.291569      62.875042    
    172000   0.97897571     17.538583      62.713222    
    173000   1.034843       18.499447      62.507987    
    174000   0.99908575     17.769541      62.261863    
    175000   0.99711126     18.53774       62.379606    
    176000   0.97441597     17.566414      62.318662    
    177000   1.0186688      17.866916      62.172279    
    178000   1.0298099      18.455043      62.12226     
    179000   0.98826238     17.440907      61.996094    
    180000   0.97147091     18.100688      62.103949    
    181000   1.0535531      18.506355      62.027403    
    182000   1.0305581      18.267566      62.132338    
    183000   1.0184081      18.326782      62.002262    
    184000   0.9772952      17.864726      61.816395    
    185000   1.017347       17.968191      61.645714    
    186000   0.99552509     18.490812      61.414345    
    187000   1.0372265      18.504266      61.45076     
    188000   0.9920541      18.139127      61.414055    
    189000   0.98104057     17.505226      61.371665    
    190000   1.0008355      17.995478      61.538497    
    191000   1.0184657      17.933383      61.465397    
    192000   0.99616018     18.172126      61.229595    
    193000   0.95238867     17.600153      61.155839    
    194000   1.0295619      17.977139      60.869932    
    195000   1.0102422      18.322132      60.74491     
    196000   0.98277111     17.75289       60.560775    
    197000   0.99570497     18.082097      60.585218    
    198000   1.0244008      17.787795      60.601065    
    199000   1.0023395      17.721169      60.546312    
    200000   1.0470591      18.063822      60.716424    
    201000   1.0126995      17.69146       60.494246    
    202000   1.0139746      17.575293      60.377049    
    203000   1.0175618      17.779844      60.198685    
    204000   1.0570926      17.999389      60.091408    
    205000   1.0365791      17.885171      59.805833    
    206000   0.99715307     17.969117      59.752004    
    207000   0.97281537     17.193459      59.73666     
    208000   1.0314905      17.313398      59.93884     
    209000   1.0042586      17.984394      59.986616    
    210000   0.98193164     17.182509      59.948069    
    211000   1.0140295      17.839033      59.871498    
    212000   0.99554297     17.343882      59.521217    
    213000   1.0230296      18.251099      59.308578    
    214000   0.99671875     17.998164      59.206921    
    215000   1.0222004      17.931993      59.263138    
    216000   0.97631993     17.939083      59.165964    
    217000   0.97618223     17.833943      59.048508    
    218000   0.98628688     17.763275      58.746026    
    219000   1.0039559      18.121091      58.533295    
    220000   1.0430668      17.829239      58.419641    
    221000   1.0230663      17.667496      58.419871    
    222000   0.9925881      17.900785      58.371282    
    223000   0.98863719     18.201534      58.371305    
    224000   1.0118841      17.486163      58.183405    
    225000   1.0580263      18.012095      57.95007     
    226000   0.99786656     17.708803      57.977362    
    227000   0.99091219     17.550462      57.910747    
    228000   0.96728653     17.301398      57.980012    
    229000   1.0385476      18.047428      57.870916    
    230000   0.98711304     18.033457      57.881143    
    231000   0.97352659     17.553298      57.777329    
    232000   0.96049554     17.839144      57.697885    
    233000   1.0166404      18.21047       57.737663    
    234000   1.0303647      17.660916      57.77493     
    235000   0.99173152     17.653842      58.024869    
    236000   0.97253819     17.8522        57.899193    
    237000   0.99074856     17.63479       57.777612    
    238000   0.93894594     17.74679       57.879171    
    239000   1.0308403      17.883848      57.775626    
    240000   0.97884054     17.147834      57.782768    
    241000   1.0098191      17.722296      57.716536    
    242000   0.99269564     17.822431      57.666668    
    243000   0.98003051     17.429157      57.831394    
    244000   0.97790505     17.887161      57.658571    
    245000   0.95692382     18.164436      57.587973    
    246000   0.97437968     17.633512      57.43193     
    247000   0.99245013     18.404489      57.163249    
    248000   1.0173229      18.026573      57.135374    
    249000   1.0086609      17.743123      57.081672    
    250000   1.0031945      18.233269      57.072031    
    251000   1.0324824      17.579022      56.960789    
    252000   0.99300829     17.847581      57.00588     
    253000   1.0319096      17.275046      56.886866    
    254000   1.008126       18.008547      56.751984    
    255000   1.019457       17.568879      56.571382    
    256000   1.048751       17.616324      56.340909    
    257000   1.0057673      18.134363      56.48408     
    258000   0.97473393     17.250674      56.40787     
    259000   0.97952157     17.728218      56.323447    
    260000   1.0042509      17.975507      56.286605    
    261000   0.99450897     17.435321      56.181188    
    262000   0.99308818     17.10407       56.1463      
    263000   0.9787794      17.371273      56.173362    
    264000   0.95623663     17.11422       56.056701    
    265000   1.0128263      18.253141      55.808436    
    266000   1.0421311      18.171122      55.680004    
    267000   1.0047727      17.814251      55.548683    
    268000   1.0067028      17.664179      55.349194    
    269000   1.0277596      17.941767      55.222258    
    270000   0.97638176     17.233842      55.001364    
    271000   0.99871895     17.778397      54.794215    
    272000   0.96428595     18.276073      54.911627    
    273000   0.99616356     17.920351      54.812748    
    274000   0.97627084     17.157745      54.504313    
    275000   1.0019937      17.528416      54.556119    
    276000   1.0037088      17.478065      54.762943    
    277000   1.0102759      17.361266      54.741052    
    278000   1.0675111      17.775535      54.506       
    279000   1.0297791      17.643671      54.363318    
    280000   0.98820409     17.284736      54.293359    
    281000   1.0063644      18.138392      54.040411    
    282000   0.93583385     17.289308      53.799403    
    283000   0.98054229     17.660149      53.695114    
    284000   0.98994724     17.901118      53.632421    
    285000   1.0029785      17.257017      53.19308     
    286000   1.0239608      17.560452      53.118602    
    287000   1.0000735      17.59819       53.003347    
    288000   1.0243519      17.075754      53.092341    
    289000   1.0371359      17.701458      53.108127    
    290000   0.97079769     17.533211      52.883348    
    291000   0.98563841     17.796151      52.897271    
    292000   1.0100137      17.496858      52.771563    
    293000   0.99005753     17.850937      52.649637    
    294000   1.0618415      17.772487      52.328723    
    295000   0.99444947     17.352167      52.270448    
    296000   0.98384049     17.356389      52.198246    
    297000   0.94566504     17.889009      52.03159     
    298000   1.0258776      17.383222      51.813258    
    299000   1.0419201      17.555579      51.420338    
    300000   1.0072106      17.80309       51.194281    
    301000   1.005734       17.254928      50.944576    
    302000   0.97722427     17.397731      50.979938    
    303000   0.97645479     17.635082      50.945044    
    304000   0.99070744     18.475132      50.883213    
    305000   0.95833171     18.237975      50.612362    
    306000   0.98588442     18.160975      50.426902    
    307000   1.0356403      17.849777      50.405562    
    308000   0.98867907     17.441507      50.131748    
    309000   1.0311192      17.832788      49.845149    
    310000   0.9743818      16.978755      49.652167    
    311000   0.9974023      17.820469      49.366587    
    312000   0.94999178     17.935724      49.149808    
    313000   0.98565106     16.839527      49.078066    
    314000   0.99123275     17.769344      48.925297    
    315000   1.012798       17.939456      48.800283    
    316000   0.96590688     17.545652      48.426149    
    317000   0.92859434     18.067522      48.472902    
    318000   1.0243796      17.603353      48.469177    
    319000   1.0088255      17.72355       48.464126    
    320000   0.99674694     17.476261      48.409634    
    321000   0.93045186     16.731421      48.278155    
    322000   1.0182455      17.407717      48.194275    
    323000   0.9980694      17.202314      48.132256    
    324000   1.0181028      16.875604      48.041747    
    325000   1.0001776      18.183838      47.712227    
    326000   1.0229724      17.618183      47.43715     
    327000   0.987952       18.309004      47.190095    
    328000   0.99830818     17.871132      46.941158    
    329000   0.9801807      17.392187      46.820287    
    330000   0.97270347     17.854546      46.448082    
    331000   1.0973936      17.94697       46.36429     
    332000   0.99043996     17.551014      46.289221    
    333000   0.99775704     17.958601      46.095619    
    334000   0.98290709     17.466978      45.770959    
    335000   1.0030882      17.878255      45.558612    
    336000   0.97207441     17.9314        45.429565    
    337000   1.0071022      17.654575      45.300611    
    338000   1.0377752      17.571531      45.165124    
    339000   0.98562355     17.763965      45.078356    
    340000   0.99489511     17.509126      45.264513    
    341000   1.0059315      18.273964      45.350559    
    342000   1.0183556      17.92657       45.214111    
    343000   1.0269129      17.709316      45.236748    
    344000   1.035289       17.689036      44.96398     
    345000   0.97725306     16.909886      44.768982    
    346000   1.0041044      17.353186      44.797524    
    347000   0.99448728     17.305831      44.708432    
    348000   0.99922006     17.741791      44.487209    
    349000   0.96004546     17.259302      44.11952     
    350000   1.043479       18.293529      43.941124    
    351000   1.0038115      17.867546      43.8101      
    352000   0.986547       17.308315      43.571795    
    353000   0.96971347     17.031023      43.390299    
    354000   0.99211        17.977492      43.195359    
    355000   1.0202752      17.32272       43.187348    
    356000   1.0320842      17.54214       43.253167    
    357000   0.98561302     17.335439      42.934642    
    358000   0.99704849     17.302307      42.986784    
    359000   1.0058174      17.716261      43.029429    
    360000   0.97980982     17.575865      42.756369    
    361000   1.002762       17.447383      42.40061     
    362000   1.0146069      17.636321      42.210599    
    363000   1.0251118      17.652846      42.1249      
    364000   0.98857611     17.549487      42.064166    
    365000   0.9874619      17.411599      41.923141    
    366000   0.98542719     17.625409      41.957355    
    367000   0.95855917     17.80164       41.960947    
    368000   0.94629524     17.014567      41.850379    
    369000   0.99773619     17.063931      41.888229    
    370000   0.99638527     17.504435      41.776464    
    371000   0.98648787     17.822396      41.813585    
    372000   1.004495       18.036118      41.808418    
    373000   1.0010554      17.98921       41.696777    
    374000   1.0051177      17.40155       41.656419    
    375000   0.96901629     17.249072      41.685021    
    376000   1.0180036      17.164781      41.888474    
    377000   1.0016175      17.669918      42.019025    
    378000   0.96188502     16.914439      42.040475    
    379000   1.0096489      17.83981       41.851493    
    380000   1.0520638      17.100083      41.76485     
    381000   0.97142739     17.401232      41.521592    
    382000   1.0178029      18.141098      41.709559    
    383000   0.98557357     17.071519      41.691956    
    384000   1.0191325      17.863237      41.644331    
    385000   1.0202055      18.045027      41.71326     
    386000   1.0088256      18.293232      41.580756    
    387000   1.0113726      17.669535      41.444782    
    388000   1.0262044      17.736972      41.589167    
    389000   1.0173298      17.555977      41.591668    
    390000   1.0087884      17.926915      41.431668    
    391000   0.9521094      17.311201      41.381245    
    392000   1.0011354      17.206538      41.228785    
    393000   0.98840827     17.061363      41.175566    
    394000   1.0058006      17.495823      41.180658    
    395000   0.99701226     17.546545      40.991028    
    396000   0.95311076     17.634979      41.01558     
    397000   1.0043994      17.418509      40.904563    
    398000   0.97966672     17.091076      40.909568    
    399000   1.0134553      17.460906      40.595084    
    400000   0.99998354     17.376421      40.548931    
    401000   0.97971704     17.604847      40.379572    
    402000   1.018289       17.59368       40.219799    
    403000   1.0407215      17.294862      40.202895    
    404000   1.0407535      17.963695      39.896587    
    405000   1.0092335      17.47351       39.737718    
    406000   0.96859012     17.588286      39.609073    
    407000   1.0144485      17.509302      39.203428    
    408000   0.97928525     17.13631       39.023877    
    409000   0.96660507     17.519884      39.062672    
    410000   1.0049441      17.30714       39.058138    
    411000   0.99756751     17.107945      39.081724    
    412000   1.0197343      17.971717      38.912989    
    413000   0.99971292     17.243348      38.664138    
    414000   0.99727106     17.398979      38.666006    
    415000   0.99178724     17.516291      38.515108    
    416000   1.0200004      17.727923      38.710521    
    417000   0.98274282     17.618747      38.781686    
    418000   1.0478933      17.547605      38.91717     
    419000   0.94667295     17.08296       38.83238     
    420000   1.0307276      17.673195      38.777261    
    421000   1.0236992      17.365588      38.535156    
    422000   1.0133027      17.33988       38.582791    
    423000   0.96481963     17.574134      38.638474    
    424000   0.97763054     17.367098      38.587153    
    425000   1.0049947      17.868461      38.497487    
    426000   1.0162478      17.096956      38.495057    
    427000   1.0278885      17.335995      38.52047     
    428000   0.98239351     17.784588      38.39712     
    429000   0.99863362     17.764032      38.377977    
    430000   0.97609014     17.716083      38.403029    
    431000   1.0018226      17.596862      38.20899     
    432000   1.0121191      17.74608       37.827059    
    433000   0.94814326     17.317673      37.691689    
    434000   0.97567376     17.438326      38.011866    
    435000   1.0367087      18.266408      37.87658     
    436000   1.0144485      17.681596      37.888106    
    437000   1.0597476      17.624731      37.796154    
    438000   1.0105885      18.178619      37.687009    
    439000   0.98329744     17.6443        37.421845    
    440000   0.98580236     17.567407      37.433308    
    441000   1.0266259      17.925115      37.246118    
    442000   1.0016094      17.467707      37.120896    
    443000   0.9632395      18.22202       36.986157    
    444000   0.99177438     17.81361       36.777551    
    445000   0.99830635     17.556982      36.637218    
    446000   0.97831332     17.562065      36.548559    
    447000   0.96246722     16.540328      36.399117    
    448000   0.99519062     18.149553      36.491984    
    449000   1.0143528      18.213218      36.28126     
    450000   1.0053539      17.675171      36.505674    
    451000   0.99246918     17.908293      36.602103    
    452000   0.9911494      17.561508      36.781952    
    453000   1.0096435      16.71308       36.737676    
    454000   0.97772759     17.532907      36.789719    
    455000   1.0078641      17.516186      36.759592    
    456000   1.0277965      17.20696       36.716927    
    457000   0.98446029     17.724838      36.864255    
    458000   0.98150045     17.67643       36.805562    
    459000   0.98617103     17.249389      36.460558    
    460000   1.017075       17.665235      36.228608    
    461000   0.9936017      17.618512      36.095848    
    462000   1.0317719      17.99788       36.253101    
    463000   0.99160413     18.167482      36.218001    
    464000   0.98184049     17.666181      36.064342    
    465000   1.0072526      17.134223      36.019705    
    466000   0.99853761     17.777759      35.902801    
    467000   1.0109479      17.568922      35.84155     
    468000   0.96570041     18.083606      35.798657    
    469000   1.0060278      17.315887      35.578987    
    470000   0.99307902     17.795412      35.247679    
    471000   0.98238494     17.097881      34.920114    
    472000   1.0577028      17.399594      34.762544    
    473000   1.0352983      17.655885      34.459694    
    474000   1.0104506      17.660614      34.458994    
    475000   0.97021369     16.897468      34.252692    
    476000   1.0275217      17.424704      34.141095    
    477000   0.97915606     17.545893      33.833271    
    478000   1.0364132      17.727308      33.623901    
    479000   1.0249568      17.42894       33.569436    
    480000   1.0285266      17.702601      33.39623     
    481000   0.9999941      16.868441      33.196467    
    482000   1.0284051      17.382211      32.779944    
    483000   1.0523407      16.741952      32.653354    
    484000   1.0135918      17.655609      32.477786    
    485000   1.0155724      17.743549      32.20249     
    486000   0.981607       17.001081      32.083449    
    487000   0.98305227     17.559047      32.008626    
    488000   1.0020634      17.689543      31.961709    
    489000   0.97426174     17.285423      31.780141    
    490000   0.99065876     17.701568      31.771677    
    491000   0.99219715     17.604118      31.824253    
    492000   0.99174571     17.672621      31.780175    
    493000   0.99735232     17.268389      31.738823    
    494000   0.96014327     17.603845      31.699435    
    495000   1.0263619      17.296054      31.601093    
    496000   0.94847555     16.935824      31.583351    
    497000   0.93806104     17.535384      31.413235    
    498000   1.0271038      17.713705      31.031724    
    499000   0.98018983     17.032457      30.981663    
    500000   0.9847273      17.586397      30.829395    
    501000   0.96921409     16.964026      30.927075    
    502000   1.0055925      17.311743      30.719534    
    503000   1.0146757      18.02801       30.771385    
    504000   0.96670641     17.139939      30.715536    
    505000   1.022266       17.443346      30.686317    
    506000   0.99799259     17.255633      30.603443    
    507000   0.97593053     18.119727      30.521682    
    508000   1.0003205      17.022766      30.45625     
    509000   1.0230479      17.336984      30.346175    
    510000   1.0268868      17.553416      30.000024    
    511000   1.0236546      16.751103      29.843215    
    512000   0.97455963     17.140742      29.586895    
    513000   1.0204371      17.568247      29.44082     
    514000   0.95577773     17.217593      29.167914    
    515000   0.99351485     17.851284      28.932793    
    516000   0.98856039     18.054488      28.773859    
    517000   1.0097427      17.632382      28.752947    
    518000   1.0460704      17.553553      28.624652    
    519000   0.96854418     17.30506       28.573601    
    520000   1.0145123      17.534234      28.200151    
    521000   0.94899637     17.44122       28.182115    
    522000   1.0307825      17.549032      27.962422    
    523000   0.99209268     17.713675      28.058561    
    524000   1.0053117      17.118616      27.859221    
    525000   1.0029958      17.150645      27.822854    
    526000   1.0185571      17.949752      27.715431    
    527000   1.0321523      17.623313      27.709124    
    528000   0.99126627     18.029467      27.762155    
    529000   1.014221       17.65133       27.630119    
    530000   1.0074157      17.19304       27.443819    
    531000   1.0039651      17.720379      27.392395    
    532000   1.032987       17.697923      27.417461    
    533000   1.0332086      17.54296       27.365375    
    534000   0.98532897     17.763647      27.266715    
    535000   1.0248286      17.057744      27.189404    
    536000   0.99595181     17.631363      27.134335    
    537000   1.0209763      17.49875       26.889038    
    538000   1.0128803      17.552036      26.788317    
    539000   1.0396177      17.77053       26.717629    
    540000   1.0066685      17.740788      26.785077    
    541000   0.99066274     17.143572      26.6945      
    542000   1.0116464      17.228524      26.439248    
    543000   0.98954662     17.865696      26.452572    
    544000   1.0094483      17.533488      26.367567    
    545000   0.99035849     17.684142      26.080158    
    546000   1.0142092      17.481052      26.010255    
    547000   1.0236705      16.975484      25.869983    
    548000   0.99497337     16.724549      25.610345    
    549000   1.020508       17.380838      25.627811    
    550000   1.0449335      17.460275      25.516164    
    551000   0.98117199     17.618826      25.361332    
    552000   0.97101034     17.055253      25.482112    
    553000   1.048885       17.602956      25.266196    
    554000   0.9994396      17.465278      25.142681    
    555000   1.0072749      16.907119      25.085269    
    556000   1.0411255      17.841985      24.952558    
    557000   1.050284       17.333942      24.885518    
    558000   0.99118719     17.382615      24.950672    
    559000   1.0100564      17.592736      24.922402    
    560000   1.0272782      17.776559      24.876079    
    561000   0.99476854     17.395917      24.769968    
    562000   0.91745178     16.778631      24.773976    
    563000   1.0004883      17.775165      24.877258    
    564000   1.0196322      17.104403      24.870827    
    565000   0.99076927     16.960184      24.760853    
    566000   1.0348729      17.400985      24.849054    
    567000   1.0071309      17.132699      24.917233    
    568000   0.99588693     17.818979      24.842596    
    569000   1.0032284      17.157982      24.562044    
    570000   1.0406291      17.789033      24.429276    
    571000   1.015208       17.243933      24.317502    
    572000   1.0151233      17.158708      24.220221    
    573000   0.98745501     17.049624      24.190763    
    574000   0.97147235     17.02924       24.075022    
    575000   1.0146962      17.472269      24.079008    
    576000   1.0104554      17.564327      24.135874    
    577000   1.0176569      17.705584      24.02068     
    578000   1.031242       17.74237       24.131586    
    579000   1.0138007      17.972947      23.945757    
    580000   0.9683284      17.21109       23.641251    
    581000   0.98390915     17.115932      23.626128    
    582000   0.99975944     18.288839      23.558265    
    583000   1.0202065      17.022628      23.669201    
    584000   0.99780205     17.268408      23.695886    
    585000   0.97383043     17.421762      23.656057    
    586000   0.99241389     17.37722       23.521405    
    587000   1.009085       16.863585      23.490211    
    588000   0.97957886     17.37509       23.42116     
    589000   0.99476239     17.169769      23.391775    
    590000   1.0238392      17.207477      23.272448    
    591000   0.97859887     17.845842      23.287841    
    592000   0.99928312     17.662392      23.291426    
    593000   1.0073043      17.040219      23.263887    
    594000   0.97871419     17.171135      23.097282    
    595000   1.0031091      17.303123      23.091069    
    596000   1.0457148      17.097926      23.184804    
    597000   1.0182291      17.783907      22.845997    
    598000   1.0113301      17.582755      22.706368    
    599000   0.99962313     17.335459      22.735631    
    600000   1.0188669      17.729895      22.650249    
    601000   1.0271103      17.802932      22.185411    
    602000   1.0238084      17.48333       22.062439    
    603000   0.97582667     17.171938      22.113104    
    604000   0.94691637     16.810184      21.977747    
    605000   1.0155087      17.048867      21.45375     
    606000   0.98077639     17.958124      21.415403    
    607000   0.99184364     17.209651      21.366227    
    608000   0.95928093     17.448188      21.231662    
    609000   0.99705669     17.282785      21.223666    
    610000   0.97051455     17.166341      21.12614     
    611000   1.0525892      18.0228        21.203648    
    612000   0.98436838     17.011228      21.069341    
    613000   1.0213387      17.421201      20.928298    
    614000   1.0273461      17.678153      20.672078    
    615000   0.98978114     16.781388      20.450372    
    616000   1.0020621      17.378786      20.49931     
    617000   0.97923081     17.541066      20.639425    
    618000   0.95075054     17.139028      20.382538    
    619000   0.99177812     17.339485      20.041576    
    620000   0.99735276     17.621524      19.884242    
    621000   1.0106542      16.87732       19.68198     
    622000   1.0014448      17.436172      19.500995    
    623000   1.0045536      17.375171      19.310882    
    624000   0.96217905     17.331903      19.231434    
    625000   0.95171063     17.719323      19.21381     
    626000   0.970692       17.248517      19.160111    
    627000   1.0231933      17.805391      19.070211    
    628000   1.0103185      17.289567      18.90713     
    629000   1.0141789      17.653386      18.56357     
    630000   1.0128587      17.120674      18.472443    
    631000   1.0313346      17.522868      18.509479    
    632000   0.97836674     17.434929      18.471586    
    633000   0.99724246     17.137807      18.323918    
    634000   1.0092001      17.355766      18.209533    
    635000   1.047664       17.987831      18.078594    
    636000   0.95853735     17.305629      18.049373    
    637000   0.97788259     17.218353      17.936213    
    638000   1.0041869      17.649469      17.844562    
    639000   1.0072911      17.184537      17.781993    
    640000   0.99917885     17.21828       17.642267    
    641000   0.96185952     17.105058      17.444384    
    642000   0.98299974     17.067395      17.47834     
    643000   0.97615588     16.667024      17.234789    
    644000   1.0262728      17.512272      17.0631      
    645000   1.0132403      17.806612      17.098852    
    646000   0.99795883     17.626503      17.071459    
    647000   1.0003241      16.993998      16.841793    
    648000   1.0192258      17.358971      16.909048    
    649000   1.0428033      17.566362      16.873581    
    650000   1.0198588      17.117416      16.829628    
    651000   1.0191247      17.262129      16.732409    
    652000   0.98006301     17.387125      16.494071    
    653000   1.0117825      17.560381      16.623297    
    654000   0.94023349     17.378306      16.526046    
    655000   0.98252703     17.45589       16.387047    
    656000   0.94339585     17.152263      16.336919    
    657000   0.98569489     16.941602      16.345819    
    658000   1.0107973      17.083034      16.264693    
    659000   1.0231383      17.53976       16.054221    
    660000   0.93226609     17.24109       15.999968    
    661000   1.0316422      17.323877      15.765246    
    662000   1.0263825      17.208263      15.7133      
    663000   0.96852711     16.598433      15.618237    
    664000   0.99411216     17.427379      15.550591    
    665000   1.0024972      17.81321       15.488986    
    666000   1.0155418      17.521226      15.464916    
    667000   1.0188143      17.748654      15.231029    
    668000   0.98533926     17.244263      15.104033    
    669000   0.97784357     17.923462      15.080204    
    670000   0.95480005     16.966132      15.359463    
    671000   1.0432632      16.853951      15.236267    
    672000   1.0028385      17.306557      15.259389    
    673000   1.0273817      16.548044      15.372574    
    674000   1.0315782      17.296784      15.295003    
    675000   1.0528929      17.423019      15.215123    
    676000   1.0123029      17.333614      15.301969    
    677000   1.003009       17.447139      15.268776    
    678000   1.0288077      16.813149      15.261971    
    679000   1.0518383      17.383079      15.186666    
    680000   0.97862281     17.052126      14.869698    
    681000   1.0152152      16.725202      14.832518    
    682000   1.0065571      17.585424      14.796498    
    683000   0.97439363     17.291315      14.677489    
    684000   0.98720432     17.450133      14.781367    
    685000   1.0216197      17.738293      14.73871     
    686000   1.0176937      17.154701      14.803364    
    687000   1.0175801      17.920265      14.592597    
    688000   0.99464167     17.406917      14.688101    
    689000   0.97908821     17.183157      14.363973    
    690000   0.94841645     17.338766      14.369989    
    691000   0.97705004     17.08615       14.365978    
    692000   0.99046803     17.542253      14.29719     
    693000   1.0327047      17.730905      14.297123    
    694000   1.0588333      17.747088      13.829655    
    695000   0.98720664     17.603813      13.781594    
    696000   0.95763929     16.901949      13.821902    
    697000   1.0001958      17.716691      13.820761    
    698000   0.9738743      17.352773      13.759867    
    699000   1.0040358      17.310056      13.648689    
    700000   1.0317751      17.503996      13.42613     
    701000   1.0069998      18.119734      13.497801    
    702000   0.9862039      17.333204      13.363866    
    703000   0.97284924     16.810226      12.948008    
    704000   1.0295426      17.374309      12.671293    
    705000   0.97865        17.5365        12.655807    
    706000   1.0169634      17.123147      12.583567    
    707000   1.0101898      17.314326      12.38828     
    708000   0.97805567     17.077436      12.329352    
    709000   1.0202731      17.578561      12.201848    
    710000   1.0066507      17.618126      12.220411    
    711000   0.99378239     17.173947      12.436474    
    712000   0.99271694     17.279371      12.457335    
    713000   0.962837       17.118768      12.622402    
    714000   1.0435385      17.298991      12.582784    
    715000   0.98457673     16.386386      12.490685    
    716000   0.98326729     17.014811      12.515652    
    717000   1.0294996      17.746442      12.304225    
    718000   0.9882763      16.997939      12.379175    
    719000   0.98152443     17.758556      12.507466    
    720000   1.0427723      17.213188      12.438773    
    721000   1.0094195      17.393533      12.58481     
    722000   1.0227047      16.585236      12.472026    
    723000   1.0161766      17.285684      12.393159    
    724000   0.9608328      16.933609      12.27941     
    725000   0.98232113     17.156845      12.175277    
    726000   1.0106686      17.887272      12.075167    
    727000   1.0485952      17.492428      12.003535    
    728000   1.0067161      17.176488      11.969316    
    729000   0.99646637     17.825808      11.840825    
    730000   1.0830291      17.18303       11.690895    
    731000   1.0091075      16.805833      11.377843    
    732000   1.0190139      17.277926      11.295625    
    733000   0.94639287     17.125058      11.045683    
    734000   1.0108011      17.122626      10.912414    
    735000   0.95912625     17.351504      10.875994    
    736000   0.97251094     17.782997      10.522458    
    737000   1.0058677      17.277842      10.418202    
    738000   0.99065854     17.151083      10.495525    
    739000   0.99551424     16.884059      10.462861    
    740000   1.0334879      17.063528      10.377476    
    741000   1.0184884      17.485097      10.358635    
    742000   0.99058229     16.646416      10.269801    
    743000   0.9704779      16.675671      10.248223    
    744000   1.0140429      16.861662      10.055852    
    745000   1.0312167      17.1289        9.9125805    
    746000   1.069033       17.590256      9.6569178    
    747000   1.0071269      17.083309      9.8462132    
    748000   0.99790762     16.641948      9.6570328    
    749000   0.96017135     17.111812      9.7567137    
    750000   1.0236468      17.52637       9.883925     
    751000   0.99384127     16.938514      9.6491779    
    752000   0.96111649     17.248861      9.5503592    
    753000   0.97028201     16.713897      9.5763942    
    754000   1.0062615      18.036424      9.6823229    
    755000   1.012597       17.226041      9.7839653    
    756000   1.0003154      17.252912      9.5499978    
    757000   0.97018433     16.911145      9.4623406    
    758000   0.99218119     16.870711      9.3538317    
    759000   1.0429905      16.988134      9.1830169    
    760000   0.98932571     16.816044      8.8627885    
    761000   1.0277977      17.483983      8.9087482    
    762000   1.0148625      17.203336      8.8353946    
    763000   1.0008155      17.0192        8.9236426    
    764000   0.94619692     17.02028       8.9053782    
    765000   1.0006221      16.46441       8.8681478    
    766000   1.0202701      17.019626      8.7891137    
    767000   0.98216675     16.930434      8.6686658    
    768000   1.0097824      16.306321      8.5692102    
    769000   1.0147487      17.505083      8.4504478    
    770000   1.0487182      17.253886      8.1694808    
    771000   1.0338386      17.214852      8.0580536    
    772000   0.97654208     17.083787      8.0790163    
    773000   0.96421699     17.098785      8.0851648    
    774000   0.96834934     17.08975       8.1285587    
    775000   1.0097683      17.303458      8.007769     
    776000   0.98991232     17.282632      7.9856837    
    777000   1.0363093      16.979192      7.9132357    
    778000   0.98958219     16.971897      7.9030024    
    779000   0.96215139     17.29987       7.7878327    
    780000   1.0211289      17.488388      7.693925     
    781000   0.96021844     16.830763      7.609794     
    782000   0.96609017     16.477561      7.4207887    
    783000   1.011074       17.069679      7.3237335    
    784000   0.982272       17.036322      7.148209     
    785000   0.98259038     17.061363      7.1348901    
Fix halt condition for fix-id 3 met on step 786000 with value 6.85717754116048 (src/fix_halt.cpp:237)
    786000   0.98171272     16.678794      6.8571775    
Loop time of 1046.88 on 1 procs for 686000 steps with 1001 atoms

Performance: 566161.193 tau/day, 655.279 timesteps/s
99.9% CPU use with 1 MPI tasks x 1 OpenMP threads

MPI task timing breakdown:
Section |  min time  |  avg time  |  max time  |%varavg| %total
---------------------------------------------------------------
Pair    | 479.49     | 479.49     | 479.49     |   0.0 | 45.80
Bond    | 31.02      | 31.02      | 31.02      |   0.0 |  2.96
Neigh   | 499.19     | 499.19     | 499.19     |   0.0 | 47.68
Comm    | 0.31218    | 0.31218    | 0.31218    |   0.0 |  0.03
Output  | 1.7557     | 1.7557     | 1.7557     |   0.0 |  0.17
Modify  | 32.223     | 32.223     | 32.223     |   0.0 |  3.08
Other   |            | 2.89       |            |       |  0.28

Nlocal:           1001 ave        1001 max        1001 min
Histogram: 1 0 0 0 0 0 0 0 0 0
Nghost:              0 ave           0 max           0 min
Histogram: 1 0 0 0 0 0 0 0 0 0
Neighs:         211130 ave      211130 max      211130 min
Histogram: 1 0 0 0 0 0 0 0 0 0

Total # of neighbors = 211130
Ave neighs/atom = 210.91908
Ave special neighs/atom = 1.998002
Neighbor list builds = 5927
Dangerous builds = 0

# This simulation is done
# Move onto the next one
clear
OMP_NUM_THREADS environment is not set. Defaulting to 1 thread. (src/comm.cpp:98)
  using 1 OpenMP thread(s) per MPI task
next f
jump SELF

###
# Reference paper:
# K. Kremer and G. S. Grest
# Dynamics of entangled linear polymer melts: A molecular-dynamics simulation
# J Chem Phys 92, 5057 (1990)

##################################
# MIHIR: for branched polymers
# LJ minimum first to expand and explore, then collapse
###

###
# Looping through the various nuc3branch4 polymers to simulate,
# define variables to switch through
variable f index bb40nuc3bl10bn4d30tot100 bb80nuc3bl20bn4d30tot200 bb120nuc3bl30bn4d30tot300 bb160nuc3bl40bn4d30tot400 bb200nuc3bl50bn4d30tot500 bb240nuc3bl60bn4d30tot600 bb280nuc3bl70bn4d30tot700 bb320nuc3bl80bn4d30tot800 bb360nuc3bl90bn4d30tot900 bb400nuc3bl100bn4d30tot1000 bb440nuc3bl110bn4d30tot1100 bb480nuc3bl120bn4d30tot1200
###


###
# Box and units  (use LJ units and periodic boundaries)
###

units lj
log nuc3branch4/logs/$f.log
log nuc3branch4/logs/bb440nuc3bl110bn4d30tot1100.log
