#atom_style bond #no stiffness
atom_style angle #with stiffness

boundary        p p p
###
# Pair interactions require lists of neighbours to be calculated
###

#neighbor 0.3 bin
neighbor 4 bin

neigh_modify every 1 delay 1 check yes
atom_modify sort 0 0
### Generate RESTART file, SPECIAL format, not a .txt file ###
### Useful if simulation crashes ###

restart 1000000 nuc3branch4/restarts/$f.restart
restart 1000000 nuc3branch4/restarts/bb440nuc3bl110bn4d30tot1100.restart
#############################



### READ "start" data file ###

read_data nuc3branch4/$f.dat
read_data nuc3branch4/bb440nuc3bl110bn4d30tot1100.dat
Reading data file ...
  orthogonal box = (-1000 -1000 -1000) to (1000 1000 1000)
  1 by 1 by 1 MPI processor grid
  reading atoms ...
  1101 atoms
  scanning bonds ...
  3 = max bonds/atom
  scanning angles ...
  6 = max angles/atom
  reading bonds ...
  1100 bonds
  reading angles ...
  1108 angles
Finding 1-2 1-3 1-4 neighbors ...
  special bond factors lj:    0        0        0       
  special bond factors coul:  0        0        0       
     4 = max # of 1-2 neighbors
     4 = max # of 1-3 neighbors
     8 = max # of 1-4 neighbors
    12 = max # of special neighbors
  special bonds CPU = 0.003 seconds
  read_data CPU = 0.132 seconds

######################

### READ "REstart" data file ###

######################



###
# Define groups (atom type 1 is group 'all')
###
group all type 1
1101 atoms in group all


###
# Dump configs - "simple dumpings"
###

###
# Dump configs + box coords
###

dump   1   all   custom   1000  nuc3branch4/trjs/$f.lammpstrj  id  x y z  ix iy iz
dump   1   all   custom   1000  nuc3branch4/trjs/bb440nuc3bl110bn4d30tot1100.lammpstrj  id  x y z  ix iy iz
dump_modify   1   format line "%d %.5f %.5f %.5f %d %d %d"

########################################################################


###################################################################
# Stiffness term
#
# E = K * (1+cos(theta)), K>0
#
angle_style   cosine
#change this coefficient to change stiffness (e.g. 1,5,10)
angle_coeff   1 1.0
###################################################################

###################################################################
# Pair interaction between non-bonded atoms
#
#  Lennard-Jones 12-6 potential with cutoff:
#  potential E=4epsilon[ (sigma/r)^12 - (sigma/r)^6]  for r<r_cut
#
#  1.12246 = 2^(1/6) is the minimum of the potential


pair_style      lj/cut 1.12246152962189
#pair_style      lj/cut 3

#
#  pair_modify shift yes adds a constant to the potential such

#  that E(r_cut)=0. Forces remains unchanged.
#

pair_modify     shift yes

#
#  pair_coeff for lj/cut, specify 4:
#    * atom type interacting with
#    * atom type
#    * epsilon (energy units)
#    * sigma (distance units)
#

pair_coeff      1 1 1.0 1.0
###################################################################

###################################################################
# Pair interaction between non-bonded atoms
#
#  soft potential, for PUSHING apart overlapping atoms
#  potential E=A*(1 + cos(pi*r/r_c))
#
#  1.12246 = 2^(1/6) is the cut-off r_c

#pair_style     soft 1.12246152962189

#
#  pair_coeff for soft, specify 3:
#    * atom type interacting with
#    * atom type
#    * A
#
#

#pair_coeff      1 1 100.0
###################################################################

###################################################################
# Pair interaction between bonded atoms
#
# Fene potential + Lennard Jones 12-6:

#
#  E= - 0.5 K R0^2 ln[ 1- (r/R0)^2]
#     + 4epsilon[ (sigma/r)^12 - (sigma/r)^6] + epsilon
#

bond_style   fene


#
# For style fene, specify:
#   * bond type
#   * K (energy/distance^2)
#   * R0 (distance)
#   * epsilon (energy)  (LJ component)
#   * sigma (distance)  (LJ component)
#


special_bonds fene #<=== I M P O R T A N T (new command)
Finding 1-2 1-3 1-4 neighbors ...
  special bond factors lj:    0        1        1       
  special bond factors coul:  0        1        1       
     4 = max # of 1-2 neighbors
    12 = max # of special neighbors
  special bonds CPU = 0.000 seconds

bond_coeff   1   30   2   1.0   1.0


###################################################

###################################################################
# Pair interaction between bonded atoms
#
# Harmonic potential:
#
#  E= K * (R-R0)^2
#

#bond_style   harmonic

#
# For style harmonic, specify:
#   * bond type
#   * K (energy/distance^2)
#   * R0 (distance)
#

#bond_coeff   1   60.0   1.0
#bond_coeff   2   harmonic 0.1   1.0

###################################################
compute 1 all gyration
variable rog equal c_1
#compute 2 all coord/atom cutoff 1.1

#dump 2 all custom 10000 contact_number.dump id c_2


###
# Set up fixes
###
thermo_style   custom   step  temp enthalpy c_1
fix 1 all nve   ###NVE ensemble

fix 2 all   langevin   1.0 1.0 1.0  100103   ###Langevin integrator Tstart Tstop 1/friction rndseed


##### Sample thermodynamic info  (temperature, energy, pressure, etc.) #####
thermo 1000









############################################################################

###
# set timestep of integrator

timestep 0.01

###
# run integration for a number of steps
###
#run 0
#variable r equal c_1
#if "$r < 63.1" then "quit 1"

# lj potential minimum, cause molecule to explore
run 100000
Generated 0 of 0 mixed pair_coeff terms from geometric mixing rule
Neighbor list info ...
  update: every = 1 steps, delay = 1 steps, check = yes
  max neighbors/atom: 2000, page size: 100000
  master list distance cutoff = 5.1224615
  ghost atom cutoff = 5.1224615
  binsize = 2.5612308, bins = 781 781 781
  1 neighbor lists, perpetual/occasional/extra = 1 0 0
  (1) pair lj/cut, perpetual
      attributes: half, newton on
      pair build: half/bin/newton
      stencil: half/bin/3d
      bin: standard
WARNING: Communication cutoff 5.12246152962189 is shorter than a bond length based estimate of 5.455. This may lead to errors. (src/comm.cpp:723)
Per MPI rank memory allocation (min/avg/max) = 1861 | 1861 | 1861 Mbytes
   Step          Temp         Enthalpy         c_1      
         0   0              13.234555      90.624926    
      1000   0.99666009     18.271058      89.825539    
      2000   1.0110108      18.528144      89.064395    
      3000   1.0285157      18.62407       88.355224    
      4000   1.009639       19.170552      87.770521    
      5000   1.0437133      19.48408       87.354166    
      6000   1.0183783      19.162862      87.01952     
      7000   0.99236629     18.831131      86.53976     
      8000   1.0086514      19.354441      86.207803    
      9000   0.97353747     18.877414      85.780893    
     10000   0.96588692     19.545314      85.466783    
     11000   0.96300893     19.595377      85.011977    
     12000   1.0060582      19.669098      84.478876    
     13000   1.0116949      19.448441      84.178122    
     14000   1.0082316      20.08956       84.044325    
     15000   0.98112898     19.611686      83.836322    
     16000   1.0434746      19.412227      83.606712    
     17000   0.98231058     19.264895      83.537751    
     18000   1.0055336      19.928403      83.474341    
     19000   1.0436283      19.58333       83.210596    
     20000   0.98537458     19.189131      82.93517     
     21000   1.0181933      19.660118      82.760117    
     22000   1.0485903      19.790461      82.569652    
     23000   1.0105279      19.737237      82.276001    
     24000   1.0255119      20.433221      81.79289     
     25000   0.9695595      19.707586      81.323521    
     26000   0.97073384     19.627895      81.15296     
     27000   1.0393839      19.9738        80.705528    
     28000   1.0132023      19.948581      80.404013    
     29000   1.0035436      19.754823      80.035676    
     30000   1.0604149      19.863717      79.839562    
     31000   0.98111084     19.779435      79.718546    
     32000   1.0456977      20.609158      79.471512    
     33000   1.0286728      20.025813      79.09294     
     34000   1.0262219      20.341198      78.838328    
     35000   0.98335899     20.110974      78.610592    
     36000   0.97841581     20.047399      78.367621    
     37000   1.0265887      20.498863      78.258311    
     38000   0.95836241     19.888246      78.082095    
     39000   0.96880294     19.775519      77.80958     
     40000   1.014053       19.867189      77.751971    
     41000   1.0349257      20.051944      77.620953    
     42000   1.0361645      20.348328      77.531699    
     43000   0.96242977     20.095374      77.246516    
     44000   0.98505057     19.91098       76.941519    
     45000   0.98577406     19.967927      76.771001    
     46000   0.99524398     20.332961      76.314014    
     47000   1.0030624      20.020331      76.188599    
     48000   0.98408532     20.27491       75.977961    
     49000   0.99653514     19.924565      75.683077    
     50000   0.96565532     20.156267      75.691163    
     51000   0.98147209     19.885457      75.655104    
     52000   1.0060725      20.502967      75.765225    
     53000   1.0243853      20.810285      75.502405    
     54000   0.99253697     20.211949      75.223383    
     55000   0.97418543     20.006894      75.097897    
     56000   0.99052677     20.610038      74.861101    
     57000   1.0172865      20.488698      74.677333    
     58000   0.98059221     20.397098      74.567317    
     59000   1.0861092      20.140652      74.346105    
     60000   1.1003194      20.684564      74.387916    
     61000   1.0287901      20.403902      74.222693    
     62000   1.0065006      20.527702      74.205659    
     63000   0.98601598     20.337756      73.96378     
     64000   0.92593192     20.467437      73.89043     
     65000   1.0092394      20.137653      73.826245    
     66000   1.0055613      20.309391      73.644162    
     67000   0.93633902     20.104356      73.427284    
     68000   0.9572027      20.598032      73.4503      
     69000   1.014763       20.762715      73.401207    
     70000   1.024503       20.563231      73.273502    
     71000   1.012757       20.521335      73.245495    
     72000   0.98805399     19.881689      72.90058     
     73000   1.0071384      20.26952       72.624562    
     74000   1.0435122      20.338349      72.515018    
     75000   0.98749456     20.160867      72.453381    
     76000   1.0315761      20.175916      72.402927    
     77000   0.99779801     20.622733      72.304345    
     78000   1.0022007      20.189147      72.091092    
     79000   1.0101122      19.995026      71.929169    
     80000   1.0564278      20.549264      71.811551    
     81000   0.99944697     20.126698      71.649107    
     82000   1.0234901      20.140826      71.74567     
     83000   0.97110637     20.206766      71.564792    
     84000   0.99346879     20.072436      71.67483     
     85000   1.0342316      20.266663      71.673592    
     86000   0.98022209     19.978726      71.357143    
     87000   1.0017478      20.321831      71.392019    
     88000   0.97326678     20.859424      71.280189    
     89000   1.0083466      20.696426      71.100727    
     90000   1.000991       20.180873      71.040615    
     91000   1.032107       20.62714       71.107909    
     92000   1.0038191      20.252098      70.995458    
     93000   0.9922488      20.522613      70.750873    
     94000   1.0063829      20.056971      70.555664    
     95000   0.97683957     20.162061      70.338519    
     96000   0.96919969     20.762523      70.197976    
     97000   1.0105353      20.002715      70.108049    
     98000   0.99372263     20.279399      69.955647    
     99000   0.99157119     20.499932      69.886015    
    100000   1.013507       20.162313      69.815184    
Loop time of 346.442 on 1 procs for 100000 steps with 1101 atoms

Performance: 249392.636 tau/day, 288.649 timesteps/s
100.0% CPU use with 1 MPI tasks x 1 OpenMP threads

MPI task timing breakdown:
Section |  min time  |  avg time  |  max time  |%varavg| %total
---------------------------------------------------------------
Pair    | 3.0178     | 3.0178     | 3.0178     |   0.0 |  0.87
Bond    | 5.9044     | 5.9044     | 5.9044     |   0.0 |  1.70
Neigh   | 330.26     | 330.26     | 330.26     |   0.0 | 95.33
Comm    | 0.048265   | 0.048265   | 0.048265   |   0.0 |  0.01
Output  | 0.31985    | 0.31985    | 0.31985    |   0.0 |  0.09
Modify  | 6.4377     | 6.4377     | 6.4377     |   0.0 |  1.86
Other   |            | 0.4537     |            |       |  0.13

Nlocal:           1101 ave        1101 max        1101 min
Histogram: 1 0 0 0 0 0 0 0 0 0
Nghost:              0 ave           0 max           0 min
Histogram: 1 0 0 0 0 0 0 0 0 0
Neighs:           8278 ave        8278 max        8278 min
Histogram: 1 0 0 0 0 0 0 0 0 0

Total # of neighbors = 8278
Ave neighs/atom = 7.5186194
Ave special neighs/atom = 1.9981835
Neighbor list builds = 1173
Dangerous builds = 0

# Replace lj potential, now collapse
pair_style      lj/cut 3

# Cutoff simul when gyration under 10
# Variable created with equal requires v_ + 'name'
fix 3 all halt 1000 v_rog < 7

run 3000000
Generated 0 of 0 mixed pair_coeff terms from geometric mixing rule
Per MPI rank memory allocation (min/avg/max) = 1861 | 1861 | 1861 Mbytes
   Step          Temp         Enthalpy         c_1      
    100000   1.013507       19.382876      69.815184    
    101000   0.99377199     19.176623      69.648081    
    102000   0.97734127     18.809395      69.31118     
    103000   1.0091885      19.196248      68.982165    
    104000   0.97293349     18.558072      68.892118    
    105000   0.98885899     19.756714      68.759237    
    106000   0.99866915     19.502632      68.543094    
    107000   1.0122573      19.340186      68.609519    
    108000   0.97821008     19.423818      68.550434    
    109000   1.0157879      19.524196      68.396958    
    110000   1.0121789      19.191586      68.037725    
    111000   0.98597154     19.162015      67.9351      
    112000   1.0448497      19.468866      67.811396    
    113000   1.0029039      19.037945      67.723436    
    114000   0.98528144     18.947153      67.730823    
    115000   1.0015587      19.035723      67.538903    
    116000   1.0047887      19.262195      67.543208    
    117000   1.0515452      19.628854      67.284012    
    118000   0.99863345     18.962741      67.013495    
    119000   0.99303446     19.059841      66.994109    
    120000   0.97848347     18.512686      66.706154    
    121000   1.009169       18.344175      66.502223    
    122000   0.96951508     19.097777      66.36011     
    123000   1.0047526      18.811779      66.33882     
    124000   1.0026572      19.250096      66.140033    
    125000   0.99417408     19.251703      65.839039    
    126000   1.0264369      18.664755      65.491768    
    127000   1.0138929      19.109166      65.301412    
    128000   0.97007182     19.023514      65.158696    
    129000   0.96344224     19.325275      64.927825    
    130000   1.0225815      19.136527      64.923919    
    131000   0.99521924     18.957814      64.792547    
    132000   1.0291357      18.993504      64.421779    
    133000   0.97730039     18.440491      64.333732    
    134000   0.99293251     19.083918      64.260165    
    135000   1.0070805      18.746748      64.063195    
    136000   1.0095926      18.875539      63.939282    
    137000   0.9699526      19.026695      63.85833     
    138000   0.95671707     18.929569      63.652109    
    139000   1.0095155      18.851607      63.37563     
    140000   1.0406159      18.968989      63.096334    
    141000   1.0040909      18.590937      63.165942    
    142000   1.0153153      18.726578      62.993745    
    143000   1.0211984      18.940082      62.833566    
    144000   0.98459219     18.893363      62.710564    
    145000   1.0084293      18.552014      62.496207    
    146000   0.96823797     18.583946      62.33711     
    147000   1.0349306      19.015039      62.127725    
    148000   0.96135679     18.261064      62.077997    
    149000   1.0541482      18.631324      61.861401    
    150000   0.99121037     18.900342      61.805519    
    151000   1.0089852      19.184516      61.812212    
    152000   0.95578629     18.46729       61.566729    
    153000   0.99294186     18.903018      61.45397     
    154000   0.98747774     18.835577      61.255047    
    155000   0.98702777     19.163985      61.144927    
    156000   1.0052735      18.923128      61.091956    
    157000   0.998781       18.84865       61.170113    
    158000   0.9761137      18.346985      61.035391    
    159000   0.98590306     18.478368      60.742762    
    160000   1.0010812      19.018107      60.555322    
    161000   0.99795547     17.91405       60.488695    
    162000   0.96796162     18.771556      60.48453     
    163000   0.98299074     18.217153      60.203104    
    164000   1.0210437      18.509101      60.063729    
    165000   0.96745755     18.189664      59.896164    
    166000   0.98990327     18.192213      59.735856    
    167000   1.0368502      18.718644      59.35104     
    168000   1.0474805      18.855941      59.308031    
    169000   0.98817077     18.479423      59.316818    
    170000   0.98924619     18.594603      59.224506    
    171000   1.0263318      18.405648      59.164092    
    172000   0.99281781     18.459189      59.070364    
    173000   0.99848796     18.494885      59.094537    
    174000   0.96458746     18.003188      58.816734    
    175000   1.0085596      18.799228      58.561454    
    176000   0.99667896     18.604934      58.376824    
    177000   1.0116112      18.79808       58.194371    
    178000   1.0358786      18.231851      57.854839    
    179000   1.0089779      18.552224      57.878241    
    180000   1.0002843      18.515099      57.723776    
    181000   0.98801781     18.024571      57.627837    
    182000   0.99684028     18.718978      57.555781    
    183000   0.99865168     18.797112      57.409212    
    184000   0.95993055     18.435719      57.235042    
    185000   0.94770915     18.776603      57.11313     
    186000   0.96503181     18.488698      56.940561    
    187000   1.0182456      18.812579      56.951158    
    188000   0.99192545     18.780547      56.825986    
    189000   0.95042316     18.173371      56.814654    
    190000   1.0254459      18.742486      56.635645    
    191000   0.98652227     18.286877      56.642734    
    192000   0.99658772     18.375848      56.561219    
    193000   0.9973921      17.832828      56.510102    
    194000   1.0063766      18.126153      56.323635    
    195000   0.95741466     18.058916      56.218821    
    196000   1.035865       18.140108      56.089175    
    197000   1.016906       18.414405      56.037788    
    198000   1.0084382      18.109403      56.052711    
    199000   0.9971267      18.017338      55.824662    
    200000   1.0071652      17.884916      55.72761     
    201000   0.9938722      17.995812      55.638073    
    202000   0.96710006     18.521717      55.337212    
    203000   0.98889866     18.021001      55.191163    
    204000   0.96923063     18.361601      55.228164    
    205000   1.0199314      18.083416      55.187983    
    206000   0.94966555     17.734348      54.893573    
    207000   0.98031308     17.911797      54.820897    
    208000   0.98888167     17.814135      54.819538    
    209000   1.0247469      17.710248      54.712043    
    210000   1.0445113      18.416879      54.666988    
    211000   0.96102652     17.454655      54.469103    
    212000   1.049309       18.713233      54.414512    
    213000   1.0129635      17.532612      54.231305    
    214000   0.94257323     17.936154      54.169761    
    215000   1.0141698      17.565955      54.253089    
    216000   1.0012932      18.069301      54.141531    
    217000   0.9717525      17.671717      53.92168     
    218000   1.0301291      17.85727       53.775934    
    219000   1.0302902      18.079173      53.553757    
    220000   0.99749477     17.102824      53.562195    
    221000   1.0228871      17.447924      53.619334    
    222000   0.97644832     17.50798       53.630944    
    223000   1.0144135      17.566118      53.571468    
    224000   0.99896886     17.873312      53.600224    
    225000   0.98990447     17.587642      53.505311    
    226000   1.017276       17.83856       53.405805    
    227000   0.97386139     17.549188      53.256113    
    228000   1.001017       17.650418      53.290831    
    229000   0.98309707     17.68014       53.277085    
    230000   1.0069153      17.861206      53.122581    
    231000   0.97790609     18.310662      53.22817     
    232000   0.98839614     17.712275      53.150303    
    233000   1.0378035      18.196392      53.135043    
    234000   0.99016817     17.603752      53.035856    
    235000   0.98838237     18.011496      53.011535    
    236000   0.96242259     17.542109      52.878732    
    237000   0.9980416      17.877633      52.854524    
    238000   0.99826625     17.333501      52.774865    
    239000   0.99366361     17.77785       52.363556    
    240000   1.0345769      17.491502      52.203021    
    241000   1.0131354      17.671541      52.193773    
    242000   0.99563817     17.908765      52.250544    
    243000   1.0524846      18.375757      52.362419    
    244000   0.97738688     17.903056      52.147945    
    245000   1.0058836      17.532246      52.026365    
    246000   1.0316067      17.549621      52.047943    
    247000   1.0103123      17.53427       51.990852    
    248000   1.015863       17.903888      51.901579    
    249000   1.0027136      18.036912      51.810297    
    250000   1.0210927      17.779257      51.707778    
    251000   0.9850665      17.214381      51.817726    
    252000   0.95851466     17.524076      51.58004     
    253000   0.98073792     17.07594       51.361887    
    254000   1.0050645      17.80689       51.474132    
    255000   0.98423902     17.747244      51.426996    
    256000   0.99408792     17.405422      51.535053    
    257000   1.0179562      17.825032      51.55383     
    258000   1.0135163      17.446169      51.43021     
    259000   1.0332081      17.540172      51.341736    
    260000   1.0069386      17.615212      51.218301    
    261000   0.98555799     17.478455      51.22006     
    262000   1.0399915      17.740066      51.179735    
    263000   0.99040637     17.452593      51.058249    
    264000   0.95980558     17.765526      50.824763    
    265000   0.9985158      17.264008      50.734365    
    266000   0.97486501     17.467436      50.904922    
    267000   0.96600893     17.608137      50.978831    
    268000   0.97044027     17.960146      50.794615    
    269000   1.0243688      17.97942       50.706299    
    270000   1.0098841      17.637986      50.464582    
    271000   0.93826466     17.337081      50.255192    
    272000   0.99127276     17.777045      49.910825    
    273000   0.99811305     17.406427      49.801772    
    274000   0.98758807     17.383892      49.738016    
    275000   0.9987643      17.962017      49.679742    
    276000   0.98013633     17.711076      49.600917    
    277000   0.98550251     17.831694      49.404714    
    278000   0.97538708     17.393419      49.359588    
    279000   0.98902414     17.261996      49.167328    
    280000   1.0148868      17.341684      48.985412    
    281000   1.0069944      17.371233      48.750944    
    282000   1.0036796      17.733768      48.683271    
    283000   0.99253674     17.696446      48.536518    
    284000   0.99114284     17.898951      48.549769    
    285000   1.0236763      17.644638      48.430126    
    286000   0.97502369     17.039761      48.196238    
    287000   0.98097079     17.153178      48.028924    
    288000   0.96759948     17.586341      47.864357    
    289000   1.0129114      17.848995      47.626115    
    290000   1.022546       17.572188      47.3462      
    291000   0.99114915     17.668829      47.336393    
    292000   0.98461225     17.537024      47.192873    
    293000   0.98365399     17.915978      47.191926    
    294000   1.0075927      17.973103      47.408052    
    295000   0.99003585     17.386022      47.416782    
    296000   1.0133663      17.996009      47.556377    
    297000   1.0040855      17.219518      47.440139    
    298000   0.99330526     17.604748      47.475583    
    299000   1.0080483      17.983857      47.321664    
    300000   1.0069396      17.488368      47.288067    
    301000   0.97468861     17.93048       46.976236    
    302000   0.98720343     17.824116      46.695481    
    303000   1.0019815      17.62399       46.819721    
    304000   0.99654022     17.63242       46.957245    
    305000   0.97713262     17.178511      46.941569    
    306000   1.0003107      17.441062      46.784978    
    307000   0.98602055     17.642636      46.687431    
    308000   0.98018509     17.599217      46.761508    
    309000   1.0526392      17.758603      46.753412    
    310000   0.99254717     17.827469      46.74488     
    311000   0.97594887     17.798409      46.472062    
    312000   0.99794987     17.957926      46.464434    
    313000   1.0041699      17.486728      46.469215    
    314000   1.0494008      18.061322      46.50549     
    315000   1.0036773      17.42812       46.605727    
    316000   1.0355869      17.993098      46.413019    
    317000   0.97711415     17.983068      46.251094    
    318000   1.009          17.427386      46.314553    
    319000   1.0242671      17.647704      46.307739    
    320000   0.99505964     17.483787      46.173871    
    321000   1.0237865      17.597309      46.093598    
    322000   0.97726187     17.598992      46.056192    
    323000   1.0008713      17.319502      45.824536    
    324000   0.95850029     17.152466      45.877823    
    325000   1.0124596      17.786111      45.91089     
    326000   1.0201655      18.035809      45.831092    
    327000   0.97340826     17.413532      45.901733    
    328000   0.9817726      17.437232      46.029778    
    329000   0.9972236      17.356886      45.95544     
    330000   0.9961265      18.029877      45.869566    
    331000   1.0309695      17.311881      45.707134    
    332000   1.0059244      17.742641      45.588479    
    333000   1.0167431      17.506261      45.622044    
    334000   1.0246516      17.32125       45.484813    
    335000   1.0133815      17.855352      45.371442    
    336000   1.042864       18.160569      45.061552    
    337000   0.95010633     17.245395      45.086394    
    338000   1.0016563      17.558848      44.944419    
    339000   0.97638198     17.224123      44.689234    
    340000   1.0118237      17.563982      44.396478    
    341000   0.97116127     17.418222      44.198631    
    342000   0.98401807     17.617902      44.204324    
    343000   0.98244449     17.580822      44.016795    
    344000   0.99118505     17.321521      43.816041    
    345000   1.0115535      17.823247      43.556746    
    346000   1.0035041      17.645657      43.337427    
    347000   0.99794525     17.011314      43.350336    
    348000   1.023422       17.410938      43.119012    
    349000   0.97416012     18.029293      42.909219    
    350000   1.0460741      17.620296      43.019701    
    351000   0.98531396     17.752921      42.883035    
    352000   1.0192482      18.294214      42.830457    
    353000   0.98458604     17.844473      42.617234    
    354000   1.0097967      17.470834      42.291866    
    355000   0.98774002     17.426244      42.154477    
    356000   0.9661974      17.492317      42.204878    
    357000   1.0131021      17.478092      42.044886    
    358000   0.94889618     17.355031      42.085965    
    359000   0.99401395     17.641829      42.010349    
    360000   1.0420769      17.142713      42.235985    
    361000   1.0067097      17.494166      42.199096    
    362000   0.97973458     17.497963      42.02067     
    363000   1.0322553      17.569428      42.024354    
    364000   0.95689533     17.443657      41.864775    
    365000   0.99804017     17.894689      41.714116    
    366000   1.0403596      17.991536      41.622845    
    367000   0.99674719     17.785606      41.655719    
    368000   0.99980474     17.926376      41.586008    
    369000   0.99340978     17.422672      41.493945    
    370000   1.0343229      17.11587       41.562683    
    371000   0.99295211     17.541074      41.548814    
    372000   0.983449       18.121259      41.400771    
    373000   1.0595271      17.428426      41.133276    
    374000   1.0105923      17.626942      41.068743    
    375000   0.94717668     17.679745      41.094119    
    376000   1.0210837      17.210508      41.135139    
    377000   0.99559205     17.917798      40.885187    
    378000   1.0433871      17.872337      40.892478    
    379000   0.93645257     17.101081      40.66312     
    380000   1.0004468      17.70387       40.348366    
    381000   0.99258265     17.087148      40.268627    
    382000   1.005359       17.64883       40.131421    
    383000   1.0106919      17.847588      39.81637     
    384000   1.0261005      18.093241      39.705632    
    385000   0.9960099      17.37764       40.04835     
    386000   1.0057715      17.822148      40.032783    
    387000   1.0154078      17.370197      39.801061    
    388000   0.94921692     17.25444       39.635894    
    389000   0.99646823     17.831403      39.571616    
    390000   1.0284925      17.469384      39.639797    
    391000   1.0099275      17.579082      39.462241    
    392000   0.97872608     17.795348      39.262388    
    393000   0.97207077     17.498347      39.12984     
    394000   1.0387749      17.692393      39.201568    
    395000   1.0254872      17.915194      39.115637    
    396000   0.98151602     17.760438      39.039845    
    397000   1.0402116      17.54628       39.032065    
    398000   0.99993602     17.914509      39.002375    
    399000   0.99595689     17.701747      38.865669    
    400000   1.0361119      17.300718      38.801356    
    401000   1.0297812      17.772964      38.564289    
    402000   1.0739213      17.689897      38.590188    
    403000   1.0374163      17.346566      38.456582    
    404000   0.94412765     17.277534      38.501424    
    405000   1.0302432      17.194911      38.400951    
    406000   1.0020203      17.067324      38.171532    
    407000   1.0077205      16.949941      38.095225    
    408000   0.99809439     17.26991       38.162283    
    409000   0.96668009     17.279723      38.014549    
    410000   0.99698784     17.989142      37.940984    
    411000   0.95352822     17.300583      37.850826    
    412000   1.0180176      17.67694       37.655085    
    413000   1.0152444      17.596705      37.466557    
    414000   0.98456733     17.063245      37.349986    
    415000   1.0084583      16.798621      37.369708    
    416000   0.99514856     17.985624      37.209546    
    417000   0.99487225     17.494064      37.201834    
    418000   0.98331585     17.769575      36.994095    
    419000   0.98538736     17.538107      37.005819    
    420000   1.0001626      17.221934      36.811636    
    421000   0.99390055     17.281747      36.676557    
    422000   1.0233247      17.868567      36.792469    
    423000   0.97556486     17.122459      36.779983    
    424000   1.0351875      17.985004      36.6778      
    425000   1.0247105      16.953502      36.627638    
    426000   1.0113162      17.792264      36.379383    
    427000   0.9710497      16.817862      36.356442    
    428000   1.0019978      17.911408      36.15082     
    429000   0.98347352     17.551893      35.93775     
    430000   1.0074686      17.843991      35.916615    
    431000   0.98230252     17.414733      35.824079    
    432000   0.96369704     17.17119       35.907505    
    433000   1.0163601      17.4817        35.798128    
    434000   1.0099912      17.33302       35.752133    
    435000   0.97546755     17.350547      35.848588    
    436000   0.9565721      17.60051       35.688498    
    437000   1.0542239      17.066602      35.653541    
    438000   1.0375861      17.964154      35.618476    
    439000   1.0466302      17.504259      35.671143    
    440000   0.99977491     17.45927       35.646994    
    441000   1.0197077      17.392125      35.715836    
    442000   1.000724       17.810376      35.352278    
    443000   1.0420699      17.261118      35.241181    
    444000   0.96571824     16.853306      35.14315     
    445000   1.0359488      17.522383      35.306797    
    446000   0.9869775      17.560347      35.251896    
    447000   1.0130536      17.385971      35.401504    
    448000   1.0032937      17.78797       35.170071    
    449000   0.95158289     17.479175      34.99083     
    450000   1.0296137      17.113058      34.871864    
    451000   1.005795       17.549277      34.559088    
    452000   0.95670227     18.013918      34.241727    
    453000   1.0305195      17.81442       34.326016    
    454000   1.016359       17.090076      34.368073    
    455000   1.0024612      17.621024      34.30697     
    456000   0.97976063     17.526674      34.153605    
    457000   0.99311132     17.51494       34.025895    
    458000   0.96834875     17.292376      34.096527    
    459000   0.99053888     17.540652      33.999073    
    460000   1.0041535      17.474152      34.0089      
    461000   1.0091335      17.666644      34.115009    
    462000   1.0174439      17.771127      34.211215    
    463000   1.0354451      17.916412      34.279527    
    464000   0.99496195     17.345464      34.307696    
    465000   1.0120115      17.109117      34.404368    
    466000   0.9918281      17.072952      34.362744    
    467000   1.0114898      17.51272       34.222708    
    468000   0.99543955     17.552913      34.346961    
    469000   1.0073578      17.308867      34.29769     
    470000   0.98249297     18.195214      34.292501    
    471000   1.0304212      17.072397      34.199498    
    472000   0.97407634     17.568238      34.228911    
    473000   1.0226914      18.113302      34.344889    
    474000   1.0211719      17.151417      33.961306    
    475000   1.0004677      18.114692      33.584797    
    476000   0.97494853     17.773683      33.72232     
    477000   1.020813       17.659939      33.680792    
    478000   0.98992312     17.372765      33.638499    
    479000   1.0159723      17.8926        33.655875    
    480000   1.00254        17.382899      33.527887    
    481000   0.97724861     16.95953       33.522659    
    482000   0.92037348     17.318909      33.384148    
    483000   1.0280694      17.622228      33.378459    
    484000   1.0037067      17.067515      33.478714    
    485000   0.95376301     17.286489      33.31709     
    486000   1.0002208      17.368821      33.341203    
    487000   0.98715662     17.070672      33.194994    
    488000   1.0307932      17.032449      33.308246    
    489000   1.029595       17.853402      33.239799    
    490000   1.013732       17.291985      32.974481    
    491000   1.0116144      16.860208      32.935147    
    492000   1.0096733      17.429629      32.885827    
    493000   1.0096724      17.224996      32.871919    
    494000   0.97708557     17.191317      32.84234     
    495000   1.043733       17.599125      32.829493    
    496000   0.99856295     17.940764      32.915912    
    497000   0.94711122     16.952407      32.805867    
    498000   1.0348172      17.518345      32.80339     
    499000   1.0380958      17.65243       32.804591    
    500000   1.0031917      17.449817      32.594796    
    501000   0.99055531     17.52029       32.57591     
    502000   0.99249755     17.095115      32.34799     
    503000   1.0047884      17.634356      32.487977    
    504000   0.97156195     17.232833      32.450839    
    505000   0.98562296     17.265717      32.421618    
    506000   1.0472031      17.605089      32.367413    
    507000   1.0418363      17.6417        32.150772    
    508000   0.96958264     17.125423      32.120095    
    509000   0.96273684     17.020493      32.18146     
    510000   0.98973677     16.928117      32.398086    
    511000   0.98756489     17.47934       32.21122     
    512000   1.0413654      17.438224      31.774788    
    513000   0.99335414     17.090634      31.642692    
    514000   0.98452696     17.302951      31.488997    
    515000   1.0532225      17.833893      31.664581    
    516000   1.0251461      17.041442      31.531405    
    517000   1.0350077      17.684599      31.519148    
    518000   1.038775       17.447169      31.373696    
    519000   1.0220327      17.282974      31.261443    
    520000   0.97780063     17.023613      31.201905    
    521000   0.98861185     17.455671      31.051112    
    522000   1.0139237      17.726881      31.112806    
    523000   0.9813092      17.397976      31.213481    
    524000   1.0016157      17.136337      31.285745    
    525000   0.97589854     17.539789      31.334667    
    526000   1.024567       17.352173      31.095344    
    527000   0.98605427     17.219631      31.015811    
    528000   1.0323913      17.23338       30.781361    
    529000   1.0210671      16.901999      30.714158    
    530000   0.94221515     17.349661      30.585194    
    531000   0.98016199     16.955832      30.452175    
    532000   1.0349705      17.612209      30.214556    
    533000   0.94856759     17.478853      30.237515    
    534000   0.9746173      17.114873      30.256206    
    535000   1.004314       17.229443      30.168498    
    536000   1.0247628      17.434287      30.229879    
    537000   0.96847655     17.538394      30.239001    
    538000   1.0597432      17.632705      29.99896     
    539000   0.99799441     17.415104      29.898236    
    540000   0.99597042     17.114021      29.935587    
    541000   1.0210752      17.774712      29.76679     
    542000   0.98430643     17.313631      29.673851    
    543000   0.99887487     17.284913      29.641343    
    544000   0.96072203     17.303078      29.480628    
    545000   0.99741278     17.950501      29.455936    
    546000   0.99788419     17.385824      29.198724    
    547000   1.001431       17.299151      29.289817    
    548000   1.0002917      17.428023      29.342583    
    549000   1.0079383      17.657916      29.105998    
    550000   1.0003982      17.302558      29.059999    
    551000   0.98519907     17.456528      29.030275    
    552000   1.014154       17.423596      28.871754    
    553000   1.0447565      17.208637      29.026886    
    554000   1.0269053      17.872285      29.003604    
    555000   0.98550745     17.592781      29.014042    
    556000   1.022123       17.800178      28.888606    
    557000   0.99713539     16.98177       28.794684    
    558000   1.0079826      17.56024       28.755205    
    559000   0.99784457     17.747555      28.705675    
    560000   0.98840386     17.547716      28.600708    
    561000   0.98980489     17.466231      28.483712    
    562000   1.0313234      17.266133      28.657583    
    563000   1.0165596      17.589634      28.380957    
    564000   0.99952349     17.038997      28.179932    
    565000   1.0086964      17.605203      28.063783    
    566000   0.98423528     17.387819      28.032965    
    567000   0.9864843      17.403843      27.727835    
    568000   0.99336215     16.797346      27.698321    
    569000   1.0587675      16.946967      27.469514    
    570000   1.0379481      17.309889      27.469027    
    571000   1.04021        17.479046      27.331727    
    572000   1.0157117      17.147447      27.09472     
    573000   0.99359168     17.410139      27.150479    
    574000   1.0151776      16.983195      27.286384    
    575000   1.0205797      17.371072      27.233066    
    576000   0.96333099     17.206327      27.238729    
    577000   0.99285823     17.44507       27.22128     
    578000   0.97907421     17.414212      27.017584    
    579000   1.0183421      17.662958      26.918015    
    580000   0.96864659     17.026011      26.672312    
    581000   0.99633659     17.143398      26.54178     
    582000   1.0114678      17.413949      26.263908    
    583000   1.025245       17.275798      26.10023     
    584000   1.0201874      17.779502      26.024595    
    585000   1.0200911      17.385912      26.033008    
    586000   1.0136686      17.329462      26.19366     
    587000   0.98904204     17.944613      26.220271    
    588000   1.02695        17.370263      26.110194    
    589000   0.97043374     17.493586      26.180349    
    590000   0.98174778     17.561329      25.938817    
    591000   0.97492733     17.328747      26.069265    
    592000   0.94526102     17.527301      25.995575    
    593000   1.0114052      17.543658      25.953882    
    594000   1.0017221      17.958075      25.535848    
    595000   0.98645916     17.210224      25.383903    
    596000   0.97466381     17.44927       25.545606    
    597000   1.0051084      18.02776       25.497221    
    598000   0.96707743     17.079498      25.328075    
    599000   0.99846828     17.366948      25.215033    
    600000   1.0411102      17.151866      25.154667    
    601000   1.0083816      17.605197      25.292003    
    602000   1.0030485      17.100674      25.322289    
    603000   1.0428677      17.659208      25.126213    
    604000   0.97796812     17.370131      24.957393    
    605000   1.0571102      17.473843      25.002764    
    606000   1.0124706      17.138493      24.870983    
    607000   1.0029421      17.393403      24.913853    
    608000   1.0287904      17.819032      24.816251    
    609000   1.0012127      17.527197      24.972378    
    610000   1.0224678      17.507962      25.075708    
    611000   0.98312186     16.812681      24.899889    
    612000   1.044787       17.279402      24.95064     
    613000   1.0161991      16.898036      24.854937    
    614000   0.98478878     17.385742      24.726631    
    615000   0.96136455     17.449551      24.66887     
    616000   0.96259766     16.603709      24.433219    
    617000   1.0281219      17.111304      24.453961    
    618000   1.0164847      17.575654      24.414115    
    619000   1.0032238      17.174622      24.059839    
    620000   0.98182916     17.233585      24.157134    
    621000   0.9663171      17.500652      24.258512    
    622000   0.99055617     17.745569      24.271602    
    623000   0.97460653     18.04557       24.230382    
    624000   1.0046413      17.014835      24.131142    
    625000   0.99073108     17.008818      24.248244    
    626000   1.0202509      17.019366      24.242972    
    627000   1.0177854      18.205437      24.133535    
    628000   0.98497581     17.127378      24.259171    
    629000   0.98443029     16.874978      24.327579    
    630000   1.0021246      17.322683      24.01142     
    631000   0.99702144     17.54872       23.711517    
    632000   1.0268495      17.400598      23.634314    
    633000   1.0115664      17.53311       23.500814    
    634000   0.95772994     17.431087      23.428922    
    635000   1.0031832      17.301403      23.312113    
    636000   0.99411807     17.620055      23.208377    
    637000   1.007187       17.605405      23.241342    
    638000   0.98325068     17.26212       23.252189    
    639000   0.98651739     17.031378      23.119181    
    640000   0.98413768     17.080004      22.826328    
    641000   1.0454859      17.81708       22.808093    
    642000   1.0593545      17.373354      22.862785    
    643000   0.98222602     17.306059      22.848947    
    644000   1.0362518      17.799011      22.639093    
    645000   1.0214118      17.411749      22.445993    
    646000   0.98648286     17.205547      22.319935    
    647000   0.99747083     17.755636      22.104935    
    648000   0.99080627     16.933249      21.850628    
    649000   0.96946123     17.429767      22.00633     
    650000   0.95333877     16.778207      22.022574    
    651000   0.98382617     16.783482      21.88086     
    652000   0.99747926     17.594041      21.791463    
    653000   0.98905465     16.837837      21.789945    
    654000   1.0280202      17.102105      21.892956    
    655000   1.0186695      17.541459      22.023994    
    656000   1.0268638      17.100864      21.990747    
    657000   1.0220419      17.994712      21.876939    
    658000   1.0393651      17.631548      21.753955    
    659000   1.0105441      17.63435       21.814207    
    660000   1.0062436      16.507532      21.826808    
    661000   0.95949568     17.081117      21.859535    
    662000   1.0039568      16.934242      21.880073    
    663000   1.0155739      16.877771      21.742941    
    664000   1.014829       16.991713      21.785035    
    665000   1.0253605      17.320078      21.942129    
    666000   1.0043635      18.339573      21.682826    
    667000   1.0084179      17.563213      21.74227     
    668000   0.99981924     17.383812      21.650026    
    669000   1.0233643      17.828668      21.484552    
    670000   1.0064422      16.733201      21.542632    
    671000   0.98512609     17.361145      21.600333    
    672000   0.96016738     17.44951       21.471758    
    673000   0.94890202     16.934635      21.027699    
    674000   0.97984112     17.195687      21.02202     
    675000   0.96627121     17.131382      20.970282    
    676000   0.99120652     16.986913      20.986207    
    677000   1.0198074      17.699457      21.054107    
    678000   1.0356176      17.244181      20.959044    
    679000   0.99644878     17.340359      21.096038    
    680000   0.98578105     17.426289      21.106094    
    681000   1.0102352      17.989877      20.940988    
    682000   0.98478105     17.358264      21.065515    
    683000   1.0158112      18.052923      21.09505     
    684000   0.97464015     17.885575      21.108432    
    685000   1.0049312      18.329876      21.025972    
    686000   1.0396979      16.806195      21.039662    
    687000   1.0147933      17.335443      20.965975    
    688000   1.0157479      17.073663      20.724302    
    689000   1.0228735      18.237623      20.473959    
    690000   0.99360516     17.197041      20.406967    
    691000   0.96736525     17.534233      20.410093    
    692000   0.99584519     17.07573       20.483312    
    693000   0.9919059      16.97844       20.517677    
    694000   0.97330045     17.328356      20.458652    
    695000   0.99006165     17.311551      20.465191    
    696000   1.0141816      17.225346      20.446469    
    697000   0.99425455     17.766019      20.641166    
    698000   0.99657498     17.401138      20.567662    
    699000   1.0134362      17.877734      20.498929    
    700000   1.0177425      16.879499      20.286893    
    701000   0.98874124     17.672216      20.237658    
    702000   1.0277802      17.927227      20.051715    
    703000   0.98080685     17.350938      19.910182    
    704000   0.99193308     17.458503      19.829076    
    705000   1.0927856      17.333079      19.893031    
    706000   0.99084628     17.583123      19.86871     
    707000   0.95560047     17.313153      19.712415    
    708000   0.96442176     17.448367      19.552073    
    709000   1.0131119      17.451895      19.611       
    710000   0.99733968     17.331736      19.522526    
    711000   1.0173801      17.900173      19.371783    
    712000   0.95203052     17.469403      19.324261    
    713000   1.0169361      17.520081      19.188069    
    714000   0.98004439     17.545638      19.093185    
    715000   0.98608379     17.137185      19.033816    
    716000   1.0171942      17.63254       19.095498    
    717000   1.0292872      17.44864       19.08178     
    718000   1.030019       17.568562      18.912666    
    719000   0.94101422     16.954762      19.061375    
    720000   0.9895243      16.803241      18.947756    
    721000   0.968035       17.016304      18.734893    
    722000   1.0118901      17.493747      18.643842    
    723000   0.99667467     17.384919      18.500469    
    724000   1.0134385      17.39822       18.303257    
    725000   0.9834471      17.317542      18.186443    
    726000   1.0403016      17.865799      18.185505    
    727000   0.95499269     17.440533      18.216344    
    728000   1.0032909      17.289822      17.902024    
    729000   0.98952807     17.425212      17.820326    
    730000   1.0106506      17.844391      17.655037    
    731000   0.99753745     16.943885      17.599204    
    732000   0.98631945     17.100506      17.524401    
    733000   0.99897515     17.687582      17.412453    
    734000   1.0020457      16.937255      17.318377    
    735000   1.0454164      17.487421      17.237324    
    736000   1.024034       17.397536      17.282364    
    737000   1.0437346      17.180795      17.338761    
    738000   1.0178867      16.749123      17.487933    
    739000   1.0171743      17.206437      17.426171    
    740000   1.0504099      17.201932      17.270416    
    741000   0.99184625     17.532081      17.15901     
    742000   0.98366602     17.120778      17.018456    
    743000   1.0056558      17.251949      17.047247    
    744000   0.99878277     17.000057      16.925575    
    745000   1.0117408      17.27538       17.019079    
    746000   0.97804107     17.611146      16.914889    
    747000   1.0326244      17.389009      16.672267    
    748000   0.99721886     17.669017      16.563296    
    749000   1.0324604      17.197049      16.321833    
    750000   1.0105471      17.033666      16.330236    
    751000   1.0433727      17.381861      16.531027    
    752000   0.99054355     17.220647      16.507623    
    753000   1.0268392      17.258956      16.380892    
    754000   0.98152083     17.193064      16.325516    
    755000   1.0266447      17.750218      16.269389    
    756000   0.99355026     17.00044       16.245329    
    757000   0.99872455     17.142774      16.061815    
    758000   1.0187459      17.074027      15.844959    
    759000   0.99920457     17.637785      15.69756     
    760000   0.99760562     17.603195      15.323558    
    761000   1.0064944      16.997428      15.341657    
    762000   1.0158323      17.531983      15.341716    
    763000   1.0287135      16.716438      15.234304    
    764000   1.0065439      17.109347      15.029401    
    765000   0.99503032     16.955739      14.951534    
    766000   1.0352875      17.286126      14.770491    
    767000   0.98294048     17.190071      14.598083    
    768000   0.9933743      17.108516      14.476223    
    769000   1.00555        17.156148      14.366254    
    770000   0.99474792     16.827986      14.225679    
    771000   0.97107909     17.478129      14.19232     
    772000   1.024699       17.138762      14.110534    
    773000   0.96374707     17.335121      14.10304     
    774000   1.0491321      17.921673      13.916796    
    775000   0.99141772     17.040452      13.884784    
    776000   0.98580087     17.898463      14.097944    
    777000   0.95069409     17.354748      14.25202     
    778000   0.98516824     17.238039      14.427106    
    779000   0.98706152     17.364032      14.405466    
    780000   0.96324601     16.509798      14.396694    
    781000   0.96356276     17.47912       14.343193    
    782000   0.97154249     17.072548      14.215785    
    783000   0.99434132     16.845747      14.069272    
    784000   1.0041322      17.935764      13.942359    
    785000   1.0671749      17.422338      13.929455    
    786000   0.9852129      16.952335      13.624097    
    787000   0.97164324     16.682151      13.566831    
    788000   0.98333202     17.103155      13.258486    
    789000   1.0246336      16.752432      13.197109    
    790000   1.0066751      17.409849      13.020912    
    791000   0.98102565     16.977117      12.875988    
    792000   0.98739052     17.39862       12.859929    
    793000   1.0257292      17.766499      12.55842     
    794000   0.99930527     16.719248      12.236968    
    795000   1.0087104      17.368578      12.133365    
    796000   1.0533267      17.171817      12.097976    
    797000   0.99109025     17.744138      11.947626    
    798000   1.0075314      16.026647      11.893627    
    799000   1.0146878      17.803875      11.735871    
    800000   0.97755826     17.313565      11.733716    
    801000   1.0132881      17.345815      11.660133    
    802000   1.026241       17.588768      11.639334    
    803000   0.99208959     17.213552      11.621232    
    804000   0.97955618     17.309035      11.706373    
    805000   0.98926207     17.388365      11.472556    
    806000   0.9840261      16.993366      11.606488    
    807000   1.0450396      17.120633      11.316006    
    808000   1.0070061      17.078215      11.226388    
    809000   1.0403472      17.166338      10.802186    
    810000   1.0073272      17.064453      10.558928    
    811000   0.97760933     16.828492      10.457615    
    812000   0.96874693     17.446367      10.208627    
    813000   1.0047722      16.722395      10.309037    
    814000   1.0655222      16.914373      10.126024    
    815000   0.98733639     17.175465      10.059135    
    816000   1.0099431      17.110919      10.126917    
    817000   0.96234965     16.815224      9.9494434    
    818000   0.95571298     17.209588      10.018515    
    819000   1.0237408      17.389101      9.964606     
    820000   1.0092052      17.358555      9.796571     
    821000   0.97609934     17.542572      9.6028007    
    822000   1.0068267      17.037996      9.5588874    
    823000   0.97514244     17.149029      9.3697105    
    824000   0.95519185     17.387911      9.4393074    
    825000   0.97315575     17.020577      9.3364239    
    826000   0.94643712     17.024426      9.3928576    
    827000   0.99047403     16.954161      9.1947687    
    828000   1.0341282      16.551205      9.1516075    
    829000   1.0129543      17.105921      8.9936889    
    830000   0.98587063     17.310603      8.8398142    
    831000   1.009633       17.510859      9.0422615    
    832000   1.0173291      17.119121      9.1086506    
    833000   1.0074592      17.661683      9.057585     
    834000   0.9995731      16.433079      9.0347995    
    835000   0.94050101     17.056842      8.9586177    
    836000   0.95670521     16.877032      8.9371449    
    837000   1.0091957      17.716871      8.9611996    
    838000   0.96992012     17.080175      8.9834632    
    839000   0.97238942     17.04177       9.0790577    
    840000   0.93676339     17.086588      9.114738     
    841000   1.0114715      17.323904      8.8264638    
    842000   0.96918453     17.456733      8.7660121    
    843000   1.0045121      16.590153      8.6081225    
    844000   1.0165256      17.352987      8.506136     
    845000   1.0047974      16.654347      8.5342827    
    846000   1.0120132      17.279791      8.5721041    
    847000   0.99177611     17.059385      8.3907466    
    848000   0.99296415     17.196425      8.1567338    
    849000   0.96577508     16.918273      8.0511317    
    850000   1.0309419      16.567353      7.596238     
    851000   1.0086823      16.825807      7.4420979    
    852000   0.99923817     16.627812      7.2099663    
Fix halt condition for fix-id 3 met on step 853000 with value 6.879363293774993 (src/fix_halt.cpp:237)
    853000   0.98805936     16.621417      6.8793633    
Loop time of 1979.77 on 1 procs for 753000 steps with 1101 atoms

Performance: 328619.608 tau/day, 380.347 timesteps/s
100.0% CPU use with 1 MPI tasks x 1 OpenMP threads

MPI task timing breakdown:
Section |  min time  |  avg time  |  max time  |%varavg| %total
---------------------------------------------------------------
Pair    | 1202.8     | 1202.8     | 1202.8     |   0.0 | 60.75
Bond    | 36.893     | 36.893     | 36.893     |   0.0 |  1.86
Neigh   | 693.39     | 693.39     | 693.39     |   0.0 | 35.02
Comm    | 0.40221    | 0.40221    | 0.40221    |   0.0 |  0.02
Output  | 2.001      | 2.001      | 2.001      |   0.0 |  0.10
Modify  | 40.215     | 40.215     | 40.215     |   0.0 |  2.03
Other   |            | 4.1        |            |       |  0.21

Nlocal:           1101 ave        1101 max        1101 min
Histogram: 1 0 0 0 0 0 0 0 0 0
Nghost:              0 ave           0 max           0 min
Histogram: 1 0 0 0 0 0 0 0 0 0
Neighs:         253247 ave      253247 max      253247 min
Histogram: 1 0 0 0 0 0 0 0 0 0

Total # of neighbors = 253247
Ave neighs/atom = 230.01544
Ave special neighs/atom = 1.9981835
Neighbor list builds = 6559
Dangerous builds = 0

# This simulation is done
# Move onto the next one
clear
OMP_NUM_THREADS environment is not set. Defaulting to 1 thread. (src/comm.cpp:98)
  using 1 OpenMP thread(s) per MPI task
next f
jump SELF

###
# Reference paper:
# K. Kremer and G. S. Grest
# Dynamics of entangled linear polymer melts: A molecular-dynamics simulation
# J Chem Phys 92, 5057 (1990)

##################################
# MIHIR: for branched polymers
# LJ minimum first to expand and explore, then collapse
###

###
# Looping through the various nuc3branch4 polymers to simulate,
# define variables to switch through
variable f index bb40nuc3bl10bn4d30tot100 bb80nuc3bl20bn4d30tot200 bb120nuc3bl30bn4d30tot300 bb160nuc3bl40bn4d30tot400 bb200nuc3bl50bn4d30tot500 bb240nuc3bl60bn4d30tot600 bb280nuc3bl70bn4d30tot700 bb320nuc3bl80bn4d30tot800 bb360nuc3bl90bn4d30tot900 bb400nuc3bl100bn4d30tot1000 bb440nuc3bl110bn4d30tot1100 bb480nuc3bl120bn4d30tot1200
###


###
# Box and units  (use LJ units and periodic boundaries)
###

units lj
log nuc3branch4/logs/$f.log
log nuc3branch4/logs/bb480nuc3bl120bn4d30tot1200.log
