#atom_style bond #no stiffness
atom_style angle #with stiffness

boundary        p p p
###
# Pair interactions require lists of neighbours to be calculated
###

#neighbor 0.3 bin
neighbor 4 bin

neigh_modify every 1 delay 1 check yes
atom_modify sort 0 0
### Generate RESTART file, SPECIAL format, not a .txt file ###
### Useful if simulation crashes ###

restart 1000000 linear/restarts2/$f.restart
restart 1000000 linear/restarts2/bb1000nuc0bl0bn0d30tot1000.restart
#############################



### READ "start" data file ###

read_data linear/$f.dat
read_data linear/bb1000nuc0bl0bn0d30tot1000.dat
Reading data file ...
  orthogonal box = (-1000 -1000 -1000) to (1000 1000 1000)
  1 by 1 by 1 MPI processor grid
  reading atoms ...
  1000 atoms
  scanning bonds ...
  1 = max bonds/atom
  scanning angles ...
  1 = max angles/atom
  reading bonds ...
  999 bonds
  reading angles ...
  998 angles
Finding 1-2 1-3 1-4 neighbors ...
  special bond factors lj:    0        0        0       
  special bond factors coul:  0        0        0       
     2 = max # of 1-2 neighbors
     2 = max # of 1-3 neighbors
     4 = max # of 1-4 neighbors
     6 = max # of special neighbors
  special bonds CPU = 0.001 seconds
  read_data CPU = 0.077 seconds

######################

### READ "REstart" data file ###

######################



###
# Define groups (atom type 1 is group 'all')
###
group all type 1
1000 atoms in group all


###
# Dump configs - "simple dumpings"
###

###
# Dump configs + box coords
###

dump   1   all   custom   1000  linear/trjs2/$f.lammpstrj  id  x y z  ix iy iz
dump   1   all   custom   1000  linear/trjs2/bb1000nuc0bl0bn0d30tot1000.lammpstrj  id  x y z  ix iy iz
dump_modify   1   format line "%d %.5f %.5f %.5f %d %d %d"

########################################################################


###################################################################
# Stiffness term
#
# E = K * (1+cos(theta)), K>0
#
angle_style   cosine
#change this coefficient to change stiffness (e.g. 1,5,10)
angle_coeff   1 1.0
###################################################################

###################################################################
# Pair interaction between non-bonded atoms
#
#  Lennard-Jones 12-6 potential with cutoff:
#  potential E=4epsilon[ (sigma/r)^12 - (sigma/r)^6]  for r<r_cut
#
#  1.12246 = 2^(1/6) is the minimum of the potential


pair_style      lj/cut 1.12246152962189
#pair_style      lj/cut 3

#
#  pair_modify shift yes adds a constant to the potential such

#  that E(r_cut)=0. Forces remains unchanged.
#

pair_modify     shift yes

#
#  pair_coeff for lj/cut, specify 4:
#    * atom type interacting with
#    * atom type
#    * epsilon (energy units)
#    * sigma (distance units)
#

pair_coeff      1 1 1.0 1.0
###################################################################

###################################################################
# Pair interaction between non-bonded atoms
#
#  soft potential, for PUSHING apart overlapping atoms
#  potential E=A*(1 + cos(pi*r/r_c))
#
#  1.12246 = 2^(1/6) is the cut-off r_c

#pair_style     soft 1.12246152962189

#
#  pair_coeff for soft, specify 3:
#    * atom type interacting with
#    * atom type
#    * A
#
#

#pair_coeff      1 1 100.0
###################################################################

###################################################################
# Pair interaction between bonded atoms
#
# Fene potential + Lennard Jones 12-6:

#
#  E= - 0.5 K R0^2 ln[ 1- (r/R0)^2]
#     + 4epsilon[ (sigma/r)^12 - (sigma/r)^6] + epsilon
#

bond_style   fene


#
# For style fene, specify:
#   * bond type
#   * K (energy/distance^2)
#   * R0 (distance)
#   * epsilon (energy)  (LJ component)
#   * sigma (distance)  (LJ component)
#


special_bonds fene #<=== I M P O R T A N T (new command)
Finding 1-2 1-3 1-4 neighbors ...
  special bond factors lj:    0        1        1       
  special bond factors coul:  0        1        1       
     2 = max # of 1-2 neighbors
     6 = max # of special neighbors
  special bonds CPU = 0.000 seconds

bond_coeff   1   30   2   1.0   1.0


###################################################

###################################################################
# Pair interaction between bonded atoms
#
# Harmonic potential:
#
#  E= K * (R-R0)^2
#

#bond_style   harmonic

#
# For style harmonic, specify:
#   * bond type
#   * K (energy/distance^2)
#   * R0 (distance)
#

#bond_coeff   1   60.0   1.0
#bond_coeff   2   harmonic 0.1   1.0

###################################################
compute 1 all gyration
variable rog equal c_1
#compute 2 all coord/atom cutoff 1.1

#dump 2 all custom 10000 contact_number.dump id c_2


###
# Set up fixes
###
thermo_style   custom   step  temp enthalpy c_1
fix 1 all nve   ###NVE ensemble

fix 2 all   langevin   1.0 1.0 1.0  778655   ###Langevin integrator Tstart Tstop 1/friction rndseed


##### Sample thermodynamic info  (temperature, energy, pressure, etc.) #####
thermo 1000









############################################################################

###
# set timestep of integrator

timestep 0.01

###
# run integration for a number of steps
###
#run 0
#variable r equal c_1
#if "$r < 63.1" then "quit 1"

# lj potential minimum, cause molecule to explore
run 100000
Generated 0 of 0 mixed pair_coeff terms from geometric mixing rule
Last active /omp style is angle_style cosine/omp
Neighbor list info ...
  update: every = 1 steps, delay = 1 steps, check = yes
  max neighbors/atom: 2000, page size: 100000
  master list distance cutoff = 5.1224615
  ghost atom cutoff = 5.1224615
  binsize = 2.5612308, bins = 781 781 781
  1 neighbor lists, perpetual/occasional/extra = 1 0 0
  (1) pair lj/cut/omp, perpetual
      attributes: half, newton on, omp
      pair build: half/bin/newton/omp
      stencil: half/bin/3d
      bin: standard
WARNING: Communication cutoff 5.12246152962189 is shorter than a bond length based estimate of 5.455. This may lead to errors. (src/comm.cpp:723)
Per MPI rank memory allocation (min/avg/max) = 1860 | 1860 | 1860 Mbytes
   Step          Temp         Enthalpy         c_1      
         0   0              13.413297      250.00023    
      1000   1.0471107      19.030854      249.9777     
      2000   1.0360137      19.165894      249.67722    
      3000   1.0256191      18.790839      249.49932    
      4000   1.0270455      19.873672      249.40232    
      5000   1.0240277      19.26357       249.58477    
      6000   0.9848609      18.960723      249.44205    
      7000   0.98796204     19.232426      249.39805    
      8000   0.99445624     18.790906      249.19657    
      9000   1.0011214      18.907015      249.1068     
     10000   0.96913017     18.298419      248.98771    
     11000   1.0211009      19.090575      248.82843    
     12000   0.97171059     18.778711      248.56301    
     13000   0.99029843     19.150984      248.34151    
     14000   0.99050672     18.872871      247.88249    
     15000   0.96174418     18.658689      247.7794     
     16000   0.98662402     19.294032      247.62245    
     17000   0.99157797     18.972451      247.22144    
     18000   1.0040636      18.863372      247.04629    
     19000   1.0074176      18.820304      246.94873    
     20000   1.0066986      18.747092      246.6937     
     21000   0.99714461     19.165325      246.29495    
     22000   0.96770934     19.532251      246.1035     
     23000   1.0011691      18.534136      245.73938    
     24000   0.99204879     18.863556      245.5895     
     25000   1.0042096      19.039518      245.49366    
     26000   1.0014182      19.369041      245.534      
     27000   0.96250252     19.284853      245.54192    
     28000   1.0288519      18.673853      245.37297    
     29000   1.0076344      19.01126       245.16711    
     30000   0.96088241     19.172189      244.80605    
     31000   0.9860962      18.788855      244.58461    
     32000   0.96707218     19.217018      244.60382    
     33000   1.01066        19.133918      244.35236    
     34000   0.97145606     18.968791      244.11475    
     35000   0.94420574     19.411017      243.77673    
     36000   1.0523683      19.440119      243.73552    
     37000   0.99037913     18.960812      243.54508    
     38000   1.0115488      19.606379      243.54524    
     39000   0.97399943     18.985268      243.30149    
     40000   0.94255488     18.912425      243.01674    
     41000   0.94460344     18.561397      242.80728    
     42000   0.96274262     18.849454      242.67716    
     43000   0.97987286     19.000573      242.70392    
     44000   1.0083009      19.232492      242.53308    
     45000   0.96839417     19.341689      242.53875    
     46000   0.97975842     18.848433      242.42049    
     47000   0.99141364     19.319383      242.36883    
     48000   1.0161901      18.58706       242.27347    
     49000   1.0458451      19.347231      242.06152    
     50000   1.0136764      19.496514      242.0373     
     51000   0.956246       18.805317      242.018      
     52000   1.0181666      19.3558        241.77343    
     53000   0.98645476     19.57201       241.65156    
     54000   0.99651626     18.840435      241.36653    
     55000   1.0544746      19.317715      241.22843    
     56000   0.99425611     19.203241      241.21092    
     57000   1.0300748      19.319461      241.13752    
     58000   0.98509562     19.329493      240.89131    
     59000   1.0201249      19.387763      240.62831    
     60000   0.98835607     19.992968      240.43437    
     61000   1.0524502      19.564973      240.22443    
     62000   0.96494846     19.198361      240.06792    
     63000   0.99419717     19.151142      239.71369    
     64000   0.99461901     19.035366      239.67853    
     65000   1.0259576      19.421732      239.43489    
     66000   0.9837511      19.069403      239.37453    
     67000   1.0072694      19.772063      239.31086    
     68000   0.99192758     19.455456      239.40228    
     69000   1.0154549      19.532717      239.30472    
     70000   1.0373621      19.413101      239.30978    
     71000   1.0075511      19.650693      239.23536    
     72000   1.0030202      18.943655      239.04582    
     73000   0.94173912     19.210377      238.80113    
     74000   0.96936295     19.419745      238.7346     
     75000   0.96536425     19.109804      238.70287    
     76000   0.9737194      19.126897      238.46669    
     77000   0.99833294     19.347276      238.22133    
     78000   0.95461269     19.303814      237.95674    
     79000   1.0022913      19.450453      237.98548    
     80000   1.0073508      19.203883      237.65658    
     81000   1.0232912      19.037754      237.55971    
     82000   1.0030594      19.469144      237.61515    
     83000   0.95629822     19.176753      237.58677    
     84000   0.99370449     19.303507      237.41847    
     85000   0.97979927     19.795336      237.28056    
     86000   1.0389403      19.409416      237.10551    
     87000   1.0445385      19.952606      237.10162    
     88000   1.0653459      19.502773      236.74711    
     89000   0.99599157     19.631567      236.52005    
     90000   0.97183242     19.528634      236.41142    
     91000   1.032489       19.36429       236.1158     
     92000   0.98132333     19.373389      236.13376    
     93000   0.97837264     19.166859      235.7952     
     94000   0.94469649     19.660487      235.59943    
     95000   1.0375894      19.482815      235.647      
     96000   1.0192035      19.033804      235.55435    
     97000   1.005717       19.457311      235.34588    
     98000   0.97005119     19.565074      235.25673    
     99000   0.97304908     19.391403      235.15653    
    100000   0.96685873     19.240616      234.95484    
Loop time of 318.729 on 2 procs for 100000 steps with 1000 atoms

Performance: 271076.513 tau/day, 313.746 timesteps/s
102.8% CPU use with 1 MPI tasks x 2 OpenMP threads

MPI task timing breakdown:
Section |  min time  |  avg time  |  max time  |%varavg| %total
---------------------------------------------------------------
Pair    | 0.82566    | 0.82566    | 0.82566    |   0.0 |  0.26
Bond    | 1.9119     | 1.9119     | 1.9119     |   0.0 |  0.60
Neigh   | 311.22     | 311.22     | 311.22     |   0.0 | 97.65
Comm    | 0.028965   | 0.028965   | 0.028965   |   0.0 |  0.01
Output  | 0.22818    | 0.22818    | 0.22818    |   0.0 |  0.07
Modify  | 4.217      | 4.217      | 4.217      |   0.0 |  1.32
Other   |            | 0.2936     |            |       |  0.09

Nlocal:           1000 ave        1000 max        1000 min
Histogram: 1 0 0 0 0 0 0 0 0 0
Nghost:              0 ave           0 max           0 min
Histogram: 1 0 0 0 0 0 0 0 0 0
Neighs:           4810 ave        4810 max        4810 min
Histogram: 1 0 0 0 0 0 0 0 0 0

Total # of neighbors = 4810
Ave neighs/atom = 4.81
Ave special neighs/atom = 1.998
Neighbor list builds = 1042
Dangerous builds = 0

# Replace lj potential, now collapse
pair_style      lj/cut 3

# Cutoff simul when gyration under 5
# Variable created with equal requires v_ + 'name'
fix 3 all halt 1000 v_rog < 7

run 5000000
Generated 0 of 0 mixed pair_coeff terms from geometric mixing rule
Last active /omp style is angle_style cosine/omp
Per MPI rank memory allocation (min/avg/max) = 1860 | 1860 | 1860 Mbytes
   Step          Temp         Enthalpy         c_1      
    100000   0.96685873     18.805376      234.95484    
    101000   0.97052699     19.297759      234.80987    
    102000   1.0346117      19.390917      234.58664    
    103000   0.9866927      18.79869       234.67865    
    104000   0.99398705     18.835898      234.59697    
    105000   1.0262541      19.464228      234.44502    
    106000   1.0364684      18.943586      234.34018    
    107000   1.0101103      19.491086      234.09432    
    108000   0.9880329      19.376781      234.01973    
    109000   0.97839834     19.090412      234.08412    
    110000   0.98505127     19.180413      234.0135     
    111000   1.0375688      19.174998      234.03691    
    112000   0.97485604     19.0282        233.70971    
    113000   0.96523534     18.463423      233.67533    
    114000   0.94499078     19.211027      233.72113    
    115000   0.99187574     19.553696      233.39394    
    116000   0.97001647     18.439845      233.39937    
    117000   1.0143018      19.148026      233.09234    
    118000   1.0229272      19.873844      232.91242    
    119000   1.0097198      19.367743      233.06272    
    120000   0.99444849     18.963385      232.93999    
    121000   0.99480066     19.367208      232.90721    
    122000   1.038602       19.390553      232.615      
    123000   1.0003999      18.887396      232.37852    
    124000   0.95922761     18.999405      232.16541    
    125000   1.003142       18.612218      232.03261    
    126000   1.030909       18.737819      232.01183    
    127000   0.97305286     19.241003      231.66846    
    128000   1.0165442      18.510897      231.26482    
    129000   0.98897526     18.705523      231.11849    
    130000   0.98940616     18.886997      231.20188    
    131000   0.95947257     18.795874      231.22564    
    132000   1.0436631      18.935929      231.31807    
    133000   0.99312926     18.976969      231.2297     
    134000   0.96667872     19.090477      231.21151    
    135000   0.95757068     19.368779      231.19271    
    136000   0.97965571     18.871702      231.22585    
    137000   1.0171104      18.924095      231.00654    
    138000   0.99018678     19.149171      230.85763    
    139000   0.984252       18.995484      230.73688    
    140000   1.0026797      18.407043      230.7029     
    141000   0.99182339     19.009841      230.28447    
    142000   1.0049557      18.813939      230.18373    
    143000   1.0157492      19.165958      230.22267    
    144000   0.97938309     18.803951      230.218      
    145000   0.95264851     18.947813      230.11675    
    146000   0.96194996     18.85169       230.03005    
    147000   0.9840704      18.915852      229.80998    
    148000   1.0026515      18.741833      229.73218    
    149000   1.0057289      19.207805      229.73077    
    150000   1.0303798      18.91347       229.52742    
    151000   0.99247363     18.526187      229.63998    
    152000   1.0250899      19.175768      229.43079    
    153000   1.0270921      18.76341       229.2101     
    154000   0.9810292      18.819958      229.02436    
    155000   0.99846349     19.199411      229.17386    
    156000   0.97990267     18.84072       229.07141    
    157000   1.0285624      19.070992      228.74424    
    158000   1.0046527      19.065313      228.54906    
    159000   1.0058816      18.805279      228.2052     
    160000   1.0159822      18.896645      228.1823     
    161000   0.97875535     18.692786      228.13276    
    162000   0.98630792     18.518401      228.00832    
    163000   1.0173454      19.101374      228.1098     
    164000   1.006264       18.827667      228.02058    
    165000   1.0449145      19.469454      228.00755    
    166000   1.0661723      19.129114      227.89932    
    167000   0.97076666     19.342892      227.7697     
    168000   0.99909652     19.08108       227.72416    
    169000   0.97073341     18.973216      227.47425    
    170000   1.0329546      19.207504      226.95833    
    171000   1.0238612      18.965413      226.74417    
    172000   1.0480967      18.832951      226.68859    
    173000   0.98673949     18.720843      226.56971    
    174000   0.96476283     19.023392      226.60847    
    175000   0.94975445     18.715981      226.58681    
    176000   0.95907263     19.083077      226.40941    
    177000   0.99666704     18.886425      226.41378    
    178000   0.99405308     18.856865      226.67149    
    179000   1.0221395      18.968217      226.68759    
    180000   0.99538245     19.363839      226.43696    
    181000   0.99110973     18.918023      226.43614    
    182000   1.0000012      18.803841      226.41694    
    183000   1.0192481      19.142718      226.49998    
    184000   1.0087329      19.115285      226.47079    
    185000   0.95958241     19.453103      226.11811    
    186000   1.0100493      18.753591      225.79227    
    187000   1.0135809      18.904893      225.40765    
    188000   1.0020051      18.836073      225.27817    
    189000   0.99423789     18.728252      225.2507     
    190000   0.97739726     18.71602       225.15372    
    191000   1.0226667      19.244318      225.07608    
    192000   1.0075951      18.938133      224.85133    
    193000   1.0269922      18.763757      224.68264    
    194000   1.030972       19.149         224.57005    
    195000   0.97002199     18.564511      224.23033    
    196000   1.0206668      18.825867      224.13711    
    197000   1.0203387      19.127341      223.83643    
    198000   1.0208435      18.68842       223.60068    
    199000   0.96949727     18.942598      223.46716    
    200000   0.975344       18.698511      223.37015    
    201000   0.99462166     18.520393      223.4425     
    202000   1.0232285      18.981727      223.41005    
    203000   0.98513531     18.229995      223.44894    
    204000   1.0503629      19.400643      223.25251    
    205000   0.98888369     19.245529      223.19659    
    206000   1.0308445      18.859384      223.26271    
    207000   0.96495817     18.713885      223.28666    
    208000   1.0083807      18.452619      223.16701    
    209000   1.016942       19.135382      223.02707    
    210000   1.0103571      19.311154      222.53051    
    211000   0.99278403     18.638316      222.2862     
    212000   1.0425525      19.21009       222.00707    
    213000   1.0281574      19.14526       221.78558    
    214000   1.0360696      18.666258      221.89483    
    215000   1.0414771      18.51672       221.74949    
    216000   0.963624       18.249315      221.79603    
    217000   0.94740306     18.49198       221.9493     
    218000   1.0109936      18.996736      221.86086    
    219000   0.96853277     19.085154      221.79359    
    220000   1.0127136      19.167936      221.4896     
    221000   1.0260746      18.719836      221.46007    
    222000   1.0128884      18.947539      221.40361    
    223000   0.98697314     19.208372      221.14841    
    224000   1.0070362      18.972512      220.83536    
    225000   0.99390282     18.780003      220.68243    
    226000   0.99306637     18.950724      220.7028     
    227000   0.96480887     19.161284      220.46016    
    228000   1.016894       18.971766      220.35687    
    229000   1.0043009      19.121966      220.31087    
    230000   1.0188051      19.461855      220.06435    
    231000   1.0027997      18.640191      219.88567    
    232000   1.0239381      18.628084      219.85989    
    233000   1.0349917      18.862209      219.79309    
    234000   1.0445346      18.64518       219.58548    
    235000   1.0002562      19.361739      219.55318    
    236000   1.0284304      19.280837      219.43671    
    237000   1.0122399      18.397562      219.32388    
    238000   1.0228353      18.952946      219.36631    
    239000   1.0413487      19.044863      219.26005    
    240000   1.0107764      18.619066      218.81588    
    241000   1.009227       18.738178      218.7339     
    242000   1.0203809      19.029707      218.78612    
    243000   0.97053159     18.461346      218.51022    
    244000   1.0302066      18.972661      218.59262    
    245000   1.0012796      18.931661      218.5536     
    246000   0.989807       19.112903      218.25361    
    247000   0.96350967     18.855628      218.07388    
    248000   1.0299207      19.178281      217.82841    
    249000   1.0123669      19.255125      217.71883    
    250000   0.99965828     18.856293      217.37079    
    251000   1.0168083      18.98582       217.05521    
    252000   1.0469914      18.648043      217.09625    
    253000   0.96081542     18.849255      217.36788    
    254000   0.93597803     18.629891      217.3257     
    255000   0.97043947     18.899159      217.2375     
    256000   0.95489864     18.860368      217.17716    
    257000   1.0081251      19.427524      216.89057    
    258000   0.96069684     18.897585      216.61733    
    259000   1.0007526      18.854564      216.5293     
    260000   0.98333986     18.813615      216.48155    
    261000   0.9752476      18.951686      216.30819    
    262000   0.98853279     18.896838      216.15927    
    263000   1.0079827      18.962264      216.25044    
    264000   1.0057604      18.586394      216.04682    
    265000   1.0110316      18.770006      216.00158    
    266000   1.018266       19.109668      215.72926    
    267000   1.0155607      19.083315      215.40075    
    268000   1.0379216      19.015795      215.30855    
    269000   0.99138344     18.831259      215.48125    
    270000   0.97781934     18.561817      215.54879    
    271000   1.0620462      19.049625      215.32818    
    272000   0.9882808      19.198672      215.24159    
    273000   1.0366495      19.058124      215.35601    
    274000   1.0469347      19.388007      215.11842    
    275000   0.98288598     18.655252      214.98257    
    276000   0.98033799     19.004306      214.87026    
    277000   1.0058572      19.15623       214.85387    
    278000   0.96476005     19.15694       214.65356    
    279000   1.022038       18.530088      214.4809     
    280000   1.0411735      18.816913      214.35485    
    281000   1.0003475      19.115977      214.27457    
    282000   1.0567183      19.195649      214.24643    
    283000   0.97389823     18.790618      214.50254    
    284000   1.0162596      19.162254      214.55919    
    285000   0.98688812     19.062631      214.4525     
    286000   0.99219736     19.291396      214.38385    
    287000   0.99861527     19.330426      214.07991    
    288000   1.0184297      18.878905      213.67702    
    289000   1.0363382      19.320307      213.40894    
    290000   0.98488449     18.938079      213.53333    
    291000   0.98505498     18.670894      213.40674    
    292000   1.004893       19.066232      213.25933    
    293000   1.0103174      18.790098      213.32411    
    294000   0.96245959     19.515864      213.32034    
    295000   1.0206749      19.289025      213.38437    
    296000   1.0080511      19.208228      213.4369     
    297000   1.0197846      19.121362      213.37551    
    298000   1.0676933      18.878697      213.35333    
    299000   0.99552817     18.372239      213.43315    
    300000   0.97988565     19.078896      212.97717    
    301000   1.003166       18.891376      212.94521    
    302000   0.97327221     18.725361      212.76183    
    303000   1.0110914      19.054577      212.53651    
    304000   0.97940607     19.040289      212.67177    
    305000   1.0319121      18.585698      212.71507    
    306000   1.0047713      18.830779      212.52316    
    307000   1.0631181      18.887924      212.43381    
    308000   0.97678666     19.125834      212.28305    
    309000   1.0054299      18.745736      212.17199    
    310000   1.0355096      18.313692      211.97859    
    311000   0.9926425      18.436232      211.62591    
    312000   0.99610891     18.985032      211.54154    
    313000   1.0025143      18.608601      211.80578    
    314000   1.0335493      19.196641      211.85051    
    315000   1.0185039      19.376988      211.59424    
    316000   1.0138186      19.181754      211.42587    
    317000   1.0292724      18.887105      211.23698    
    318000   1.001146       19.076424      211.2297     
    319000   0.96550775     18.747191      211.15626    
    320000   0.98619014     19.188631      211.00699    
    321000   1.0166114      18.936695      211.00556    
    322000   1.0060369      19.276259      210.97886    
    323000   1.014339       19.078395      210.84352    
    324000   1.0133952      19.257484      210.90714    
    325000   1.0411022      19.64281       210.82026    
    326000   1.0195979      19.159182      210.61152    
    327000   1.0070072      19.195954      210.74362    
    328000   1.0115066      19.360255      210.6976     
    329000   0.98062736     19.141787      210.56241    
    330000   1.0455792      19.525426      210.3279     
    331000   1.0466194      18.833147      210.14107    
    332000   0.96084778     18.709579      210.28335    
    333000   0.98804619     19.014576      210.03295    
    334000   0.97182352     18.680495      209.86283    
    335000   1.0142666      19.047658      209.72694    
    336000   1.0173769      19.081435      209.64389    
    337000   1.0134133      18.747657      209.488      
    338000   1.0291956      18.827493      209.63605    
    339000   0.99258997     19.15308       209.55245    
    340000   1.0115101      18.891004      209.75039    
    341000   0.95877206     19.026547      209.66497    
    342000   1.0441114      19.574978      209.55869    
    343000   1.0148237      18.814325      209.42139    
    344000   0.97990143     19.075445      209.1576     
    345000   0.98637156     18.270724      209.13597    
    346000   1.0042466      19.140837      208.88788    
    347000   1.0223754      19.267415      208.95675    
    348000   0.97717158     19.150447      208.76235    
    349000   0.99025084     19.005333      208.85931    
    350000   1.0136731      18.800821      208.51491    
    351000   1.0400258      19.257443      208.47587    
    352000   0.92188157     19.062527      208.59391    
    353000   1.007295       18.984164      208.71329    
    354000   1.0009193      18.477657      208.49446    
    355000   1.0495242      18.792064      208.39375    
    356000   0.99428357     18.834512      208.28976    
    357000   0.97349817     18.63575       208.14136    
    358000   0.97361743     19.310572      208.08922    
    359000   0.98006971     18.67439       208.06352    
    360000   0.98511842     18.92069       207.96334    
    361000   1.069346       19.055122      207.58123    
    362000   1.0129055      19.215066      207.19525    
    363000   1.0195813      18.681889      207.08293    
    364000   0.98399843     18.92977       206.96005    
    365000   1.0035427      18.832352      206.76337    
    366000   1.0430401      18.97504       206.78408    
    367000   0.9531579      19.19054       206.6622     
    368000   1.0036761      19.284323      206.48452    
    369000   1.0291691      18.88065       206.26284    
    370000   0.99609018     19.209354      206.20529    
    371000   1.0008698      18.83628       205.83081    
    372000   0.96418018     19.095852      205.67596    
    373000   0.97790138     18.683597      205.71195    
    374000   1.0625765      19.078517      205.36238    
    375000   0.99533505     19.315212      205.03465    
    376000   0.99523233     19.015101      204.82054    
    377000   1.013707       18.997073      204.67744    
    378000   1.0176199      19.142586      204.6674     
    379000   1.0179719      19.541045      204.56658    
    380000   0.99800032     18.659631      204.41929    
    381000   0.96538148     19.030388      204.21237    
    382000   0.95634933     18.73031       204.07314    
    383000   0.97418657     19.221882      203.70985    
    384000   1.0036344      18.725937      203.65174    
    385000   0.96232885     18.889951      203.68398    
    386000   0.97885845     19.763281      203.37782    
    387000   0.96329375     19.38833       203.19744    
    388000   1.0089285      19.26934       202.93038    
    389000   0.97032062     18.618538      202.80997    
    390000   1.0070062      18.948945      202.73922    
    391000   1.0560153      18.937684      202.53873    
    392000   0.985826       18.663044      202.35479    
    393000   0.98241684     18.365021      202.33576    
    394000   1.0066041      18.798176      202.35465    
    395000   0.9784791      19.290704      202.38531    
    396000   1.0181041      19.041938      201.97498    
    397000   1.0060147      19.039258      201.83268    
    398000   0.99233552     19.035926      201.48434    
    399000   0.96461658     19.040924      201.54103    
    400000   0.99823528     19.074244      201.21027    
    401000   1.0007858      18.551112      201.01928    
    402000   0.98426852     18.732089      200.84204    
    403000   1.0048412      19.029444      200.81207    
    404000   0.99598636     18.838863      200.83643    
    405000   0.99729638     18.602338      200.58942    
    406000   0.98697215     18.995961      200.71549    
    407000   0.95815589     18.640496      200.70506    
    408000   1.019782       19.155255      200.58717    
    409000   1.0076082      19.251158      200.24429    
    410000   1.0022283      18.707581      200.19305    
    411000   0.99572446     18.724956      200.29828    
    412000   0.98041925     19.056486      200.19975    
    413000   1.0025229      19.143401      199.84832    
    414000   1.0396187      18.561976      199.93036    
    415000   1.0457071      18.869136      199.87129    
    416000   0.98148362     18.685618      199.86046    
    417000   0.97527214     18.604795      199.6202     
    418000   1.0620305      19.652283      199.56619    
    419000   1.0054135      18.731715      199.42498    
    420000   0.95467895     18.682509      199.46605    
    421000   1.0016723      19.371517      199.40507    
    422000   1.00898        19.220179      199.23606    
    423000   0.98540034     18.899986      199.12628    
    424000   0.97533284     19.237034      199.16957    
    425000   0.9887065      19.447241      199.15332    
    426000   0.9974193      19.029285      198.87338    
    427000   0.9836932      18.770799      198.93005    
    428000   0.95980686     18.956752      198.98355    
    429000   1.0625922      18.947643      198.84343    
    430000   1.0190823      18.638112      198.8477     
    431000   0.9561392      18.678192      198.8129     
    432000   1.0122073      19.087373      198.59255    
    433000   1.0102682      19.058381      198.42237    
    434000   0.99270447     18.588096      198.45074    
    435000   1.0285111      19.128427      198.63283    
    436000   0.96705833     19.185053      198.71505    
    437000   0.97057109     18.782586      198.54479    
    438000   1.0306602      19.093801      198.68795    
    439000   1.0159347      18.538646      198.74484    
    440000   0.98531764     19.383462      198.66963    
    441000   0.9748568      18.771566      198.49354    
    442000   0.94243875     18.520105      198.40014    
    443000   1.0090974      19.434075      198.24111    
    444000   1.0496664      19.259706      198.01999    
    445000   0.95967859     18.964171      197.9138     
    446000   1.0056027      18.957263      197.49402    
    447000   0.98727454     19.004506      197.37677    
    448000   0.96230989     18.443109      197.47437    
    449000   1.0116151      19.111031      197.19418    
    450000   0.98218028     18.674727      196.98552    
    451000   1.0132658      18.965468      196.8618     
    452000   1.0067245      19.196072      197.06735    
    453000   1.0204499      19.026901      196.98778    
    454000   0.99509086     18.844505      196.90345    
    455000   1.0154197      18.829737      196.98777    
    456000   1.0013762      19.212022      196.9293     
    457000   1.0478417      18.78551       197.00735    
    458000   1.03653        19.50242       196.98126    
    459000   0.99915468     18.303451      197.01161    
    460000   0.96423485     18.686178      196.98852    
    461000   1.0418436      18.887601      197.17309    
    462000   0.98728187     19.444605      196.92779    
    463000   1.0011109      18.528516      196.89912    
    464000   1.0263887      18.742145      196.86507    
    465000   1.0206142      18.780198      196.77349    
    466000   0.99870735     19.391523      196.40599    
    467000   1.0071161      18.730513      196.38506    
    468000   1.0261353      19.098769      196.2215     
    469000   0.9952784      19.379037      196.13422    
    470000   1.0339582      19.241089      196.03395    
    471000   1.0473475      19.008815      196.13922    
    472000   0.98005767     18.630781      195.97974    
    473000   1.0042593      18.686999      195.76616    
    474000   1.0284022      18.972419      195.88415    
    475000   0.94744184     18.630861      195.90209    
    476000   1.0030079      18.996379      195.89063    
    477000   1.0243216      19.092385      196.01332    
    478000   1.016322       18.710966      195.79675    
    479000   1.0092464      19.087204      195.8195     
    480000   0.98372291     19.138248      195.97869    
    481000   1.0482688      18.8851        196.02343    
    482000   0.98175755     19.327121      195.8755     
    483000   0.99108223     18.982872      195.51948    
    484000   1.0217894      18.689119      195.31818    
    485000   0.97948547     19.000459      195.09263    
    486000   0.99515743     18.663197      194.99332    
    487000   0.99032244     18.388769      195.01535    
    488000   0.9983481      18.504083      195.04307    
    489000   0.98849072     18.581088      194.79546    
    490000   1.0201828      18.618704      194.73277    
    491000   1.0099279      19.071179      194.62057    
    492000   1.0138681      18.978914      194.4576     
    493000   1.0312509      19.245186      194.41123    
    494000   1.0044467      19.471605      194.39062    
    495000   0.990157       18.511759      194.29327    
    496000   0.95002112     19.0085        194.13164    
    497000   0.97408052     18.75507       194.06842    
    498000   1.0280799      18.654684      193.85487    
    499000   0.9501463      18.434692      193.68464    
    500000   0.98955639     18.51829       193.47805    
    501000   1.0115668      18.777589      193.09635    
    502000   1.0220203      18.694602      193.04567    
    503000   1.0177657      19.172494      193.02026    
    504000   1.0036039      18.759825      192.70013    
    505000   1.0222835      19.037129      192.7163     
    506000   1.0010565      18.407361      192.48576    
    507000   1.0218864      18.578524      192.33443    
    508000   0.97401953     18.70477       192.04342    
    509000   0.99605472     19.179841      191.94548    
    510000   1.005749       19.788279      191.72368    
    511000   1.0357821      18.727165      191.76283    
    512000   0.95267648     18.490099      191.44942    
    513000   0.98830117     18.211598      191.24956    
    514000   1.0026564      18.413723      191.41493    
    515000   1.0110314      19.001844      191.45061    
    516000   0.96794336     18.370594      191.30955    
    517000   1.0000566      18.915516      191.38728    
    518000   0.97457925     18.379293      191.45214    
    519000   0.98319365     18.679788      191.16324    
    520000   0.96657239     18.866405      190.98394    
    521000   1.0007913      18.936813      191.22537    
    522000   1.0154655      18.502126      191.09981    
    523000   1.00847        18.700401      190.87986    
    524000   0.9809369      19.187891      190.67921    
    525000   0.99442408     19.136982      190.44804    
    526000   0.98297058     18.912482      190.29385    
    527000   1.0540755      18.587079      190.22403    
    528000   1.01465        18.992661      190.07215    
    529000   1.0280792      19.003022      190.09189    
    530000   1.02924        19.101208      189.80257    
    531000   1.0348196      18.786269      189.70879    
    532000   0.939721       18.808122      189.82006    
    533000   1.0170072      18.498963      189.64296    
    534000   0.98740034     18.712317      189.65908    
    535000   1.0044247      18.742774      189.65387    
    536000   1.0191616      18.998028      189.4512     
    537000   0.99774229     18.91085       189.14331    
    538000   1.0014587      18.905887      189.032      
    539000   1.0116451      18.618017      189.04412    
    540000   0.95304318     18.604533      188.88158    
    541000   0.97913623     18.537541      188.79061    
    542000   1.0244202      18.657504      188.80804    
    543000   1.0060144      19.220169      188.79233    
    544000   1.0260272      18.618548      188.67771    
    545000   1.0088112      18.622761      188.48647    
    546000   1.0254767      18.880593      188.24964    
    547000   0.97117549     18.62362       187.90246    
    548000   1.0213573      18.572323      187.70733    
    549000   1.0069598      19.129549      187.56247    
    550000   1.0036583      18.8809        187.33953    
    551000   1.0286346      18.839773      187.13185    
    552000   1.037537       18.852878      186.86494    
    553000   1.0015697      18.908798      186.63054    
    554000   1.0430364      19.438493      186.61854    
    555000   0.98543726     18.80241       186.56516    
    556000   0.99476317     19.020094      186.22809    
    557000   1.0131461      18.91671       186.28712    
    558000   1.0201988      18.817727      186.10807    
    559000   1.0164669      18.805243      186.33057    
    560000   1.0307462      19.141037      186.44824    
    561000   1.0227716      18.706529      186.47751    
    562000   0.9963618      18.461856      186.42455    
    563000   1.0409138      18.796049      186.41926    
    564000   1.0088431      18.884672      186.38772    
    565000   1.0249259      19.331941      186.31692    
    566000   1.0287792      18.967779      186.04146    
    567000   1.0056032      18.229138      185.96096    
    568000   1.0211188      19.146112      185.84059    
    569000   1.0112801      19.081331      185.78759    
    570000   0.97866209     18.627913      185.45286    
    571000   1.0030837      18.352097      185.33805    
    572000   0.99399743     19.174468      185.11635    
    573000   0.97560782     18.162957      184.84303    
    574000   0.98657508     18.334837      184.58659    
    575000   1.0354083      18.753149      184.33382    
    576000   0.99429877     18.908062      184.19155    
    577000   0.990681       18.790801      184.19607    
    578000   0.9757734      18.356125      183.89863    
    579000   1.0023288      18.460476      183.88777    
    580000   0.99406997     18.804786      183.58622    
    581000   0.9711561      18.535325      183.58577    
    582000   0.99515844     18.3703        183.61269    
    583000   1.0270468      18.875127      183.51792    
    584000   1.0075439      18.701911      183.41211    
    585000   1.0064309      18.74319       183.48371    
    586000   0.99532636     18.625636      183.46966    
    587000   1.0639494      18.88045       183.64377    
    588000   0.96057764     18.423541      183.32083    
    589000   0.98108007     19.116872      183.28514    
    590000   1.0207135      18.499337      182.88269    
    591000   1.0122786      18.975581      182.7369     
    592000   0.99391565     18.453309      182.32153    
    593000   0.98027127     18.643207      182.2134     
    594000   0.99661911     18.871004      181.86812    
    595000   1.0282722      19.49457       181.90685    
    596000   1.0204695      19.29865       181.61982    
    597000   1.0052621      18.728478      181.37427    
    598000   0.98750037     19.439187      181.36217    
    599000   1.0354198      19.318299      180.97942    
    600000   1.0078181      19.251665      180.92812    
    601000   0.98181805     18.447072      180.8357     
    602000   0.98795891     18.114914      180.81815    
    603000   1.0597536      18.554201      180.76312    
    604000   1.0695655      19.0035        180.73001    
    605000   1.0245963      18.88981       180.63738    
    606000   0.98835185     18.603766      180.6295     
    607000   0.99198241     18.344855      180.56652    
    608000   1.0082394      18.509716      180.71679    
    609000   0.96757722     18.596167      180.40484    
    610000   0.98701675     18.855223      180.31036    
    611000   0.9732089      18.643613      180.16466    
    612000   0.9834265      18.439473      180.00635    
    613000   0.95252316     18.457321      179.56835    
    614000   0.99509641     18.499443      179.56911    
    615000   0.95004159     18.756399      179.34946    
    616000   0.98795696     18.728337      179.29221    
    617000   1.0528561      18.847359      179.31971    
    618000   1.0033707      19.350753      179.29861    
    619000   1.00234        18.667144      179.18348    
    620000   1.0114257      18.70084       179.26948    
    621000   1.0109331      18.990543      179.11039    
    622000   0.98398986     19.087945      179.06687    
    623000   0.9871723      18.281168      178.8334     
    624000   0.9996264      19.172353      178.55588    
    625000   1.0058531      18.42929       178.51804    
    626000   0.96460622     18.493814      178.48179    
    627000   1.0047737      18.788657      178.43254    
    628000   1.0121744      18.903391      178.37381    
    629000   0.97117148     18.688773      178.34915    
    630000   1.014738       18.636982      178.43457    
    631000   1.0091123      18.92453       178.24722    
    632000   1.0239992      18.950491      178.32986    
    633000   1.0083233      18.460019      178.08329    
    634000   0.98436369     18.251329      177.83122    
    635000   0.94752801     18.599051      177.54341    
    636000   1.0054213      18.814022      177.34035    
    637000   0.9766342      18.236878      177.35353    
    638000   0.98829951     18.81061       177.25164    
    639000   1.0144693      18.823253      176.99446    
    640000   1.0587923      18.756052      176.92925    
    641000   0.9709724      17.98691       177.05922    
    642000   0.97719673     19.176559      177.19713    
    643000   1.0074414      19.198769      177.15778    
    644000   1.015873       18.968384      177.08488    
    645000   1.0583826      19.362797      177.07797    
    646000   1.0225717      18.590103      176.95717    
    647000   1.0198119      18.633045      177.04419    
    648000   1.0181793      18.851837      176.983      
    649000   0.99190078     18.755267      176.88794    
    650000   1.0297548      18.300553      176.8372     
    651000   0.98026713     19.235568      176.71939    
    652000   0.96741782     18.886132      176.32952    
    653000   1.0037787      18.431348      176.1885     
    654000   0.98082406     18.481184      176.1024     
    655000   0.99255937     18.756025      175.99142    
    656000   0.96692255     18.929315      176.1374     
    657000   1.0296425      18.872221      176.0962     
    658000   1.0099583      18.696848      175.96083    
    659000   1.031736       18.330494      175.85253    
    660000   0.98733753     18.893959      175.73095    
    661000   0.99707393     19.427453      175.5403     
    662000   1.0165083      18.400068      175.53731    
    663000   0.9631775      18.16512       175.51404    
    664000   0.97377478     19.152775      175.45744    
    665000   0.95096108     18.543984      175.40631    
    666000   1.0092692      18.410669      175.35724    
    667000   1.000663       19.060971      175.38979    
    668000   1.018453       18.671134      175.29156    
    669000   1.0041013      18.797396      175.22863    
    670000   0.94516999     18.074965      175.24428    
    671000   0.94956457     18.629995      175.24311    
    672000   1.0062236      18.750909      175.21302    
    673000   1.0474272      18.629307      175.18364    
    674000   1.0341541      18.060052      175.25661    
    675000   0.99835266     18.898398      175.20097    
    676000   1.0108398      18.775343      175.35827    
    677000   1.0432239      18.670773      175.37169    
    678000   1.014738       18.605327      175.39286    
    679000   1.0062945      19.194455      175.76717    
    680000   0.97252126     18.227617      175.57679    
    681000   0.97273194     18.392211      175.33574    
    682000   1.0564928      19.079002      175.14382    
    683000   1.0153755      18.682314      174.90357    
    684000   1.002119       18.814567      174.77977    
    685000   0.98427629     18.682569      174.95971    
    686000   0.98471785     18.416374      174.79442    
    687000   1.00495        18.734127      174.69464    
    688000   1.0110128      18.620131      174.58211    
    689000   1.0173787      18.930027      174.44501    
    690000   0.97286086     19.385547      174.43717    
    691000   0.97610227     18.646419      174.35866    
    692000   0.99493078     18.942189      174.3774     
    693000   1.0197493      18.426601      174.18116    
    694000   0.99267066     18.782105      174.15577    
    695000   0.98386552     18.522813      174.1623     
    696000   0.99225277     18.998907      174.06279    
    697000   1.0318599      18.943682      173.84829    
    698000   0.9927291      18.020923      173.80955    
    699000   0.99094958     18.646076      173.78327    
    700000   1.0058659      18.006319      173.88519    
    701000   0.95432724     19.036762      174.02196    
    702000   1.005794       18.673293      174.09041    
    703000   0.98925318     18.804127      173.83532    
    704000   1.0294665      18.642317      173.66355    
    705000   0.991926       18.550391      173.51539    
    706000   0.97369477     18.301446      173.35521    
    707000   1.0306245      18.700881      173.29829    
    708000   0.98151306     18.729307      173.1386     
    709000   1.010517       18.812304      173.30185    
    710000   0.99844004     18.473835      173.21248    
    711000   1.0154493      18.538211      173.04536    
    712000   0.97584777     18.620198      172.84147    
    713000   0.99985922     19.006583      172.58824    
    714000   0.96497705     18.602639      172.49437    
    715000   1.0052026      18.723854      172.42631    
    716000   0.97445905     18.350637      172.48729    
    717000   1.0564534      18.891904      172.38254    
    718000   1.0066639      18.589053      172.41584    
    719000   0.96419286     18.182665      172.26609    
    720000   1.0375893      19.067696      172.35377    
    721000   0.97535191     18.478447      172.07128    
    722000   0.99049212     18.235401      171.77519    
    723000   1.0110346      18.895841      171.7142     
    724000   0.98155216     19.005161      171.50355    
    725000   0.97548538     18.356639      171.38098    
    726000   0.95605366     18.635634      171.23826    
    727000   1.0243628      19.016931      170.90735    
    728000   1.0578072      18.441889      170.73422    
    729000   1.0066109      18.794995      170.51585    
    730000   1.0307007      19.462104      170.40125    
    731000   1.0308846      18.679531      170.26425    
    732000   0.99293414     19.041614      170.19955    
    733000   1.013959       18.693813      170.30017    
    734000   0.99082605     18.68045       170.19081    
    735000   0.99152997     18.900383      170.23382    
    736000   1.0060598      18.873736      170.15949    
    737000   1.0032755      19.049245      170.03216    
    738000   1.0031802      18.58573       170.06139    
    739000   1.0649352      18.560259      169.95625    
    740000   1.0030066      18.901242      169.76572    
    741000   0.98360525     18.547431      169.59715    
    742000   0.99906486     18.716843      169.47989    
    743000   1.0361672      18.682472      169.4769     
    744000   0.98660816     18.461288      169.197      
    745000   0.973997       18.737457      169.29665    
    746000   1.0128718      18.658688      169.0109     
    747000   1.0078838      18.441843      168.73678    
    748000   1.035184       18.641011      168.71692    
    749000   0.97699416     18.710519      168.70429    
    750000   1.0236265      18.752553      168.57841    
    751000   0.99997183     18.427006      168.49247    
    752000   0.99327485     18.980591      168.2743     
    753000   0.99752566     19.340502      168.22068    
    754000   0.9838588      18.571666      168.34401    
    755000   0.99197479     18.231224      168.18274    
    756000   0.97850998     18.193076      168.12381    
    757000   1.0037504      19.116142      167.93594    
    758000   0.94879769     18.556453      168.06008    
    759000   1.0125392      18.414116      167.78199    
    760000   0.99516117     18.715408      167.67804    
    761000   0.96690155     19.133323      167.53673    
    762000   0.99138558     18.581134      167.50569    
    763000   0.94385936     18.18866       167.56761    
    764000   0.98154247     18.6606        167.65091    
    765000   0.99110419     18.336847      167.36108    
    766000   1.0168693      18.964416      167.20416    
    767000   0.9939561      18.618265      167.10494    
    768000   0.93228567     18.678712      167.02693    
    769000   1.0429188      18.996014      167.07105    
    770000   1.0028967      18.708689      167.17108    
    771000   1.0306484      18.757802      167.14472    
    772000   1.011745       18.913073      167.1147     
    773000   0.98978185     18.878147      167.14106    
    774000   1.009176       18.768095      167.19688    
    775000   0.96391442     18.637849      167.09768    
    776000   1.0292536      18.704212      167.05108    
    777000   1.0268547      18.610191      167.00015    
    778000   1.0146635      18.609258      166.83894    
    779000   0.97257576     18.533334      166.77914    
    780000   1.0587495      18.556138      166.59191    
    781000   1.0115441      18.732384      166.53037    
    782000   0.9498346      18.417282      166.39601    
    783000   0.98389716     19.085676      166.48343    
    784000   0.95549645     18.527066      166.34711    
    785000   1.0115737      18.698577      166.33072    
    786000   0.99402014     18.581899      166.01462    
    787000   0.93971156     18.466525      165.82064    
    788000   0.99255502     18.642494      165.61428    
    789000   1.0225906      18.55118       165.44363    
    790000   0.96991932     18.292622      165.34655    
    791000   1.014582       18.477825      165.19572    
    792000   1.0306518      19.056808      165.10655    
    793000   0.97835219     18.751897      165.16202    
    794000   1.0067197      18.740575      165.35742    
    795000   0.96896032     18.776934      165.08399    
    796000   1.0006264      18.436622      165.03448    
    797000   1.0070479      18.668619      164.86722    
    798000   0.99451225     18.118623      164.71091    
    799000   1.0822932      18.64497       164.63978    
    800000   1.024079       18.716512      164.67517    
    801000   0.98891244     18.557316      164.40518    
    802000   0.97415312     18.257403      164.08973    
    803000   0.98846132     19.06917       164.12066    
    804000   0.95729437     17.711777      164.12521    
    805000   1.0046616      18.60069       163.98987    
    806000   0.99996441     18.690994      163.83571    
    807000   0.9916112      18.265258      163.79257    
    808000   1.0127983      18.504277      163.69727    
    809000   0.9826729      18.66843       163.83566    
    810000   1.0446986      18.662914      163.74978    
    811000   1.0169158      18.684168      163.81422    
    812000   1.0213131      18.746425      164.01052    
    813000   1.0322895      19.398276      163.97572    
    814000   1.0080427      18.546997      163.74733    
    815000   1.00615        18.462198      163.52635    
    816000   0.95737356     18.160591      163.45184    
    817000   1.0239385      18.302532      163.42613    
    818000   1.0038618      18.890131      163.25054    
    819000   0.97430843     18.764692      163.42279    
    820000   1.004334       18.980065      163.3331     
    821000   0.99646873     18.304223      163.27447    
    822000   1.0097577      18.715666      163.18349    
    823000   1.016915       18.835606      163.2581     
    824000   1.0005749      19.00254       163.26323    
    825000   0.97591588     18.708928      163.27311    
    826000   1.0262174      18.7018        163.14137    
    827000   1.0077501      18.304416      163.04045    
    828000   1.0261847      18.637849      163.33813    
    829000   0.99971561     18.259215      163.28862    
    830000   1.0027557      18.262855      163.17636    
    831000   0.98288695     18.169542      163.21875    
    832000   1.0345582      18.794405      162.95134    
    833000   0.95768077     18.13802       163.21062    
    834000   1.0220704      18.202624      163.19338    
    835000   1.0144697      18.074945      163.27162    
    836000   1.0133866      18.473512      163.13103    
    837000   1.0018063      18.781067      163.1442     
    838000   0.97374631     18.276852      162.92091    
    839000   0.9676956      18.605899      162.91308    
    840000   1.0117911      18.896982      162.76123    
    841000   1.0123109      18.572075      162.47752    
    842000   0.95145097     18.018846      162.23998    
    843000   1.0319251      17.891426      162.40022    
    844000   0.9819889      18.491621      162.22723    
    845000   0.983241       18.131834      162.13838    
    846000   1.0053268      18.645848      162.24044    
    847000   0.9948933      18.084992      162.0564     
    848000   1.0006787      18.455895      161.96132    
    849000   1.0131908      18.776679      161.79443    
    850000   0.99446611     18.731631      161.71788    
    851000   0.97992164     18.145451      161.68237    
    852000   1.0268317      18.707909      161.66074    
    853000   1.0257673      18.339082      161.596      
    854000   1.0441213      19.189933      161.30881    
    855000   1.0166848      18.596621      161.14109    
    856000   1.0004746      18.231969      160.92014    
    857000   1.0035861      18.918568      160.66531    
    858000   0.98152624     18.623926      160.66135    
    859000   0.98587949     18.547944      160.45519    
    860000   1.0340422      18.362862      160.3129     
    861000   0.99957715     18.838589      160.36204    
    862000   1.0059163      18.324195      160.42967    
    863000   0.99927586     18.459142      160.29001    
    864000   0.99663374     18.654866      160.30569    
    865000   0.98047402     18.341854      160.39452    
    866000   0.95726244     18.623881      160.33725    
    867000   1.0195254      18.543148      160.23382    
    868000   1.0073533      18.843492      160.09876    
    869000   0.99356295     18.266107      159.86638    
    870000   0.98421772     18.814246      159.8674     
    871000   1.0281382      18.704806      159.88765    
    872000   1.0528055      18.600915      159.90561    
    873000   1.0383604      18.117462      159.83586    
    874000   0.99337051     18.895289      159.73712    
    875000   0.98078074     18.733624      159.56664    
    876000   0.96947945     18.42708       159.5595     
    877000   1.0185334      18.649772      159.38088    
    878000   1.0344085      18.828447      159.13112    
    879000   1.0181986      18.548893      158.87276    
    880000   1.0044356      18.610654      158.88007    
    881000   0.94547963     18.260114      158.867      
    882000   0.98832281     18.29444       158.73313    
    883000   1.0057066      18.148933      158.51689    
    884000   1.0196751      18.57855       158.39291    
    885000   0.98071594     18.507145      158.37579    
    886000   0.98461837     18.275309      158.45295    
    887000   0.99216999     18.925288      158.36132    
    888000   0.97563282     18.430522      158.17141    
    889000   1.0038319      18.69734       158.31414    
    890000   0.96293404     18.297761      158.48748    
    891000   0.96895998     18.507467      158.42998    
    892000   0.9940961      18.531345      158.31413    
    893000   0.97917753     18.393145      157.841      
    894000   1.0371995      18.444874      157.84066    
    895000   1.0539609      18.902571      157.72689    
    896000   1.0032462      18.635527      157.81415    
    897000   0.99940913     18.375689      157.75199    
    898000   0.99226749     18.735103      157.65568    
    899000   1.0066308      18.457818      157.60594    
    900000   1.0110759      18.679327      157.52376    
    901000   1.0206485      17.966487      157.3888     
    902000   1.0512034      18.715703      157.15499    
    903000   0.99209015     18.610967      157.00713    
    904000   1.0229242      18.690636      156.91572    
    905000   1.0078531      18.849812      156.94137    
    906000   1.0121639      18.757847      156.88129    
    907000   1.0099409      18.81621       156.81448    
    908000   1.0003289      18.079298      156.63582    
    909000   1.0407636      18.01856       156.77993    
    910000   0.99612078     18.580014      156.73979    
    911000   0.9768084      18.192012      156.4725     
    912000   1.0206736      19.017817      156.50954    
    913000   0.99677062     18.37764       156.40978    
    914000   0.98771208     18.25673       156.35454    
    915000   0.93486205     18.393996      156.29602    
    916000   1.0137135      19.225178      156.17997    
    917000   1.0324252      18.43481       156.04118    
    918000   1.0158264      18.771853      155.98355    
    919000   1.0196099      18.78947       156.00024    
    920000   1.0131238      18.405657      155.88398    
    921000   1.0386555      18.857983      155.74256    
    922000   1.0100293      18.58662       155.57078    
    923000   0.9834178      18.510731      155.51272    
    924000   0.94309606     18.494676      155.39117    
    925000   0.96732858     18.197177      155.27334    
    926000   0.97717694     18.071303      154.97478    
    927000   0.99488451     18.615865      154.7233     
    928000   0.99246727     17.992995      154.80944    
    929000   1.0133769      18.785763      154.78935    
    930000   1.0344236      18.289833      154.62666    
    931000   0.99990827     18.555692      154.58965    
    932000   0.98845937     18.153298      154.40702    
    933000   0.99860489     17.993061      154.53097    
    934000   1.0170148      19.165902      154.40475    
    935000   1.0061548      18.408408      154.31472    
    936000   1.0444585      18.412863      154.16377    
    937000   1.0244589      18.513377      154.19843    
    938000   1.0028537      18.490179      154.27285    
    939000   0.97309712     18.217898      154.39404    
    940000   0.97042756     18.398252      154.36321    
    941000   0.98603718     18.36331       154.30019    
    942000   0.99386699     18.529789      154.24222    
    943000   0.98924385     18.041729      154.20554    
    944000   1.0312999      18.402831      154.12716    
    945000   1.0050545      18.905079      153.92903    
    946000   1.012871       18.709678      153.70849    
    947000   1.0239035      18.671864      153.60723    
    948000   1.0398964      18.270489      153.46098    
    949000   0.98013794     18.540472      153.30184    
    950000   1.0104319      17.935076      153.14396    
    951000   1.0158509      18.677144      153.09733    
    952000   1.0211779      17.948831      153.22636    
    953000   1.0070768      17.785249      153.21796    
    954000   0.98516413     18.537957      153.45689    
    955000   0.99927124     18.389689      153.33413    
    956000   0.99102119     18.419377      153.18987    
    957000   0.97947202     18.686407      153.21553    
    958000   1.0396882      18.537678      153.12092    
    959000   1.0419183      18.6514        152.93243    
    960000   0.96443858     17.759803      152.86033    
    961000   0.97492485     18.064176      152.56024    
    962000   0.97605936     18.033279      152.73561    
    963000   1.0088816      17.867458      152.70165    
    964000   0.98959237     18.606471      152.44991    
    965000   1.015192       18.54305       152.59254    
    966000   1.0130095      18.462305      152.53261    
    967000   1.0046393      18.189775      152.62181    
    968000   1.0105817      18.524698      152.49291    
    969000   0.98321047     18.745469      152.5289     
    970000   0.99334299     18.019814      152.52802    
    971000   1.0480506      18.339856      152.41368    
    972000   1.0064433      18.951872      152.41972    
    973000   0.99624921     18.613014      152.34811    
    974000   1.0170609      18.579741      152.04691    
    975000   1.0581901      18.2736        152.08842    
    976000   0.98532546     18.043973      152.11952    
    977000   1.0144387      18.000856      151.94313    
    978000   1.0030935      18.92441       151.81856    
    979000   1.0243623      18.463506      151.53129    
    980000   1.0075303      18.234866      151.53058    
    981000   0.98322087     18.356213      151.64557    
    982000   1.0040819      18.466303      151.66194    
    983000   0.96247736     18.444891      151.66217    
    984000   1.0386749      18.602775      151.7013     
    985000   0.99308291     18.340584      151.52237    
    986000   0.97589483     18.298571      151.74778    
    987000   1.0364318      18.214765      151.40166    
    988000   1.0332161      18.609781      151.26335    
    989000   0.95749011     18.429398      151.3487     
    990000   0.9874531      18.88862       151.4898     
    991000   0.9888711      18.589517      151.34041    
    992000   0.97558411     18.719347      151.40815    
    993000   1.0463408      18.776522      151.4182     
    994000   0.99814177     18.338129      151.50642    
    995000   1.0281997      18.582038      151.52064    
    996000   1.011353       18.26829       151.37295    
    997000   0.99017741     18.610646      151.09249    
    998000   1.0143935      18.889329      151.08419    
    999000   1.0115488      18.778572      151.16538    
   1000000   1.0241348      18.925628      151.05337    
   1001000   0.98970179     18.43654       150.84415    
   1002000   1.0016007      18.357039      150.54754    
   1003000   0.99685189     18.055011      150.49907    
   1004000   0.95719144     18.276357      150.58789    
   1005000   0.98338634     18.410376      150.56305    
   1006000   0.98406185     18.257205      150.47184    
   1007000   0.96891122     18.63361       150.37146    
   1008000   1.024191       18.163148      150.2419     
   1009000   0.99957607     18.220083      150.22999    
   1010000   1.012648       18.499942      150.1052     
   1011000   1.0078107      18.41823       149.66694    
   1012000   1.0064135      18.397009      149.43731    
   1013000   1.034166       17.950325      149.51124    
   1014000   0.95955979     17.82737       149.18761    
   1015000   0.96900895     18.386205      149.06218    
   1016000   0.99539253     18.174768      148.99096    
   1017000   0.95006385     18.060763      148.88882    
   1018000   0.9587608      17.762729      148.67516    
   1019000   0.98578584     18.300584      148.5353     
   1020000   1.0040787      18.58655       148.35373    
   1021000   0.96513173     18.161291      148.17931    
   1022000   0.98389962     18.337053      148.05437    
   1023000   0.94090452     18.269501      147.86426    
   1024000   0.97099975     18.138643      147.93855    
   1025000   1.0065661      18.595521      147.82234    
   1026000   1.0251075      17.802173      147.43687    
   1027000   1.0181311      18.678618      147.42444    
   1028000   1.001987       18.516313      147.16352    
   1029000   1.04069        18.679037      146.91433    
   1030000   1.0130713      18.082448      146.75621    
   1031000   0.99905294     18.152114      146.7357     
   1032000   0.9817762      18.14581       146.5847     
   1033000   1.047476       18.380839      146.2175     
   1034000   1.0221353      18.630225      146.34678    
   1035000   0.98475407     18.437932      146.42299    
   1036000   0.98331595     18.46545       146.33329    
   1037000   1.0406375      18.00202       146.34587    
   1038000   1.0651431      18.782898      146.17685    
   1039000   1.0036706      18.025197      146.01593    
   1040000   0.98696615     18.187657      145.85397    
   1041000   1.0476538      18.326345      145.74565    
   1042000   1.0037276      18.377208      145.61986    
   1043000   0.97832324     18.761472      145.59421    
   1044000   1.0292225      17.943097      145.51641    
   1045000   0.97694407     18.61681       145.40701    
   1046000   0.99319928     18.091212      145.26722    
   1047000   0.98001854     18.465837      145.43457    
   1048000   0.96688819     18.342019      145.46501    
   1049000   0.97508026     18.653099      145.49267    
   1050000   0.97777087     18.002958      145.47916    
   1051000   1.0642583      18.458058      145.35023    
   1052000   0.97413757     17.894951      145.14244    
   1053000   1.0624498      18.569944      145.11185    
   1054000   0.98683922     18.858974      144.98466    
   1055000   1.0059045      18.265167      144.93777    
   1056000   0.95389897     17.989742      144.86639    
   1057000   0.99658702     18.03035       145.16377    
   1058000   0.98505391     17.974697      144.96223    
   1059000   1.0133968      18.347102      144.71687    
   1060000   0.96598195     18.460548      144.88463    
   1061000   0.9763056      17.968815      144.79259    
   1062000   0.98919289     18.51555       144.78225    
   1063000   0.94298082     17.514706      144.7251     
   1064000   1.0049385      18.393558      144.87226    
   1065000   0.98225356     18.220221      144.64733    
   1066000   1.0018145      18.331611      144.60402    
   1067000   0.99756597     18.118254      144.66158    
   1068000   0.96794253     18.055437      144.61215    
   1069000   1.0265547      17.852715      144.57923    
   1070000   1.0110382      18.42809       144.58987    
   1071000   1.0187522      18.163629      144.5646     
   1072000   1.0481589      18.560044      144.63908    
   1073000   1.0104066      18.22155       144.50339    
   1074000   1.007134       17.834002      144.57779    
   1075000   0.99346947     18.313838      144.29018    
   1076000   1.0149356      17.944355      144.08485    
   1077000   1.0344519      18.265177      144.06615    
   1078000   1.0008812      18.664641      143.90305    
   1079000   0.98366054     18.171418      143.95139    
   1080000   0.99813213     18.8086        143.80391    
   1081000   1.0318748      18.504392      143.58733    
   1082000   0.969061       18.04508       143.31424    
   1083000   1.0168364      18.542952      143.28619    
   1084000   0.96679557     18.40471       143.13243    
   1085000   1.0110938      18.276192      142.99819    
   1086000   0.99466099     18.618579      143.07546    
   1087000   1.010336       18.479125      142.91795    
   1088000   0.98872312     17.750917      142.65565    
   1089000   1.0124126      18.308251      142.746      
   1090000   1.0223455      18.346716      142.97402    
   1091000   1.0428612      18.552374      142.70871    
   1092000   1.020848       18.244919      142.49022    
   1093000   0.99365431     18.679944      142.25532    
   1094000   0.99165227     18.62683       142.43526    
   1095000   1.0274581      18.156363      142.5171     
   1096000   1.0382755      18.552477      142.48657    
   1097000   1.0390036      18.177371      142.41236    
   1098000   0.99196943     18.949808      142.294      
   1099000   1.0093688      18.19897       141.96794    
   1100000   1.0373657      18.014209      141.91119    
   1101000   0.95168402     18.601652      142.05383    
   1102000   1.0049311      17.819978      142.06207    
   1103000   0.98629685     18.023346      141.93721    
   1104000   0.98906334     18.278532      141.75429    
   1105000   0.98167753     18.191177      141.59216    
   1106000   0.98715406     17.762829      141.48421    
   1107000   1.0167282      18.220149      141.31014    
   1108000   1.0062044      18.837147      141.12004    
   1109000   0.98761269     18.638207      140.88561    
   1110000   0.98288069     18.190439      140.83961    
   1111000   0.96997932     18.611969      140.90438    
   1112000   1.0155463      18.051038      140.85559    
   1113000   0.99643065     17.758675      141.04248    
   1114000   0.99556273     18.87217       140.90175    
   1115000   1.0173102      18.711979      140.79091    
   1116000   1.0083558      18.101459      141.02104    
   1117000   1.0218328      18.537899      141.02467    
   1118000   0.97239695     18.22629       141.05534    
   1119000   0.96937994     18.255924      141.03296    
   1120000   1.0110036      18.758835      140.94153    
   1121000   0.93838603     18.317862      140.91651    
   1122000   1.0105333      17.962854      140.78682    
   1123000   0.98433981     18.391468      140.61703    
   1124000   1.0124816      18.017041      140.46869    
   1125000   1.0015398      18.375242      140.27849    
   1126000   1.0051133      18.341296      140.25663    
   1127000   0.97509209     18.143694      140.20477    
   1128000   1.0038401      17.895149      140.21229    
   1129000   1.0026875      17.719065      140.24107    
   1130000   0.97925521     18.01288       140.1631     
   1131000   0.97128936     18.580487      140.12235    
   1132000   1.0177247      18.089895      140.26061    
   1133000   1.0346266      18.619318      140.28349    
   1134000   0.99741704     18.61782       140.34333    
   1135000   0.97690468     18.222186      140.26988    
   1136000   1.0147513      18.141566      140.115      
   1137000   1.0338959      18.262909      140.08427    
   1138000   1.010521       18.755227      140.0726     
   1139000   0.97030086     17.8115        140.24841    
   1140000   0.99288269     18.114604      140.26687    
   1141000   1.0342058      18.017686      140.14817    
   1142000   1.0042446      18.592777      140.27023    
   1143000   1.0148237      17.997607      140.24674    
   1144000   1.0159598      18.255192      140.33788    
   1145000   1.0060617      18.07074       140.3709     
   1146000   1.0263877      18.873446      140.21712    
   1147000   0.99998344     17.96454       139.96712    
   1148000   0.98057237     18.485253      140.03298    
   1149000   1.0452795      18.330177      139.84704    
   1150000   1.0163595      18.121988      139.66646    
   1151000   1.0381836      18.444718      139.48471    
   1152000   1.0138704      18.531952      139.57052    
   1153000   1.0377313      18.215179      139.61264    
   1154000   0.98307847     18.170979      139.60125    
   1155000   0.95948003     17.987796      139.42738    
   1156000   1.0263676      18.201581      139.43236    
   1157000   1.0040437      17.985645      139.34951    
   1158000   0.99653547     18.134953      139.4794     
   1159000   0.9770982      18.567515      139.43346    
   1160000   1.0391518      18.454276      139.53916    
   1161000   1.0260222      18.58232       139.23166    
   1162000   1.0108468      18.018022      139.27198    
   1163000   0.99486096     17.95944       139.3473     
   1164000   0.98372329     18.156855      138.99903    
   1165000   0.98313769     18.605621      139.05061    
   1166000   0.99002443     18.639707      138.7829     
   1167000   1.0067041      18.268702      138.60407    
   1168000   0.96400711     18.400364      138.50826    
   1169000   1.0143442      18.052805      138.37475    
   1170000   0.94407706     18.172398      138.28913    
   1171000   0.99589831     17.926189      138.11916    
   1172000   0.99909692     18.302027      138.26397    
   1173000   1.0092271      18.003767      138.26935    
   1174000   0.99943165     18.262929      138.21279    
   1175000   0.99184533     18.114259      137.81506    
   1176000   1.0144886      18.80129       137.57798    
   1177000   1.011223       18.28574       137.7046     
   1178000   1.0059043      18.359983      137.45255    
   1179000   1.0170308      18.403197      137.23863    
   1180000   1.0241534      18.282226      137.07217    
   1181000   1.0150153      18.219636      137.14971    
   1182000   1.0068906      18.214465      137.20978    
   1183000   1.049656       17.563318      137.22467    
   1184000   0.99166796     17.72394       137.10901    
   1185000   0.99739532     18.55389       137.05728    
   1186000   1.0058598      18.289205      136.86757    
   1187000   1.0378966      17.8008        136.6285     
   1188000   0.97494012     18.269473      136.47557    
   1189000   1.0455677      18.647668      136.44097    
   1190000   0.98431514     18.210562      136.48354    
   1191000   0.96491612     18.39224       136.09251    
   1192000   0.97904672     18.955772      135.90376    
   1193000   0.97803616     17.957746      135.682      
   1194000   0.96161613     17.788428      135.72537    
   1195000   0.97723373     18.716212      135.64187    
   1196000   0.96956427     18.636556      135.44133    
   1197000   1.0058855      18.370324      135.09454    
   1198000   1.0178729      18.725272      135.03253    
   1199000   1.0484476      18.230808      134.87393    
   1200000   1.0014659      18.125914      134.58583    
   1201000   1.0279533      18.558692      134.41551    
   1202000   0.97999876     18.504227      134.30336    
   1203000   1.0251852      18.13845       134.2014     
   1204000   0.9832009      18.257473      134.23092    
   1205000   0.94196107     18.063699      134.371      
   1206000   1.0124995      18.100344      134.43299    
   1207000   1.0028268      18.757889      134.44075    
   1208000   0.98788179     18.574046      134.36168    
   1209000   1.0305815      18.187878      134.3889     
   1210000   1.0004865      18.315611      134.10193    
   1211000   0.98876646     18.286433      134.01627    
   1212000   1.0166645      18.466367      133.72031    
   1213000   1.0241897      18.194737      133.55946    
   1214000   0.97626627     18.164505      133.42701    
   1215000   0.98174522     18.566295      133.66091    
   1216000   0.99471959     18.226187      133.53612    
   1217000   0.98958289     18.227472      133.68297    
   1218000   0.96450347     18.005874      133.66487    
   1219000   1.0051303      17.747359      133.77134    
   1220000   1.0041841      18.107014      133.68886    
   1221000   1.0301105      18.480661      133.67779    
   1222000   0.95727485     18.310778      133.42279    
   1223000   1.0030456      17.87067       133.33382    
   1224000   0.99491547     18.50629       133.31387    
   1225000   0.9911496      18.501725      133.21634    
   1226000   0.95675198     18.284625      133.11741    
   1227000   0.97371658     18.856734      132.88139    
   1228000   1.0334707      18.378189      132.63893    
   1229000   1.0192454      18.068324      132.38636    
   1230000   1.0182119      18.2126        132.10632    
   1231000   1.0046189      17.903872      132.03626    
   1232000   1.0033253      18.062946      132.13319    
   1233000   1.0015954      18.526038      131.90538    
   1234000   0.98391419     18.220601      131.79622    
   1235000   1.0372739      18.454937      131.79149    
   1236000   0.97590577     17.833773      131.995      
   1237000   0.99152634     18.197661      132.01751    
   1238000   0.96860649     18.158227      131.90082    
   1239000   1.0329239      18.119483      131.7588     
   1240000   1.0124855      18.410587      131.49362    
   1241000   0.94472727     18.045986      131.26807    
   1242000   1.0062979      18.021132      131.13007    
   1243000   0.9918839      17.993591      130.99343    
   1244000   0.96507124     17.851096      130.83537    
   1245000   1.023141       18.435232      130.83846    
   1246000   0.98151031     18.39401       130.80077    
   1247000   0.96256027     18.068764      130.63876    
   1248000   1.0200878      18.441842      130.54502    
   1249000   1.0216254      18.564057      130.32939    
   1250000   1.0018714      18.050287      130.35905    
   1251000   1.0342774      17.9444        130.5945     
   1252000   0.98616351     17.753568      130.61805    
   1253000   1.0196799      17.938454      130.84997    
   1254000   1.0303076      18.404057      130.71549    
   1255000   0.96650587     18.174937      130.72954    
   1256000   0.98548689     18.166713      130.7537     
   1257000   1.0439699      18.750527      130.69536    
   1258000   1.0274486      18.400021      130.71464    
   1259000   1.0136908      18.891788      130.41639    
   1260000   1.0260312      17.857513      130.48288    
   1261000   0.96679165     18.065647      130.3009     
   1262000   1.0189775      18.466717      130.14863    
   1263000   0.96450593     18.214565      130.09112    
   1264000   0.98899116     17.98355       130.03258    
   1265000   0.9894324      17.798437      129.95421    
   1266000   1.0298313      18.364056      129.63984    
   1267000   1.0516634      18.817998      129.62224    
   1268000   0.98720626     18.243205      129.43858    
   1269000   0.99135868     18.169981      129.09096    
   1270000   0.98568234     18.429943      129.21756    
   1271000   1.016556       18.457653      129.30346    
   1272000   1.0033739      18.140336      129.27622    
   1273000   0.96213312     18.147196      129.00462    
   1274000   0.96402455     18.676393      129.03745    
   1275000   0.98552852     19.129086      129.00294    
   1276000   0.9695684      17.90834       128.73732    
   1277000   0.99802237     17.951554      128.69333    
   1278000   0.9960923      17.991835      128.90239    
   1279000   0.99695446     18.31848       128.84802    
   1280000   0.99345647     18.308676      128.7676     
   1281000   1.0132808      18.322323      128.71172    
   1282000   0.97695069     18.002977      128.87279    
   1283000   1.0012876      18.01041       128.68093    
   1284000   1.0165574      18.576289      128.75832    
   1285000   0.99892409     18.101216      128.81067    
   1286000   1.0082145      18.489583      128.77106    
   1287000   1.050019       18.123707      128.54053    
   1288000   1.0466212      18.75674       128.61518    
   1289000   1.0095104      18.2062        128.61544    
   1290000   0.99042372     17.832206      128.28666    
   1291000   1.0117708      18.020019      128.30003    
   1292000   0.98608159     17.97828       127.75554    
   1293000   0.96215861     18.49549       127.7529     
   1294000   1.0329236      18.79412       127.60871    
   1295000   1.0059832      17.764059      127.57604    
   1296000   1.0368752      18.389945      127.60651    
   1297000   0.9863921      17.823769      127.44762    
   1298000   1.0198833      17.846833      127.19764    
   1299000   1.0004588      18.830905      127.04575    
   1300000   0.98994989     17.987956      126.92361    
   1301000   0.98491311     18.801022      126.91803    
   1302000   1.0294378      18.023132      126.98965    
   1303000   0.92767529     17.412868      126.80797    
   1304000   1.0030095      17.855983      126.74102    
   1305000   1.0126092      18.498984      126.78574    
   1306000   0.9841522      17.890085      126.80828    
   1307000   1.0155574      18.522661      126.77119    
   1308000   0.99182515     18.678278      126.69164    
   1309000   1.000869       18.479991      126.60965    
   1310000   0.97142515     18.146362      126.65423    
   1311000   1.0243998      18.397895      126.47253    
   1312000   0.97968017     18.24344       126.3597     
   1313000   0.97382229     18.19745       126.38869    
   1314000   1.0128233      18.501721      126.25957    
   1315000   1.0059397      18.24566       126.06781    
   1316000   0.98583328     18.303719      125.97975    
   1317000   1.0020859      17.434987      125.99521    
   1318000   0.97887664     18.656781      125.92981    
   1319000   1.0366809      18.141739      125.63648    
   1320000   1.0725311      17.584236      125.69977    
   1321000   0.99500034     18.100118      125.6817     
   1322000   1.0048148      18.074477      125.62736    
   1323000   0.98394698     17.910205      125.66901    
   1324000   1.0213644      18.349312      125.38779    
   1325000   1.0278203      18.2559        125.28724    
   1326000   0.97146057     18.586266      125.37108    
   1327000   0.98007838     18.358549      125.38366    
   1328000   0.94918559     17.987953      125.1828     
   1329000   0.99116285     17.85507       125.2773     
   1330000   0.96969231     18.334559      125.1353     
   1331000   1.0357311      18.06935       125.01701    
   1332000   1.0394352      18.307557      124.75673    
   1333000   1.0058682      17.914188      124.69666    
   1334000   1.0164402      17.696985      124.56845    
   1335000   1.0407293      18.428719      124.40937    
   1336000   1.0297435      17.931405      124.39892    
   1337000   0.97950889     18.176804      124.23834    
   1338000   1.0000169      18.378316      124.35433    
   1339000   0.97237615     18.185884      124.33173    
   1340000   0.99741476     18.0856        124.35584    
   1341000   1.0619844      18.353525      124.43023    
   1342000   0.9650231      18.339577      124.25516    
   1343000   0.9652943      18.251867      124.01127    
   1344000   1.034845       18.657556      123.86753    
   1345000   1.0299395      18.820895      123.9128     
   1346000   0.95954905     17.845767      123.84488    
   1347000   1.063113       18.235068      123.7733     
   1348000   1.0257464      18.606279      124.07864    
   1349000   1.0146854      18.495692      124.31568    
   1350000   1.0279766      18.530504      124.06159    
   1351000   1.0184188      18.471459      124.04018    
   1352000   1.0161732      18.150086      124.00609    
   1353000   0.97372201     18.360028      123.99965    
   1354000   1.0150508      18.004174      124.005      
   1355000   0.96746256     18.400875      124.14149    
   1356000   1.0248541      17.632448      124.08762    
   1357000   0.99101692     17.294571      123.81211    
   1358000   0.96256465     17.329197      123.85675    
   1359000   1.0012201      18.33896       123.81801    
   1360000   0.98134532     17.777458      123.86371    
   1361000   1.029135       18.11788       123.90614    
   1362000   1.0249261      18.411791      123.85718    
   1363000   1.0056374      18.138033      123.84507    
   1364000   1.0507389      17.863894      123.87214    
   1365000   1.0573023      18.258202      123.91737    
   1366000   0.98585933     17.904456      123.87264    
   1367000   1.0320058      17.84657       123.97252    
   1368000   0.98705688     17.805505      123.57799    
   1369000   1.0246864      17.874597      123.3603     
   1370000   0.9669026      18.453386      123.1608     
   1371000   1.0104246      18.324124      123.02347    
   1372000   1.0225028      17.764011      122.88793    
   1373000   1.0098496      18.44841       122.99369    
   1374000   1.014675       17.971891      122.781      
   1375000   1.0055005      18.636985      122.57632    
   1376000   1.0783189      18.407096      122.50998    
   1377000   1.0056251      18.365848      122.24655    
   1378000   1.0140597      17.447754      122.11823    
   1379000   0.96331638     17.655029      121.99505    
   1380000   1.0269338      17.932149      122.08735    
   1381000   0.98256849     18.318596      121.99041    
   1382000   1.0056736      18.262745      122.04093    
   1383000   0.97376562     17.981018      122.1694     
   1384000   0.98904958     18.401696      122.17973    
   1385000   1.0223372      18.047237      122.08334    
   1386000   1.0023553      18.553749      122.02086    
   1387000   0.99399        18.083668      122.11526    
   1388000   1.0184283      18.056993      122.08826    
   1389000   0.99477666     18.614703      121.89527    
   1390000   1.0092811      18.281858      121.69168    
   1391000   1.0115984      18.680403      121.78994    
   1392000   0.99621804     17.860688      121.62263    
   1393000   1.0299999      18.015715      121.42722    
   1394000   1.0083324      18.335196      121.4282     
   1395000   1.0528137      18.546325      121.28512    
   1396000   0.97952217     17.967084      121.13519    
   1397000   1.0281112      18.131883      121.07612    
   1398000   1.0079255      18.191187      121.11607    
   1399000   1.0060711      18.031286      121.12514    
   1400000   0.95304227     17.903266      121.0252     
   1401000   0.96549201     18.128158      120.92693    
   1402000   1.0218721      18.327355      121.04251    
   1403000   0.9820453      18.191512      120.93087    
   1404000   1.0231889      17.937117      121.06885    
   1405000   1.0039495      17.79143       120.88851    
   1406000   1.0271584      18.570916      120.71551    
   1407000   1.0094314      18.288436      120.40883    
   1408000   1.0232898      18.154454      120.36007    
   1409000   1.0073875      18.396062      119.97963    
   1410000   1.0303968      17.922795      119.93136    
   1411000   0.99666025     18.062244      120.10344    
   1412000   1.0028014      18.046279      119.8803     
   1413000   1.0611816      18.651776      120.02238    
   1414000   0.93030121     17.782342      119.96925    
   1415000   1.0292969      18.028171      120.06764    
   1416000   1.0574242      18.198776      120.02616    
   1417000   1.0012649      18.003708      119.72482    
   1418000   1.0040384      18.21334       119.68029    
   1419000   0.96481204     17.724696      119.48879    
   1420000   0.98383611     17.968789      119.39421    
   1421000   1.0059976      18.818894      119.23124    
   1422000   0.99106643     18.23399       119.28965    
   1423000   0.99100132     18.316418      119.25201    
   1424000   0.96495214     18.290882      119.04549    
   1425000   1.0157224      18.696855      118.98713    
   1426000   1.0104278      18.354052      119.09679    
   1427000   0.98086345     17.935239      119.21643    
   1428000   1.0063774      18.390112      119.18349    
   1429000   1.0049932      18.182442      119.13301    
   1430000   1.027308       17.651795      119.26281    
   1431000   0.99964082     17.842799      119.40193    
   1432000   0.98863554     17.914285      119.23258    
   1433000   1.0320721      18.348762      119.23506    
   1434000   1.0048628      18.11779       119.08937    
   1435000   0.99411499     17.871605      118.70212    
   1436000   1.016658       17.78782       118.31309    
   1437000   1.0249382      18.156702      118.39837    
   1438000   0.96801822     18.090077      118.2793     
   1439000   1.0303225      17.838162      118.14923    
   1440000   1.0036562      18.104485      118.04764    
   1441000   0.99961672     18.809737      118.08947    
   1442000   1.0209839      17.898381      117.89122    
   1443000   1.0278586      18.243382      117.80781    
   1444000   1.0211468      17.935268      117.49364    
   1445000   1.0019867      18.071817      117.33039    
   1446000   1.051738       18.428659      117.18555    
   1447000   0.95298552     18.042155      117.14669    
   1448000   0.9717632      18.221663      117.15084    
   1449000   0.98326261     18.864654      117.04526    
   1450000   0.98760813     18.21213       116.77642    
   1451000   1.0058414      18.147142      116.53041    
   1452000   0.96419467     18.008068      116.39618    
   1453000   1.0254131      17.92988       116.14633    
   1454000   0.99733846     18.110792      116.22031    
   1455000   0.93550461     17.937372      115.97566    
   1456000   1.0172103      18.107287      115.91468    
   1457000   0.99746667     18.398203      115.80961    
   1458000   0.99693576     18.117472      115.65899    
   1459000   1.0535278      18.115449      115.46516    
   1460000   0.97047941     17.807779      115.36726    
   1461000   1.0166354      18.079516      115.17504    
   1462000   1.0006358      17.986745      114.93355    
   1463000   1.0283557      18.316771      114.94253    
   1464000   1.0219737      18.134762      115.02087    
   1465000   0.98607169     17.976329      115.01033    
   1466000   0.99370197     17.580896      114.79451    
   1467000   0.99454991     18.226906      114.77739    
   1468000   1.0233464      18.424037      114.56901    
   1469000   0.95700991     17.803927      114.34396    
   1470000   1.0159377      17.738816      114.25333    
   1471000   1.0554594      18.86236       114.09058    
   1472000   0.94376069     17.952306      113.90178    
   1473000   0.96520563     18.400036      113.73636    
   1474000   1.0256316      17.672125      113.61265    
   1475000   0.96822748     17.261136      113.47498    
   1476000   0.95390348     18.230673      113.3978     
   1477000   1.0104484      18.082046      113.26543    
   1478000   1.0004364      17.982456      113.34455    
   1479000   0.98657237     18.199338      113.07091    
   1480000   0.94815034     18.089238      113.09615    
   1481000   0.99876687     17.560787      113.18334    
   1482000   0.9726615      18.302257      113.27176    
   1483000   0.97792521     17.821153      113.08279    
   1484000   0.97484554     17.754227      113.2539     
   1485000   0.97557351     18.225591      113.35455    
   1486000   0.97018529     18.041712      112.99915    
   1487000   1.0305423      18.257108      112.79488    
   1488000   1.0099982      18.585224      112.65287    
   1489000   1.0071841      17.860938      112.66488    
   1490000   1.0218521      18.192505      112.65478    
   1491000   1.0433053      18.381359      112.53513    
   1492000   1.0217487      18.05833       112.45857    
   1493000   1.0050562      17.513174      112.31891    
   1494000   1.018078       18.036447      112.12232    
   1495000   1.0166366      18.005728      112.40307    
   1496000   1.0359706      18.175346      112.53211    
   1497000   1.0232912      17.706989      112.75603    
   1498000   1.037626       17.568979      112.86518    
   1499000   0.95802621     17.718024      112.78085    
   1500000   0.95789816     18.29008       112.7242     
   1501000   1.0264604      18.798539      112.68328    
   1502000   0.96476246     17.88497       112.61177    
   1503000   1.0432547      17.986331      112.60655    
   1504000   0.99073709     18.234471      112.36438    
   1505000   0.98538551     18.2571        112.11031    
   1506000   0.98465268     17.594303      111.99495    
   1507000   1.0537284      17.607451      111.90681    
   1508000   0.98124869     18.387348      111.85749    
   1509000   0.98338023     18.257049      111.77407    
   1510000   0.98304484     17.867703      111.65964    
   1511000   1.0090735      17.598741      111.79988    
   1512000   1.0364471      18.133941      111.59915    
   1513000   1.0257991      18.217875      111.41653    
   1514000   0.9769107      17.626656      111.1752     
   1515000   1.040155       18.360798      111.0904     
   1516000   0.98667634     18.060406      111.1008     
   1517000   0.99436318     17.507937      110.87648    
   1518000   1.0112986      18.319671      110.58577    
   1519000   0.99300831     17.863208      110.41486    
   1520000   1.0122656      17.619991      110.29627    
   1521000   0.97945331     17.899816      110.2145     
   1522000   1.0284677      18.13252       110.35819    
   1523000   0.97555724     18.08022       110.07691    
   1524000   0.96668533     17.948108      110.13287    
   1525000   1.0065196      18.152854      109.96784    
   1526000   1.0203379      17.960329      109.83953    
   1527000   1.0326106      18.385899      109.77514    
   1528000   1.0171894      18.162763      109.554      
   1529000   1.0148457      17.971964      109.5909     
   1530000   1.0004972      18.067287      109.42911    
   1531000   1.07601        17.958489      109.35905    
   1532000   1.039007       18.059402      109.23513    
   1533000   1.0319296      18.146931      109.21868    
   1534000   0.97006172     18.069964      109.06132    
   1535000   0.98832379     18.099958      108.83239    
   1536000   1.0114861      18.045866      108.94844    
   1537000   0.98791308     17.82463       108.97648    
   1538000   1.0466593      18.323994      109.12116    
   1539000   0.95457626     17.566778      109.11728    
   1540000   0.99245989     17.913986      109.24369    
   1541000   1.0528478      18.860939      109.21929    
   1542000   0.98903643     18.629607      109.10408    
   1543000   1.0055704      17.997842      108.95346    
   1544000   0.98138338     17.699595      109.08801    
   1545000   1.0080568      17.703476      108.83633    
   1546000   1.0090238      18.056069      108.81527    
   1547000   1.0344051      18.243206      108.63231    
   1548000   0.96910639     17.962799      108.47395    
   1549000   1.0074904      17.670053      108.43708    
   1550000   1.0157819      18.035021      108.30656    
   1551000   0.98656704     17.751577      108.18293    
   1552000   1.0259324      18.435155      108.22065    
   1553000   0.97719216     18.051928      108.09711    
   1554000   1.0275241      17.689235      107.81952    
   1555000   1.0370109      17.117012      107.70116    
   1556000   0.98649679     18.332689      107.5203     
   1557000   1.0020568      17.840008      107.34887    
   1558000   0.99779048     17.464881      107.34932    
   1559000   1.0009308      18.065289      107.12036    
   1560000   0.98711224     17.532377      107.05228    
   1561000   1.0169902      18.455897      106.89861    
   1562000   0.99746911     18.005961      106.83568    
   1563000   0.97073843     17.507522      106.57854    
   1564000   0.97635884     17.992064      106.64196    
   1565000   0.9462774      18.041833      106.57082    
   1566000   0.98854739     17.346144      106.83352    
   1567000   0.98134522     18.380099      106.63643    
   1568000   0.95107736     17.839303      106.76676    
   1569000   0.97097613     18.096761      106.85127    
   1570000   0.94989097     17.953549      106.80317    
   1571000   1.0509428      18.349626      106.79561    
   1572000   0.99772398     17.751595      106.86228    
   1573000   0.98194306     17.436584      107.19194    
   1574000   0.91948644     17.916078      106.92886    
   1575000   0.99614829     18.517612      106.80926    
   1576000   1.0087151      18.285119      106.77077    
   1577000   1.0156026      17.761973      106.84282    
   1578000   1.0477859      17.895321      106.77143    
   1579000   1.0274482      18.604528      106.55831    
   1580000   1.0074584      18.238966      106.63148    
   1581000   1.0425036      18.087602      106.71954    
   1582000   1.0339926      18.095706      106.35902    
   1583000   1.0036168      17.76911       106.10051    
   1584000   0.95351809     18.141447      106.00748    
   1585000   1.0153969      17.951628      105.84156    
   1586000   0.96877298     17.690761      105.70498    
   1587000   1.0336747      18.432833      105.76458    
   1588000   0.9513196      17.632893      105.67323    
   1589000   1.0301924      18.442315      105.28817    
   1590000   0.99067832     17.736281      105.28548    
   1591000   0.99473893     17.81506       105.20544    
   1592000   0.96811839     18.260221      105.2839     
   1593000   1.0177471      18.357917      105.23021    
   1594000   0.96905544     17.655647      105.23208    
   1595000   0.98606856     17.574636      105.26581    
   1596000   1.0302882      18.064836      104.90336    
   1597000   0.99495581     17.787041      104.75264    
   1598000   0.99964652     17.719765      104.55586    
   1599000   0.95481179     17.648364      104.69122    
   1600000   1.0241073      18.237036      104.4628     
   1601000   0.97915861     17.523314      104.27629    
   1602000   0.994145       17.197792      104.24253    
   1603000   0.97326494     18.203794      104.14821    
   1604000   0.96904        17.752856      103.95424    
   1605000   1.020058       18.008256      103.89642    
   1606000   1.0227517      18.548512      103.91996    
   1607000   0.98040464     18.051454      103.81358    
   1608000   1.0178103      18.199425      104.1374     
   1609000   1.0726929      18.19639       104.19772    
   1610000   0.98758205     17.594082      103.90976    
   1611000   0.99838424     17.563625      103.98592    
   1612000   1.0559575      17.829655      104.08187    
   1613000   0.9815879      18.250398      103.9102     
   1614000   0.99085637     17.3745        103.8153     
   1615000   1.0071125      17.770655      103.74288    
   1616000   0.99869771     18.154164      103.66425    
   1617000   1.0082359      18.297369      103.6675     
   1618000   0.95813187     18.253049      103.81157    
   1619000   1.0077998      18.097277      103.80732    
   1620000   0.96929829     18.219008      103.58568    
   1621000   0.9927778      18.1862        103.51402    
   1622000   1.0304589      18.347351      103.38254    
   1623000   1.0440334      18.267784      103.2484     
   1624000   0.98742624     17.673964      103.08322    
   1625000   0.97800906     18.122447      102.91603    
   1626000   1.006039       17.829523      102.67229    
   1627000   1.0587251      18.535644      102.60847    
   1628000   1.0295389      17.95181       102.44253    
   1629000   0.96768127     18.222284      102.54839    
   1630000   1.0518907      18.149451      102.42066    
   1631000   0.99048626     17.595109      102.34566    
   1632000   1.0078335      18.152865      102.22827    
   1633000   1.0363861      17.876768      102.2581     
   1634000   1.0082024      18.100128      102.25691    
   1635000   1.0356597      17.787058      102.0178     
   1636000   0.95291822     18.14145       101.89718    
   1637000   0.99050104     17.677709      101.92038    
   1638000   1.0014177      18.587707      101.78548    
   1639000   0.99037683     17.848518      101.85561    
   1640000   1.0211634      18.080088      101.62973    
   1641000   0.98926989     18.151176      101.39806    
   1642000   0.96644144     17.301412      101.3376     
   1643000   1.0713394      17.722878      101.04435    
   1644000   0.98590585     17.808746      100.99499    
   1645000   0.98063734     17.718154      100.94464    
   1646000   0.9793848      17.907423      100.87167    
   1647000   1.014725       17.864297      100.8354     
   1648000   0.99443907     17.979102      100.98736    
   1649000   1.0067398      17.56172       100.90251    
   1650000   0.96143187     17.9153        100.89944    
   1651000   1.0046681      17.944476      100.85536    
   1652000   0.97661742     17.90163       100.75002    
   1653000   0.98929247     17.979551      100.37753    
   1654000   1.0052237      17.907007      100.21149    
   1655000   0.99083289     18.199692      100.02215    
   1656000   1.0396979      17.838878      99.940166    
   1657000   0.99717416     17.979207      99.87662     
   1658000   0.99542841     18.049401      99.829955    
   1659000   1.0124164      18.234481      99.778531    
   1660000   0.98710775     18.413325      99.838409    
   1661000   1.0088103      18.08905       99.740563    
   1662000   0.96746915     18.036842      99.563952    
   1663000   1.0022814      17.871624      99.461023    
   1664000   0.98090779     17.512954      99.081435    
   1665000   1.012199       18.494596      98.954697    
   1666000   0.9989314      18.45812       98.818116    
   1667000   1.0347886      17.798006      98.874764    
   1668000   0.96892714     18.134024      98.881528    
   1669000   0.97014246     18.229375      98.736424    
   1670000   0.9894412      17.998593      98.750676    
   1671000   1.0362318      18.734609      98.692517    
   1672000   1.0165839      17.863784      98.471991    
   1673000   1.061071       18.592136      98.259259    
   1674000   1.0019144      18.466083      98.010552    
   1675000   1.037073       18.472335      97.936767    
   1676000   1.0297064      18.064655      97.644686    
   1677000   0.99066848     17.53621       97.691565    
   1678000   0.98024173     17.617476      97.708158    
   1679000   1.0106115      18.13443       97.450774    
   1680000   0.96047005     17.964022      97.089989    
   1681000   1.0165176      18.252198      96.94361     
   1682000   0.98534174     18.312197      96.734526    
   1683000   0.98589235     18.135075      96.552528    
   1684000   1.0055698      18.087396      96.349225    
   1685000   1.0273685      17.940264      96.455027    
   1686000   1.0075546      17.699736      96.396086    
   1687000   0.97972486     17.90649       96.640035    
   1688000   1.0218976      18.984158      96.444114    
   1689000   0.94924268     17.883768      96.293496    
   1690000   1.0025954      17.650958      96.025968    
   1691000   1.0105586      17.935793      95.994699    
   1692000   1.0013072      17.858955      95.901897    
   1693000   0.98551478     18.341136      96.01456     
   1694000   1.0258561      18.383792      95.851423    
   1695000   1.0058015      17.928014      95.8276      
   1696000   1.0337012      18.551668      95.631914    
   1697000   1.0193727      18.083431      95.502735    
   1698000   0.99976273     18.209029      95.582157    
   1699000   1.0387513      18.431677      95.391002    
   1700000   0.98319762     17.737387      95.50417     
   1701000   1.0171402      18.272489      95.517418    
   1702000   1.0052129      18.422743      95.500759    
   1703000   1.0179185      18.762344      95.533784    
   1704000   0.98567047     17.640739      95.418892    
   1705000   0.96982528     17.546675      95.448366    
   1706000   1.0088421      18.410746      95.678596    
   1707000   1.0065806      17.670408      95.564689    
   1708000   1.0183218      17.815108      95.321421    
   1709000   0.95747641     17.608182      95.336825    
   1710000   0.97590984     17.916614      95.418658    
   1711000   1.010477       17.576753      95.165026    
   1712000   1.0092287      18.033629      95.039243    
   1713000   1.0152676      18.127991      94.829604    
   1714000   1.0201935      17.886005      94.735203    
   1715000   0.9745642      18.199594      94.540764    
   1716000   0.98386631     18.450092      94.797733    
   1717000   1.0000401      17.894706      94.768069    
   1718000   0.9930428      17.428134      94.669521    
   1719000   1.0144391      17.94663       94.460145    
   1720000   0.959429       17.903921      94.296271    
   1721000   1.0153673      17.702276      94.285999    
   1722000   0.9882619      17.946518      94.243309    
   1723000   0.99836818     18.251187      94.091083    
   1724000   0.98326595     17.752368      94.092832    
   1725000   0.98580799     18.377635      94.046619    
   1726000   0.9883319      18.230704      94.017166    
   1727000   1.007196       17.767235      94.003453    
   1728000   1.0014782      17.845419      93.91504     
   1729000   0.98189019     17.896725      93.759271    
   1730000   1.0188956      17.519523      93.883806    
   1731000   1.009471       18.247395      93.750244    
   1732000   1.0198517      17.491156      93.615454    
   1733000   0.98488779     18.227919      93.472398    
   1734000   1.006751       17.698445      93.308857    
   1735000   0.99171877     18.102264      93.395456    
   1736000   0.95015185     18.342219      93.423862    
   1737000   0.99055703     17.826555      93.517643    
   1738000   0.96650069     18.032704      93.48684     
   1739000   0.99086114     17.697381      93.176077    
   1740000   1.0047504      17.468243      93.163419    
   1741000   1.0525854      17.957269      93.35045     
   1742000   1.0081077      18.068153      93.283521    
   1743000   0.98557186     17.359778      93.113792    
   1744000   0.97519877     18.279484      93.295279    
   1745000   0.99086933     17.325958      93.199858    
   1746000   1.0241503      17.970992      92.962475    
   1747000   0.98450145     17.278534      92.97881     
   1748000   0.97631317     17.864843      92.904037    
   1749000   1.01724        17.547384      92.800149    
   1750000   1.0304151      17.827763      92.832954    
   1751000   0.99046974     17.809458      92.688082    
   1752000   1.078848       17.512054      92.410191    
   1753000   1.0016619      18.240318      92.299902    
   1754000   0.9582769      17.786133      92.311797    
   1755000   0.97995481     17.542838      92.481494    
   1756000   0.98058793     18.718494      92.545633    
   1757000   0.93568423     18.05124       92.615598    
   1758000   0.99202776     17.805751      92.419435    
   1759000   1.0387019      18.176651      92.29412     
   1760000   0.98317077     17.881296      92.337632    
   1761000   0.99796184     18.065816      92.060918    
   1762000   1.0103928      17.808163      92.067211    
   1763000   0.99457347     17.823529      92.238542    
   1764000   1.0074273      17.940127      92.042436    
   1765000   1.007588       17.497887      91.961082    
   1766000   1.0170861      17.142764      92.006909    
   1767000   0.97136133     17.405775      91.800686    
   1768000   0.99498068     17.666173      91.967359    
   1769000   1.0280621      17.54346       91.710508    
   1770000   1.032168       17.944941      91.698148    
   1771000   0.98622579     17.664478      91.630617    
   1772000   0.9809302      17.945432      91.478829    
   1773000   0.93236069     17.135992      91.495032    
   1774000   1.0274424      17.740305      91.536431    
   1775000   0.99193942     17.655862      91.71746     
   1776000   1.004444       17.387971      91.52448     
   1777000   1.0419906      17.943852      91.311578    
   1778000   0.96939217     17.871914      91.279206    
   1779000   1.0061269      17.764049      91.148224    
   1780000   0.97417661     17.55969       91.168793    
   1781000   1.0279057      18.321475      91.225037    
   1782000   0.95299079     17.588968      91.067828    
   1783000   0.96629847     18.360762      91.165888    
   1784000   0.95298749     17.534928      91.063799    
   1785000   1.0274559      18.238756      90.967983    
   1786000   0.98996557     17.432604      91.054269    
   1787000   0.95749528     17.301598      91.010531    
   1788000   0.96478329     17.89043       90.814411    
   1789000   0.98513549     17.411387      90.652874    
   1790000   1.0181329      18.221222      90.577882    
   1791000   0.99480204     17.981715      90.585681    
   1792000   0.98950115     17.841218      90.46133     
   1793000   0.96224025     18.055574      90.54141     
   1794000   0.98419288     18.197394      90.525758    
   1795000   1.0064398      17.725333      90.415224    
   1796000   1.0354577      17.530462      90.270868    
   1797000   0.96442101     18.318675      90.143671    
   1798000   0.98605655     18.414131      89.930448    
   1799000   0.9556298      18.142079      89.772695    
   1800000   0.9681572      17.998592      89.709236    
   1801000   0.97722848     17.949972      89.826541    
   1802000   0.9981862      18.209686      89.768131    
   1803000   0.98724419     18.062284      89.672887    
   1804000   0.9968547      18.306323      89.841108    
   1805000   0.97354359     17.820058      89.855704    
   1806000   0.98473908     17.715571      89.838524    
   1807000   1.0366146      17.788156      89.795294    
   1808000   0.99761346     17.825608      89.958175    
   1809000   1.0039157      17.865927      89.995229    
   1810000   1.0713773      18.174674      90.01437     
   1811000   1.041259       17.342469      90.102654    
   1812000   1.0030119      17.772368      90.055633    
   1813000   1.0015658      17.70312       90.172848    
   1814000   0.98338284     17.223338      90.287239    
   1815000   0.97586728     18.10965       90.301224    
   1816000   1.0116426      17.887819      90.181081    
   1817000   1.0296952      18.243494      90.269317    
   1818000   1.0440784      17.954272      90.26361     
   1819000   0.9901519      17.705737      90.165395    
   1820000   0.99151586     18.121923      90.312442    
   1821000   1.0162588      17.707907      90.189161    
   1822000   1.000564       18.099958      90.065766    
   1823000   1.0242378      17.951341      90.101264    
   1824000   1.0183313      17.413373      90.01578     
   1825000   1.0475677      17.811845      90.115598    
   1826000   1.0157848      17.912827      90.156366    
   1827000   1.0027938      17.570455      90.178205    
   1828000   0.98394573     17.601217      90.107612    
   1829000   1.0486441      17.53273       89.959446    
   1830000   1.0445704      17.916623      89.979412    
   1831000   0.98229844     17.993176      90.009891    
   1832000   1.0163673      17.700322      90.093717    
   1833000   1.0030987      17.586795      89.965973    
   1834000   1.0429038      17.980837      89.747064    
   1835000   1.0266441      17.65212       89.639671    
   1836000   0.98298795     17.719189      89.467517    
   1837000   1.0149091      17.849433      89.419548    
   1838000   0.95631845     17.713119      89.470563    
   1839000   0.98802508     18.06803       89.410526    
   1840000   1.0360529      17.943689      89.388423    
   1841000   0.97507242     17.518597      89.524094    
   1842000   1.0431046      18.107748      89.467086    
   1843000   1.0312815      18.453495      89.413629    
   1844000   0.98237987     17.816863      89.314244    
   1845000   0.96212333     17.471444      89.21092     
   1846000   1.0181726      18.231698      89.140077    
   1847000   1.0119916      18.47438       88.848874    
   1848000   0.98580781     18.15787       88.760314    
   1849000   0.99029487     17.96211       88.743367    
   1850000   0.97863291     17.957167      88.462283    
   1851000   1.015341       17.499133      88.32641     
   1852000   1.0102724      17.906705      88.078856    
   1853000   0.962718       17.061378      87.918523    
   1854000   1.0239588      18.090795      87.658721    
   1855000   0.99112177     18.71046       87.336903    
   1856000   0.96588511     17.467684      87.116373    
   1857000   0.96109197     17.737008      87.141317    
   1858000   1.0206669      17.684779      86.783401    
   1859000   1.0131233      17.741645      86.630556    
   1860000   1.018988       18.516505      86.451521    
   1861000   0.99109541     18.231268      86.253262    
   1862000   1.0050538      17.260167      85.98878     
   1863000   0.99096662     17.674487      85.806052    
   1864000   1.0152199      17.506553      85.62087     
   1865000   1.0131985      18.086896      85.674254    
   1866000   1.0132172      17.509821      85.465241    
   1867000   0.98994354     16.823835      85.390622    
   1868000   0.99555914     16.983195      85.231483    
   1869000   1.0089327      17.030013      85.100541    
   1870000   1.0099749      17.888911      85.036915    
   1871000   0.99600859     18.222852      84.82962     
   1872000   0.96333439     17.277757      84.702712    
   1873000   1.03697        18.185643      84.759613    
   1874000   1.0078589      17.400842      84.503542    
   1875000   0.9949963      17.855623      84.405373    
   1876000   1.0230723      17.870132      84.499866    
   1877000   1.0359969      17.843838      84.302505    
   1878000   1.0052438      17.940124      84.267349    
   1879000   0.97461555     17.991764      84.073995    
   1880000   1.0233024      17.282418      84.053057    
   1881000   1.0003615      18.23609       83.993052    
   1882000   0.98850021     17.714123      83.957521    
   1883000   1.0100051      18.575586      83.85036     
   1884000   1.0367209      18.221508      83.764895    
   1885000   1.021833       18.113807      83.748424    
   1886000   1.0060126      17.535627      83.593215    
   1887000   1.064839       17.884243      83.362288    
   1888000   0.99437736     17.694606      83.261021    
   1889000   1.0097124      18.015646      83.197287    
   1890000   0.96249145     17.814749      83.046724    
   1891000   1.0129478      18.180696      82.946499    
   1892000   0.96327577     17.537515      82.653951    
   1893000   1.0007815      17.923544      82.483377    
   1894000   0.98398458     17.949906      82.485243    
   1895000   0.98106959     17.957666      82.487697    
   1896000   0.99057487     17.753541      82.266304    
   1897000   1.0018741      18.335619      82.018477    
   1898000   1.0171341      17.908013      81.88848     
   1899000   0.99488699     17.479424      81.904021    
   1900000   1.0255101      17.921828      81.737739    
   1901000   1.0284659      18.003932      81.660482    
   1902000   0.98377949     17.674687      81.589195    
   1903000   0.95922042     17.181011      81.58024     
   1904000   0.95918533     18.247132      81.681842    
   1905000   1.03505        17.720093      81.691708    
   1906000   1.0061066      17.533831      81.49753     
   1907000   0.97756446     17.765242      81.284936    
   1908000   0.97292841     17.94028       81.17688     
   1909000   1.0516627      18.411746      81.147667    
   1910000   0.98854567     17.658108      81.286521    
   1911000   0.97605008     17.832067      81.190625    
   1912000   1.0110069      17.080638      81.014905    
   1913000   0.97446862     17.674745      81.126405    
   1914000   1.0427113      17.679326      81.029884    
   1915000   0.99071183     17.531234      80.776263    
   1916000   1.0287028      17.880374      80.480376    
   1917000   1.0016926      17.674613      80.421043    
   1918000   0.99971254     17.637009      80.206332    
   1919000   0.99168        17.465414      80.119975    
   1920000   0.98498516     18.053782      80.09702     
   1921000   0.97645621     17.319248      79.937119    
   1922000   1.0459192      17.704805      79.758372    
   1923000   0.99495832     17.28612       79.699498    
   1924000   0.9934344      18.082844      79.592129    
   1925000   0.96945799     17.728854      79.67856     
   1926000   0.96358564     18.079004      79.563842    
   1927000   0.96258915     17.449542      79.527141    
   1928000   1.0167907      17.393512      79.683819    
   1929000   0.97468224     17.588479      79.681744    
   1930000   1.0345753      17.502473      79.61333     
   1931000   0.9511436      17.857882      79.401926    
   1932000   0.99132298     17.278042      79.263026    
   1933000   1.0212688      17.388696      79.451737    
   1934000   1.0698455      17.838953      79.073294    
   1935000   1.0349716      17.898575      79.196287    
   1936000   1.0293014      17.634583      79.079693    
   1937000   1.0161627      17.581766      78.949342    
   1938000   1.0241949      18.096311      78.604478    
   1939000   0.99535162     17.554759      78.340862    
   1940000   0.98454184     17.829005      78.431691    
   1941000   1.0020308      17.585112      78.138637    
   1942000   0.98751242     17.499144      77.949782    
   1943000   0.98537459     17.692609      77.924653    
   1944000   0.99920888     18.024616      77.654442    
   1945000   1.0601375      17.636938      77.506033    
   1946000   0.97694239     17.95658       77.36783     
   1947000   1.0224776      17.328796      77.326053    
   1948000   0.97911343     17.672921      77.435947    
   1949000   0.99609535     17.584906      77.212037    
   1950000   1.0127218      17.230447      76.969896    
   1951000   0.99945656     17.536081      76.707905    
   1952000   0.99236043     18.183211      76.695596    
   1953000   0.9988338      17.778999      76.617878    
   1954000   1.0054344      17.453724      76.667836    
   1955000   0.98283573     16.911789      76.292803    
   1956000   1.0522997      17.502113      76.05545     
   1957000   1.0042806      17.219239      75.912374    
   1958000   1.025788       17.748553      75.718414    
   1959000   0.95987567     18.091161      75.766069    
   1960000   1.0093805      17.654596      75.41113     
   1961000   1.0057314      17.638343      75.275783    
   1962000   0.99609207     18.523052      75.367835    
   1963000   1.032433       17.615738      75.271768    
   1964000   0.9860107      18.11776       75.081301    
   1965000   1.0096078      17.957688      74.872303    
   1966000   0.96943344     17.427102      74.820306    
   1967000   0.98212135     18.056759      74.569712    
   1968000   1.0120073      17.91856       74.384031    
   1969000   1.0722159      17.862517      74.511819    
   1970000   0.99691195     18.272887      74.524114    
   1971000   1.0185843      17.306216      74.620808    
   1972000   1.0349818      17.124774      74.638807    
   1973000   1.0023713      17.654991      74.648287    
   1974000   0.99587058     17.445218      74.610943    
   1975000   1.0112778      17.722322      74.454526    
   1976000   0.95174467     17.186125      74.556824    
   1977000   1.0142981      17.969252      74.291677    
   1978000   1.0509607      17.618918      74.252899    
   1979000   0.93801147     17.934426      74.345489    
   1980000   0.9770426      17.784617      73.951158    
   1981000   1.0143385      17.452294      73.925455    
   1982000   1.039428       18.251214      74.037465    
   1983000   0.99484641     17.386168      73.706182    
   1984000   1.019879       17.464789      73.608073    
   1985000   1.0470463      18.323719      73.676197    
   1986000   1.0370503      18.742478      73.672478    
   1987000   0.95347636     17.167812      73.79112     
   1988000   0.994813       17.711064      73.66417     
   1989000   1.0164393      17.294233      73.718208    
   1990000   1.013328       17.67362       73.707415    
   1991000   1.0450969      17.681331      73.723521    
   1992000   1.0121187      17.742201      73.535023    
   1993000   0.99275294     17.519312      73.504141    
   1994000   1.0048766      17.72768       73.599561    
   1995000   0.99852204     17.523633      73.609874    
   1996000   1.01801        17.788555      73.537075    
   1997000   1.0297681      17.394464      73.527823    
   1998000   0.96787258     17.774177      73.728053    
   1999000   0.97206383     17.613514      73.523083    
   2000000   0.96351098     17.942235      73.435744    
   2001000   0.97560697     17.927821      73.375427    
   2002000   0.97287636     18.164402      73.314596    
   2003000   1.0295818      17.793957      73.318364    
   2004000   0.98920563     18.146243      73.303       
   2005000   0.95990601     17.906224      73.285234    
   2006000   1.0194222      17.370301      73.230278    
   2007000   0.95754009     16.544267      73.093563    
   2008000   0.98018122     17.477728      72.936473    
   2009000   1.0150653      17.747735      73.065983    
   2010000   1.0109848      18.140918      73.031199    
   2011000   0.99904002     17.055219      72.987136    
   2012000   0.98923081     17.420558      72.514922    
   2013000   1.0383305      17.948726      72.339555    
   2014000   0.95649678     17.51138       72.155826    
   2015000   0.98974738     17.465774      72.139109    
   2016000   0.96213378     17.14305       71.797896    
   2017000   0.99872809     17.926101      71.897407    
   2018000   1.0020126      17.802492      71.771241    
   2019000   0.99480515     17.656082      71.718643    
   2020000   0.97832917     17.719752      71.669266    
   2021000   0.98206018     17.716005      71.665024    
   2022000   0.98375619     17.223792      71.684183    
   2023000   1.050042       16.820924      71.618267    
   2024000   0.99149365     17.911279      71.578405    
   2025000   1.0249427      17.892738      71.365887    
   2026000   1.0120269      17.411581      71.118475    
   2027000   1.0550696      17.987515      71.129041    
   2028000   0.96398538     18.00208       71.025019    
   2029000   0.96482872     18.195893      71.059718    
   2030000   0.94105762     17.385501      71.192179    
   2031000   0.99612483     17.573687      71.261599    
   2032000   1.0068991      18.584081      71.057553    
   2033000   0.99425472     17.832337      71.156987    
   2034000   0.98497995     17.741487      71.137435    
   2035000   0.98336834     17.688842      71.271678    
   2036000   0.99537128     18.446316      71.114929    
   2037000   1.0391596      17.653444      70.94353     
   2038000   0.97462466     17.652114      71.060668    
   2039000   1.0209917      17.278179      70.927666    
   2040000   1.012675       17.358953      70.655805    
   2041000   0.98045664     17.877984      70.464988    
   2042000   1.0005706      17.647322      70.43297     
   2043000   1.0032667      17.301401      70.237764    
   2044000   0.95854557     17.528403      70.089555    
   2045000   1.0006228      17.401595      70.008898    
   2046000   1.0251386      17.677983      69.862604    
   2047000   1.0071408      18.038688      69.727448    
   2048000   1.0757909      17.79576       69.578889    
   2049000   1.0492222      18.240813      69.530015    
   2050000   1.0146834      17.774877      69.366087    
   2051000   1.0455537      17.582341      69.338583    
   2052000   1.0063383      17.849386      69.510994    
   2053000   0.99034749     17.553296      69.356376    
   2054000   1.0315507      17.573313      69.14299     
   2055000   1.0133732      17.755313      69.169307    
   2056000   1.0121871      17.949923      68.957592    
   2057000   0.99932695     16.945079      68.602446    
   2058000   1.0009558      17.589623      68.498142    
   2059000   1.0144533      17.977785      68.489571    
   2060000   1.0018489      17.508914      68.367571    
   2061000   0.97883114     17.192434      68.207016    
   2062000   0.99776638     17.359346      68.112084    
   2063000   1.0134216      17.559119      68.078677    
   2064000   1.0217846      17.698432      68.048233    
   2065000   0.99722536     17.531222      67.924737    
   2066000   1.0265319      17.52429       67.835577    
   2067000   0.97667098     17.97585       67.784885    
   2068000   0.99954687     17.370123      67.555971    
   2069000   0.98667743     17.156766      67.345852    
   2070000   1.0065549      17.810841      67.335902    
   2071000   0.98073942     17.957032      67.257349    
   2072000   1.0203709      17.637705      67.069226    
   2073000   0.94991065     17.622533      66.956131    
   2074000   1.0059186      17.581057      66.832973    
   2075000   1.0246007      17.345525      66.7063      
   2076000   0.92201555     17.337593      66.765281    
   2077000   1.0024254      18.003568      66.815875    
   2078000   1.0092472      17.306731      66.578504    
   2079000   1.0093625      17.677733      66.576347    
   2080000   1.0204258      18.26774       66.499697    
   2081000   0.99693051     17.543405      66.189175    
   2082000   0.97648419     17.35995       66.008827    
   2083000   1.0292432      17.741573      65.986666    
   2084000   0.98751606     17.650365      65.923365    
   2085000   1.0159586      16.831509      65.817715    
   2086000   0.99154094     17.030173      65.809734    
   2087000   0.98096836     18.00397       65.555704    
   2088000   0.98928997     17.716316      65.385684    
   2089000   1.0019993      17.306118      65.447419    
   2090000   0.98654306     17.699893      65.49734     
   2091000   1.0277997      17.491944      65.484239    
   2092000   0.98953131     16.995174      65.472285    
   2093000   1.012184       17.906681      65.333797    
   2094000   0.96194171     17.40711       65.300562    
   2095000   0.97557509     16.95899       65.118628    
   2096000   1.0654168      17.77436       64.942619    
   2097000   0.97541278     17.17282       64.830525    
   2098000   1.0242356      18.123779      64.767764    
   2099000   1.0088501      17.441281      64.59779     
   2100000   0.9690105      17.075714      64.673131    
   2101000   1.0066301      17.255671      64.605651    
   2102000   1.0028142      17.941515      64.465774    
   2103000   1.0072732      17.810573      64.558208    
   2104000   0.99569418     17.29835       64.326738    
   2105000   1.0087895      18.060121      64.239408    
   2106000   0.95946373     17.572883      64.28978     
   2107000   0.98723973     17.405688      64.267948    
   2108000   0.99099045     18.116041      64.522408    
   2109000   0.9945542      17.638652      64.502348    
   2110000   0.9096805      17.336015      64.353109    
   2111000   0.99760017     17.395903      64.251543    
   2112000   0.96966929     17.613077      64.104122    
   2113000   0.97422728     17.75862       64.011291    
   2114000   1.0194582      17.068654      64.158269    
   2115000   0.97988982     17.795381      64.26291     
   2116000   1.0038238      17.56778       64.247158    
   2117000   1.0063989      17.534667      64.046209    
   2118000   1.0297499      17.851049      64.172941    
   2119000   0.97185462     17.869746      64.204207    
   2120000   1.0345031      17.486752      64.064021    
   2121000   0.99014671     17.011745      64.149831    
   2122000   1.0057651      17.430777      64.227143    
   2123000   0.99997425     17.587407      64.250509    
   2124000   0.98949776     17.57539       64.37146     
   2125000   1.0691482      17.860717      64.646604    
   2126000   1.0232409      17.76919       64.598003    
   2127000   0.96439867     17.490941      64.513357    
   2128000   1.0055937      17.449156      64.439144    
   2129000   0.97728821     17.732389      64.518728    
   2130000   1.0458824      17.524021      64.33513     
   2131000   0.99836568     18.073426      64.182323    
   2132000   0.96177902     17.947636      63.901527    
   2133000   1.0632343      17.976114      63.852928    
   2134000   1.002251       17.99129       63.84845     
   2135000   1.0053459      17.612902      63.732992    
   2136000   0.99457379     17.712582      63.898753    
   2137000   1.0092386      18.088506      63.903562    
   2138000   1.0273645      17.542269      63.822583    
   2139000   1.0002954      17.773665      63.692219    
   2140000   1.0096678      17.593011      63.701827    
   2141000   1.0248495      17.037384      63.696925    
   2142000   0.98263641     17.83739       63.764583    
   2143000   1.0329955      17.321792      63.77918     
   2144000   1.043629       17.788508      63.6264      
   2145000   0.9923665      17.455592      63.598647    
   2146000   1.0119086      17.743318      63.211127    
   2147000   1.0215747      18.014588      63.078654    
   2148000   1.0263486      17.930668      62.84106     
   2149000   1.0427221      17.466558      62.9525      
   2150000   0.99187252     17.585833      62.858748    
   2151000   0.97181266     17.575975      62.771464    
   2152000   0.98217555     17.703423      62.604181    
   2153000   0.99004016     18.14509       62.400327    
   2154000   1.0456146      17.724349      62.447723    
   2155000   0.98042611     17.723189      62.396194    
   2156000   0.9890637      17.976347      62.374153    
   2157000   1.0172809      17.929944      62.280513    
   2158000   1.0089142      17.321361      62.145656    
   2159000   1.0610887      17.783951      61.973749    
   2160000   0.98616938     17.705044      61.832807    
   2161000   1.0381496      18.030773      61.856638    
   2162000   1.0001066      17.742546      61.826224    
   2163000   0.96958527     17.927123      61.971437    
   2164000   1.0037615      17.007406      61.728191    
   2165000   1.0010229      17.21031       61.626093    
   2166000   0.98268214     17.051546      61.35558     
   2167000   0.98462359     17.054435      61.359421    
   2168000   1.0209777      17.927549      61.220207    
   2169000   0.98507496     18.229083      61.095397    
   2170000   1.0482672      17.675834      61.114656    
   2171000   1.0055071      17.628413      61.050149    
   2172000   1.0130401      17.813661      60.855951    
   2173000   0.98610337     17.788789      60.707743    
   2174000   1.0121049      17.418386      60.669938    
   2175000   0.98379539     17.253324      60.50293     
   2176000   1.0218647      18.040857      60.329986    
   2177000   0.99617195     17.668757      60.402217    
   2178000   1.0147981      17.730466      59.999938    
   2179000   0.95664198     17.526218      59.876683    
   2180000   1.0269945      17.30539       59.689999    
   2181000   1.0100937      17.766741      59.629944    
   2182000   1.061778       17.959922      59.59986     
   2183000   1.0178452      17.418886      59.430457    
   2184000   0.99716958     17.582728      59.252029    
   2185000   0.98464309     17.649855      59.147512    
   2186000   0.98007451     17.620851      59.240274    
   2187000   0.96548495     17.383469      59.135424    
   2188000   1.0344543      17.764342      58.918191    
   2189000   0.97366852     17.428208      58.881391    
   2190000   1.0046723      18.002965      58.895554    
   2191000   1.0045172      17.492358      58.765396    
   2192000   0.96695349     17.610541      58.76798     
   2193000   0.97265026     17.604163      58.738474    
   2194000   1.0367991      17.470144      58.702685    
   2195000   0.98658389     17.340031      58.968018    
   2196000   1.0422384      17.593404      58.816397    
   2197000   0.97332109     17.508831      58.773203    
   2198000   1.0343608      17.662146      58.75433     
   2199000   0.98601648     17.70891       58.569415    
   2200000   0.98512395     17.277438      58.621491    
   2201000   1.0185422      17.38974       58.219035    
   2202000   0.99996145     17.594654      58.097246    
   2203000   1.0036217      17.497606      58.078261    
   2204000   1.0021049      16.906289      58.053149    
   2205000   1.0018922      17.758478      57.890322    
   2206000   1.0834864      17.496304      57.688838    
   2207000   0.95990989     17.211012      57.625614    
   2208000   0.98305289     17.785107      57.603768    
   2209000   0.9874623      17.720174      57.660689    
   2210000   1.0071626      17.29383       57.544983    
   2211000   0.99064852     16.988291      57.479076    
   2212000   1.0014308      17.59516       57.412842    
   2213000   1.0394265      17.969571      57.325121    
   2214000   1.0564984      17.683519      57.271837    
   2215000   1.0066254      17.663869      57.071911    
   2216000   0.99825594     17.396771      57.075137    
   2217000   0.98761191     17.552834      56.965298    
   2218000   0.96985768     17.68068       57.100948    
   2219000   0.96066412     17.413415      56.961344    
   2220000   1.0153362      16.972619      57.024893    
   2221000   0.97952177     16.738534      57.143518    
   2222000   0.99826317     17.82577       57.076628    
   2223000   0.99803571     17.715602      57.12542     
   2224000   0.95782476     17.013455      57.061814    
   2225000   1.0002637      17.272318      56.844241    
   2226000   0.99401714     17.519045      56.601004    
   2227000   1.005154       17.245014      56.589361    
   2228000   0.96394917     18.205715      56.531232    
   2229000   0.95799638     17.024363      56.514008    
   2230000   0.98236741     17.439668      56.330075    
   2231000   0.98728441     17.275186      56.132765    
   2232000   1.033808       17.359077      55.813415    
   2233000   1.0015329      17.803641      55.84267     
   2234000   1.0166812      17.653318      55.920129    
   2235000   1.0171688      17.565962      55.882109    
   2236000   1.0386812      17.36541       55.856629    
   2237000   1.066152       17.33871       55.845523    
   2238000   0.99696268     17.574094      56.025377    
   2239000   1.0154101      17.387179      55.943478    
   2240000   0.99125271     17.679181      55.757812    
   2241000   0.9583319      17.563488      55.639465    
   2242000   1.0191167      17.417369      55.302923    
   2243000   1.0259314      17.562677      55.263067    
   2244000   0.97369049     17.485961      55.283232    
   2245000   0.96776183     17.044011      55.470493    
   2246000   1.0028112      16.914206      55.383246    
   2247000   1.0219077      16.986779      55.226522    
   2248000   0.99711981     17.439541      55.071511    
   2249000   0.9869174      17.889206      54.965037    
   2250000   1.027069       17.392676      54.930761    
   2251000   0.96595667     17.665501      54.77808     
   2252000   0.98790738     17.087885      54.629412    
   2253000   1.0478843      18.17162       54.304969    
   2254000   1.0038928      18.019599      54.210067    
   2255000   1.0267         17.528781      53.973113    
   2256000   0.98889556     17.746164      53.863079    
   2257000   1.0093368      17.278498      53.686499    
   2258000   0.99736301     17.280313      53.762889    
   2259000   0.95946565     17.309216      53.696147    
   2260000   1.0311013      17.182807      53.415853    
   2261000   1.0304148      17.831695      53.358194    
   2262000   0.9992293      18.001332      53.421196    
   2263000   1.0018594      17.474568      53.155893    
   2264000   0.98629526     17.278709      53.003587    
   2265000   1.0021151      17.27925       53.034219    
   2266000   1.0114573      17.179634      53.00448     
   2267000   1.026475       17.123299      52.752915    
   2268000   1.0025471      17.593364      52.773475    
   2269000   0.99449631     16.970575      52.6227      
   2270000   0.96917707     17.863792      52.566832    
   2271000   0.94361858     18.031312      52.747734    
   2272000   1.0618515      17.208117      52.441376    
   2273000   1.0245189      18.041975      52.272464    
   2274000   0.99530549     17.412209      52.391732    
   2275000   1.0002399      17.51205       52.626866    
   2276000   1.0370533      18.107929      52.590109    
   2277000   1.016296       16.760326      52.545584    
   2278000   0.94743698     17.108335      52.570927    
   2279000   1.0210866      17.420651      52.491693    
   2280000   0.96568008     18.056856      52.448957    
   2281000   1.0276766      17.478361      52.254302    
   2282000   0.96551588     17.334637      52.150604    
   2283000   0.96605536     17.155516      52.132198    
   2284000   1.0400285      17.967819      52.073452    
   2285000   1.0016983      17.195598      52.296452    
   2286000   0.98578518     17.895095      52.158292    
   2287000   1.0237488      18.057487      51.997324    
   2288000   0.98911666     17.572015      51.779453    
   2289000   1.0721742      17.671664      51.631545    
   2290000   0.96755279     17.655036      51.551873    
   2291000   0.97146583     17.534502      51.279718    
   2292000   1.0431895      17.747154      51.335497    
   2293000   1.0314128      17.600112      51.043388    
   2294000   1.0139729      17.577655      50.62705     
   2295000   1.0031363      17.204714      50.384781    
   2296000   0.98253994     17.433765      50.200743    
   2297000   0.99945517     17.605308      49.872413    
   2298000   0.92905705     17.546696      49.595088    
   2299000   1.0105814      17.280967      49.738884    
   2300000   0.99033383     16.974705      49.68873     
   2301000   1.0289578      17.918909      49.585814    
   2302000   1.058889       17.684939      49.594507    
   2303000   1.0354804      17.185609      49.471194    
   2304000   0.99428782     17.487242      49.40668     
   2305000   1.0218765      17.289971      49.145643    
   2306000   1.0140716      17.18947       49.058901    
   2307000   1.0040432      17.5487        48.818774    
   2308000   1.0039077      17.499669      48.505654    
   2309000   1.0328785      17.284867      48.35767     
   2310000   1.0012996      17.86843       48.414246    
   2311000   0.96158264     17.002094      48.270514    
   2312000   0.96641814     17.177119      48.158511    
   2313000   0.98651471     17.179243      47.972685    
   2314000   1.029604       17.300354      47.786219    
   2315000   1.0082605      17.228091      47.804502    
   2316000   1.0006307      17.51859       47.790915    
   2317000   0.99020781     17.036618      47.772734    
   2318000   0.95513665     17.328177      47.772061    
   2319000   0.97885766     17.672649      47.752624    
   2320000   1.0012734      17.184026      47.747916    
   2321000   0.99864548     17.22199       47.794685    
   2322000   1.010974       17.272691      47.778005    
   2323000   1.0472137      17.197405      47.475061    
   2324000   1.0410493      17.139328      47.24599     
   2325000   1.0257251      17.923372      47.208219    
   2326000   1.0373268      16.897596      47.23539     
   2327000   1.008639       17.620165      47.119008    
   2328000   0.99781256     17.5462        46.81866     
   2329000   0.99952669     17.060997      46.746328    
   2330000   0.99140223     17.434569      46.544953    
   2331000   1.0241743      17.52964       46.551937    
   2332000   1.0236917      17.247885      46.302664    
   2333000   0.94035969     17.017001      46.303752    
   2334000   0.99840592     17.092095      46.21681     
   2335000   1.0113689      17.926546      46.17652     
   2336000   0.96778045     17.625623      46.274856    
   2337000   0.99222632     17.650283      46.078005    
   2338000   0.98391343     17.154167      45.976669    
   2339000   1.0105197      17.296288      45.860821    
   2340000   1.0121916      17.419037      45.821003    
   2341000   0.99420086     17.690529      45.876503    
   2342000   1.012394       18.079198      45.784037    
   2343000   1.0198143      17.675669      46.007672    
   2344000   0.9595362      17.682184      45.927278    
   2345000   1.0232729      17.776151      45.962541    
   2346000   0.97604325     17.258853      45.79924     
   2347000   0.99056483     16.753838      45.866576    
   2348000   0.99698957     17.870661      45.861673    
   2349000   0.95266071     17.366686      45.717058    
   2350000   0.99803606     17.584958      45.237884    
   2351000   1.0522464      17.66062       45.021135    
   2352000   0.96105351     17.212159      45.005161    
   2353000   1.013587       17.708187      44.959227    
   2354000   1.0307295      17.066547      44.75996     
   2355000   0.98364187     16.877509      44.853615    
   2356000   1.0087859      17.563373      44.718689    
   2357000   0.98763529     17.076557      44.682456    
   2358000   1.0375557      17.558579      44.68023     
   2359000   1.0273396      17.1456        44.45175     
   2360000   0.97715268     17.968862      44.546109    
   2361000   1.0730889      17.695085      44.408931    
   2362000   0.97571069     17.583736      44.35044     
   2363000   0.99719376     17.04948       44.643117    
   2364000   1.0111524      16.767402      44.698103    
   2365000   0.98502343     17.794156      44.701881    
   2366000   0.98360685     17.266466      44.72712     
   2367000   0.9754592      17.727316      44.549553    
   2368000   0.963449       17.307198      44.586358    
   2369000   1.0039534      17.203964      44.536313    
   2370000   0.98974965     17.877327      44.5165      
   2371000   1.0070586      17.400942      44.313812    
   2372000   1.0175902      17.366437      44.079151    
   2373000   0.99076925     17.517014      44.048452    
   2374000   1.0210025      17.555128      43.821989    
   2375000   1.0181462      17.418636      43.834313    
   2376000   1.0444945      17.764443      43.664301    
   2377000   1.0200881      16.743108      43.662136    
   2378000   1.0144182      17.016063      43.395471    
   2379000   0.99788274     16.849115      43.518357    
   2380000   1.0123925      17.27978       43.463478    
   2381000   0.97679064     17.075646      43.341226    
   2382000   1.0103721      17.174222      43.285034    
   2383000   1.0393411      17.641433      43.039527    
   2384000   0.99484969     17.864019      43.112876    
   2385000   0.99816261     17.048528      42.926425    
   2386000   1.0525888      17.10443       42.950931    
   2387000   0.98475576     17.868603      42.950735    
   2388000   1.0204         17.007628      43.050091    
   2389000   1.0445102      17.153807      43.171274    
   2390000   1.0011218      17.519335      43.003353    
   2391000   1.0082342      17.016501      43.180521    
   2392000   0.9925415      17.61823       43.09387     
   2393000   0.98724624     17.515892      43.105242    
   2394000   1.0128472      17.388927      42.994802    
   2395000   0.9963268      17.788742      42.940701    
   2396000   1.0649078      17.187618      42.891869    
   2397000   0.98322092     17.427265      42.927367    
   2398000   1.0126056      17.321681      42.701562    
   2399000   1.0356596      17.626718      42.688114    
   2400000   1.0204127      17.15083       42.592014    
   2401000   0.96305716     16.964325      42.543099    
   2402000   0.97759243     17.75961       42.433273    
   2403000   1.0003806      17.417094      42.156898    
   2404000   1.0204317      17.194656      41.981557    
   2405000   0.97569104     16.582042      41.947969    
   2406000   0.98010275     17.775497      41.876718    
   2407000   1.027216       17.608371      41.586407    
   2408000   0.96743921     16.830524      41.533126    
   2409000   1.0104002      17.844451      41.310091    
   2410000   1.0342933      17.906743      41.439301    
   2411000   1.007582       17.476644      41.418498    
   2412000   1.0261592      16.724662      41.365655    
   2413000   0.99176442     17.366721      41.297498    
   2414000   1.0356839      17.179112      41.197241    
   2415000   1.0500384      18.396984      40.873701    
   2416000   1.0439212      17.963531      40.761269    
   2417000   1.0018603      17.695322      40.520756    
   2418000   0.99362984     17.628992      40.449814    
   2419000   0.98387144     17.641982      40.447984    
   2420000   1.0257348      17.280656      40.320376    
   2421000   0.99529797     17.384812      40.325758    
   2422000   0.99814413     17.237787      40.327326    
   2423000   1.0130035      17.301095      40.301563    
   2424000   1.0087036      17.413027      40.31511     
   2425000   1.0588412      16.301723      40.27789     
   2426000   0.99046456     17.275644      40.328206    
   2427000   1.0305858      17.74319       40.232038    
   2428000   0.98261061     17.431619      40.086828    
   2429000   0.99385615     16.967276      40.02858     
   2430000   0.98218116     17.260288      39.71731     
   2431000   0.98078694     17.62945       39.41732     
   2432000   0.9747238      16.692736      39.356104    
   2433000   0.98550885     17.453895      39.150133    
   2434000   0.99079258     17.143733      39.216538    
   2435000   0.98377629     17.192638      39.124936    
   2436000   1.0204996      17.769626      39.17957     
   2437000   0.98826848     17.660907      39.156452    
   2438000   1.0045223      17.729937      38.892248    
   2439000   0.98548032     17.588093      38.737962    
   2440000   0.97102804     17.229636      38.389713    
   2441000   1.0059086      16.973267      38.397552    
   2442000   0.96631492     17.97848       38.700925    
   2443000   0.97957355     16.767832      38.485892    
   2444000   1.0626422      17.476398      38.337387    
   2445000   0.99412816     16.509607      38.483906    
   2446000   0.99439731     17.47909       38.514432    
   2447000   1.0114656      17.375526      38.646466    
   2448000   1.0299945      17.410132      38.453134    
   2449000   0.97902372     17.369142      38.495504    
   2450000   1.0304591      17.654639      38.254731    
   2451000   1.0298509      17.265558      38.228993    
   2452000   0.97493724     17.640585      38.093476    
   2453000   1.0027674      17.025697      38.085383    
   2454000   1.0359422      17.229394      38.018723    
   2455000   1.033715       17.182871      37.935417    
   2456000   1.0163783      17.959296      37.968806    
   2457000   1.0039494      17.388663      37.990619    
   2458000   0.96709526     17.538766      37.996814    
   2459000   0.98165747     17.654248      38.003833    
   2460000   0.99819527     17.142955      37.772757    
   2461000   0.96336289     16.344922      37.675207    
   2462000   0.98616224     16.566191      37.345012    
   2463000   0.99137453     18.015166      37.431867    
   2464000   0.97059914     16.425538      37.642496    
   2465000   1.0318065      17.296829      37.421061    
   2466000   0.98246248     16.943651      37.449703    
   2467000   0.96348774     17.045478      37.45668     
   2468000   1.0088899      17.692981      37.406423    
   2469000   0.97001676     17.739324      37.372887    
   2470000   1.0192643      17.492673      37.390077    
   2471000   1.0057005      17.505561      37.298075    
   2472000   0.970286       17.25448       37.329933    
   2473000   1.0490617      17.264398      37.489152    
   2474000   0.98048496     17.123517      37.543737    
   2475000   0.98708536     17.873744      37.363139    
   2476000   1.019133       17.454086      37.167316    
   2477000   1.0000836      17.805172      37.15878     
   2478000   1.0091293      17.481554      37.162297    
   2479000   1.0082739      17.227037      37.053774    
   2480000   1.0112107      17.740161      36.882206    
   2481000   1.0414951      17.763515      36.699937    
   2482000   1.0031867      17.086217      36.709742    
   2483000   1.0399788      16.974715      36.896569    
   2484000   1.0150601      17.676974      36.739165    
   2485000   1.0067636      17.287082      36.626384    
   2486000   0.9892307      17.496214      36.383245    
   2487000   1.0289647      17.335617      36.488825    
   2488000   1.0236594      17.310584      36.410775    
   2489000   0.99114361     17.231789      36.185593    
   2490000   0.9603241      17.168129      36.194955    
   2491000   0.98099482     17.486862      36.180964    
   2492000   1.0019501      16.988319      36.394695    
   2493000   1.0053787      17.548703      36.34605     
   2494000   1.0488643      17.676901      36.051896    
   2495000   0.97631869     17.459872      35.885436    
   2496000   0.95502848     17.83039       35.959461    
   2497000   1.0112683      17.029284      36.111584    
   2498000   0.98586857     17.036712      36.015854    
   2499000   0.96852779     17.957611      35.835722    
   2500000   1.0178026      17.361633      35.688477    
   2501000   1.0136748      17.382066      35.689563    
   2502000   0.99069119     17.567614      35.675639    
   2503000   0.9474789      17.405649      35.932397    
   2504000   1.0205596      17.497986      35.773923    
   2505000   0.99796567     18.08986       35.563314    
   2506000   1.0105333      17.196664      35.448774    
   2507000   0.99290888     17.448579      35.418342    
   2508000   0.95079668     17.049861      35.326166    
   2509000   0.98874321     17.120331      35.236772    
   2510000   1.0084228      17.37765       35.420335    
   2511000   1.0133947      17.712585      35.293524    
   2512000   0.99544668     17.808554      35.098888    
   2513000   0.99140302     17.441462      35.239799    
   2514000   0.9837623      17.317134      35.181418    
   2515000   0.98697257     17.150905      35.055688    
   2516000   1.0219422      17.494483      34.991538    
   2517000   0.99129714     16.668031      35.093433    
   2518000   1.0084566      17.699029      34.974626    
   2519000   0.99939189     17.183065      35.060407    
   2520000   0.99295884     16.691457      34.95856     
   2521000   0.95257252     17.831721      35.068654    
   2522000   0.99922227     17.225015      35.161756    
   2523000   0.99021047     17.572369      35.317685    
   2524000   1.0062225      17.533565      35.317496    
   2525000   1.0304095      17.541625      35.314242    
   2526000   0.95853805     16.845206      35.217676    
   2527000   1.0005693      17.236227      35.035662    
   2528000   0.92163688     16.979906      35.030354    
   2529000   0.98068507     16.984424      35.016931    
   2530000   1.0281444      17.319549      34.897554    
   2531000   1.0137218      17.356157      34.745239    
   2532000   1.0232763      16.785549      34.908577    
   2533000   1.0191051      17.97973       34.90667     
   2534000   1.0047464      17.749782      34.963512    
   2535000   0.99753202     17.632788      35.085279    
   2536000   0.98290575     16.709837      34.870692    
   2537000   1.0209907      17.208256      35.048691    
   2538000   1.0315765      17.606998      34.948632    
   2539000   0.98336832     17.150038      34.414025    
   2540000   1.0312979      16.892205      34.244849    
   2541000   0.98750626     17.266619      34.172395    
   2542000   1.0295746      17.717061      34.30938     
   2543000   1.0344009      17.207598      34.208574    
   2544000   0.98506481     17.026017      34.031678    
   2545000   0.97918051     17.525315      33.804773    
   2546000   0.98896108     16.991827      33.737733    
   2547000   0.99679737     16.653242      33.698278    
   2548000   0.95209723     17.100085      33.735726    
   2549000   1.0265538      17.611788      33.993904    
   2550000   0.98264104     17.562032      33.998717    
   2551000   1.0323429      17.198891      33.971114    
   2552000   1.0203363      17.595273      33.988413    
   2553000   0.99313194     17.432695      33.917033    
   2554000   0.96322645     17.521672      33.832075    
   2555000   0.95383063     17.313515      33.977806    
   2556000   1.0191977      17.22602       33.810773    
   2557000   1.0312827      17.773174      34.030589    
   2558000   1.00418        17.587753      34.064015    
   2559000   0.98365221     17.279545      34.108597    
   2560000   0.99869125     17.590858      34.403832    
   2561000   0.99351139     16.913656      34.480762    
   2562000   0.99025919     17.094756      34.456782    
   2563000   0.94396738     17.011804      34.307088    
   2564000   1.0314967      17.15071       34.210365    
   2565000   1.0323018      17.168832      34.180679    
   2566000   1.0049936      17.221119      34.168897    
   2567000   1.0490097      18.027933      34.122445    
   2568000   1.0407431      17.588579      34.358168    
   2569000   1.0010234      17.769864      34.267995    
   2570000   0.9998588      17.365522      34.282751    
   2571000   1.0009609      17.258762      34.271997    
   2572000   0.97533992     17.50266       34.044107    
   2573000   0.9883094      17.228136      33.907755    
   2574000   0.97568045     16.885418      34.017033    
   2575000   0.96797302     17.420361      33.937455    
   2576000   1.0052189      17.674225      33.800698    
   2577000   1.0153372      17.508918      33.644241    
   2578000   1.0082094      17.799393      33.571072    
   2579000   0.96666962     16.992472      33.500067    
   2580000   1.0148501      17.921121      33.634636    
   2581000   0.96851341     16.902276      33.562642    
   2582000   1.0533283      17.581658      33.302603    
   2583000   1.0053765      17.118294      33.269285    
   2584000   0.98804463     17.048826      33.106079    
   2585000   1.0042224      17.761102      33.204653    
   2586000   1.014076       17.146267      33.25191     
   2587000   0.98789853     17.352257      32.99368     
   2588000   1.0558039      17.204799      32.852139    
   2589000   0.98868002     16.999636      32.617113    
   2590000   1.0514337      17.151923      32.60216     
   2591000   0.9736651      17.623196      32.682644    
   2592000   0.98525441     17.366177      32.397559    
   2593000   0.98987882     17.656982      32.086566    
   2594000   0.99917104     17.066269      32.083428    
   2595000   1.0178466      17.440579      32.080925    
   2596000   0.9683678      17.445113      32.060525    
   2597000   0.9990298      17.393976      32.219647    
   2598000   1.0227708      17.787074      32.205232    
   2599000   1.0163397      17.555161      32.203467    
   2600000   1.0489914      17.453356      32.187598    
   2601000   1.0507248      17.800029      32.180481    
   2602000   1.0278629      17.649434      32.303088    
   2603000   0.9365685      17.343306      32.357515    
   2604000   1.0259861      17.503896      32.509693    
   2605000   1.0122466      16.823664      32.770151    
   2606000   1.0407332      17.42459       32.758354    
   2607000   0.97681862     17.197405      32.528551    
   2608000   0.95296603     16.879344      32.463066    
   2609000   0.98532762     17.684494      32.48125     
   2610000   1.022041       17.133245      32.415193    
   2611000   1.0101026      16.765035      32.270415    
   2612000   0.99194601     16.974747      32.098992    
   2613000   0.99051604     17.270677      32.024147    
   2614000   0.99181126     17.649751      31.787481    
   2615000   1.0266891      17.924646      31.618397    
   2616000   0.97271696     16.940971      31.544163    
   2617000   1.0013102      17.488294      31.401989    
   2618000   1.0311976      17.179061      31.45974     
   2619000   0.94496042     17.425928      31.630276    
   2620000   1.0281372      17.59059       31.554045    
   2621000   0.96989034     16.627243      31.411058    
   2622000   0.98231375     17.011999      31.488765    
   2623000   0.99215392     16.925469      31.557125    
   2624000   1.0230976      17.872574      31.378015    
   2625000   0.9714935      17.214473      31.290708    
   2626000   1.0338944      16.915596      31.457424    
   2627000   1.0148755      17.008988      31.32745     
   2628000   1.0248752      17.576713      31.19513     
   2629000   0.97297532     17.695305      31.180672    
   2630000   0.98405356     17.043532      30.912774    
   2631000   1.0293463      16.99141       30.81257     
   2632000   0.98538444     17.367608      30.891259    
   2633000   1.0129432      17.391786      30.867209    
   2634000   1.0339987      17.492091      30.919236    
   2635000   0.96509682     17.579388      30.665504    
   2636000   0.98736726     16.740913      30.471239    
   2637000   0.99963162     17.26898       30.475039    
   2638000   0.94701427     17.349877      30.294058    
   2639000   1.0071019      17.109638      30.183809    
   2640000   0.99024686     17.016301      30.322416    
   2641000   1.0159916      17.169058      30.090832    
   2642000   1.0136295      16.893035      29.83272     
   2643000   1.0273899      16.865514      29.831814    
   2644000   0.99422385     17.251893      29.770475    
   2645000   0.98396446     17.305872      29.504339    
   2646000   0.956302       17.788811      29.265248    
   2647000   1.0431535      17.229496      29.409419    
   2648000   0.99858501     17.304913      29.468952    
   2649000   1.0012805      17.181694      29.661413    
   2650000   1.013505       17.246479      29.532894    
   2651000   1.0221744      17.290016      29.590871    
   2652000   0.99857365     17.356192      29.566841    
   2653000   0.9742701      17.522848      29.464292    
   2654000   1.0423911      17.567435      29.488353    
   2655000   1.0325211      17.108785      29.333889    
   2656000   1.0305363      16.897862      29.204879    
   2657000   1.0135805      17.751654      29.36207     
   2658000   0.99393865     16.749874      29.250047    
   2659000   0.97787165     17.157709      29.204413    
   2660000   1.0211201      16.890939      29.436228    
   2661000   0.96616815     17.187297      29.338042    
   2662000   1.0061252      17.51806       29.279342    
   2663000   0.99374507     17.70404       29.494573    
   2664000   1.0093179      17.665806      29.438989    
   2665000   1.0068301      18.185653      29.463392    
   2666000   0.94996098     16.74188       29.292514    
   2667000   1.0004994      18.079417      29.284501    
   2668000   0.9682123      16.796421      29.306399    
   2669000   0.99580173     16.882515      29.123514    
   2670000   1.018116       17.224007      29.063464    
   2671000   0.9995785      17.288792      29.166734    
   2672000   1.0338217      17.168992      29.214855    
   2673000   1.0032413      16.975514      29.209504    
   2674000   0.97427717     17.072804      29.319872    
   2675000   1.016471       17.267078      29.265199    
   2676000   0.92330345     16.962169      29.332641    
   2677000   0.98989228     17.718815      29.245457    
   2678000   1.0091823      17.912393      29.252404    
   2679000   1.0434595      17.324409      29.239878    
   2680000   1.0438075      18.306881      29.060532    
   2681000   1.0007701      17.492014      28.931521    
   2682000   0.96419719     17.405951      28.94391     
   2683000   1.0049989      17.177843      28.819001    
   2684000   1.0360096      17.234246      28.927221    
   2685000   0.96084676     16.751268      28.805183    
   2686000   1.0041614      17.42931       28.977606    
   2687000   1.0200608      17.302734      29.037848    
   2688000   1.0284468      17.197393      28.99668     
   2689000   0.98545625     16.858144      29.028973    
   2690000   1.0003851      17.021355      29.117281    
   2691000   0.97685988     17.360131      29.204769    
   2692000   1.0096564      17.28842       29.267473    
   2693000   0.99114249     17.12309       29.256441    
   2694000   1.0304271      17.298207      29.252568    
   2695000   1.0102072      17.753565      29.037025    
   2696000   1.0263202      17.142628      28.847286    
   2697000   0.98826455     17.744401      28.812719    
   2698000   0.9741708      17.075009      28.797549    
   2699000   0.95532617     17.309512      28.71878     
   2700000   0.97726569     17.246161      28.778361    
   2701000   1.0075194      17.790096      28.722287    
   2702000   1.056427       17.576731      28.647545    
   2703000   1.0273201      17.334495      28.68489     
   2704000   0.97926308     16.887136      28.511956    
   2705000   1.010506       17.747646      28.619214    
   2706000   1.047913       17.795867      28.342398    
   2707000   1.0080991      17.397047      28.111069    
   2708000   1.0062697      17.60356       28.307627    
   2709000   1.0076622      17.673471      28.251472    
   2710000   0.97200309     17.216782      28.412403    
   2711000   1.0113205      17.649277      28.470724    
   2712000   0.97359044     16.265386      28.368431    
   2713000   1.0048762      17.261571      28.298774    
   2714000   0.99794176     17.472452      28.289943    
   2715000   0.99499701     17.221358      28.181607    
   2716000   0.99038156     16.956853      27.934041    
   2717000   1.0124335      16.975573      27.833492    
   2718000   0.99475729     17.672953      27.616393    
   2719000   0.97821462     17.7501        27.472767    
   2720000   0.98339841     17.771933      27.458346    
   2721000   0.97686935     17.789227      27.51882     
   2722000   1.0103503      17.418693      27.335033    
   2723000   1.082061       17.287548      27.290961    
   2724000   1.0211787      17.973585      27.301558    
   2725000   0.99435335     16.923003      27.106309    
   2726000   1.0004009      17.656123      26.853632    
   2727000   1.0098051      17.200875      26.6664      
   2728000   1.0305057      17.085058      26.485539    
   2729000   1.0536646      17.066186      26.427649    
   2730000   0.96434546     16.888574      26.181372    
   2731000   0.99566909     17.003179      26.475759    
   2732000   1.0485328      17.781748      26.513503    
   2733000   1.0292746      17.301597      26.640284    
   2734000   1.0366395      16.660449      26.833208    
   2735000   1.0499905      17.849383      26.527797    
   2736000   1.0109925      17.076072      26.27027     
   2737000   1.0049866      17.31291       25.973099    
   2738000   0.98037283     17.216746      25.827733    
   2739000   0.95478568     16.617349      25.898376    
   2740000   0.99149226     17.704191      25.705271    
   2741000   0.98669917     16.888995      25.522449    
   2742000   0.99008282     17.622557      25.291956    
   2743000   1.0018855      18.008947      25.112419    
   2744000   1.0074205      17.803887      25.111544    
   2745000   0.97795411     16.87804       25.012163    
   2746000   0.98882583     16.994545      24.811697    
   2747000   0.98603963     17.486761      24.873387    
   2748000   1.0058907      17.75196       24.953221    
   2749000   1.0145722      17.39137       24.589119    
   2750000   0.96492111     17.620614      24.605989    
   2751000   0.97541033     17.150317      24.534549    
   2752000   1.0029979      16.630527      24.36072     
   2753000   1.076803       17.477386      24.153354    
   2754000   0.98076164     17.024437      23.891197    
   2755000   0.97893351     17.506233      23.712808    
   2756000   0.99079852     17.218081      23.772532    
   2757000   1.0061959      17.548547      23.728516    
   2758000   1.0044435      17.164497      23.816246    
   2759000   1.0107728      16.922609      23.824419    
   2760000   1.0039671      17.641211      23.828852    
   2761000   1.0168871      17.464402      23.936921    
   2762000   1.0640316      17.313648      23.966222    
   2763000   1.0090154      17.302255      23.639259    
   2764000   1.0116084      17.052384      23.614838    
   2765000   0.99916919     16.893978      23.429139    
   2766000   0.99707573     16.831166      23.49154     
   2767000   1.0251534      17.514351      23.480275    
   2768000   1.0363161      17.480048      23.538869    
   2769000   0.98999144     16.9555        23.414646    
   2770000   1.0218026      16.961426      23.374551    
   2771000   1.0630977      16.948958      23.202378    
   2772000   1.0383393      17.310041      23.111927    
   2773000   1.0305998      17.829992      23.085716    
   2774000   1.0166634      16.696388      23.223167    
   2775000   0.99249094     16.363107      23.249153    
   2776000   1.0021087      17.270248      23.120919    
   2777000   1.0214889      17.399706      22.981058    
   2778000   1.0009172      17.096536      22.662721    
   2779000   1.0384783      17.481904      22.424791    
   2780000   0.99704827     17.393746      22.477639    
   2781000   1.0414624      16.982824      22.502129    
   2782000   1.0322612      17.613762      22.41112     
   2783000   1.046126       17.118574      22.286786    
   2784000   1.007526       16.932289      22.401199    
   2785000   1.0106092      17.229141      22.343144    
   2786000   0.98553268     17.432432      22.49299     
   2787000   1.0335526      17.376515      22.405386    
   2788000   1.0149056      17.602233      22.793844    
   2789000   0.95962497     17.235644      22.900083    
   2790000   1.0040256      17.465354      23.214303    
   2791000   0.98016207     17.202487      23.098059    
   2792000   1.0277378      17.254021      23.058954    
   2793000   0.96437178     17.79754       22.896044    
   2794000   0.99556393     17.232098      22.875554    
   2795000   0.97129327     17.211852      22.861273    
   2796000   1.0099193      17.743398      22.553542    
   2797000   0.98544055     17.374132      22.596457    
   2798000   0.98618967     17.365343      22.475243    
   2799000   0.99201204     16.636988      22.386224    
   2800000   0.98007033     17.177499      22.21175     
   2801000   1.0159651      17.514024      22.114254    
   2802000   1.0098098      17.420011      22.132804    
   2803000   1.0345206      16.981483      21.911865    
   2804000   0.99690246     17.563557      22.114859    
   2805000   1.0088998      16.494968      22.19745     
   2806000   1.0000615      17.347999      22.049502    
   2807000   0.98349779     17.198468      22.068927    
   2808000   1.0275315      17.526252      21.938102    
   2809000   0.97299796     16.609253      22.152959    
   2810000   1.0425529      17.285112      21.978699    
   2811000   1.0209548      16.823442      21.791667    
   2812000   1.0294424      16.994292      21.741393    
   2813000   1.0173967      17.708194      21.656881    
   2814000   0.99167173     17.454405      21.684622    
   2815000   1.0403716      17.505483      21.60981     
   2816000   1.008302       16.607708      21.601371    
   2817000   0.99996306     17.1485        21.358484    
   2818000   0.99758927     16.574484      21.492718    
   2819000   0.99982801     17.657707      21.491296    
   2820000   1.0564822      17.882055      21.229785    
   2821000   0.95629889     17.245892      21.288823    
   2822000   0.98618253     16.893277      21.259514    
   2823000   0.99303287     17.022425      21.099396    
   2824000   0.99370359     16.789794      21.074759    
   2825000   1.0253518      18.073062      20.944293    
   2826000   0.97328504     16.964895      20.662952    
   2827000   1.0054406      17.459114      20.659643    
   2828000   1.0142197      17.124192      20.493017    
   2829000   1.0078891      17.265165      20.476334    
   2830000   1.0302343      17.338306      20.331344    
   2831000   0.98785338     17.946408      20.269817    
   2832000   1.0564286      16.898579      20.332625    
   2833000   0.98950974     17.417796      20.440239    
   2834000   1.0116088      17.062453      20.119085    
   2835000   1.013629       17.700101      20.150968    
   2836000   1.0194035      17.259383      20.153702    
   2837000   1.0134378      17.294972      20.127216    
   2838000   0.97261514     17.264062      20.229398    
   2839000   0.98371269     17.476922      19.857807    
   2840000   0.97952218     17.111496      20.026437    
   2841000   1.0111078      17.084416      20.101376    
   2842000   1.019163       16.952812      19.996476    
   2843000   0.96818187     17.161329      19.985236    
   2844000   0.98325435     16.825685      19.998297    
   2845000   1.0322286      17.326074      19.96737     
   2846000   1.0242126      17.419295      19.896013    
   2847000   1.0499797      17.228521      20.08096     
   2848000   0.9688451      16.990198      20.128925    
   2849000   1.0466544      17.830341      20.395895    
   2850000   1.0691487      17.855057      20.43142     
   2851000   0.97086122     17.225975      20.469969    
   2852000   1.0356705      17.079471      20.384062    
   2853000   1.0377961      16.955943      20.521169    
   2854000   1.0258012      17.307151      20.670923    
   2855000   1.0363507      17.795187      20.671758    
   2856000   0.98693179     17.091894      20.779699    
   2857000   1.0044993      17.538982      20.604586    
   2858000   0.98868657     17.314844      20.273168    
   2859000   1.0237876      16.990834      20.348536    
   2860000   1.0167942      17.000743      20.452647    
   2861000   0.98674891     16.97539       20.30458     
   2862000   1.0051667      17.399149      20.317708    
   2863000   0.9705109      17.501942      20.217098    
   2864000   1.0146509      17.225933      19.909032    
   2865000   1.0077717      16.749084      19.708275    
   2866000   1.0098988      17.219799      19.771458    
   2867000   1.0379668      17.244365      19.598183    
   2868000   0.99982871     17.485197      19.542637    
   2869000   0.99130352     17.224771      19.670601    
   2870000   1.0295729      17.578396      19.579815    
   2871000   0.98772199     17.495675      19.697907    
   2872000   0.98767787     17.430642      19.662811    
   2873000   0.97770396     17.2787        19.811328    
   2874000   1.0127824      16.836495      19.737234    
   2875000   1.0344309      17.595058      19.373228    
   2876000   1.0168497      17.622441      19.412408    
   2877000   1.007163       17.428813      19.251424    
   2878000   1.0250101      17.578336      19.020032    
   2879000   1.0023619      16.675122      18.971629    
   2880000   1.0501154      17.262675      18.988956    
   2881000   0.9697979      16.803101      18.783315    
   2882000   1.0186014      16.765828      18.783777    
   2883000   1.0406275      17.709508      18.93122     
   2884000   1.0444123      17.239343      18.994102    
   2885000   0.99725702     17.147258      18.955188    
   2886000   1.0043786      17.442532      18.778475    
   2887000   1.0031619      16.708032      18.703855    
   2888000   0.98646875     17.167854      18.405618    
   2889000   1.041326       17.185725      18.474257    
   2890000   0.96293892     16.320032      18.715489    
   2891000   0.96409448     17.38647       18.647549    
   2892000   1.022502       16.740312      18.747192    
   2893000   0.94228245     16.969881      18.498679    
   2894000   1.0663229      17.24874       18.155373    
   2895000   1.016882       16.980332      17.877018    
   2896000   0.96584238     17.38529       17.726634    
   2897000   0.99544455     17.554462      17.593374    
   2898000   0.96101695     17.591333      17.597027    
   2899000   1.0374242      17.641368      17.570391    
   2900000   1.033313       17.42554       17.412368    
   2901000   1.0152421      17.702734      17.254807    
   2902000   0.97688577     17.576909      17.094672    
   2903000   1.0325944      17.056164      16.999018    
   2904000   1.0298675      17.364         16.953995    
   2905000   0.93720822     16.581334      16.923913    
   2906000   1.0226944      17.050778      16.945187    
   2907000   1.0089662      16.936721      16.973558    
   2908000   0.97226063     17.120664      17.172561    
   2909000   1.0095749      17.296314      17.145897    
   2910000   1.0023575      17.295828      17.125193    
   2911000   0.98283594     16.790516      17.154693    
   2912000   1.0359105      17.872793      16.888766    
   2913000   0.99981246     17.054244      16.860984    
   2914000   1.0403474      17.095163      16.673203    
   2915000   1.0241145      16.791849      16.461894    
   2916000   1.0037025      17.55666       16.198637    
   2917000   0.98376198     17.122181      16.514888    
   2918000   1.0197336      17.152927      16.44903     
   2919000   1.0286035      17.276136      16.348112    
   2920000   1.0008241      16.628614      16.178362    
   2921000   1.0154109      17.402967      16.259734    
   2922000   1.0423297      17.613504      16.317087    
   2923000   0.96874413     17.286851      16.423986    
   2924000   1.0229354      17.392306      16.48851     
   2925000   1.0087537      17.168521      16.505853    
   2926000   0.98997832     16.784381      16.433359    
   2927000   1.0697226      17.226225      16.539059    
   2928000   1.0079205      16.875614      16.616718    
   2929000   0.99849509     16.571694      16.490625    
   2930000   0.97984578     16.667014      16.490815    
   2931000   0.98200241     17.029943      16.401638    
   2932000   0.99785203     17.222644      16.397665    
   2933000   1.0298728      17.015751      16.284251    
   2934000   0.96454908     16.807247      16.456729    
   2935000   1.0308726      16.503608      16.522557    
   2936000   1.0043891      17.271333      16.547654    
   2937000   1.0005824      17.537614      16.511724    
   2938000   0.98234452     16.8244        16.401923    
   2939000   0.98647744     16.978014      16.16911     
   2940000   0.94688018     16.738093      16.096205    
   2941000   0.98606822     17.33034       16.071819    
   2942000   0.98778931     17.312301      16.175533    
   2943000   0.97280537     17.18152       16.144106    
   2944000   0.92621013     16.741349      16.102573    
   2945000   1.012123       17.76746       16.118319    
   2946000   1.0069094      16.95984       15.897919    
   2947000   1.0003808      17.179594      15.977104    
   2948000   0.9949173      16.960146      15.973963    
   2949000   0.97048234     16.777177      16.124905    
   2950000   1.0128183      17.179929      16.040433    
   2951000   1.0110068      17.05174       15.957626    
   2952000   1.0006044      17.347577      15.778722    
   2953000   1.0107931      17.008386      15.755762    
   2954000   0.98681075     17.081173      15.593884    
   2955000   1.0248374      17.276667      15.643329    
   2956000   1.0183038      16.482222      15.486921    
   2957000   1.0157413      16.940557      15.483591    
   2958000   0.98405719     16.992937      15.447183    
   2959000   1.0315542      17.906268      15.25234     
   2960000   1.0347097      17.017866      15.18206     
   2961000   0.97143536     17.587773      15.255546    
   2962000   1.0060158      17.203582      15.18188     
   2963000   0.97554096     17.742362      15.002803    
   2964000   0.99031236     17.021702      14.803762    
   2965000   1.021863       17.374467      14.808773    
   2966000   1.0194788      17.176259      14.835045    
   2967000   0.98308605     17.014596      14.688091    
   2968000   1.0476631      17.231059      14.569207    
   2969000   1.038844       17.492979      14.348457    
   2970000   1.0504509      17.516629      14.303677    
   2971000   1.0351693      17.396993      14.251961    
   2972000   1.011113       17.162909      14.301228    
   2973000   1.0080443      16.985201      14.217284    
   2974000   1.0036749      17.152356      14.024237    
   2975000   1.0247246      18.061877      13.805196    
   2976000   1.0142707      17.465008      13.965966    
   2977000   0.99634861     17.616449      13.818938    
   2978000   1.0423684      17.032166      13.88102     
   2979000   0.97930808     17.17267       13.555671    
   2980000   1.0169838      17.735595      13.509898    
   2981000   0.97895617     16.869497      13.726885    
   2982000   1.0375931      17.701897      13.823033    
   2983000   1.0074659      16.658677      13.990266    
   2984000   0.96735256     17.186249      13.9101      
   2985000   1.0322574      17.044298      13.830287    
   2986000   1.0143677      17.020253      13.766176    
   2987000   1.0078718      16.88136       13.401127    
   2988000   0.99393428     17.60687       13.225241    
   2989000   1.0118805      17.435222      13.159678    
   2990000   1.0033996      16.97322       13.041193    
   2991000   0.98557878     17.743956      13.209783    
   2992000   1.0064651      16.832069      13.226058    
   2993000   1.0350748      17.161321      13.17604     
   2994000   1.0378137      17.810957      13.184906    
   2995000   1.0046826      16.807605      13.327361    
   2996000   0.99703758     17.17352       13.273154    
   2997000   1.0230985      17.278988      13.236364    
   2998000   0.99467858     17.919284      13.039424    
   2999000   0.99809677     17.302999      13.226404    
   3000000   0.98660763     17.232616      13.313523    
   3001000   0.96488583     17.266901      13.114839    
   3002000   1.0382618      17.282593      13.053744    
   3003000   1.0070387      17.456001      13.2106      
   3004000   0.98663886     17.133892      13.165753    
   3005000   1.0146758      16.992466      13.155231    
   3006000   0.99680653     16.685454      13.038865    
   3007000   1.011644       17.655996      12.980103    
   3008000   0.9673475      17.06772       12.905508    
   3009000   1.0063282      17.443543      12.796517    
   3010000   0.97308739     16.843626      12.381361    
   3011000   1.037055       17.288602      12.082444    
   3012000   0.99004695     17.27964       11.864089    
   3013000   0.98452232     16.744421      11.695741    
   3014000   1.005046       17.012329      11.583929    
   3015000   1.0021702      17.081171      11.286745    
   3016000   1.041512       17.151732      11.260403    
   3017000   1.0202081      17.334384      11.388645    
   3018000   1.0309532      17.348623      11.128827    
   3019000   0.97041269     17.256235      11.074985    
   3020000   0.98431588     17.084884      11.006683    
   3021000   0.98898978     17.14681       10.948166    
   3022000   0.98137799     17.479988      10.807481    
   3023000   1.044759       16.734021      10.86685     
   3024000   1.0038149      17.61031       11.015908    
   3025000   0.96047488     17.268971      10.9346      
   3026000   1.0401618      16.855615      10.841391    
   3027000   1.0282229      17.245369      10.682023    
   3028000   0.93491694     17.833556      10.546968    
   3029000   0.94039773     17.262903      10.648048    
   3030000   1.0156893      17.246431      10.501047    
   3031000   0.99661287     17.840782      10.543035    
   3032000   1.0063171      17.909778      10.423917    
   3033000   0.96092999     17.193188      10.546508    
   3034000   1.0064111      16.90126       10.199277    
   3035000   1.0372135      17.226798      9.9347309    
   3036000   0.99890706     17.266622      9.7743542    
   3037000   0.97566337     17.241478      9.4866904    
   3038000   1.0256643      17.303474      9.2996708    
   3039000   0.97928675     17.095395      9.1652871    
   3040000   0.98003032     17.226816      9.1919153    
   3041000   1.0202538      17.563829      9.0484443    
   3042000   1.0343772      17.46056       9.1058275    
   3043000   1.0308106      17.235576      9.0742617    
   3044000   0.96759761     16.963709      8.9992683    
   3045000   1.0031387      16.518605      9.0240357    
   3046000   0.99853266     17.284402      8.878541     
   3047000   1.0018206      17.784736      8.840331     
   3048000   1.0232867      16.291918      8.698308     
   3049000   0.99745548     17.146837      8.5461053    
   3050000   0.95977641     16.870789      8.6552621    
   3051000   1.0479372      16.866328      8.443066     
   3052000   1.0017273      17.558925      8.458853     
   3053000   1.0214695      16.975333      8.3291922    
   3054000   1.027843       17.007244      8.2481415    
   3055000   1.0157741      17.673377      8.1907478    
   3056000   1.0033238      16.923154      8.0787387    
   3057000   1.0054943      17.575626      8.0641326    
   3058000   1.0457158      17.332084      8.1400263    
   3059000   0.99095032     16.529623      8.0225066    
   3060000   1.0033486      17.434595      8.0149717    
   3061000   0.9799594      16.289812      7.9814002    
   3062000   0.98934513     16.544797      7.8813912    
   3063000   1.0204634      17.618843      7.6461051    
   3064000   0.97240608     17.236911      7.6862642    
   3065000   1.0120949      16.52607       7.2685387    
   3066000   1.0375421      16.84352       7.0278231    
Fix halt condition for fix-id 3 met on step 3067000 with value 6.737229519929538 (src/fix_halt.cpp:237)
   3067000   1.0431737      16.864516      6.7372295    
Loop time of 5004.6 on 2 procs for 2967000 steps with 1000 atoms

Performance: 512226.855 tau/day, 592.855 timesteps/s
124.1% CPU use with 1 MPI tasks x 2 OpenMP threads

MPI task timing breakdown:
Section |  min time  |  avg time  |  max time  |%varavg| %total
---------------------------------------------------------------
Pair    | 912.15     | 912.15     | 912.15     |   0.0 | 18.23
Bond    | 72.639     | 72.639     | 72.639     |   0.0 |  1.45
Neigh   | 3845.1     | 3845.1     | 3845.1     |   0.0 | 76.83
Comm    | 1.2451     | 1.2451     | 1.2451     |   0.0 |  0.02
Output  | 7.284      | 7.284      | 7.284      |   0.0 |  0.15
Modify  | 153.65     | 153.65     | 153.65     |   0.0 |  3.07
Other   |            | 12.5       |            |       |  0.25

Nlocal:           1000 ave        1000 max        1000 min
Histogram: 1 0 0 0 0 0 0 0 0 0
Nghost:              0 ave           0 max           0 min
Histogram: 1 0 0 0 0 0 0 0 0 0
Neighs:         215856 ave      215856 max      215856 min
Histogram: 1 0 0 0 0 0 0 0 0 0

Total # of neighbors = 215856
Ave neighs/atom = 215.856
Ave special neighs/atom = 1.998
Neighbor list builds = 28451
Dangerous builds = 0

# This simulation is done
# Move onto the next one
clear
  using 2 OpenMP thread(s) per MPI task
package omp 0
using multi-threaded neighbor list subroutines
next f
jump SELF

###
# Reference paper:
# K. Kremer and G. S. Grest
# Dynamics of entangled linear polymer melts: A molecular-dynamics simulation
# J Chem Phys 92, 5057 (1990)

##################################
# MIHIR: for branched polymers
# LJ minimum first to expand and explore, then collapse
###

###
# Looping through the various linear polymers to simulate,
# define variables to switch through
# variable f index bb100nuc0bl0bn0d30tot100 bb200nuc0bl0bn0d30tot200 bb300nuc0bl0bn0d30tot300 bb400nuc0bl0bn0d30tot400 bb500nuc0bl0bn0d30tot500 bb600nuc0bl0bn0d30tot600 bb700nuc0bl0bn0d30tot700 bb800nuc0bl0bn0d30tot800 bb900nuc0bl0bn0d30tot900 bb1000nuc0bl0bn0d30tot1000 bb1100nuc0bl0bn0d30tot1100 bb1200nuc0bl0bn0d30tot1200
variable f index bb500nuc0bl0bn0d30tot500 bb600nuc0bl0bn0d30tot600 bb700nuc0bl0bn0d30tot700 bb800nuc0bl0bn0d30tot800 bb900nuc0bl0bn0d30tot900 bb1000nuc0bl0bn0d30tot1000 bb1100nuc0bl0bn0d30tot1100 bb1200nuc0bl0bn0d30tot1200
###


###
# Box and units  (use LJ units and periodic boundaries)
###

units lj
log linear/logs2/$f.log
log linear/logs2/bb1100nuc0bl0bn0d30tot1100.log
