#atom_style bond #no stiffness
atom_style angle #with stiffness

boundary        p p p
###
# Pair interactions require lists of neighbours to be calculated
###

#neighbor 0.3 bin
neighbor 4 bin

neigh_modify every 1 delay 1 check yes
atom_modify sort 0 0
### Generate RESTART file, SPECIAL format, not a .txt file ###
### Useful if simulation crashes ###

restart 1000000 linear/restarts2/$f.restart
restart 1000000 linear/restarts2/bb1100nuc0bl0bn0d30tot1100.restart
#############################



### READ "start" data file ###

read_data linear/$f.dat
read_data linear/bb1100nuc0bl0bn0d30tot1100.dat
Reading data file ...
  orthogonal box = (-1000 -1000 -1000) to (1000 1000 1000)
  1 by 1 by 1 MPI processor grid
  reading atoms ...
  1100 atoms
  scanning bonds ...
  1 = max bonds/atom
  scanning angles ...
  1 = max angles/atom
  reading bonds ...
  1099 bonds
  reading angles ...
  1098 angles
Finding 1-2 1-3 1-4 neighbors ...
  special bond factors lj:    0        0        0       
  special bond factors coul:  0        0        0       
     2 = max # of 1-2 neighbors
     2 = max # of 1-3 neighbors
     4 = max # of 1-4 neighbors
     6 = max # of special neighbors
  special bonds CPU = 0.001 seconds
  read_data CPU = 0.082 seconds

######################

### READ "REstart" data file ###

######################



###
# Define groups (atom type 1 is group 'all')
###
group all type 1
1100 atoms in group all


###
# Dump configs - "simple dumpings"
###

###
# Dump configs + box coords
###

dump   1   all   custom   1000  linear/trjs2/$f.lammpstrj  id  x y z  ix iy iz
dump   1   all   custom   1000  linear/trjs2/bb1100nuc0bl0bn0d30tot1100.lammpstrj  id  x y z  ix iy iz
dump_modify   1   format line "%d %.5f %.5f %.5f %d %d %d"

########################################################################


###################################################################
# Stiffness term
#
# E = K * (1+cos(theta)), K>0
#
angle_style   cosine
#change this coefficient to change stiffness (e.g. 1,5,10)
angle_coeff   1 1.0
###################################################################

###################################################################
# Pair interaction between non-bonded atoms
#
#  Lennard-Jones 12-6 potential with cutoff:
#  potential E=4epsilon[ (sigma/r)^12 - (sigma/r)^6]  for r<r_cut
#
#  1.12246 = 2^(1/6) is the minimum of the potential


pair_style      lj/cut 1.12246152962189
#pair_style      lj/cut 3

#
#  pair_modify shift yes adds a constant to the potential such

#  that E(r_cut)=0. Forces remains unchanged.
#

pair_modify     shift yes

#
#  pair_coeff for lj/cut, specify 4:
#    * atom type interacting with
#    * atom type
#    * epsilon (energy units)
#    * sigma (distance units)
#

pair_coeff      1 1 1.0 1.0
###################################################################

###################################################################
# Pair interaction between non-bonded atoms
#
#  soft potential, for PUSHING apart overlapping atoms
#  potential E=A*(1 + cos(pi*r/r_c))
#
#  1.12246 = 2^(1/6) is the cut-off r_c

#pair_style     soft 1.12246152962189

#
#  pair_coeff for soft, specify 3:
#    * atom type interacting with
#    * atom type
#    * A
#
#

#pair_coeff      1 1 100.0
###################################################################

###################################################################
# Pair interaction between bonded atoms
#
# Fene potential + Lennard Jones 12-6:

#
#  E= - 0.5 K R0^2 ln[ 1- (r/R0)^2]
#     + 4epsilon[ (sigma/r)^12 - (sigma/r)^6] + epsilon
#

bond_style   fene


#
# For style fene, specify:
#   * bond type
#   * K (energy/distance^2)
#   * R0 (distance)
#   * epsilon (energy)  (LJ component)
#   * sigma (distance)  (LJ component)
#


special_bonds fene #<=== I M P O R T A N T (new command)
Finding 1-2 1-3 1-4 neighbors ...
  special bond factors lj:    0        1        1       
  special bond factors coul:  0        1        1       
     2 = max # of 1-2 neighbors
     6 = max # of special neighbors
  special bonds CPU = 0.000 seconds

bond_coeff   1   30   2   1.0   1.0


###################################################

###################################################################
# Pair interaction between bonded atoms
#
# Harmonic potential:
#
#  E= K * (R-R0)^2
#

#bond_style   harmonic

#
# For style harmonic, specify:
#   * bond type
#   * K (energy/distance^2)
#   * R0 (distance)
#

#bond_coeff   1   60.0   1.0
#bond_coeff   2   harmonic 0.1   1.0

###################################################
compute 1 all gyration
variable rog equal c_1
#compute 2 all coord/atom cutoff 1.1

#dump 2 all custom 10000 contact_number.dump id c_2


###
# Set up fixes
###
thermo_style   custom   step  temp enthalpy c_1
fix 1 all nve   ###NVE ensemble

fix 2 all   langevin   1.0 1.0 1.0  778655   ###Langevin integrator Tstart Tstop 1/friction rndseed


##### Sample thermodynamic info  (temperature, energy, pressure, etc.) #####
thermo 1000









############################################################################

###
# set timestep of integrator

timestep 0.01

###
# run integration for a number of steps
###
#run 0
#variable r equal c_1
#if "$r < 63.1" then "quit 1"

# lj potential minimum, cause molecule to explore
run 100000
Generated 0 of 0 mixed pair_coeff terms from geometric mixing rule
Last active /omp style is angle_style cosine/omp
Neighbor list info ...
  update: every = 1 steps, delay = 1 steps, check = yes
  max neighbors/atom: 2000, page size: 100000
  master list distance cutoff = 5.1224615
  ghost atom cutoff = 5.1224615
  binsize = 2.5612308, bins = 781 781 781
  1 neighbor lists, perpetual/occasional/extra = 1 0 0
  (1) pair lj/cut/omp, perpetual
      attributes: half, newton on, omp
      pair build: half/bin/newton/omp
      stencil: half/bin/3d
      bin: standard
WARNING: Communication cutoff 5.12246152962189 is shorter than a bond length based estimate of 5.455. This may lead to errors. (src/comm.cpp:723)
Per MPI rank memory allocation (min/avg/max) = 1860 | 1860 | 1860 Mbytes
   Step          Temp         Enthalpy         c_1      
         0   0              13.414597      275.00021    
      1000   1.0017696      18.921904      274.91865    
      2000   1.0105803      18.82019       274.85734    
      3000   1.0122097      19.067771      274.71451    
      4000   0.96251334     18.755873      274.62654    
      5000   1.0298576      18.696336      274.64225    
      6000   1.0275255      18.551492      274.62347    
      7000   0.95661029     18.567333      274.22639    
      8000   1.0002882      18.868506      273.78173    
      9000   1.0423401      18.907647      273.76233    
     10000   1.0342656      19.37313       273.57772    
     11000   1.0387843      18.78668       273.53332    
     12000   1.0114143      19.188498      273.42076    
     13000   1.0171769      19.24927       273.05685    
     14000   0.99920061     18.710863      273.10152    
     15000   1.0129821      18.819582      273.07159    
     16000   1.0122665      18.636896      273.12647    
     17000   0.95309119     19.314921      273.04437    
     18000   0.99704958     19.171492      272.67405    
     19000   0.96550082     18.722574      272.43544    
     20000   0.99452757     18.995657      272.22012    
     21000   0.98751799     18.949737      272.02895    
     22000   1.032381       18.849836      271.91734    
     23000   0.97906603     18.833917      271.79868    
     24000   0.98640996     18.936437      271.55687    
     25000   1.0006186      19.065661      271.19455    
     26000   0.96426158     19.20751       271.0014     
     27000   1.0225447      18.860763      270.80665    
     28000   0.98650885     18.7913        270.63628    
     29000   1.0138621      18.965571      270.57531    
     30000   1.0182334      19.321188      270.20882    
     31000   0.95845423     19.024133      270.05681    
     32000   0.99085167     19.140951      269.99974    
     33000   1.0613171      19.043191      270.06468    
     34000   1.0267088      19.388744      270.01827    
     35000   0.96319797     19.39066       269.76763    
     36000   1.0463729      18.696474      269.93536    
     37000   0.97500583     18.914624      269.64807    
     38000   0.99365028     19.353672      269.36451    
     39000   1.0190752      18.952874      269.22438    
     40000   0.96017131     18.974697      268.98812    
     41000   1.0345105      18.883679      269.11346    
     42000   1.0358667      19.301787      268.94108    
     43000   0.98380384     19.199311      268.61501    
     44000   0.97050944     18.948771      268.40154    
     45000   1.0127958      19.171227      267.99345    
     46000   1.0090033      19.149857      267.72857    
     47000   0.99258947     18.968751      267.65709    
     48000   1.0314289      19.011739      267.4398     
     49000   1.0169974      19.596742      267.23376    
     50000   1.0021315      19.029279      267.18459    
     51000   1.0036505      19.202817      267.05864    
     52000   0.99621269     19.504919      266.72588    
     53000   0.96947545     18.892872      266.80043    
     54000   0.9850552      19.262471      266.65176    
     55000   0.99530813     19.208044      266.6312     
     56000   1.0338847      19.021643      266.62696    
     57000   0.9761914      19.340471      266.4036     
     58000   1.002265       19.34175       266.40693    
     59000   0.9729434      19.078582      266.08756    
     60000   0.97025245     19.189963      265.99718    
     61000   0.99947024     19.092698      266.12563    
     62000   1.0415427      19.298296      266.08635    
     63000   1.0267594      19.31068       265.97342    
     64000   0.99937366     19.468276      265.72438    
     65000   1.0063383      19.464846      265.71108    
     66000   0.99133936     19.218399      265.60863    
     67000   0.98122121     19.260329      265.45281    
     68000   1.0150789      19.095398      265.48659    
     69000   0.99351477     19.383387      265.23915    
     70000   1.0325404      19.022417      265.13977    
     71000   1.011938       18.859571      265.07424    
     72000   0.96120694     19.327037      265.10631    
     73000   1.0059363      18.718361      264.98524    
     74000   1.0025083      19.731907      264.81944    
     75000   0.99978905     19.139162      264.58022    
     76000   1.0181503      19.5902        264.42286    
     77000   0.96649382     19.158396      264.27933    
     78000   0.99020229     19.253681      263.96018    
     79000   0.96793535     19.617244      263.80816    
     80000   1.0432694      19.039172      263.62833    
     81000   1.0349096      19.745836      263.6547     
     82000   0.99607738     19.400933      263.81264    
     83000   1.0040193      19.620024      263.74536    
     84000   1.0037276      19.391726      263.47179    
     85000   0.96708472     19.203418      263.29536    
     86000   1.0095871      19.529405      263.08199    
     87000   1.0024595      19.298031      262.9904     
     88000   0.96674761     19.225371      262.87222    
     89000   0.99680653     19.13221       262.7425     
     90000   1.0106911      19.346912      262.37367    
     91000   0.96297526     19.277076      262.12481    
     92000   0.99930734     19.167292      261.91505    
     93000   0.97098012     19.384674      261.73141    
     94000   0.98712724     19.460265      261.58863    
     95000   1.0095241      18.97283       261.49456    
     96000   1.035844       19.559698      261.35969    
     97000   1.0079379      19.433882      261.12795    
     98000   0.98499092     19.591938      260.79337    
     99000   0.99315655     19.664161      261.00683    
    100000   0.97469803     19.10473       260.84482    
Loop time of 457.202 on 2 procs for 100000 steps with 1100 atoms

Performance: 188975.399 tau/day, 218.722 timesteps/s
102.1% CPU use with 1 MPI tasks x 2 OpenMP threads

MPI task timing breakdown:
Section |  min time  |  avg time  |  max time  |%varavg| %total
---------------------------------------------------------------
Pair    | 0.94011    | 0.94011    | 0.94011    |   0.0 |  0.21
Bond    | 2.1837     | 2.1837     | 2.1837     |   0.0 |  0.48
Neigh   | 448.83     | 448.83     | 448.83     |   0.0 | 98.17
Comm    | 0.034937   | 0.034937   | 0.034937   |   0.0 |  0.01
Output  | 0.23028    | 0.23028    | 0.23028    |   0.0 |  0.05
Modify  | 4.6053     | 4.6053     | 4.6053     |   0.0 |  1.01
Other   |            | 0.3757     |            |       |  0.08

Nlocal:           1100 ave        1100 max        1100 min
Histogram: 1 0 0 0 0 0 0 0 0 0
Nghost:              0 ave           0 max           0 min
Histogram: 1 0 0 0 0 0 0 0 0 0
Neighs:           5231 ave        5231 max        5231 min
Histogram: 1 0 0 0 0 0 0 0 0 0

Total # of neighbors = 5231
Ave neighs/atom = 4.7554545
Ave special neighs/atom = 1.9981818
Neighbor list builds = 1055
Dangerous builds = 0

# Replace lj potential, now collapse
pair_style      lj/cut 3

# Cutoff simul when gyration under 5
# Variable created with equal requires v_ + 'name'
fix 3 all halt 1000 v_rog < 7

run 5000000
Generated 0 of 0 mixed pair_coeff terms from geometric mixing rule
Last active /omp style is angle_style cosine/omp
Per MPI rank memory allocation (min/avg/max) = 1860 | 1860 | 1860 Mbytes
   Step          Temp         Enthalpy         c_1      
    100000   0.97469803     18.683754      260.84482    
    101000   1.0113232      19.392932      260.84553    
    102000   0.95759595     18.812783      260.78377    
    103000   0.97104559     18.972938      260.35862    
    104000   1.0625899      18.8054        260.23148    
    105000   0.99279596     19.102917      260.08374    
    106000   0.99838605     19.25746       259.82606    
    107000   1.0352543      18.340441      259.5484     
    108000   1.009019       18.950624      259.42794    
    109000   0.9901221      18.800267      259.29915    
    110000   1.010071       19.163738      258.89218    
    111000   0.96877985     18.275991      258.66704    
    112000   1.0193287      18.927297      258.41299    
    113000   1.0186935      18.62828       258.08573    
    114000   1.006764       19.386467      257.90787    
    115000   0.99531274     19.166545      257.83406    
    116000   1.0073868      18.838404      257.55017    
    117000   1.0305231      19.264121      257.41459    
    118000   1.0542605      19.414217      257.13381    
    119000   0.99771883     19.057414      257.17401    
    120000   0.99952647     19.040463      256.83943    
    121000   0.97452214     18.969281      256.70556    
    122000   0.97875655     19.122117      256.45954    
    123000   0.97752147     19.093289      256.45107    
    124000   0.99280483     18.941613      256.34154    
    125000   0.98805132     18.588613      256.38976    
    126000   1.0193447      19.316668      256.32965    
    127000   0.99890319     18.617252      256.43957    
    128000   0.99017306     19.025362      256.4058     
    129000   0.9831006      19.031832      256.11703    
    130000   1.036233       19.191221      255.66323    
    131000   1.0287678      19.061208      255.58528    
    132000   0.9936948      18.85228       255.23986    
    133000   0.99476527     19.202985      254.90763    
    134000   0.95470645     18.855099      254.73429    
    135000   0.98771236     18.890593      254.49724    
    136000   1.0142269      19.126149      254.43001    
    137000   0.99395399     19.045372      254.23053    
    138000   1.0418685      19.442465      254.04753    
    139000   1.0019359      18.992588      253.78463    
    140000   1.0072234      18.719267      253.64763    
    141000   1.0481571      19.435069      253.63168    
    142000   0.98915898     19.214369      253.79742    
    143000   0.99654034     19.274776      253.68606    
    144000   0.97953921     18.582959      253.50137    
    145000   1.0502207      19.258742      253.22596    
    146000   0.9748015      19.243203      252.86028    
    147000   0.96713139     19.089155      252.76795    
    148000   1.0073268      19.398093      252.86024    
    149000   0.97583806     19.66355       252.67659    
    150000   1.0431748      18.903376      252.35805    
    151000   1.0005296      19.106074      252.18134    
    152000   0.99340817     19.583446      251.97649    
    153000   0.97368736     19.099323      251.71889    
    154000   1.0100295      19.051752      251.55068    
    155000   1.0347255      19.263612      251.2041     
    156000   1.007145       18.800024      251.12727    
    157000   1.0067991      18.862113      251.02791    
    158000   1.0309455      19.075254      251.06058    
    159000   0.99454891     19.442624      250.98366    
    160000   1.0071255      18.87264       250.78179    
    161000   0.98030113     18.977235      250.69611    
    162000   1.0141924      19.538726      250.43954    
    163000   1.0302832      19.019802      250.23493    
    164000   0.98235756     18.987708      250.10345    
    165000   0.99990749     19.223152      250.117      
    166000   0.98157669     18.545201      249.86749    
    167000   1.0140448      18.933369      249.67051    
    168000   0.96540094     19.239552      249.53207    
    169000   1.0385528      19.508399      249.48158    
    170000   0.97725723     18.498089      249.61572    
    171000   0.97781679     19.176712      249.55055    
    172000   1.0166647      18.781336      249.46261    
    173000   0.99737079     18.954399      249.35675    
    174000   1.007364       18.542164      249.16859    
    175000   0.9882724      19.213658      249.13982    
    176000   0.96790379     19.219955      248.83171    
    177000   1.0074091      18.965055      248.64576    
    178000   1.026401       18.944324      248.49335    
    179000   0.99676752     18.326948      248.24211    
    180000   1.0135171      19.069832      248.03838    
    181000   0.97801263     19.16096       247.83548    
    182000   1.0200056      18.994528      247.68452    
    183000   1.0175853      18.842824      247.74917    
    184000   0.99224728     18.794436      247.68679    
    185000   1.0409531      19.010454      247.49077    
    186000   0.99191101     18.703577      247.46704    
    187000   0.97192557     18.720886      247.31929    
    188000   1.0370264      19.129006      247.2298     
    189000   1.0422052      19.074565      247.2781     
    190000   0.99944449     19.07672       247.08631    
    191000   1.0086992      18.882846      247.14142    
    192000   1.0028468      18.835409      247.1455     
    193000   0.95545019     19.307507      247.09342    
    194000   1.0430173      19.242034      246.67055    
    195000   1.0124144      19.159808      246.60622    
    196000   1.0019936      18.928996      246.20622    
    197000   0.98726335     19.278393      246.06823    
    198000   1.0032311      18.952772      246.13849    
    199000   1.0129445      18.645681      245.90298    
    200000   0.97933831     19.142991      245.58561    
    201000   0.92793638     18.736151      245.48157    
    202000   1.0444758      18.736701      245.44785    
    203000   1.0419651      19.485163      245.07646    
    204000   1.0106143      19.377194      245.10413    
    205000   0.97931754     18.991192      244.8335     
    206000   1.0977957      19.608952      244.68429    
    207000   0.96583472     18.935515      244.4305     
    208000   1.031422       18.882517      244.27252    
    209000   1.0233111      19.475422      244.12295    
    210000   0.96250962     18.988329      243.97644    
    211000   1.0175788      19.044359      243.88763    
    212000   1.0016796      18.951187      243.66824    
    213000   0.98944135     18.801959      243.5416     
    214000   0.98468754     18.805731      243.23349    
    215000   1.0020482      18.650007      243.10619    
    216000   1.01343        19.233341      243.06775    
    217000   0.98118526     19.030963      242.92147    
    218000   1.0028639      18.803628      242.86016    
    219000   1.0117398      18.665267      242.7731     
    220000   1.0087462      18.46718       242.81668    
    221000   1.0148545      19.049867      242.80757    
    222000   0.95313098     19.07887       242.62216    
    223000   1.0482344      19.230694      242.63962    
    224000   1.010653       18.737154      242.48901    
    225000   0.97937027     18.577435      241.95748    
    226000   0.97803581     18.736056      241.90141    
    227000   1.0122895      19.351926      241.87369    
    228000   1.01758        18.934948      241.65367    
    229000   1.0326038      19.175936      241.51285    
    230000   1.0121815      19.443027      241.2628     
    231000   0.95246089     18.706937      241.07198    
    232000   0.9849175      18.623724      240.72955    
    233000   1.032184       19.359493      240.74117    
    234000   0.96743604     18.962658      240.69087    
    235000   1.0154172      19.032945      240.79126    
    236000   1.0247935      19.019814      240.64427    
    237000   1.0570693      19.356954      240.56406    
    238000   0.98476533     19.467332      240.2563     
    239000   0.96789752     18.992139      240.37821    
    240000   0.98056469     19.461676      240.24364    
    241000   1.0132541      19.022627      239.96685    
    242000   1.0334791      19.012973      239.80867    
    243000   0.98849547     18.834766      239.85583    
    244000   1.0279107      18.911316      239.82772    
    245000   0.98556161     18.981747      239.99538    
    246000   0.97658206     18.613106      240.00138    
    247000   1.0284887      19.027014      239.71825    
    248000   1.0133435      18.678076      239.79936    
    249000   0.99516508     19.668391      239.81502    
    250000   0.99124246     19.515629      239.71388    
    251000   1.0028925      18.988337      239.59982    
    252000   1.0132817      18.752128      239.36437    
    253000   1.019524       19.301734      239.23914    
    254000   1.0106921      18.814664      238.92459    
    255000   0.9874307      19.558756      238.70846    
    256000   1.0379223      19.482081      238.64675    
    257000   0.95488669     18.581332      238.52018    
    258000   0.99481835     18.283725      238.41758    
    259000   1.0096666      19.013608      238.31529    
    260000   1.0329636      19.308909      238.25549    
    261000   1.0137317      18.538883      238.18399    
    262000   0.99139999     18.986987      238.20225    
    263000   1.0319104      19.016681      238.09048    
    264000   1.0132167      18.4888        238.06783    
    265000   1.0268078      18.769634      237.8723     
    266000   1.0392654      19.686486      237.64003    
    267000   1.0290959      19.543829      237.45279    
    268000   1.006161       19.081725      237.2585     
    269000   1.0099822      18.499711      237.26772    
    270000   1.0315319      18.85815       237.12546    
    271000   0.99185986     19.305615      237.1159     
    272000   1.0230198      18.99163       237.07254    
    273000   1.000024       19.222232      237.07174    
    274000   0.98693594     19.073198      237.12572    
    275000   1.0282584      18.809431      236.76545    
    276000   0.99345363     18.650363      236.74931    
    277000   0.97327471     18.354677      236.50554    
    278000   1.0384471      19.355421      236.45654    
    279000   0.9696726      18.966236      236.36164    
    280000   0.99845448     18.913304      236.33863    
    281000   1.0467964      19.257944      236.32338    
    282000   0.97908399     18.999767      236.20156    
    283000   1.0082159      19.187946      236.03095    
    284000   0.99634711     18.667286      235.97021    
    285000   0.96835311     19.416628      236.00987    
    286000   1.0217424      19.228474      235.85804    
    287000   1.0156558      19.389359      235.7569     
    288000   1.025125       18.94604       235.73098    
    289000   0.9814695      19.235853      235.71389    
    290000   0.99640596     19.282494      235.77827    
    291000   1.0382893      19.349447      235.58746    
    292000   1.024893       18.965837      235.22669    
    293000   1.0056234      18.361276      235.17672    
    294000   1.0100895      18.778849      235.00102    
    295000   0.99775658     18.723549      234.94834    
    296000   1.000144       18.888253      234.7708     
    297000   1.0176645      18.974329      234.64416    
    298000   1.0283686      19.138109      234.4432     
    299000   0.97700473     19.114673      234.25302    
    300000   0.99692692     19.443414      234.20463    
    301000   0.98394577     18.84844       234.04625    
    302000   1.0435692      19.67396       233.87368    
    303000   1.0236381      18.752355      233.96151    
    304000   1.0043758      19.200723      233.81141    
    305000   0.98860028     19.049797      233.77277    
    306000   0.99996446     19.179271      233.47882    
    307000   0.98929055     19.079782      233.54305    
    308000   0.96291038     18.967992      233.5766     
    309000   0.98025137     18.635451      233.36182    
    310000   0.95746415     18.990164      233.31235    
    311000   1.024535       19.068525      233.23276    
    312000   1.0017245      18.468609      233.25106    
    313000   0.99277343     19.064858      233.18943    
    314000   1.0409105      19.297285      233.19297    
    315000   1.026116       18.683012      233.23454    
    316000   1.0358011      18.801108      233.08602    
    317000   0.98577815     18.909041      233.16042    
    318000   1.0255258      19.086961      233.35224    
    319000   1.0072492      18.834169      233.40516    
    320000   1.0567418      19.53938       233.24161    
    321000   0.97890787     19.335807      233.09718    
    322000   0.96907096     18.817662      233.16296    
    323000   1.0111311      18.55687       233.04079    
    324000   0.99649611     18.961213      233.09201    
    325000   0.98323105     19.289233      233.06676    
    326000   1.0649702      19.23291       233.0735     
    327000   1.0020298      18.931667      232.89691    
    328000   0.95996969     18.566539      232.73383    
    329000   0.96663745     19.251632      232.68392    
    330000   1.0333443      19.033878      232.62872    
    331000   0.98018699     18.877378      232.70556    
    332000   1.0165635      18.538338      232.58199    
    333000   1.0314633      18.806808      232.38742    
    334000   1.0031112      18.911299      232.20376    
    335000   1.0107797      18.960649      232.08045    
    336000   1.0190715      19.023153      231.96102    
    337000   1.0138106      18.97041       231.58681    
    338000   0.97757642     19.11813       231.30654    
    339000   0.93892503     19.040787      231.36046    
    340000   0.98344263     18.648147      231.40633    
    341000   0.99326383     18.76028       231.19526    
    342000   1.0359349      18.832357      231.04023    
    343000   1.0189708      19.341577      230.73001    
    344000   0.93811922     18.673493      230.60303    
    345000   0.97585162     18.937727      230.55692    
    346000   1.009557       18.751646      230.69603    
    347000   0.97032119     19.259839      230.53389    
    348000   0.98642417     18.633138      230.52978    
    349000   1.010802       19.114465      230.35819    
    350000   0.96918003     18.64027       230.29068    
    351000   1.0171564      18.837773      230.18236    
    352000   1.0304431      18.885598      230.04526    
    353000   0.97542617     18.574346      229.82878    
    354000   0.95985696     18.609272      229.67015    
    355000   1.0045029      18.70389       229.85611    
    356000   0.98530754     18.81275       229.67953    
    357000   1.0052717      19.138972      229.55092    
    358000   0.99208164     18.638027      229.85368    
    359000   1.0575789      19.19069       229.74649    
    360000   1.0163799      19.216715      229.67633    
    361000   1.0095859      18.716991      229.49499    
    362000   0.97134031     19.018009      229.38811    
    363000   1.0748719      19.310158      229.03368    
    364000   0.98423808     19.092056      228.94503    
    365000   1.0514746      19.063282      228.87552    
    366000   1.0184878      19.084252      228.82716    
    367000   1.003546       18.502858      228.75151    
    368000   1.0277187      18.685739      228.54836    
    369000   1.0266383      19.259962      228.53799    
    370000   0.96249136     19.158881      228.27476    
    371000   0.99153409     19.819786      228.12822    
    372000   1.0729067      18.861135      228.09938    
    373000   1.0306007      19.217546      228.01127    
    374000   1.0008752      19.127423      228.09863    
    375000   1.0165076      19.316915      227.99871    
    376000   1.0024754      18.517962      228.01212    
    377000   1.0008109      19.161402      227.85413    
    378000   1.0348163      19.041194      227.74214    
    379000   0.98638389     18.546837      227.70859    
    380000   1.0332801      18.767219      227.67887    
    381000   1.0059323      18.925015      227.30921    
    382000   0.99157534     18.634125      227.255      
    383000   1.051237       19.104145      227.27964    
    384000   1.0218533      19.389733      227.52467    
    385000   0.99944301     18.781081      227.3984     
    386000   0.9749206      18.968274      227.11224    
    387000   1.0268013      18.742631      227.10795    
    388000   1.0064997      19.149157      227.1438     
    389000   0.99402174     18.942905      227.37159    
    390000   0.99620202     18.953801      227.18334    
    391000   1.052606       19.360841      227.05837    
    392000   1.0505374      19.317353      226.74255    
    393000   0.99041456     18.92869       226.83874    
    394000   1.0143555      18.713123      226.78875    
    395000   1.0099444      18.85542       226.71567    
    396000   0.99588198     18.726693      226.63942    
    397000   0.98162239     19.31357       226.49698    
    398000   1.0324245      19.216953      226.54294    
    399000   1.0182903      18.518514      226.54627    
    400000   1.009376       19.127392      226.50193    
    401000   0.99432437     18.842412      226.2716     
    402000   0.97393551     18.585205      226.35592    
    403000   0.99772649     19.215187      226.13277    
    404000   1.0412427      19.208135      226.18522    
    405000   1.0403831      18.887251      225.97523    
    406000   1.0348434      18.716204      226.00075    
    407000   1.0277633      19.018126      225.77845    
    408000   1.0663503      18.879537      225.65279    
    409000   0.9781958      18.551708      225.55963    
    410000   0.99575434     18.4482        225.52675    
    411000   1.0187247      19.150147      225.23121    
    412000   1.0154776      18.667117      225.11158    
    413000   1.003483       18.698514      225.00609    
    414000   1.0040087      18.719726      224.72457    
    415000   1.0076777      18.833178      224.76043    
    416000   0.98011828     18.70288       224.70719    
    417000   1.0432537      19.053574      224.54201    
    418000   1.0094336      18.817473      224.52858    
    419000   1.0173329      19.426057      224.34054    
    420000   1.0271466      19.418722      224.15459    
    421000   1.0089865      19.238343      224.08814    
    422000   0.99457187     18.956523      223.91261    
    423000   0.97398213     18.965838      223.78696    
    424000   0.98073398     18.806235      223.67702    
    425000   1.0051834      19.068811      223.53543    
    426000   1.0061709      19.21275       223.3793     
    427000   1.0252157      19.056402      223.30307    
    428000   0.98081977     18.955341      223.2373     
    429000   0.95245025     19.020694      222.85439    
    430000   0.99397041     18.63973       222.55951    
    431000   1.0040633      18.850198      222.49927    
    432000   0.97478624     18.817635      222.4486     
    433000   0.96710366     18.971286      222.36345    
    434000   0.9584981      19.08711       222.2447     
    435000   1.0126196      19.022811      222.21053    
    436000   1.0420743      19.727023      221.9804     
    437000   1.0192457      18.854083      221.97956    
    438000   0.96483246     18.699296      221.9402     
    439000   0.99410443     18.71549       221.8823     
    440000   0.97054887     18.561455      221.84216    
    441000   0.99303122     18.995394      221.87585    
    442000   1.0146101      19.244386      221.80447    
    443000   1.0181003      18.701889      221.96668    
    444000   0.97999759     19.077998      222.05897    
    445000   0.97744368     19.205453      221.83759    
    446000   1.0127098      18.655461      221.54805    
    447000   0.982609       18.965526      221.34699    
    448000   1.0070203      18.917148      221.16753    
    449000   0.97166764     18.770952      221.32347    
    450000   0.99854436     19.092063      221.21933    
    451000   0.95455101     18.549567      221.08252    
    452000   1.0092617      19.300529      221.2008     
    453000   1.0383452      19.596721      221.08109    
    454000   1.0565566      18.924846      220.96065    
    455000   1.0254457      19.303478      220.74369    
    456000   0.96181952     19.031166      220.54451    
    457000   1.0065143      19.045619      220.56473    
    458000   0.98848055     19.282585      220.4194     
    459000   0.99814148     18.875377      220.17436    
    460000   1.0029399      18.711255      220.13902    
    461000   0.97513322     18.776443      219.90635    
    462000   0.99964048     18.871084      219.65581    
    463000   1.0040507      18.987177      219.5022     
    464000   0.97076616     18.694121      219.41687    
    465000   0.95840012     18.835755      219.35003    
    466000   0.98829496     18.77157       219.27365    
    467000   1.0293693      19.167229      219.23359    
    468000   0.99987499     18.907462      219.12698    
    469000   0.97116356     18.748941      219.24441    
    470000   1.0091634      18.749177      219.09654    
    471000   1.0055371      19.247869      219.02483    
    472000   0.9901096      19.217465      218.84149    
    473000   1.0077662      18.725406      218.62223    
    474000   1.0355958      18.470256      218.45622    
    475000   1.0180665      19.042205      218.46142    
    476000   0.99660112     19.004349      218.28068    
    477000   1.0164747      18.605958      217.99646    
    478000   1.0115002      18.444639      217.64968    
    479000   0.98004083     18.896559      217.55738    
    480000   1.0060194      19.11268       217.39457    
    481000   0.99347491     18.685761      217.14071    
    482000   1.0707881      19.190779      216.84915    
    483000   1.0508576      18.674696      216.91981    
    484000   0.9969722      18.825722      216.83035    
    485000   1.0294449      19.043         216.79655    
    486000   0.97644086     18.717849      216.88615    
    487000   1.0073083      18.979732      216.86082    
    488000   1.0238007      19.532153      216.79412    
    489000   0.98639682     19.028763      216.6451     
    490000   1.034344       19.446279      216.64598    
    491000   1.0219434      19.303281      216.15031    
    492000   0.98850758     18.981633      215.94797    
    493000   0.98213573     18.90741       216.04356    
    494000   0.97763134     19.549729      215.74155    
    495000   0.99721587     18.510588      215.69411    
    496000   1.0961886      19.446497      215.52378    
    497000   0.98019307     18.900578      215.28513    
    498000   1.0090285      19.61737       215.25751    
    499000   0.99150648     18.936693      214.90914    
    500000   1.0327104      19.208108      214.84422    
    501000   1.0428035      19.22337       214.73116    
    502000   1.0016394      18.998716      214.55924    
    503000   1.0049971      18.503314      214.5359     
    504000   1.0216736      18.700747      214.58871    
    505000   0.96482597     18.87509       214.71273    
    506000   0.99694116     19.252417      214.72509    
    507000   1.0323597      19.621081      214.79064    
    508000   1.0080974      19.206815      214.71982    
    509000   0.97918112     18.286288      214.71488    
    510000   1.0377008      18.706777      214.46863    
    511000   1.0322338      19.157945      214.26658    
    512000   1.0086846      19.054543      214.09       
    513000   0.97303685     18.885147      213.97194    
    514000   0.99089004     19.170074      214.02316    
    515000   1.0346792      18.996295      213.82184    
    516000   1.0202626      19.229956      213.77381    
    517000   0.97412146     18.488439      213.67134    
    518000   1.0137171      18.511295      213.56509    
    519000   0.99631554     19.009485      213.73882    
    520000   1.0071551      19.004179      213.69913    
    521000   1.0218359      19.007716      213.70224    
    522000   0.98533512     18.701758      213.56142    
    523000   1.00442        18.841672      213.69861    
    524000   1.0356762      19.034601      213.63543    
    525000   1.0056847      19.051423      213.6143     
    526000   1.0349201      19.533033      213.79759    
    527000   1.0405332      19.093492      213.75168    
    528000   1.0037636      19.027698      213.70652    
    529000   0.9733354      18.28645       213.77417    
    530000   0.99335503     18.729623      213.68655    
    531000   1.0010747      18.581474      213.72966    
    532000   0.98502858     18.319809      213.67977    
    533000   1.0166921      18.431762      213.52034    
    534000   1.0066722      19.000479      213.53425    
    535000   1.0175532      18.699099      213.59298    
    536000   1.0078118      18.851055      213.73003    
    537000   1.013837       18.517264      213.79752    
    538000   0.96675821     18.883175      213.6215     
    539000   0.96297068     18.603804      213.61733    
    540000   0.98730886     18.815782      213.71619    
    541000   0.98820851     18.441341      213.6222     
    542000   1.0221822      18.336719      213.45451    
    543000   1.0179365      18.788389      213.60297    
    544000   1.0154868      19.351855      213.66223    
    545000   1.0238347      18.746284      213.41367    
    546000   1.0043106      18.972729      213.3547     
    547000   0.98691429     18.400787      213.52303    
    548000   1.0006199      18.66709       213.42211    
    549000   1.0402471      18.560666      213.15017    
    550000   0.96464445     18.440752      212.96246    
    551000   1.0644819      19.410646      212.8681     
    552000   0.97402693     18.754879      212.84997    
    553000   1.0296468      19.358574      212.76404    
    554000   0.99564451     18.697003      212.71393    
    555000   1.0247698      19.017689      212.80199    
    556000   1.0035261      18.169724      212.84763    
    557000   1.021437       19.234989      212.86932    
    558000   0.96628081     18.764029      212.9427     
    559000   0.96973318     18.973377      212.98054    
    560000   1.0110063      18.860964      213.07806    
    561000   0.98244607     18.188569      212.94906    
    562000   1.0200704      18.876489      212.80797    
    563000   1.0124925      18.944221      212.64211    
    564000   1.0298275      18.722014      212.57793    
    565000   1.0314752      19.024741      212.50253    
    566000   1.0066357      18.757088      212.64653    
    567000   1.0185178      18.727663      212.63405    
    568000   0.98931473     18.614312      212.70525    
    569000   1.0115531      18.433419      212.65469    
    570000   1.0149636      18.57629       212.53938    
    571000   0.98337588     18.788407      212.41229    
    572000   1.0212983      18.985335      212.49222    
    573000   1.0103429      18.804448      212.32573    
    574000   1.044452       18.791024      212.25861    
    575000   1.0101681      18.943709      212.3256     
    576000   1.0164702      19.073883      212.2541     
    577000   0.99210998     19.186722      212.15001    
    578000   0.98028712     18.627462      212.00532    
    579000   0.98096636     18.912534      211.78746    
    580000   0.98396849     18.969065      211.77623    
    581000   1.0025163      19.143888      211.65323    
    582000   1.0002729      18.32796       211.38483    
    583000   1.0056902      18.546857      211.37982    
    584000   0.98129515     19.036699      211.27473    
    585000   0.99963603     19.58464       211.13134    
    586000   0.99307968     19.063022      210.93342    
    587000   1.0091003      18.618229      210.75068    
    588000   0.96283934     18.859007      210.91324    
    589000   1.0258059      18.715222      210.79632    
    590000   1.0057582      18.403358      210.79887    
    591000   1.0017538      19.264957      210.60407    
    592000   0.99602226     19.001186      210.44298    
    593000   1.0144528      18.791674      210.27787    
    594000   1.0091422      18.474892      210.48177    
    595000   0.99607039     18.996344      210.33005    
    596000   1.0581877      18.890836      210.22705    
    597000   1.0433333      19.233558      210.12496    
    598000   1.0190141      18.698673      210.23363    
    599000   1.0035211      19.492403      210.0852     
    600000   0.98715515     18.480809      209.70782    
    601000   1.0098897      18.774677      209.78941    
    602000   0.96966975     18.585514      209.51329    
    603000   0.99770989     19.009969      209.48616    
    604000   1.0407035      19.160864      209.26321    
    605000   1.0338953      18.894458      209.11997    
    606000   0.99706494     18.641993      209.09469    
    607000   1.0196832      19.336286      208.97136    
    608000   0.99077767     18.681166      208.90532    
    609000   0.98258965     18.396894      208.66746    
    610000   0.98260022     18.302892      208.49328    
    611000   1.0357671      19.211529      208.48914    
    612000   0.94598249     18.557913      208.2057     
    613000   0.96751285     18.973254      207.80748    
    614000   1.0254296      19.088937      207.67778    
    615000   1.0314567      19.001072      207.6835     
    616000   1.0109709      19.310996      207.57707    
    617000   0.99283089     18.287265      207.36306    
    618000   1.014453       19.043821      207.38986    
    619000   1.0210231      18.455839      207.37931    
    620000   1.0208018      18.545298      207.58958    
    621000   0.99437744     18.701653      207.34888    
    622000   1.0049544      18.621966      207.40915    
    623000   1.0162557      19.182309      207.38107    
    624000   0.99398312     18.649184      207.6098     
    625000   0.99965558     18.476428      207.42279    
    626000   0.99602395     18.639389      207.3248     
    627000   0.99978853     18.520836      207.39255    
    628000   0.99853855     18.845781      207.34538    
    629000   0.97802681     19.439335      207.33617    
    630000   0.98539697     19.201074      207.18432    
    631000   0.97172763     18.196701      206.97729    
    632000   0.99096436     18.96099       206.97819    
    633000   1.0022615      18.64669       207.0441     
    634000   0.97684945     18.96374       207.10678    
    635000   1.0140795      19.109923      206.90409    
    636000   1.0113629      18.804208      206.61915    
    637000   0.97515617     18.266202      206.64927    
    638000   0.99263569     19.067888      206.72412    
    639000   0.97766388     18.877901      206.591      
    640000   0.99574787     18.659583      206.49873    
    641000   0.95616402     18.394221      206.61731    
    642000   1.0024798      18.346667      206.39453    
    643000   1.011338       18.368848      206.25465    
    644000   1.0217744      18.710735      206.13133    
    645000   1.0108709      18.960875      206.18469    
    646000   1.0220848      18.441195      206.27986    
    647000   1.0139554      18.715164      206.04202    
    648000   0.98251176     18.653116      205.77337    
    649000   1.0320864      18.377369      205.60849    
    650000   0.99417715     18.784823      205.42754    
    651000   0.98935188     18.591973      205.56113    
    652000   1.0025753      18.941108      205.29554    
    653000   1.0538585      18.66584       205.09831    
    654000   0.99132023     18.541701      204.80067    
    655000   1.052916       18.560774      204.7945     
    656000   1.0083136      18.779539      204.69266    
    657000   0.99372024     19.06841       204.74661    
    658000   0.99806659     18.50437       204.77584    
    659000   1.0137858      19.014396      204.98472    
    660000   1.009153       18.55089       204.85466    
    661000   1.0100038      18.835068      204.80645    
    662000   1.0213076      19.033675      204.64532    
    663000   1.0080961      18.682401      204.54334    
    664000   1.0018501      18.727231      204.58114    
    665000   0.98172301     18.785066      204.45096    
    666000   1.0118178      18.875239      204.4382     
    667000   1.0187016      18.88685       204.40204    
    668000   1.0128738      18.42306       204.47024    
    669000   1.0241879      18.325361      204.45112    
    670000   0.99913733     18.992409      204.45102    
    671000   1.0189856      18.484132      204.40075    
    672000   1.0150503      18.417942      204.32592    
    673000   1.034533       19.320116      204.25071    
    674000   0.96490627     18.703543      204.27141    
    675000   0.99726316     18.917689      204.20385    
    676000   1.0576165      18.924777      204.10133    
    677000   1.0275893      18.761292      204.02311    
    678000   1.0040956      18.659742      204.26432    
    679000   1.0478743      18.684005      204.49351    
    680000   1.0462002      18.601625      204.37573    
    681000   1.0375619      18.72499       204.20548    
    682000   1.0079206      18.596433      204.07154    
    683000   1.0349255      19.005698      204.02095    
    684000   0.97166011     18.641614      203.85641    
    685000   1.0085949      19.032025      203.8179     
    686000   0.99108487     18.787503      203.75226    
    687000   0.99680109     18.752689      203.75091    
    688000   0.98046067     18.622171      203.48723    
    689000   1.0261719      18.482436      203.51118    
    690000   0.95455568     18.825268      203.27122    
    691000   1.0201897      18.422057      203.32908    
    692000   0.99357169     18.696991      203.35145    
    693000   1.0123743      18.970663      203.27519    
    694000   1.0039707      18.515998      203.23885    
    695000   1.0147926      19.037173      203.11633    
    696000   1.0180965      18.835782      203.18346    
    697000   0.9767284      19.512319      203.0383     
    698000   0.98712093     18.902478      203.13332    
    699000   1.0015473      18.644623      203.07826    
    700000   1.014391       18.45309       203.00836    
    701000   1.0038857      18.728882      202.98094    
    702000   0.98367735     18.377385      203.02873    
    703000   1.047497       18.169959      202.89743    
    704000   0.98735337     18.57907       202.93923    
    705000   0.96519816     18.570522      202.78529    
    706000   1.0259235      18.770205      202.90796    
    707000   1.0263689      18.327019      202.96757    
    708000   0.99861786     18.633553      202.99027    
    709000   0.9850059      18.709396      202.63939    
    710000   1.0273598      18.846101      202.48151    
    711000   0.99503781     18.677575      202.31814    
    712000   1.002998       18.940814      202.37988    
    713000   0.98551048     18.49669       202.46696    
    714000   1.0021702      18.76478       202.47738    
    715000   1.0466642      19.390754      202.28056    
    716000   1.0258661      18.382685      202.27505    
    717000   1.0158145      18.619493      201.93722    
    718000   0.95528502     18.617296      201.96772    
    719000   0.97551209     18.634302      201.84748    
    720000   1.0375179      18.710081      201.89301    
    721000   0.98972813     19.217526      201.62466    
    722000   1.0226573      18.913596      201.61233    
    723000   0.99444978     19.078685      201.30945    
    724000   0.98901176     18.595454      201.17463    
    725000   0.99805134     18.716158      201.09333    
    726000   1.0257298      18.326923      200.96304    
    727000   0.98202828     18.558217      200.58347    
    728000   1.0106953      18.82084       200.4651     
    729000   1.019392       18.614346      200.48584    
    730000   0.99541833     18.758054      200.39558    
    731000   0.99083126     18.421882      200.10545    
    732000   0.99690695     19.199957      199.89373    
    733000   1.0016404      18.397976      199.93599    
    734000   1.0140018      18.476198      199.86036    
    735000   1.0071228      18.613368      199.8916     
    736000   1.0201436      19.132218      199.66506    
    737000   1.0228564      18.503061      199.50544    
    738000   0.99639113     18.387454      199.20036    
    739000   0.93021106     18.342053      199.08487    
    740000   0.9867782      18.752406      199.05664    
    741000   1.007231       18.773997      198.98118    
    742000   1.0039265      19.155818      199.01396    
    743000   0.97088558     18.692649      199.00711    
    744000   0.96457751     18.535947      199.05295    
    745000   0.98437384     18.631986      199.02763    
    746000   1.009167       18.925045      198.89979    
    747000   0.94270284     18.428641      199.10736    
    748000   1.0274863      18.703541      199.15717    
    749000   0.96628296     19.212751      199.09746    
    750000   1.0558205      18.241257      198.92667    
    751000   0.97524838     18.557363      198.79325    
    752000   0.99202184     18.25556       198.727      
    753000   1.0042213      18.767675      198.43211    
    754000   0.99826892     18.198137      198.11246    
    755000   0.96894005     18.505224      198.06602    
    756000   0.99937806     18.905816      197.82203    
    757000   0.99397022     18.605848      197.77401    
    758000   1.0091283      18.625735      197.54413    
    759000   1.0099585      18.900874      197.50067    
    760000   0.99007459     18.43337       197.32048    
    761000   0.99943034     18.788312      196.93488    
    762000   1.0192033      19.161295      196.744      
    763000   1.0307165      18.767875      196.73554    
    764000   1.0184916      18.983288      196.74175    
    765000   1.0171838      18.665979      196.62737    
    766000   0.99746596     18.535417      196.41391    
    767000   0.96692343     18.50503       196.56088    
    768000   0.96022582     18.879665      196.5544     
    769000   0.98253523     18.665633      196.50347    
    770000   1.0013572      18.861759      196.17488    
    771000   1.0069907      19.105323      196.0969     
    772000   1.0415117      18.885594      195.91075    
    773000   0.97942606     18.576148      195.92597    
    774000   0.98081232     18.200115      195.95616    
    775000   0.99444918     18.797657      195.92349    
    776000   1.0207194      18.735046      195.97778    
    777000   1.0407025      19.000804      195.95631    
    778000   0.97350509     19.18814       195.83024    
    779000   0.95207243     19.053428      195.60823    
    780000   1.0147531      18.394614      195.55033    
    781000   0.98643059     18.643857      195.44916    
    782000   0.98748573     18.955006      195.42348    
    783000   1.0112423      19.084408      195.23156    
    784000   0.97149264     18.260133      195.08855    
    785000   1.039469       18.8787        195.0595     
    786000   1.0116461      19.105662      194.86247    
    787000   1.0052565      18.471949      194.93534    
    788000   1.0281752      18.690207      194.85779    
    789000   1.011498       19.04256       194.69711    
    790000   0.99495779     18.753223      194.5155     
    791000   1.0041038      18.803628      194.62808    
    792000   1.0105555      18.737498      194.45385    
    793000   0.98683326     18.474106      194.08592    
    794000   1.0207045      19.047774      193.91487    
    795000   1.009219       19.322503      193.95658    
    796000   0.99605357     18.717067      193.62405    
    797000   0.98248928     18.502294      193.74644    
    798000   1.0260479      18.369946      193.56121    
    799000   1.0454197      18.549078      193.5153     
    800000   0.963188       18.773014      193.54814    
    801000   1.0058733      18.762977      193.65221    
    802000   1.05434        19.417249      193.54218    
    803000   0.99921926     19.078339      193.36991    
    804000   0.9794892      18.716952      193.36062    
    805000   1.0114761      18.622674      193.17367    
    806000   1.0314987      19.175945      193.14442    
    807000   1.0396121      18.77275       193.0131     
    808000   0.97539447     18.158957      193.11342    
    809000   1.0277338      18.649815      192.92141    
    810000   0.98779351     18.282982      192.87555    
    811000   1.0027046      18.884523      192.79871    
    812000   0.96540809     18.351684      192.68955    
    813000   0.98171078     19.055149      192.57821    
    814000   1.0125414      18.855741      192.33574    
    815000   1.0364842      18.869549      192.30295    
    816000   0.98590521     18.678053      192.13743    
    817000   1.0145909      19.002558      192.00514    
    818000   1.0132053      18.831508      191.93486    
    819000   1.0195929      18.76653       191.81797    
    820000   0.99875546     18.874684      191.77549    
    821000   1.0056804      19.02101       191.72142    
    822000   0.99683816     18.600064      191.74868    
    823000   0.98841721     18.332712      191.50872    
    824000   1.0053812      18.998947      191.6268     
    825000   0.99132963     18.417325      191.53124    
    826000   1.0204253      18.704785      191.42413    
    827000   1.0157994      18.608397      191.59948    
    828000   0.99930388     19.442976      191.52107    
    829000   0.98778413     19.117081      191.5868     
    830000   1.0507961      18.94534       191.30185    
    831000   1.0135536      18.633409      191.19876    
    832000   0.99245421     18.759664      191.10827    
    833000   1.0195104      18.680838      191.2662     
    834000   0.97601764     18.360149      191.2701     
    835000   0.99328982     18.782177      191.18752    
    836000   1.0085983      18.664637      191.19285    
    837000   0.95161858     18.327767      191.29296    
    838000   1.0138162      18.825949      191.14562    
    839000   1.0119244      19.147447      191.12455    
    840000   0.98798368     18.550246      191.2333     
    841000   0.96331863     18.1649        190.98682    
    842000   0.9731018      18.370074      190.78266    
    843000   0.96277068     18.501178      190.6447     
    844000   0.99330711     18.44711       190.55266    
    845000   0.97455157     18.831149      190.35315    
    846000   0.9783159      18.64938       190.21932    
    847000   0.9874085      18.666622      190.0974     
    848000   1.0177879      18.806425      190.05186    
    849000   0.95965804     18.098075      190.01319    
    850000   1.0027564      18.526867      189.99893    
    851000   1.0108695      18.387785      189.84541    
    852000   0.96342744     18.128774      189.78254    
    853000   0.96600504     18.194181      189.79944    
    854000   0.99060967     18.328058      189.70827    
    855000   1.0063539      18.844446      189.70943    
    856000   1.016119       18.920587      189.84522    
    857000   1.0120219      18.992514      189.75536    
    858000   1.028134       18.779598      189.65346    
    859000   0.97721142     18.129163      189.58539    
    860000   1.0139202      19.012355      189.51166    
    861000   1.0224338      19.145828      189.3876     
    862000   0.9734188      19.120309      189.39611    
    863000   1.0011311      18.992144      189.45671    
    864000   1.0559108      18.546538      189.29564    
    865000   1.0265959      18.968191      189.1196     
    866000   1.0219021      18.379199      189.19765    
    867000   1.0065602      18.415869      189.06862    
    868000   0.99716472     18.840426      189.09578    
    869000   0.98452893     18.580498      189.15907    
    870000   0.98498752     18.817417      189.12962    
    871000   0.99292793     18.826774      189.06329    
    872000   1.0000678      18.011346      189.03128    
    873000   1.0090149      18.176333      188.98735    
    874000   1.000564       18.448279      189.03159    
    875000   0.97221469     18.822604      189.29569    
    876000   1.0485861      18.766769      189.44868    
    877000   1.0130805      19.252649      189.23361    
    878000   0.95111198     18.439335      189.1858     
    879000   0.98405293     19.278026      189.07347    
    880000   1.0626566      18.686364      189.05727    
    881000   1.0259745      18.572197      188.97614    
    882000   0.97702538     18.745258      189.0605     
    883000   1.0024734      18.769722      189.09417    
    884000   1.0135342      18.328062      188.92972    
    885000   0.98774099     18.661846      188.98595    
    886000   0.97904162     18.762674      188.88347    
    887000   0.95312084     18.963739      188.92476    
    888000   1.0063592      18.476522      188.95176    
    889000   1.005778       18.11013       188.96558    
    890000   0.97431854     18.492268      188.82394    
    891000   0.98608544     18.85598       188.60582    
    892000   1.0084789      18.740814      188.44935    
    893000   1.0014241      18.705965      188.30169    
    894000   1.0184164      18.261015      188.30148    
    895000   0.96416743     18.668708      188.0373     
    896000   1.0049112      19.104666      187.91591    
    897000   0.99454379     18.840986      187.8419     
    898000   1.0391111      18.734325      187.8677     
    899000   1.0144571      18.5699        187.80949    
    900000   1.0106259      18.459636      187.92301    
    901000   1.0387319      18.721291      187.86578    
    902000   1.02678        18.282866      187.9055     
    903000   0.9934902      18.372745      187.79469    
    904000   1.0020822      18.092646      188.05207    
    905000   1.0537527      18.445986      187.9716     
    906000   0.94840856     18.59684       187.79637    
    907000   1.0229307      18.895007      187.89078    
    908000   1.0053272      18.801227      187.96837    
    909000   0.96963583     18.508954      187.93964    
    910000   0.98784936     18.767825      187.96297    
    911000   0.98169466     18.909812      187.90165    
    912000   0.94368201     18.543691      187.99422    
    913000   0.99718784     18.928139      187.90235    
    914000   0.99619228     18.995825      187.72372    
    915000   0.99604153     18.597382      187.55683    
    916000   1.0416956      18.137998      187.427      
    917000   1.0321621      18.882303      187.1626     
    918000   0.98962587     18.522727      186.66444    
    919000   0.96452031     18.098029      186.50018    
    920000   0.97242658     18.586444      186.36966    
    921000   1.0035606      18.592643      186.2787     
    922000   1.0117345      18.43248       185.99953    
    923000   1.0060879      18.511405      185.82895    
    924000   0.97721548     18.786102      185.78952    
    925000   0.96524914     18.625252      185.82887    
    926000   1.0075876      18.38418       185.86204    
    927000   1.039895       18.677008      185.77673    
    928000   1.0607292      18.453192      185.6695     
    929000   1.0243867      18.608399      185.6316     
    930000   0.94598378     18.257372      185.61531    
    931000   1.0627075      19.303248      185.40842    
    932000   0.99031523     19.034155      185.23389    
    933000   1.0160015      18.322664      185.33265    
    934000   1.0217814      18.816175      185.28089    
    935000   0.97844958     18.634715      185.29819    
    936000   0.96046506     18.576283      185.02903    
    937000   1.0012382      18.256627      184.82558    
    938000   1.0326332      18.34469       184.71254    
    939000   0.97712008     18.102096      184.53916    
    940000   1.0257236      18.57405       184.58526    
    941000   1.0041779      18.249683      184.63604    
    942000   0.99732231     18.797553      184.61484    
    943000   1.0240397      18.387339      184.43552    
    944000   0.97808113     18.794058      184.29044    
    945000   0.96217285     18.508885      184.08127    
    946000   1.0291951      18.539753      183.92551    
    947000   0.99454725     18.604477      183.7659     
    948000   0.95498839     18.542304      183.84505    
    949000   1.0557044      18.493189      183.65129    
    950000   1.0122776      18.632304      183.45046    
    951000   0.99682945     18.795172      183.05524    
    952000   1.0150739      18.439101      182.9138     
    953000   0.98581111     18.259335      182.68908    
    954000   1.0141939      18.743156      182.63304    
    955000   1.0095213      18.820616      182.40718    
    956000   0.99052383     17.996609      182.26794    
    957000   1.0153895      18.984832      182.31856    
    958000   1.0070645      17.758579      182.2849     
    959000   1.0007602      18.417855      182.12697    
    960000   1.0058562      18.742262      182.19796    
    961000   0.99596919     18.70709       182.0995     
    962000   0.99510858     18.0189        181.81186    
    963000   1.0483827      19.225337      181.77445    
    964000   1.0468041      19.090296      181.59347    
    965000   0.97683401     18.488943      181.51911    
    966000   1.0093798      18.613173      181.51756    
    967000   1.0115872      17.984383      181.46369    
    968000   0.99420534     19.014703      181.18049    
    969000   0.9978189      18.860658      181.16997    
    970000   1.0352784      18.338522      180.96317    
    971000   1.0289092      18.454388      181.14697    
    972000   0.95474761     18.347634      181.15245    
    973000   1.0334737      18.418593      181.12652    
    974000   1.0005966      18.366279      180.9355     
    975000   0.98463734     18.592802      180.68817    
    976000   1.0201023      18.761616      180.52801    
    977000   1.0152519      18.679294      180.25731    
    978000   1.0455491      18.891456      180.31069    
    979000   1.0039148      18.857994      180.20217    
    980000   0.97837588     18.608999      180.1528     
    981000   1.0355544      18.879031      179.96806    
    982000   1.0182584      18.625047      179.93518    
    983000   0.97388736     18.476997      179.64541    
    984000   0.98190506     18.109154      179.51388    
    985000   1.008701       18.434016      179.4456     
    986000   0.99209766     18.663966      179.28288    
    987000   1.0062981      18.650239      179.3742     
    988000   1.0190723      18.462739      179.2548     
    989000   1.0161681      18.447929      179.26035    
    990000   1.0135758      18.69912       179.00048    
    991000   1.0029364      18.424687      178.81723    
    992000   0.98792603     18.821098      178.7739     
    993000   1.0111492      18.288688      178.51752    
    994000   0.97228771     18.031903      178.51239    
    995000   0.98546458     18.043776      178.47972    
    996000   0.96907164     18.29265       178.34848    
    997000   1.002332       18.270807      178.27625    
    998000   0.96391472     18.817295      178.05878    
    999000   1.0181055      18.330541      177.98637    
   1000000   1.0495165      18.365323      178.079      
   1001000   0.99311809     18.731624      178.29013    
   1002000   0.99967363     18.392732      178.22251    
   1003000   1.0544245      19.028544      178.1577     
   1004000   1.0417131      19.067623      177.96042    
   1005000   0.99462653     18.894572      178.06077    
   1006000   1.0293509      18.581001      177.94341    
   1007000   1.0100181      18.376777      177.89796    
   1008000   1.0127548      18.869968      177.63277    
   1009000   0.98127756     18.405015      177.62862    
   1010000   1.0461766      19.408147      177.45454    
   1011000   0.97128425     18.641096      177.25474    
   1012000   0.96965665     19.070497      177.5242     
   1013000   0.97144755     18.71063       177.27037    
   1014000   1.0012705      18.683118      177.34947    
   1015000   1.0116288      18.951726      177.33936    
   1016000   0.96438153     18.612221      177.06526    
   1017000   0.97540761     18.374656      177.09541    
   1018000   0.96901036     18.331648      176.69976    
   1019000   1.0258997      18.401133      176.56156    
   1020000   0.99329926     18.479015      176.42491    
   1021000   1.0289292      18.268564      176.33737    
   1022000   0.98063522     18.419244      176.04357    
   1023000   1.0164273      18.331484      175.77331    
   1024000   0.99524295     18.089336      175.66925    
   1025000   1.0064567      18.210047      175.65504    
   1026000   1.0167712      18.427935      175.38659    
   1027000   1.0030528      19.001482      175.24018    
   1028000   0.98890757     18.384468      175.16585    
   1029000   1.003638       18.986377      175.0354     
   1030000   1.053964       18.20426       174.88234    
   1031000   0.98986994     17.927814      174.64804    
   1032000   0.99141073     18.707249      174.6079     
   1033000   0.980387       18.820969      174.57866    
   1034000   0.97035525     18.341641      174.65028    
   1035000   1.0532965      19.306267      174.63628    
   1036000   0.99116326     18.889501      174.74349    
   1037000   0.93550671     18.396547      174.89821    
   1038000   1.0496971      18.31168       174.73294    
   1039000   1.0390068      19.027728      174.63135    
   1040000   0.93940629     18.448374      174.59252    
   1041000   0.97266783     18.596132      174.53916    
   1042000   1.0258105      18.817301      174.58529    
   1043000   0.97720748     18.45694       174.6503     
   1044000   0.9893891      18.486755      174.73923    
   1045000   1.053973       18.4528        174.88524    
   1046000   1.0416242      19.005653      174.93694    
   1047000   1.0455119      18.825844      174.79261    
   1048000   0.97445083     17.97989       174.55861    
   1049000   0.98681924     18.511934      174.45557    
   1050000   0.998941       18.524393      174.43152    
   1051000   0.95902099     18.963481      174.40759    
   1052000   0.97570974     18.909242      174.19877    
   1053000   0.99157204     18.153326      174.20799    
   1054000   1.0323738      18.818659      174.16519    
   1055000   1.0286659      18.571677      173.8764     
   1056000   1.0167176      18.439029      173.76964    
   1057000   0.98471051     18.635349      173.95355    
   1058000   1.0096233      18.524855      173.83829    
   1059000   1.0006062      18.584615      173.69512    
   1060000   0.99063045     18.960026      173.89628    
   1061000   1.0145365      18.411955      173.73941    
   1062000   0.99087525     18.377563      173.69847    
   1063000   0.94260358     18.530654      173.69829    
   1064000   1.0048339      18.667986      173.58528    
   1065000   0.94936433     18.677751      173.59774    
   1066000   1.0048975      18.64326       173.43754    
   1067000   1.0194668      18.861828      173.34718    
   1068000   1.0220899      18.497835      173.44762    
   1069000   1.0110484      18.547341      173.477      
   1070000   0.98309513     18.230485      173.28828    
   1071000   1.0534016      18.755431      173.21454    
   1072000   1.0207746      18.671894      173.0854     
   1073000   0.99466644     18.524715      172.82956    
   1074000   0.99659276     18.42849       172.82884    
   1075000   0.9668868      18.813899      172.83663    
   1076000   1.0140851      18.625094      172.92261    
   1077000   0.99251253     18.40352       172.8143     
   1078000   0.99187595     18.079147      172.68425    
   1079000   1.0330043      18.567126      172.82406    
   1080000   1.0041664      19.113777      172.61517    
   1081000   1.016449       18.077883      172.32891    
   1082000   1.0209333      18.818897      172.39353    
   1083000   1.0083491      18.545184      172.47208    
   1084000   0.95087943     17.881641      172.36676    
   1085000   0.9956267      18.227963      172.49876    
   1086000   1.0069669      18.616811      172.38862    
   1087000   1.0049362      18.22366       172.37945    
   1088000   0.9818896      18.295486      172.28931    
   1089000   0.98794543     18.473917      172.36287    
   1090000   1.0224114      18.630923      172.43833    
   1091000   0.98890646     18.267263      172.33885    
   1092000   1.0087485      18.653123      172.38248    
   1093000   1.0109674      18.718771      172.25362    
   1094000   1.0162122      19.326714      172.31487    
   1095000   1.0031554      18.422678      172.22344    
   1096000   1.0168898      18.40513       172.24271    
   1097000   1.0091166      18.370842      172.21743    
   1098000   1.0196215      18.575645      171.99703    
   1099000   0.99403437     18.576705      172.00261    
   1100000   1.0301934      18.425339      171.92827    
   1101000   0.94814442     17.769028      172.04315    
   1102000   1.0093364      18.366221      172.0193     
   1103000   0.98607512     18.630178      172.06401    
   1104000   1.0187872      18.051941      172.01746    
   1105000   1.0303082      18.67489       172.0071     
   1106000   1.0139723      18.367579      172.01969    
   1107000   1.0531768      18.30615       172.12768    
   1108000   1.0492014      18.091556      172.15509    
   1109000   0.98769899     18.476993      172.11522    
   1110000   0.98841554     18.669853      172.15105    
   1111000   1.0040774      18.515002      172.04619    
   1112000   0.97005963     18.460122      172.03333    
   1113000   0.97981216     18.362126      171.95749    
   1114000   1.0298767      18.290341      171.76942    
   1115000   1.0115112      18.506232      171.63933    
   1116000   1.0113317      18.310197      171.61624    
   1117000   0.96939232     18.180309      171.50608    
   1118000   1.0032185      18.246676      171.53998    
   1119000   1.0064807      18.037755      171.60918    
   1120000   1.0199571      18.65204       171.57977    
   1121000   0.98814069     18.013642      171.55237    
   1122000   0.99779794     18.061252      171.56092    
   1123000   1.0107956      18.28658       171.49808    
   1124000   1.0136822      18.594044      171.23635    
   1125000   0.98971975     19.041911      171.01773    
   1126000   1.0246245      18.809693      170.86367    
   1127000   0.99166572     19.221981      170.88405    
   1128000   1.0344383      18.162113      170.65451    
   1129000   1.0612009      18.92582       170.44111    
   1130000   0.94984674     18.305218      170.25252    
   1131000   1.0209577      18.834829      170.02239    
   1132000   0.98447896     18.42224       169.98821    
   1133000   1.032499       18.509953      170.00293    
   1134000   1.0226093      18.54415       169.96645    
   1135000   1.0116519      19.020623      170.18646    
   1136000   1.018397       18.88046       170.2409     
   1137000   0.94848009     18.71605       170.23341    
   1138000   0.93761745     18.293929      170.07645    
   1139000   0.97673935     18.431698      169.78012    
   1140000   0.99621656     18.841786      169.66195    
   1141000   1.0058684      18.57683       169.65388    
   1142000   1.0341013      18.517535      169.61125    
   1143000   0.99104659     18.17292       169.35694    
   1144000   1.0034358      18.452657      169.17808    
   1145000   0.99238695     17.998451      169.12567    
   1146000   1.0302399      18.815115      168.86258    
   1147000   0.96912334     17.707156      168.99633    
   1148000   0.9849431      18.235728      168.92322    
   1149000   1.0196373      18.650034      168.83593    
   1150000   0.99679943     18.281478      168.63357    
   1151000   0.98670651     18.482021      168.81745    
   1152000   0.98865874     18.566042      168.70915    
   1153000   1.0054503      18.564316      168.57411    
   1154000   1.018275       18.206885      168.65558    
   1155000   1.001833       18.257925      168.26992    
   1156000   0.96457962     18.402366      168.12373    
   1157000   0.98016811     18.286818      168.11537    
   1158000   0.97748702     18.172487      168.0157     
   1159000   0.97158804     18.412503      167.95926    
   1160000   0.99427907     18.399365      167.81205    
   1161000   1.0125295      18.735308      167.7716     
   1162000   1.0392033      18.450461      167.7666     
   1163000   0.9892622      18.559853      167.71307    
   1164000   0.99948345     18.138563      167.47953    
   1165000   1.0067619      18.745035      167.52166    
   1166000   1.011423       18.52275       167.62566    
   1167000   1.0318814      18.859876      167.52597    
   1168000   1.0179983      18.425206      167.39932    
   1169000   0.97835038     19.166079      167.33878    
   1170000   1.0038685      18.585085      167.06673    
   1171000   0.9841138      18.514316      167.02085    
   1172000   1.0333463      18.67146       166.85516    
   1173000   0.9970207      18.424392      166.68562    
   1174000   0.97658887     18.333026      166.52667    
   1175000   1.0190606      18.483789      166.42206    
   1176000   0.98968641     18.278944      166.10784    
   1177000   1.0111462      18.553764      165.83234    
   1178000   0.97559189     18.658662      165.72344    
   1179000   1.0306398      18.917028      165.86485    
   1180000   0.97671074     17.891218      165.91706    
   1181000   0.96480654     18.293452      165.70875    
   1182000   0.97285831     18.494008      165.56575    
   1183000   0.99910948     18.103763      165.45749    
   1184000   0.9898047      17.890603      165.51192    
   1185000   1.0090417      18.472414      165.44037    
   1186000   1.0019084      18.422385      165.2653     
   1187000   1.0043441      18.300738      165.04754    
   1188000   1.0187462      18.554426      164.88906    
   1189000   1.0335272      18.94087       164.88617    
   1190000   1.0225649      17.729563      164.74035    
   1191000   1.0330013      18.560728      164.75399    
   1192000   0.98056412     18.211955      164.70277    
   1193000   1.0049699      18.624696      164.73524    
   1194000   0.9732112      18.304148      164.69059    
   1195000   1.0407014      18.628103      164.63636    
   1196000   0.99926607     18.222926      164.81386    
   1197000   1.0059251      19.083003      164.83266    
   1198000   1.0195846      18.182226      164.77936    
   1199000   0.97733114     18.07558       164.51377    
   1200000   1.0764787      18.518306      164.23984    
   1201000   1.0469617      18.168066      164.22543    
   1202000   0.99774394     18.541247      164.12035    
   1203000   0.9981714      18.892073      164.12105    
   1204000   1.0041391      18.575805      164.18055    
   1205000   1.0243729      18.787498      163.8197     
   1206000   0.99425998     18.347501      163.668      
   1207000   1.0376726      18.381586      163.60643    
   1208000   0.99590215     18.753127      163.29974    
   1209000   1.015285       17.985011      163.33667    
   1210000   1.0021782      18.477884      163.47016    
   1211000   1.0165101      18.598545      163.13757    
   1212000   1.0377991      18.413784      163.05243    
   1213000   1.0084291      18.637447      163.04349    
   1214000   1.0187253      17.28266       163.05272    
   1215000   0.97788792     17.953992      163.11887    
   1216000   0.99018834     17.980167      163.02015    
   1217000   0.98309753     18.041892      163.0953     
   1218000   0.93940187     17.816193      163.12717    
   1219000   1.0053635      18.477815      163.18709    
   1220000   0.9743192      18.658046      163.06601    
   1221000   1.046313       18.434107      162.90075    
   1222000   1.0273832      18.781357      162.93924    
   1223000   1.0116807      18.3189        162.76159    
   1224000   0.98551609     18.42845       162.53401    
   1225000   0.97351971     18.347603      162.54541    
   1226000   1.0069515      18.478556      162.67425    
   1227000   1.0088133      18.689933      162.59858    
   1228000   0.96244834     18.515703      162.67185    
   1229000   1.0083903      18.148149      162.60105    
   1230000   1.0025266      18.131633      162.57253    
   1231000   1.0246269      18.290661      162.55061    
   1232000   1.0259545      18.359716      162.54447    
   1233000   0.95879126     18.285825      162.44562    
   1234000   1.0396109      18.624222      162.201      
   1235000   0.98434763     18.227698      162.28233    
   1236000   0.95981136     17.996443      162.05509    
   1237000   1.0303905      18.462321      161.80948    
   1238000   0.98045197     18.474815      161.56723    
   1239000   0.99049744     17.829373      161.32083    
   1240000   0.98713488     18.109722      161.23578    
   1241000   1.0093689      18.688669      161.1125     
   1242000   1.0348289      18.417204      161.0611     
   1243000   1.0109004      18.687366      161.17671    
   1244000   0.96953046     18.215125      161.25892    
   1245000   0.96621979     18.205339      161.12912    
   1246000   0.97748559     18.18463       161.00175    
   1247000   1.0198344      18.564123      160.9144     
   1248000   0.98102479     18.383528      161.04989    
   1249000   1.0184163      18.331958      161.03223    
   1250000   0.97098805     18.23889       161.13229    
   1251000   0.99594664     18.139605      161.0043     
   1252000   1.0262862      18.470044      161.03228    
   1253000   1.0037165      18.515899      161.00532    
   1254000   1.0152946      18.344393      161.06099    
   1255000   0.99729427     18.134237      161.15644    
   1256000   0.98700592     18.681988      161.1211     
   1257000   0.97735551     18.103522      161.20113    
   1258000   0.97436182     18.656573      161.02274    
   1259000   1.0002891      18.211934      161.24634    
   1260000   1.0089792      18.764875      161.17838    
   1261000   1.019807       17.986378      161.23994    
   1262000   0.95216072     18.017064      161.20592    
   1263000   1.0093468      18.686138      161.09033    
   1264000   1.0269448      18.330627      160.93704    
   1265000   0.98698646     18.552626      160.76566    
   1266000   1.0164376      18.489596      160.94739    
   1267000   1.0209144      18.412229      160.88501    
   1268000   0.97247771     17.96227       160.98732    
   1269000   0.99341938     18.044025      160.83547    
   1270000   0.94630044     18.312819      160.78712    
   1271000   1.013581       18.321685      160.68399    
   1272000   0.97015161     18.419142      160.41718    
   1273000   1.0096144      18.322551      160.4766     
   1274000   0.97430106     18.161016      160.19735    
   1275000   0.99612349     18.557408      159.89397    
   1276000   0.99163494     17.934682      159.86143    
   1277000   0.95658836     17.831266      159.73347    
   1278000   1.0153761      18.242111      159.75101    
   1279000   1.0096416      18.783499      159.68733    
   1280000   1.0401731      18.919288      159.56718    
   1281000   1.0528991      18.557981      159.51344    
   1282000   1.0023774      18.877508      159.46474    
   1283000   0.99458458     18.082146      159.32926    
   1284000   1.0306742      18.20963       159.27677    
   1285000   1.0303489      18.62318       159.29728    
   1286000   1.0092623      18.674122      159.27115    
   1287000   1.0137052      18.812581      159.44745    
   1288000   1.0021379      18.212647      159.24324    
   1289000   0.98229171     18.461511      159.33979    
   1290000   0.96897761     18.806135      159.16759    
   1291000   1.0071351      18.593448      159.08383    
   1292000   1.0101893      18.092398      159.05992    
   1293000   1.0160647      18.512752      159.264      
   1294000   1.0375326      18.326417      159.21939    
   1295000   0.99554726     17.950331      159.04521    
   1296000   1.0204164      18.433138      158.72287    
   1297000   1.0278123      18.353773      158.57379    
   1298000   0.99119342     18.279255      158.56714    
   1299000   0.98044878     18.19999       158.499      
   1300000   1.0015881      18.277631      158.51813    
   1301000   1.0070178      18.511184      158.47545    
   1302000   0.95317136     18.165244      158.55835    
   1303000   0.97653857     17.770383      158.76153    
   1304000   1.0738772      18.640715      158.75361    
   1305000   1.0103772      18.560467      158.80792    
   1306000   0.970097       18.268311      158.75135    
   1307000   1.023338       18.154834      158.59684    
   1308000   0.99557651     18.400519      158.66528    
   1309000   1.0425956      18.577509      158.68586    
   1310000   1.0408914      17.946926      158.78652    
   1311000   1.0402352      18.313424      158.85204    
   1312000   0.99605847     18.579014      158.99123    
   1313000   0.98737628     18.309576      159.14701    
   1314000   0.96478116     18.005963      159.21214    
   1315000   1.0325732      18.42774       159.154      
   1316000   0.96724904     18.744499      158.89811    
   1317000   0.98091651     18.694468      158.88263    
   1318000   1.0782369      17.997787      158.76491    
   1319000   0.9875095      18.340888      158.68304    
   1320000   0.99287815     18.325417      158.62118    
   1321000   0.99018425     17.750515      158.68655    
   1322000   0.97958362     17.846147      158.65742    
   1323000   0.99716915     18.380008      158.5436     
   1324000   0.99213271     18.44195       158.3072     
   1325000   0.96329494     18.251995      158.1899     
   1326000   0.99936826     18.782135      158.37045    
   1327000   0.98524011     18.101564      158.25448    
   1328000   0.99432463     18.664898      158.22519    
   1329000   0.97189397     18.405197      158.06581    
   1330000   1.0150317      18.592615      157.88981    
   1331000   1.0275876      18.600425      157.84783    
   1332000   1.0022171      18.09442       157.85755    
   1333000   0.97846107     17.923683      157.76667    
   1334000   1.001321       18.450085      157.66019    
   1335000   0.98875815     18.118371      157.62048    
   1336000   1.0589867      18.573772      157.45806    
   1337000   1.0452118      18.369797      157.33786    
   1338000   0.98493834     18.450429      157.28028    
   1339000   1.004687       18.307123      157.15267    
   1340000   0.99392629     18.101219      156.85926    
   1341000   0.98070803     18.089374      156.75558    
   1342000   0.99009301     17.921847      156.82132    
   1343000   0.9952297      18.776168      156.71508    
   1344000   0.99534239     18.308248      156.7349     
   1345000   1.0170188      18.170573      156.67952    
   1346000   0.97821462     18.360873      156.53094    
   1347000   1.0163181      18.807907      156.54886    
   1348000   0.96291922     18.205534      156.394      
   1349000   0.96870864     17.997086      156.50481    
   1350000   1.0195598      18.47294       156.37488    
   1351000   0.98253281     18.246776      156.25395    
   1352000   1.034562       18.273623      156.22047    
   1353000   0.99256073     18.41893       156.21429    
   1354000   0.98741076     17.527015      156.22121    
   1355000   1.0126513      18.151673      156.08157    
   1356000   0.97629238     18.366347      156.00264    
   1357000   0.99689824     18.076022      155.91742    
   1358000   0.98979739     18.439698      155.96948    
   1359000   1.0138659      17.917606      155.85146    
   1360000   1.0106923      18.532385      155.76863    
   1361000   1.0162944      18.60167       155.80175    
   1362000   0.96651388     18.305712      155.78164    
   1363000   0.97077234     18.840624      155.71809    
   1364000   1.0056211      18.281305      155.51878    
   1365000   1.0302689      17.808721      155.46362    
   1366000   1.044066       18.368424      155.38045    
   1367000   1.0029967      17.997518      155.49184    
   1368000   0.96902756     18.027641      155.53791    
   1369000   1.0160163      18.161953      155.8248     
   1370000   1.0251331      18.183404      155.99135    
   1371000   1.0035081      18.180757      155.99101    
   1372000   1.0096828      18.318395      155.76517    
   1373000   1.0233861      17.778754      155.55529    
   1374000   1.0145249      18.415965      155.74567    
   1375000   1.032725       17.931403      155.75482    
   1376000   0.98178448     18.159792      155.74122    
   1377000   1.0067936      18.418645      155.74489    
   1378000   0.99441116     18.081837      155.74641    
   1379000   0.96830148     18.306974      155.65136    
   1380000   0.94398155     17.926794      155.69919    
   1381000   0.98000769     18.724951      155.73528    
   1382000   1.0118324      18.166447      155.63459    
   1383000   1.0458071      18.579563      155.79237    
   1384000   1.0187862      17.991731      155.73311    
   1385000   0.99420499     18.505209      155.75552    
   1386000   1.0163402      18.55517       155.59005    
   1387000   1.0298288      17.790447      155.43711    
   1388000   1.0010916      18.3025        155.40125    
   1389000   0.97057287     17.804841      155.27121    
   1390000   0.97486236     17.904796      155.03437    
   1391000   0.94062375     17.700521      154.81568    
   1392000   1.019792       17.76097       154.6573     
   1393000   0.99124192     18.786576      154.56046    
   1394000   1.0348297      18.420661      154.47389    
   1395000   0.97242854     18.502886      154.4194     
   1396000   0.98311492     17.641731      154.50642    
   1397000   1.0191398      18.695255      154.21628    
   1398000   1.020021       18.236295      154.20897    
   1399000   1.0098537      18.481829      153.97816    
   1400000   1.0258739      17.999783      154.01974    
   1401000   0.95422627     17.915633      153.76742    
   1402000   0.99139326     18.526677      153.54932    
   1403000   0.99517981     18.157777      153.39453    
   1404000   1.0028662      17.979349      153.41898    
   1405000   1.0227293      18.694633      153.41755    
   1406000   1.032089       17.848671      153.56113    
   1407000   0.98749073     18.601849      153.5751     
   1408000   1.0522236      18.188154      153.41454    
   1409000   0.98337946     18.578893      153.33483    
   1410000   0.99942796     18.230635      153.29051    
   1411000   1.0015163      18.64792       153.04215    
   1412000   1.0062296      18.634946      153.0038     
   1413000   0.9660591      18.61828       152.84509    
   1414000   1.0271505      18.709488      152.83037    
   1415000   0.97707448     18.533509      152.83117    
   1416000   1.036457       18.316296      152.59433    
   1417000   1.0505976      18.308572      152.54488    
   1418000   1.0167855      18.410482      152.32524    
   1419000   1.0630042      18.184399      152.36637    
   1420000   0.99887307     18.304474      152.36489    
   1421000   0.94675305     18.113704      152.26684    
   1422000   1.0222624      18.219308      152.06408    
   1423000   0.99539669     18.221774      152.03617    
   1424000   1.0232011      18.882584      151.83486    
   1425000   0.97733691     18.700559      151.85222    
   1426000   1.0086273      18.214039      151.9028     
   1427000   1.0706847      17.895178      151.99506    
   1428000   0.96781988     17.876946      151.98212    
   1429000   1.0378406      18.225749      151.97067    
   1430000   0.97823568     17.96371       151.73751    
   1431000   0.97494508     18.506863      151.59493    
   1432000   1.0291215      18.376848      151.49636    
   1433000   1.0148407      18.205292      151.15671    
   1434000   0.9771966      18.319158      151.06779    
   1435000   1.0090936      18.37676       151.22092    
   1436000   1.0390141      17.916144      151.1301     
   1437000   1.0102012      18.160961      151.28647    
   1438000   0.99887683     18.349936      151.05916    
   1439000   0.95722689     18.489425      151.02238    
   1440000   1.014133       18.262433      150.99931    
   1441000   0.97649593     18.235878      150.87576    
   1442000   0.98463377     17.989391      150.90384    
   1443000   0.93719935     18.360398      150.87844    
   1444000   0.97238064     18.461717      150.6553     
   1445000   1.0764077      18.341387      150.45577    
   1446000   0.9665362      17.813677      150.61542    
   1447000   1.0281824      18.640191      150.65761    
   1448000   0.98957495     18.035699      150.4298     
   1449000   1.0376388      18.148747      150.29907    
   1450000   1.0008562      18.376356      150.20219    
   1451000   0.98382101     18.631123      149.82896    
   1452000   1.0159695      18.168989      149.43142    
   1453000   1.0101675      18.876093      149.61555    
   1454000   0.95708541     18.280974      149.65018    
   1455000   0.9689042      18.124277      149.59253    
   1456000   0.99358457     18.184481      149.54681    
   1457000   1.0366463      18.298884      149.62266    
   1458000   1.0328261      18.265248      149.77747    
   1459000   0.96682311     18.316301      149.75324    
   1460000   1.0356606      18.820333      149.81606    
   1461000   0.9757281      18.141434      149.84242    
   1462000   1.0107504      17.824091      149.61639    
   1463000   1.0014058      18.212628      149.68914    
   1464000   0.98431469     18.051014      149.68268    
   1465000   0.98180182     18.163479      149.58314    
   1466000   1.0044285      18.517952      149.65891    
   1467000   0.99175673     17.749274      149.69437    
   1468000   0.97764095     17.495119      149.59759    
   1469000   0.97972939     17.863079      149.55412    
   1470000   1.0201288      18.781678      149.59098    
   1471000   1.0320848      18.436947      149.33989    
   1472000   1.0220719      18.364141      149.14968    
   1473000   1.0248744      17.640405      149.0595     
   1474000   0.99031732     18.437517      148.82809    
   1475000   1.0016565      18.029438      148.90703    
   1476000   1.0595401      18.305854      148.9885     
   1477000   1.0090437      17.938495      148.81531    
   1478000   1.0211584      18.109427      148.76612    
   1479000   1.0224208      18.532835      148.58999    
   1480000   0.95860261     18.210874      148.59435    
   1481000   0.99134155     18.392114      148.72982    
   1482000   0.9770095      18.374633      148.33769    
   1483000   1.0427942      18.566211      148.17737    
   1484000   1.0238449      17.943268      148.27903    
   1485000   1.026564       17.600502      148.18312    
   1486000   0.97670378     18.159739      148.27012    
   1487000   0.9819062      18.294927      148.24147    
   1488000   0.98525263     17.611384      148.09083    
   1489000   1.0212989      18.215374      148.08717    
   1490000   1.0125602      18.212687      148.06075    
   1491000   0.98009667     18.236828      147.81933    
   1492000   0.99065229     18.131726      147.70599    
   1493000   0.94135552     18.161764      147.49257    
   1494000   1.0111619      17.779882      147.32786    
   1495000   1.0043111      18.481308      147.20827    
   1496000   0.9891863      18.411509      147.10422    
   1497000   1.0001758      17.939259      147.14604    
   1498000   1.0128645      18.564407      147.22918    
   1499000   1.0167721      18.430361      147.14063    
   1500000   1.0069026      18.526361      147.09567    
   1501000   1.0286759      17.948134      147.01369    
   1502000   1.0000889      17.92154       147.00611    
   1503000   0.98863295     18.44771       146.95839    
   1504000   1.0064006      18.117846      146.84402    
   1505000   0.95548405     18.178622      146.91438    
   1506000   1.006331       18.363016      146.73043    
   1507000   1.0096117      18.290283      146.66288    
   1508000   1.000557       18.192287      146.69094    
   1509000   1.0851471      18.820167      146.33733    
   1510000   1.013094       18.093042      146.421      
   1511000   1.025047       18.007401      146.15827    
   1512000   0.99569343     17.562525      146.05071    
   1513000   0.98638558     18.391337      145.9143     
   1514000   0.96388869     18.321397      145.79081    
   1515000   1.0151212      18.349803      145.74099    
   1516000   1.0058735      18.202377      145.74132    
   1517000   0.98355566     17.712308      145.70434    
   1518000   1.0033975      18.385194      145.77169    
   1519000   0.98176692     18.02458       145.7885     
   1520000   0.98529844     18.106582      145.5897     
   1521000   0.99536068     18.621902      145.39225    
   1522000   1.0593004      18.213921      145.10027    
   1523000   0.99721031     17.966782      145.24041    
   1524000   0.99930977     17.836443      145.08983    
   1525000   1.0074156      18.729971      145.21101    
   1526000   0.97531314     18.374498      145.45153    
   1527000   0.99804269     17.823097      145.51839    
   1528000   0.98592758     18.006093      145.26514    
   1529000   1.0028178      18.477776      145.10434    
   1530000   1.0470809      18.47303       145.15646    
   1531000   1.0005605      17.995829      145.2365     
   1532000   1.0379448      18.156541      145.15611    
   1533000   0.96292991     17.795457      145.15233    
   1534000   1.0025061      18.488434      145.29589    
   1535000   0.99020994     18.513183      145.19243    
   1536000   1.0097134      18.43392       145.06059    
   1537000   0.947524       17.89329       145.05204    
   1538000   1.0462569      18.225792      145.0729     
   1539000   1.027766       18.072539      144.77949    
   1540000   1.0410998      18.054182      144.6685     
   1541000   0.98293207     18.316178      144.69446    
   1542000   1.0137515      18.296334      144.58149    
   1543000   1.003012       18.38098       144.49085    
   1544000   1.0051332      18.084869      144.2978     
   1545000   1.0044184      18.650243      144.16999    
   1546000   0.98015104     18.008534      144.03631    
   1547000   1.0324928      18.311155      144.02283    
   1548000   0.98671591     18.307087      144.10532    
   1549000   1.0815461      18.622233      144.02215    
   1550000   0.97736282     17.686561      143.94036    
   1551000   0.96714118     17.91126       143.99838    
   1552000   1.0083785      18.00339       143.9235     
   1553000   0.99212806     18.57238       143.68672    
   1554000   1.0027453      17.599243      143.50741    
   1555000   1.0002337      18.133135      143.44584    
   1556000   0.99552852     17.931238      143.51321    
   1557000   0.98416168     18.101057      143.19375    
   1558000   0.98572858     18.233608      143.13517    
   1559000   0.99613684     18.288346      143.04608    
   1560000   0.9524212      17.903575      143.00231    
   1561000   0.95277186     17.820241      143.03319    
   1562000   0.9759902      18.410584      143.05889    
   1563000   0.95016187     18.237562      143.18158    
   1564000   0.96472821     17.868127      143.13936    
   1565000   1.0060237      18.432422      142.86334    
   1566000   0.98439657     17.74405       142.56855    
   1567000   0.97715765     17.965236      142.53627    
   1568000   1.0182393      18.212568      142.38245    
   1569000   1.0076555      17.87925       142.30953    
   1570000   1.0330743      18.285131      142.38247    
   1571000   0.9912214      17.94026       142.24955    
   1572000   0.97408618     18.138171      142.16829    
   1573000   1.0471264      18.962219      141.93801    
   1574000   1.0447963      18.838447      141.79178    
   1575000   0.96817334     17.994348      141.72       
   1576000   1.0224366      17.783377      141.6307     
   1577000   1.0178117      18.482129      141.44772    
   1578000   1.0150647      18.317129      141.36014    
   1579000   1.0135366      17.900061      141.37242    
   1580000   0.99257265     18.264768      141.39578    
   1581000   1.0472598      18.522532      141.40625    
   1582000   1.0306169      18.091221      141.29641    
   1583000   0.96257062     18.229684      141.29174    
   1584000   1.0304541      18.222001      141.41275    
   1585000   0.96829403     17.859826      141.42214    
   1586000   0.99452219     18.220239      141.51635    
   1587000   0.99259192     17.905007      141.70725    
   1588000   0.96829181     18.053408      141.65868    
   1589000   1.0132816      18.518398      141.6366     
   1590000   1.0596761      18.47835       141.56032    
   1591000   0.97587587     18.43125       141.26558    
   1592000   1.0047921      18.312148      141.26649    
   1593000   0.98357172     18.097841      141.05377    
   1594000   0.99341485     18.390495      140.74737    
   1595000   0.99005484     18.197106      140.57158    
   1596000   1.0179375      17.729154      140.52837    
   1597000   0.99723578     18.02612       140.47537    
   1598000   1.0219424      18.142422      140.26946    
   1599000   1.0118958      18.366072      140.16795    
   1600000   1.0201758      17.592701      140.18841    
   1601000   1.0114103      18.146768      140.27371    
   1602000   1.0007934      18.665861      140.08548    
   1603000   0.98390523     18.170475      140.24956    
   1604000   0.99662638     18.738807      140.29357    
   1605000   1.0267857      17.831555      140.28298    
   1606000   1.0130296      18.240195      140.40715    
   1607000   0.9897761      17.811469      140.50891    
   1608000   0.96777163     17.970751      140.41436    
   1609000   1.0184258      18.157388      140.29687    
   1610000   1.0028237      18.411865      140.51721    
   1611000   1.001374       18.373727      140.55339    
   1612000   1.0210437      17.938087      140.55795    
   1613000   1.0594065      18.441693      140.5252     
   1614000   1.0319339      17.936035      140.47999    
   1615000   0.96719151     17.598084      140.55419    
   1616000   0.98032053     17.840206      140.36759    
   1617000   0.98877912     17.868546      140.29302    
   1618000   0.98297032     18.252384      140.0937     
   1619000   1.0053373      18.043817      140.02532    
   1620000   0.97152422     18.272603      140.05066    
   1621000   0.99653276     18.321824      140.13334    
   1622000   1.0359198      17.873372      140.36084    
   1623000   1.0075623      18.543474      140.33526    
   1624000   1.028555       18.906381      140.60404    
   1625000   1.0231376      17.751269      140.72669    
   1626000   1.0049051      18.505911      140.65737    
   1627000   1.0424287      17.641065      140.56447    
   1628000   1.0055493      18.351804      140.41741    
   1629000   0.97551765     17.804832      140.39356    
   1630000   1.0026604      18.371667      140.72365    
   1631000   1.0265975      18.255614      140.75444    
   1632000   0.98363907     17.60974       140.87435    
   1633000   1.0065123      18.707514      140.75925    
   1634000   0.97989528     18.28769       140.43293    
   1635000   1.0111416      18.283404      140.57814    
   1636000   0.97152562     18.568389      140.62461    
   1637000   1.013878       17.959478      140.59926    
   1638000   1.0333081      17.875965      140.53265    
   1639000   1.0426431      17.991618      140.40987    
   1640000   0.94234533     18.690397      140.62749    
   1641000   0.97412154     18.087099      140.42902    
   1642000   1.0021583      17.638022      140.29435    
   1643000   0.99804795     17.982679      140.22705    
   1644000   1.0049004      18.114584      140.23792    
   1645000   0.98618554     17.950833      139.92737    
   1646000   1.0114936      18.058243      139.78903    
   1647000   0.99963713     18.41525       139.78604    
   1648000   1.0330413      18.881446      139.73515    
   1649000   1.0075822      18.357124      139.70854    
   1650000   1.0172303      17.847407      139.6352     
   1651000   0.95607737     18.223204      139.60113    
   1652000   1.0081899      18.678458      139.2977     
   1653000   1.0038508      17.866198      139.22715    
   1654000   1.0297486      18.458088      138.84708    
   1655000   1.0097306      18.020861      138.9193     
   1656000   1.0079169      18.145052      138.90477    
   1657000   0.99713931     18.145001      138.75852    
   1658000   1.0287381      18.058794      138.66725    
   1659000   1.0164882      18.587601      138.54173    
   1660000   1.0183765      17.962248      138.66547    
   1661000   0.98679809     18.14543       138.73075    
   1662000   0.94991812     17.997473      138.65894    
   1663000   0.99428846     18.37086       138.43023    
   1664000   0.9961878      18.030657      138.17356    
   1665000   0.99712307     18.072243      138.02416    
   1666000   0.96960978     18.343324      137.88718    
   1667000   0.99065957     18.013923      137.95006    
   1668000   0.98387045     18.039564      137.88112    
   1669000   0.99242263     18.447613      137.64451    
   1670000   0.99071003     18.210173      137.84129    
   1671000   1.0128664      17.892651      137.73542    
   1672000   1.0304673      18.390344      137.45885    
   1673000   0.97151754     18.426651      137.37768    
   1674000   0.97713812     18.010554      137.26337    
   1675000   1.036991       18.506569      136.93254    
   1676000   1.0227997      18.169483      136.88855    
   1677000   1.023512       18.564459      136.75682    
   1678000   1.0124634      18.36376       136.94729    
   1679000   1.029417       18.088355      136.70637    
   1680000   1.0599156      18.173853      136.41998    
   1681000   1.0138517      18.040466      136.23627    
   1682000   1.0159767      17.788493      136.20485    
   1683000   0.94103242     17.832365      136.24728    
   1684000   0.96341617     18.088201      136.15596    
   1685000   0.99447072     17.709691      135.91927    
   1686000   1.010201       18.440453      135.89224    
   1687000   1.0317359      18.221431      135.89516    
   1688000   1.0267081      18.261291      135.7345     
   1689000   1.0137376      18.175973      135.68689    
   1690000   0.993743       18.510443      135.64114    
   1691000   1.0185173      18.925375      135.76965    
   1692000   0.93347667     18.200352      135.54287    
   1693000   0.99720601     18.063589      135.46342    
   1694000   1.0176708      17.514811      135.37921    
   1695000   1.0038144      17.587174      135.4337     
   1696000   1.0503362      18.226316      135.39527    
   1697000   1.0045761      18.094237      135.24636    
   1698000   0.94497168     18.582372      135.04958    
   1699000   0.9998673      18.169506      135.14357    
   1700000   1.0120079      18.406735      135.06251    
   1701000   1.0015911      17.933832      134.98587    
   1702000   1.0059271      18.055969      134.72757    
   1703000   0.96396523     17.552878      134.60668    
   1704000   1.0104966      17.571834      134.35136    
   1705000   1.0048958      17.936255      134.38354    
   1706000   0.99685728     17.820651      134.39173    
   1707000   1.0424362      18.221731      134.16498    
   1708000   0.99374032     17.784754      134.12337    
   1709000   0.94288408     17.8094        134.04799    
   1710000   1.003263       18.265126      133.76565    
   1711000   1.021208       18.527886      133.79294    
   1712000   0.99867044     18.338066      133.81632    
   1713000   1.025641       17.786309      133.82742    
   1714000   0.98936959     18.154984      134.00894    
   1715000   1.0136297      18.506473      134.01424    
   1716000   0.99374096     17.887196      133.75701    
   1717000   1.0144075      18.031718      133.89568    
   1718000   1.0149951      17.882644      134.03203    
   1719000   1.0298385      18.345326      133.95074    
   1720000   0.94476799     17.914852      133.87454    
   1721000   0.99932061     17.865115      133.70429    
   1722000   1.0033649      18.131822      133.65483    
   1723000   0.98610571     18.085661      133.56392    
   1724000   1.0373064      18.198129      133.50958    
   1725000   1.0317098      18.123103      133.43641    
   1726000   1.004432       18.627124      133.34928    
   1727000   1.0164159      18.265491      133.16172    
   1728000   0.99536813     17.905702      133.15426    
   1729000   1.0040597      18.320512      133.01828    
   1730000   1.0317729      18.585564      133.05527    
   1731000   1.0239344      18.217473      133.00258    
   1732000   0.9897347      17.971693      133.01104    
   1733000   0.99155047     18.109126      133.05516    
   1734000   1.0224425      17.999408      133.07203    
   1735000   1.0271113      18.29301       133.19605    
   1736000   1.0018261      17.980676      133.29154    
   1737000   1.0094011      18.233663      133.3877     
   1738000   1.0161609      17.929827      133.17499    
   1739000   1.0431782      18.163156      133.03498    
   1740000   1.0201746      17.96791       132.81796    
   1741000   0.99922026     18.083665      132.82653    
   1742000   0.98053314     18.218967      132.96944    
   1743000   1.0221552      18.299745      133.11928    
   1744000   1.0538661      17.876643      133.13173    
   1745000   0.98399624     17.845608      133.02805    
   1746000   1.0406468      18.227834      133.02234    
   1747000   0.94786004     17.695517      133.10044    
   1748000   1.0391034      17.687149      133.20235    
   1749000   0.9827535      17.6934        133.34018    
   1750000   0.99276123     18.235182      133.30291    
   1751000   0.98572512     18.357211      133.37365    
   1752000   0.98959536     17.835122      133.46942    
   1753000   0.97293493     17.953221      133.2559     
   1754000   0.99981551     18.241694      133.12134    
   1755000   1.0244906      18.295741      133.05286    
   1756000   0.98315787     17.988596      132.84471    
   1757000   0.98899468     18.131257      132.79942    
   1758000   0.98256533     18.153437      132.83993    
   1759000   1.0208694      18.311038      132.9654     
   1760000   0.98067448     18.437779      132.62216    
   1761000   1.0215789      18.248162      132.41072    
   1762000   0.98347906     18.014813      132.50888    
   1763000   0.96990684     17.973301      132.57566    
   1764000   0.99526962     17.583023      132.64389    
   1765000   0.96684337     17.753224      132.42343    
   1766000   0.93368221     18.173883      132.46848    
   1767000   1.0373194      17.820484      132.47323    
   1768000   1.0129781      17.646507      132.4436     
   1769000   0.99240242     17.952619      132.35519    
   1770000   0.99298936     18.214329      132.19308    
   1771000   1.0129988      17.887604      131.94959    
   1772000   0.98818615     18.21779       131.94813    
   1773000   0.98368687     18.149544      131.94304    
   1774000   0.99989152     18.28971       131.77233    
   1775000   1.0066156      17.971365      131.56866    
   1776000   1.0132538      18.801884      131.54099    
   1777000   0.97995335     18.276267      131.23056    
   1778000   1.009665       18.537005      131.35458    
   1779000   0.98469354     18.556869      131.45259    
   1780000   1.0322945      18.856496      131.27158    
   1781000   1.0084481      18.371472      131.26144    
   1782000   1.0194297      18.297056      131.09023    
   1783000   0.96657481     17.880814      131.05656    
   1784000   1.0016985      18.204676      131.02098    
   1785000   1.025085       18.307708      130.99162    
   1786000   0.99162726     17.717144      130.92543    
   1787000   0.97143417     17.66391       130.786      
   1788000   0.97305493     17.838631      130.82575    
   1789000   1.012374       18.101226      130.80962    
   1790000   1.0322156      18.333081      130.77158    
   1791000   0.99613609     18.059053      130.45792    
   1792000   1.0109595      18.630545      130.30152    
   1793000   1.0104638      18.052053      129.92621    
   1794000   1.0143046      18.139426      129.73246    
   1795000   1.033303       17.948615      129.63233    
   1796000   0.97112272     18.123847      129.63669    
   1797000   0.99722858     17.999842      129.71392    
   1798000   0.95853664     18.124523      129.54093    
   1799000   1.0291924      18.637382      129.61364    
   1800000   0.98150288     17.982488      129.74707    
   1801000   0.99037076     18.063836      129.89386    
   1802000   1.0018307      17.995642      129.77478    
   1803000   0.99757537     18.398735      129.68155    
   1804000   1.0087282      18.011628      129.8525     
   1805000   1.0065318      18.068479      129.86919    
   1806000   0.98185089     18.125003      129.82178    
   1807000   1.0124875      17.595755      129.80298    
   1808000   1.0376471      18.18096       129.57704    
   1809000   0.98023242     18.00738       129.62669    
   1810000   0.98548209     17.975086      129.47955    
   1811000   1.0213215      18.431925      129.67552    
   1812000   1.0423056      17.714313      129.61283    
   1813000   0.97554928     18.047633      129.5375     
   1814000   1.0054047      17.923312      129.24768    
   1815000   1.0279602      18.206229      129.25295    
   1816000   1.0489546      18.447092      129.13944    
   1817000   0.99462269     18.128199      129.15577    
   1818000   1.0617102      18.177195      129.37904    
   1819000   0.98794956     18.229155      129.27762    
   1820000   0.99457094     18.055779      129.39456    
   1821000   1.0065596      18.490218      129.46432    
   1822000   0.99596196     18.391912      129.51841    
   1823000   0.97418387     18.365717      129.31332    
   1824000   0.98665641     18.142343      129.26056    
   1825000   1.0476608      18.180738      128.99874    
   1826000   0.97460906     18.042058      128.76979    
   1827000   0.99305978     18.471302      128.64773    
   1828000   1.0116436      18.454697      128.66554    
   1829000   1.033168       17.989308      128.82814    
   1830000   1.043548       17.73785       128.91253    
   1831000   1.0089018      18.263599      129.02745    
   1832000   1.0543711      18.104331      128.98738    
   1833000   1.0357681      17.889105      128.95487    
   1834000   1.0118802      18.186851      129.08561    
   1835000   1.0239902      18.361457      128.90659    
   1836000   0.92549779     17.625839      128.86514    
   1837000   1.0034396      18.001058      128.86834    
   1838000   1.0637815      18.701005      128.93004    
   1839000   0.99680716     17.564739      128.82668    
   1840000   0.99371914     17.968437      128.70127    
   1841000   0.98952293     17.803559      128.57214    
   1842000   0.98300583     17.524636      128.60951    
   1843000   1.0050988      18.247921      128.5121     
   1844000   0.99413008     17.947711      128.38889    
   1845000   1.0161457      18.106897      128.10656    
   1846000   1.0118661      18.224848      127.97289    
   1847000   1.0344855      18.246635      127.84494    
   1848000   0.99789454     18.425486      127.58571    
   1849000   0.99616484     17.933949      127.52026    
   1850000   0.99384645     17.851839      127.37411    
   1851000   1.0129051      18.330132      127.23979    
   1852000   1.0120543      18.018141      127.03632    
   1853000   0.97180986     17.982469      126.89984    
   1854000   1.0351043      18.004003      126.80525    
   1855000   1.0223963      18.006727      126.68822    
   1856000   1.0219272      18.161801      126.43736    
   1857000   1.0251319      18.133204      126.24392    
   1858000   1.0022614      18.032591      126.325      
   1859000   1.0262929      18.508491      126.37223    
   1860000   1.0589768      18.380221      126.22142    
   1861000   1.019141       18.007186      126.05206    
   1862000   1.0076633      18.078821      125.88345    
   1863000   0.97861452     17.574994      125.63014    
   1864000   0.98946937     17.786516      125.53459    
   1865000   0.99047748     17.918545      125.58597    
   1866000   1.0628393      18.287473      125.50695    
   1867000   1.0778543      17.730658      125.40591    
   1868000   1.0057185      17.916944      125.31381    
   1869000   1.0318339      17.992498      125.14054    
   1870000   0.98493043     17.702322      124.86137    
   1871000   1.0171801      18.256622      124.69916    
   1872000   0.97831989     18.03481       124.66368    
   1873000   1.0256307      17.977774      124.49675    
   1874000   0.98562969     18.325502      124.35826    
   1875000   0.98985901     17.543067      124.33212    
   1876000   1.0247551      17.56782       124.19519    
   1877000   0.99290195     18.296024      124.13508    
   1878000   1.012809       17.734027      123.9127     
   1879000   0.97119178     18.252931      123.88435    
   1880000   1.046578       18.081714      124.10157    
   1881000   0.98876373     18.103777      124.17883    
   1882000   1.0405567      17.909978      123.96534    
   1883000   0.98394842     18.081381      123.8282     
   1884000   0.98304278     18.23137       123.92532    
   1885000   0.9939447      17.927147      123.99752    
   1886000   0.98763443     18.241192      124.10556    
   1887000   0.9690451      17.76895       123.90481    
   1888000   1.0613367      17.961842      123.80027    
   1889000   0.97518794     18.127612      123.63259    
   1890000   0.9754049      17.721833      123.48791    
   1891000   1.0485053      18.20403       123.64022    
   1892000   0.99582181     17.927653      123.76447    
   1893000   1.0357678      18.08799       124.032      
   1894000   1.004728       17.890966      124.01005    
   1895000   0.99600822     18.043101      123.88152    
   1896000   0.96663131     18.156086      123.75092    
   1897000   0.97168963     17.793097      123.65838    
   1898000   1.0389364      18.744117      123.63609    
   1899000   0.97037551     18.272808      123.46144    
   1900000   1.0035488      17.777315      123.33519    
   1901000   0.97340925     17.979196      123.26092    
   1902000   1.0028676      17.996519      123.22649    
   1903000   0.98567455     17.693135      123.15123    
   1904000   1.0093105      17.732331      123.15965    
   1905000   0.96995916     17.824121      122.9147     
   1906000   0.94257772     18.261508      122.80236    
   1907000   0.99710434     17.917241      122.78073    
   1908000   0.97603091     18.074956      122.52567    
   1909000   0.98806309     17.841592      122.27424    
   1910000   1.016408       17.762833      122.30536    
   1911000   0.99898757     17.860165      122.28786    
   1912000   1.0119359      18.390959      122.24704    
   1913000   0.99423894     18.483999      122.17763    
   1914000   0.99964552     18.448215      121.98981    
   1915000   1.0070309      17.904485      121.56214    
   1916000   0.96006654     17.818857      121.51578    
   1917000   1.0032088      18.396461      121.65134    
   1918000   1.0181036      17.971812      121.82771    
   1919000   0.98923517     17.973319      121.81742    
   1920000   1.017467       17.688197      121.84496    
   1921000   0.9740208      17.785609      121.94165    
   1922000   0.99239873     18.401676      121.78066    
   1923000   1.0171421      17.689581      121.57222    
   1924000   1.0041068      18.006597      121.60928    
   1925000   1.0257101      18.034417      121.50889    
   1926000   1.0150944      18.52567       121.57257    
   1927000   0.97295373     17.915714      121.53675    
   1928000   1.0384198      17.76137       121.36118    
   1929000   0.96928051     18.087378      121.06491    
   1930000   0.98732079     17.58839       121.02457    
   1931000   1.05233        18.278812      120.91291    
   1932000   0.9421511      17.818411      121.0494     
   1933000   1.0396305      18.124969      120.89543    
   1934000   1.0449055      18.004328      120.78197    
   1935000   1.0200635      17.79109       120.62452    
   1936000   0.9937904      18.105835      120.77145    
   1937000   0.96661187     18.149356      120.75655    
   1938000   0.99735933     18.246043      120.69009    
   1939000   1.0167042      18.010141      120.78049    
   1940000   1.0081658      18.212955      120.71471    
   1941000   0.97219768     18.278761      120.67561    
   1942000   0.96882008     17.913715      120.35591    
   1943000   0.97593229     17.440466      120.37625    
   1944000   0.99656727     17.905473      120.3179     
   1945000   0.93605116     17.355436      119.94146    
   1946000   0.96905768     17.951113      119.92226    
   1947000   1.0390955      18.473158      119.81837    
   1948000   1.0011965      17.812014      119.89169    
   1949000   1.0437588      17.947162      119.99352    
   1950000   0.99332535     18.55607       119.80094    
   1951000   1.0014859      18.235283      119.7365     
   1952000   1.0531879      17.92352       119.73075    
   1953000   1.0027517      17.92923       119.76837    
   1954000   0.99369314     17.903282      119.73292    
   1955000   1.0278601      17.820727      119.55234    
   1956000   0.99512102     18.443245      119.41464    
   1957000   0.99794995     18.030332      119.53322    
   1958000   1.0336905      17.831405      119.62477    
   1959000   0.99964421     17.50687       119.41614    
   1960000   1.0013485      17.331411      119.40466    
   1961000   0.9442944      17.583243      119.37316    
   1962000   1.0381651      18.067212      119.24604    
   1963000   1.0769944      18.060884      119.20185    
   1964000   0.99826899     18.380655      119.16192    
   1965000   0.98139916     18.103557      118.97129    
   1966000   0.96203353     18.099798      118.95394    
   1967000   0.95897084     17.984102      118.93541    
   1968000   1.0246155      18.233755      118.88617    
   1969000   0.99124822     17.292869      118.83592    
   1970000   1.0138977      18.490954      119.09104    
   1971000   1.0008682      18.098423      119.09471    
   1972000   1.0370792      17.925094      119.22121    
   1973000   1.0288747      17.831275      119.14035    
   1974000   1.0255057      17.901408      119.06176    
   1975000   1.0276292      18.13397       118.92063    
   1976000   0.99409145     17.939801      118.89732    
   1977000   0.99764757     18.129748      119.03101    
   1978000   1.0045215      18.733812      119.02935    
   1979000   1.0240959      18.249786      118.93134    
   1980000   0.99735178     17.628748      118.67612    
   1981000   0.99674748     18.003994      118.73729    
   1982000   0.96626412     17.642966      118.83691    
   1983000   1.0194151      18.329649      118.50469    
   1984000   0.97079426     17.624448      118.5487     
   1985000   0.97707503     17.306225      118.53269    
   1986000   1.0030565      17.850783      118.2711     
   1987000   1.0028139      17.985493      118.39647    
   1988000   1.026639       18.3102        118.19052    
   1989000   1.0068965      17.804115      117.99203    
   1990000   1.037598       18.335844      118.08649    
   1991000   0.98927451     18.136615      117.93826    
   1992000   1.0078467      18.178059      117.80712    
   1993000   1.0153835      18.377555      117.54705    
   1994000   0.99281263     18.262115      117.3912     
   1995000   1.0139645      18.019363      117.39975    
   1996000   0.99647331     18.236896      117.31663    
   1997000   1.0230518      18.076672      117.29143    
   1998000   1.004439       18.106379      116.90757    
   1999000   1.0135002      18.663091      116.93101    
   2000000   0.99580748     17.703484      117.18521    
   2001000   1.0055952      17.614699      117.22019    
   2002000   1.0110869      17.763247      117.07034    
   2003000   1.0128057      18.418809      116.96299    
   2004000   1.0080835      18.440537      116.72977    
   2005000   1.016622       17.695503      116.60493    
   2006000   1.0380551      18.197584      116.29949    
   2007000   1.0330618      17.876775      115.97025    
   2008000   1.0152604      18.104518      115.70628    
   2009000   1.0179399      18.341708      115.6303     
   2010000   1.0199446      17.706357      115.60687    
   2011000   0.9562396      17.994312      115.546      
   2012000   0.99991695     17.714664      115.42684    
   2013000   1.0123486      17.828448      115.24368    
   2014000   1.018656       18.271862      115.3986     
   2015000   1.0278344      18.049495      115.58924    
   2016000   1.0362529      18.574942      115.62916    
   2017000   1.0070855      18.694766      115.52281    
   2018000   1.0164219      18.166148      115.71852    
   2019000   1.033362       18.416456      115.68234    
   2020000   0.97687078     17.844371      115.63034    
   2021000   1.0064962      18.30641       115.57271    
   2022000   0.98708938     17.56655       115.46954    
   2023000   0.94610667     17.472022      115.51959    
   2024000   1.0122743      17.638509      115.48937    
   2025000   0.97534768     17.836585      115.54406    
   2026000   0.9757727      17.929949      115.60638    
   2027000   1.0319132      17.851677      115.53775    
   2028000   0.99981056     17.675199      115.40742    
   2029000   0.98834713     18.257613      115.05431    
   2030000   0.97782128     17.80258       114.94977    
   2031000   0.9972995      18.300314      115.0238     
   2032000   0.96723546     18.061313      114.83123    
   2033000   1.0066025      17.286402      114.71756    
   2034000   0.96877387     17.860334      114.40047    
   2035000   1.0202424      18.146606      114.39848    
   2036000   0.96808105     17.807119      114.35323    
   2037000   1.0166711      18.213888      114.32778    
   2038000   1.009696       18.231992      114.15093    
   2039000   0.98199533     17.904116      114.06115    
   2040000   1.0154362      18.153637      114.02546    
   2041000   1.0172022      17.868027      114.01549    
   2042000   1.0148409      17.596793      113.84045    
   2043000   0.96323649     17.466066      113.68083    
   2044000   1.0132327      17.735103      113.52397    
   2045000   0.99390549     18.261698      113.43903    
   2046000   0.93806404     18.705691      113.48107    
   2047000   1.0028775      18.311697      113.38672    
   2048000   0.97694315     18.013454      113.28382    
   2049000   1.0466515      17.969821      113.19544    
   2050000   1.0758117      17.969408      113.20654    
   2051000   1.0358047      18.215974      113.09466    
   2052000   1.0254003      18.024705      113.16503    
   2053000   1.0323204      18.344603      113.4018     
   2054000   0.99799388     18.639674      113.53447    
   2055000   1.0234955      18.199843      113.74941    
   2056000   0.99820752     18.35575       113.64543    
   2057000   1.0483005      18.349089      113.65253    
   2058000   0.99664555     18.475939      113.6282     
   2059000   0.9784355      17.852902      113.37379    
   2060000   1.0022766      18.094083      113.3014     
   2061000   1.0177944      18.086695      113.27055    
   2062000   1.0177234      17.796434      113.00729    
   2063000   0.96246077     17.718728      112.59547    
   2064000   0.9718111      18.236749      112.56358    
   2065000   1.0077637      17.89761       112.3995     
   2066000   1.0423674      18.096238      112.20402    
   2067000   0.97176187     17.568271      112.28591    
   2068000   0.97963782     17.84806       112.09413    
   2069000   0.99473824     17.936689      112.00153    
   2070000   1.0090557      18.065401      111.91969    
   2071000   0.99146475     18.11382       111.98115    
   2072000   1.0134446      18.528364      112.02341    
   2073000   0.99510515     18.335138      111.99995    
   2074000   0.98656796     18.609693      111.96266    
   2075000   0.99967598     18.400249      111.66574    
   2076000   0.97776372     17.640386      111.67161    
   2077000   1.0119487      18.451159      111.69939    
   2078000   0.99812366     17.960129      111.71852    
   2079000   0.99001283     18.292373      111.52963    
   2080000   1.0114582      17.923976      111.32166    
   2081000   0.97606445     17.573841      111.24189    
   2082000   0.95639844     18.065248      111.10302    
   2083000   0.97771678     18.084326      111.05581    
   2084000   0.94442219     17.465967      110.71676    
   2085000   0.98051295     18.264166      110.46279    
   2086000   1.0022818      17.521154      110.49828    
   2087000   1.0499493      17.799528      110.3058     
   2088000   1.0204491      18.532584      110.04272    
   2089000   0.976462       17.609752      110.16107    
   2090000   1.0183355      18.076153      110.01611    
   2091000   1.0319618      17.551138      109.78363    
   2092000   1.0161149      18.582081      109.63155    
   2093000   0.99416882     17.894861      109.53197    
   2094000   0.99875854     17.806794      109.42026    
   2095000   0.96304889     17.626739      109.42684    
   2096000   1.0134898      17.987987      109.47327    
   2097000   1.0352714      18.485879      109.47295    
   2098000   1.0095133      18.020645      109.44488    
   2099000   0.9773349      17.577131      109.53347    
   2100000   1.0238006      17.662305      109.39656    
   2101000   0.97656367     17.865489      109.27704    
   2102000   1.02673        18.321206      109.07625    
   2103000   0.99174373     18.081225      108.94218    
   2104000   1.0068368      17.64804       108.70332    
   2105000   0.95715779     17.736862      108.79225    
   2106000   0.98025255     17.345354      108.8746     
   2107000   1.0252338      18.310708      108.93501    
   2108000   1.0007348      17.922851      108.78198    
   2109000   0.98820417     18.105992      108.71155    
   2110000   1.0230803      17.880366      108.48873    
   2111000   0.99643781     18.117959      108.6606     
   2112000   0.97771101     17.812415      108.65757    
   2113000   0.99757324     18.08488       108.57281    
   2114000   1.0209554      17.633271      108.53673    
   2115000   0.97650399     17.472166      108.33609    
   2116000   0.97416521     18.426091      108.26238    
   2117000   1.0150545      17.889055      108.1559     
   2118000   1.0346443      17.999947      108.05199    
   2119000   0.98799701     17.684343      107.88483    
   2120000   1.0254894      18.243229      107.79685    
   2121000   0.97328326     17.264997      107.51392    
   2122000   1.0100248      17.617667      107.27947    
   2123000   0.97665813     17.825807      107.24262    
   2124000   1.0063876      17.983728      107.04996    
   2125000   1.0038444      18.633538      106.92848    
   2126000   1.0129536      18.337665      106.75231    
   2127000   1.0030181      17.718118      106.73026    
   2128000   0.99569185     17.933456      106.8111     
   2129000   0.97540251     17.676226      106.88364    
   2130000   1.0066191      18.189311      106.71454    
   2131000   1.0207934      17.817208      106.78108    
   2132000   0.95072861     17.806662      106.80713    
   2133000   1.0482677      18.309004      106.65403    
   2134000   0.97496508     17.90216       106.60711    
   2135000   0.97783145     17.602466      106.624      
   2136000   0.98349997     17.828115      106.34917    
   2137000   1.0371749      17.907623      106.18312    
   2138000   1.0227514      18.016564      106.13582    
   2139000   0.9418935      18.473589      106.09769    
   2140000   1.0132668      17.623346      105.94486    
   2141000   1.0206464      18.412092      105.67864    
   2142000   0.97845888     17.823656      105.41965    
   2143000   1.0091559      17.867433      105.29597    
   2144000   0.98626904     18.005079      105.21029    
   2145000   1.0096404      17.94254       104.92931    
   2146000   0.98318185     17.999554      105.05365    
   2147000   1.000995       18.133773      104.79719    
   2148000   1.0222124      17.867558      104.83292    
   2149000   1.0232648      17.362263      104.87355    
   2150000   1.0164293      17.75384       104.92158    
   2151000   1.0273967      18.04591       105.04012    
   2152000   1.0029271      17.309478      105.04678    
   2153000   0.97346284     17.655605      104.9714     
   2154000   1.0119237      18.117528      104.81083    
   2155000   1.0080109      18.068606      104.84616    
   2156000   1.0087366      17.24974       104.64503    
   2157000   1.007239       17.894694      104.79746    
   2158000   1.0673359      18.276649      104.5371     
   2159000   0.98854809     17.847664      104.44943    
   2160000   1.0023688      17.948028      104.4959     
   2161000   1.0200918      17.792828      104.39722    
   2162000   0.99855629     17.590083      104.31511    
   2163000   1.0098645      17.835119      104.50103    
   2164000   1.0040768      18.138434      104.46768    
   2165000   0.97623508     17.633145      104.29647    
   2166000   0.96117459     17.726816      104.2107     
   2167000   0.97141214     18.285415      104.14038    
   2168000   0.9793801      18.076789      103.99714    
   2169000   0.95950283     17.795578      103.74132    
   2170000   1.0129411      18.237296      103.61217    
   2171000   1.0257862      17.968499      103.55268    
   2172000   0.99550826     18.512993      103.77082    
   2173000   0.97471377     17.519169      103.53202    
   2174000   1.0421184      17.554568      103.23466    
   2175000   0.98270188     17.924674      103.01039    
   2176000   1.0356791      17.832732      103.05213    
   2177000   0.96871908     18.251712      102.94748    
   2178000   1.0172982      17.673297      102.96675    
   2179000   0.99218822     17.702154      103.05921    
   2180000   1.0009085      18.076579      102.99558    
   2181000   1.0120772      18.31383       103.01889    
   2182000   0.94858622     17.735004      102.77231    
   2183000   1.0610757      18.153934      102.8651     
   2184000   1.0005322      17.730462      102.97051    
   2185000   0.98630173     18.034435      102.67794    
   2186000   0.98389929     17.839672      102.76811    
   2187000   1.0024268      17.888638      102.96277    
   2188000   1.0275461      18.265564      102.80538    
   2189000   1.0291493      18.565506      102.54739    
   2190000   0.98810916     17.926817      102.46829    
   2191000   1.0253812      17.916647      102.24619    
   2192000   1.0068488      17.83576       102.2228     
   2193000   0.98218162     17.67371       102.11142    
   2194000   0.96905578     17.406391      102.25365    
   2195000   0.9748983      17.969367      102.09852    
   2196000   1.008631       18.15591       101.95142    
   2197000   0.97645661     17.316621      101.78608    
   2198000   0.99934237     17.726444      101.77751    
   2199000   0.98257415     17.555958      101.98618    
   2200000   0.98041075     18.042845      101.78914    
   2201000   1.002236       17.751887      101.69744    
   2202000   1.0345246      17.986441      101.58968    
   2203000   1.0233545      18.126864      101.60845    
   2204000   1.0385932      17.755949      101.47935    
   2205000   0.98313971     18.016716      101.55175    
   2206000   0.99128153     17.964156      101.58754    
   2207000   0.97643086     18.032031      101.3272     
   2208000   1.0192644      17.907142      101.37509    
   2209000   0.97705447     18.286049      101.30098    
   2210000   1.0087425      17.941651      101.10187    
   2211000   1.0143313      18.32333       101.02838    
   2212000   0.96970844     18.066714      101.1215     
   2213000   1.0244121      17.657821      101.13139    
   2214000   0.98831889     18.471597      101.0764     
   2215000   1.0321762      17.611903      100.8138     
   2216000   0.98390689     17.926423      100.7576     
   2217000   1.0361042      17.954057      100.83727    
   2218000   1.0543515      18.4119        100.70654    
   2219000   1.0493746      18.013198      100.72606    
   2220000   1.0216549      17.904554      100.54523    
   2221000   1.0106474      17.916791      100.16822    
   2222000   1.0208994      18.067884      99.764375    
   2223000   0.96721628     17.746912      99.759667    
   2224000   0.96532312     17.74021       99.837628    
   2225000   1.0326918      18.322165      99.813127    
   2226000   0.99905789     18.033654      99.71399     
   2227000   1.0004774      18.004237      99.60934     
   2228000   0.99713752     17.971966      99.676323    
   2229000   1.0040789      17.937834      99.755661    
   2230000   0.93264061     17.727865      99.788563    
   2231000   1.0193115      17.290651      99.484002    
   2232000   0.98763892     17.646771      99.475872    
   2233000   0.94301293     18.325712      99.44705     
   2234000   0.96283292     18.223301      99.262468    
   2235000   0.98989006     17.996781      99.260039    
   2236000   0.99795964     17.866113      99.018779    
   2237000   1.0250795      18.447897      99.009037    
   2238000   0.99041484     17.802328      98.873101    
   2239000   0.94719869     17.908515      98.795984    
   2240000   1.0242932      17.777708      98.917204    
   2241000   0.98055297     17.700067      98.625869    
   2242000   1.0301922      17.819157      98.466547    
   2243000   0.96958595     17.814329      98.419875    
   2244000   1.0104058      17.8004        98.410751    
   2245000   0.98862074     17.824442      98.277009    
   2246000   1.0152171      18.163989      98.181342    
   2247000   1.0109414      18.288262      98.219961    
   2248000   1.0200602      17.62403       98.195651    
   2249000   1.0369068      17.924656      98.198119    
   2250000   1.0347895      18.593238      98.025117    
   2251000   1.025853       17.65389       97.860482    
   2252000   1.0272772      17.903159      97.697888    
   2253000   1.0110841      17.607229      97.752924    
   2254000   1.0340545      18.000793      97.691975    
   2255000   1.0090476      18.159104      97.661798    
   2256000   0.99607754     18.596621      97.671989    
   2257000   1.0111787      17.918588      97.647296    
   2258000   1.0014634      17.763416      97.545294    
   2259000   0.98865305     17.826334      97.442766    
   2260000   0.967887       17.57498       97.323437    
   2261000   1.010449       17.749816      97.274662    
   2262000   0.9688814      17.956477      97.114984    
   2263000   0.98022983     18.221384      96.955027    
   2264000   0.99860597     17.400449      96.927678    
   2265000   1.0097227      18.271189      96.886828    
   2266000   0.97816244     17.450516      96.862391    
   2267000   1.0136578      18.043715      96.789715    
   2268000   1.0331463      17.754753      96.704414    
   2269000   1.0345485      18.221131      96.55554     
   2270000   0.99959163     17.302166      96.775251    
   2271000   1.0031844      18.29139       96.801234    
   2272000   0.94826569     17.801808      96.688592    
   2273000   1.0400184      17.942437      96.516092    
   2274000   0.99383486     17.803316      96.557214    
   2275000   1.0261257      18.079114      96.564301    
   2276000   1.0062534      18.386413      96.538754    
   2277000   1.0220827      17.767298      96.575868    
   2278000   0.97924756     17.811372      96.519361    
   2279000   0.98985924     18.024978      96.364476    
   2280000   0.97620508     17.429349      96.290095    
   2281000   0.98327211     18.308459      96.346382    
   2282000   0.99947041     17.728715      96.322923    
   2283000   0.99334383     17.578871      96.267333    
   2284000   1.0076791      17.726182      95.97652     
   2285000   0.9688091      17.655709      95.914289    
   2286000   0.98582327     18.045595      95.99163     
   2287000   1.0515957      17.264194      96.089594    
   2288000   1.0334946      17.389439      96.002118    
   2289000   0.99306014     17.678131      95.908512    
   2290000   1.0104733      17.757562      95.643899    
   2291000   0.99544459     17.790903      95.583722    
   2292000   1.027255       18.272269      95.536458    
   2293000   1.020552       17.820668      95.489368    
   2294000   0.98321339     17.567022      95.58029     
   2295000   1.04555        17.653429      95.515869    
   2296000   0.98162728     17.714266      95.456761    
   2297000   1.0101881      17.809621      95.443455    
   2298000   0.98487454     17.67355       95.426014    
   2299000   1.0010278      17.37974       95.318244    
   2300000   0.98317036     17.524083      95.28384     
   2301000   0.99305966     17.555663      95.118561    
   2302000   0.99625446     18.317998      94.981042    
   2303000   1.0153064      17.974126      94.836848    
   2304000   1.0124195      18.550663      95.006133    
   2305000   1.0010873      17.624819      94.916174    
   2306000   0.96864626     17.860203      94.754584    
   2307000   0.99980505     17.810506      94.548837    
   2308000   0.97564583     17.662468      94.367645    
   2309000   1.027649       17.846905      94.320298    
   2310000   0.98134056     18.062413      94.365577    
   2311000   0.99293902     17.791478      93.996549    
   2312000   0.97750543     17.785652      93.898088    
   2313000   0.96104095     17.330187      93.869858    
   2314000   1.0332208      18.360741      93.890823    
   2315000   1.0143595      17.740299      94.026225    
   2316000   0.99708646     17.572945      94.18148     
   2317000   0.98843462     17.743852      94.160714    
   2318000   1.0272529      17.967885      94.081074    
   2319000   0.9618512      17.591231      93.995675    
   2320000   0.9973367      17.586271      94.047023    
   2321000   0.99677137     17.942263      93.857969    
   2322000   0.93874463     17.528207      93.77612     
   2323000   1.0097093      17.338676      93.654077    
   2324000   1.0118602      17.89021       93.717037    
   2325000   0.95277968     17.347858      93.54917     
   2326000   0.96759579     17.226025      93.497386    
   2327000   0.97422406     17.842719      93.386169    
   2328000   1.0359891      17.508671      93.169912    
   2329000   1.0221072      17.715339      93.096016    
   2330000   1.0183205      17.377331      93.135915    
   2331000   1.0003085      17.501305      93.273463    
   2332000   0.99389547     17.616297      93.253977    
   2333000   1.0043088      17.500227      93.097056    
   2334000   1.0209017      17.890241      93.152195    
   2335000   1.0032776      16.956467      93.052919    
   2336000   0.9953729      18.197788      92.800374    
   2337000   1.0070699      17.407679      92.531945    
   2338000   1.0110536      17.62118       92.605262    
   2339000   1.0119774      17.675146      92.525494    
   2340000   0.98510775     17.527188      92.419477    
   2341000   0.97864318     17.983025      92.303857    
   2342000   1.0070106      17.638526      92.150155    
   2343000   0.99783108     17.649323      92.123047    
   2344000   0.99976069     17.418009      92.026659    
   2345000   0.97765666     17.778397      92.207859    
   2346000   0.97718098     17.538207      92.292274    
   2347000   0.9814356      17.347883      92.171726    
   2348000   0.9302273      17.055101      92.110726    
   2349000   1.0062117      17.635401      92.054532    
   2350000   0.96808607     17.992727      92.080571    
   2351000   1.0136426      17.67129       92.118392    
   2352000   1.0141843      18.37914       92.074687    
   2353000   1.0399473      17.437989      92.028623    
   2354000   1.00891        17.427371      92.035997    
   2355000   1.0157289      17.20362       91.819449    
   2356000   1.0369133      17.586976      91.771312    
   2357000   1.0274999      18.033168      91.570101    
   2358000   1.0051403      17.433215      91.437323    
   2359000   0.99522465     17.813628      91.3822      
   2360000   1.0471341      17.640965      91.078203    
   2361000   1.0033362      18.011716      91.050876    
   2362000   0.99287202     17.776968      90.834216    
   2363000   1.0341445      17.783626      90.938938    
   2364000   1.0063232      18.110958      90.963258    
   2365000   1.0228966      17.855448      90.740962    
   2366000   0.95856244     17.176294      90.668894    
   2367000   0.95602382     17.695744      90.567459    
   2368000   1.0052287      18.041759      90.33765     
   2369000   1.0160402      18.002807      90.09263     
   2370000   1.0019059      17.729885      90.125543    
   2371000   1.0208301      17.994719      90.246438    
   2372000   0.97151417     17.72216       90.121129    
   2373000   1.0048364      17.281767      90.025136    
   2374000   1.019077       17.527683      89.979844    
   2375000   1.0270147      18.08888       90.068095    
   2376000   0.97070438     17.560658      89.939891    
   2377000   0.99068752     18.055677      89.945203    
   2378000   0.98947566     18.136428      89.695706    
   2379000   1.0032526      17.737172      89.764248    
   2380000   0.96975863     17.653696      89.874646    
   2381000   0.98723773     17.529723      89.704482    
   2382000   0.99870329     17.538621      89.816531    
   2383000   1.0580906      17.923803      89.708047    
   2384000   1.0050961      18.029449      89.812025    
   2385000   0.98579714     17.375965      89.62114     
   2386000   0.98426551     17.819882      89.764328    
   2387000   1.0216091      17.35885       89.551409    
   2388000   0.99677276     17.547609      89.568544    
   2389000   0.9875416      17.811008      89.299997    
   2390000   1.0138249      17.708925      89.145958    
   2391000   0.99271592     18.022896      88.753331    
   2392000   1.0120729      17.576064      88.916755    
   2393000   0.98517643     17.963173      88.495768    
   2394000   0.98758891     17.692343      88.350038    
   2395000   1.0321002      17.923061      88.366777    
   2396000   1.0178995      18.12565       88.394046    
   2397000   1.025692       18.288153      88.177013    
   2398000   1.0032151      17.529378      88.024881    
   2399000   0.99781225     17.63472       88.15201     
   2400000   1.0141629      17.840152      87.908772    
   2401000   1.0039166      17.91567       87.796568    
   2402000   1.0295569      17.333373      87.491735    
   2403000   1.0091757      17.496637      87.300698    
   2404000   1.0156398      18.292596      87.260021    
   2405000   1.010083       17.04767       87.276141    
   2406000   0.9865937      17.069386      87.027909    
   2407000   1.0160686      17.189029      87.062117    
   2408000   0.99026933     17.553761      87.064366    
   2409000   1.0096687      18.118013      87.164608    
   2410000   1.0063911      17.289345      87.099841    
   2411000   1.0034112      17.457702      87.190579    
   2412000   1.0096821      17.723092      87.302174    
   2413000   0.98198544     17.202624      87.237335    
   2414000   1.0170982      17.759727      87.089395    
   2415000   1.0142654      18.139329      86.965221    
   2416000   1.0170842      18.000046      86.877082    
   2417000   0.97799482     17.604745      86.965473    
   2418000   1.0029651      18.04766       86.682076    
   2419000   0.98812767     17.718408      86.383924    
   2420000   0.99437765     17.637155      86.272646    
   2421000   0.99052889     17.600858      86.106933    
   2422000   0.99685373     17.303817      86.14152     
   2423000   0.98978763     17.149935      86.192187    
   2424000   1.0122562      17.579655      86.021582    
   2425000   0.97539655     17.50667       85.746667    
   2426000   1.0232933      18.322914      85.500909    
   2427000   1.0082324      17.625245      85.284978    
   2428000   0.98686903     18.144891      85.203842    
   2429000   1.004156       17.540522      85.258712    
   2430000   1.0022906      17.134346      85.329719    
   2431000   0.98342702     17.84267       85.174168    
   2432000   0.97067933     17.204544      85.149283    
   2433000   1.0344451      17.712354      84.923044    
   2434000   0.98778117     17.480917      84.932726    
   2435000   1.0190295      17.481098      84.810119    
   2436000   1.0069883      17.711716      84.760465    
   2437000   0.9996516      17.668532      84.533427    
   2438000   0.97339004     18.271446      84.634197    
   2439000   1.0262162      17.2142        84.62724     
   2440000   0.9843469      17.806787      84.540356    
   2441000   1.0269267      17.646992      84.475107    
   2442000   1.0327893      17.35351       84.419286    
   2443000   1.027263       18.020839      84.188841    
   2444000   1.0047413      17.826621      84.096551    
   2445000   1.0134918      18.380918      83.894609    
   2446000   1.032782       17.469738      84.023361    
   2447000   1.0141576      17.570887      83.8518      
   2448000   1.0243051      17.746367      83.800324    
   2449000   0.97061439     17.773391      83.82683     
   2450000   0.96012585     18.095258      83.830531    
   2451000   0.96556967     17.588817      83.953395    
   2452000   0.93687186     17.038103      83.748108    
   2453000   1.0210329      17.904256      83.558818    
   2454000   1.0463859      18.229435      83.612057    
   2455000   0.96608664     17.468792      83.581823    
   2456000   0.95967026     18.140424      83.375563    
   2457000   0.99007632     17.360778      83.523959    
   2458000   1.0121377      17.583104      83.664322    
   2459000   0.95408198     17.655826      83.556999    
   2460000   1.0508969      17.73761       83.485772    
   2461000   1.0045865      17.261731      83.563471    
   2462000   1.0143788      17.600735      83.667372    
   2463000   1.0214532      18.187274      83.604244    
   2464000   1.0154617      17.320455      83.541042    
   2465000   1.0271611      18.219478      83.568717    
   2466000   1.0269009      17.838977      83.548002    
   2467000   1.0023636      17.526171      83.516368    
   2468000   1.0265383      17.651893      83.541803    
   2469000   1.020733       17.646376      83.226531    
   2470000   1.026828       17.819748      83.104434    
   2471000   0.98310198     17.547412      82.854155    
   2472000   1.047659       17.575183      82.768012    
   2473000   1.0277504      17.82363       82.951466    
   2474000   1.011649       17.252025      82.891815    
   2475000   1.0194634      17.645371      82.810538    
   2476000   0.98375121     17.434273      82.635096    
   2477000   0.98506663     18.155547      82.418572    
   2478000   1.0015674      17.502626      82.115153    
   2479000   1.0125702      17.652995      82.029304    
   2480000   1.0468372      17.568899      81.631542    
   2481000   0.97432767     17.21473       81.503323    
   2482000   0.96892052     17.632062      81.567594    
   2483000   1.0200153      18.198074      81.612347    
   2484000   1.0029217      16.906895      81.634606    
   2485000   0.99301986     17.474748      81.54153     
   2486000   0.98554549     17.256021      81.549048    
   2487000   1.0371858      17.878439      81.175036    
   2488000   1.0124837      18.126252      81.080568    
   2489000   0.99157048     16.949481      80.961864    
   2490000   0.97532227     18.200849      80.950547    
   2491000   0.96713351     17.609165      80.846677    
   2492000   0.99033962     17.912197      80.944108    
   2493000   1.013389       17.433001      81.06129     
   2494000   1.0170553      17.40237       81.02921     
   2495000   0.98494027     17.326066      80.889438    
   2496000   0.99479275     18.171793      80.831728    
   2497000   0.99979067     18.141255      80.852044    
   2498000   0.97265603     17.483502      81.059407    
   2499000   1.0128254      17.507693      81.016646    
   2500000   0.98301637     17.871886      80.969702    
   2501000   1.0176731      17.658127      80.971259    
   2502000   1.002979       17.794855      80.79455     
   2503000   0.98410565     17.529599      80.669088    
   2504000   1.0549191      17.791363      80.681048    
   2505000   1.0046202      17.807041      80.395361    
   2506000   1.0242095      17.466987      80.447261    
   2507000   0.99811575     17.527852      80.473939    
   2508000   1.0119967      17.985989      80.38277     
   2509000   1.0142945      17.345202      80.196377    
   2510000   1.0235704      17.624733      80.296836    
   2511000   0.97458649     17.708072      80.178163    
   2512000   0.99837548     17.632132      80.026711    
   2513000   0.98773154     18.173212      79.820955    
   2514000   1.0310581      17.754419      79.494114    
   2515000   0.99142888     17.557699      79.285258    
   2516000   1.0361568      17.897319      79.142541    
   2517000   1.0180999      18.065143      79.104277    
   2518000   0.96777179     17.2466        78.995236    
   2519000   1.0140306      17.985329      79.000213    
   2520000   1.0174043      18.158972      79.05045     
   2521000   1.0227281      17.845869      78.890833    
   2522000   0.99522531     18.008625      78.849209    
   2523000   0.9655207      17.480606      78.776952    
   2524000   0.99430513     17.581874      78.686853    
   2525000   0.98378822     17.694481      78.595028    
   2526000   0.97987657     17.308347      78.495983    
   2527000   0.96167775     17.401985      78.377519    
   2528000   1.0079773      17.701942      78.190607    
   2529000   0.98639833     17.003091      78.009978    
   2530000   0.98014764     17.92182       77.888596    
   2531000   1.0258779      18.052455      77.898011    
   2532000   0.97811314     17.957902      77.805596    
   2533000   0.98352126     17.65946       77.693324    
   2534000   1.0239922      17.636151      77.634855    
   2535000   0.98919843     17.842845      77.547161    
   2536000   0.96100043     17.464429      77.589331    
   2537000   1.0298032      17.084528      77.666822    
   2538000   0.98040846     17.534784      77.59692     
   2539000   0.98471452     17.62123       77.570072    
   2540000   1.0220634      17.941887      77.431842    
   2541000   0.99947022     18.078621      77.242838    
   2542000   0.96428208     17.840181      77.261753    
   2543000   1.0399263      17.901578      77.313724    
   2544000   1.0683105      17.703508      77.268921    
   2545000   0.99981911     17.426031      77.222553    
   2546000   0.99402903     17.648678      77.247233    
   2547000   0.98724558     17.641481      77.267872    
   2548000   1.0085555      17.571635      77.312721    
   2549000   1.0738043      18.156009      77.314657    
   2550000   1.0081791      17.516618      77.331272    
   2551000   1.0036056      17.801682      77.343186    
   2552000   0.99504098     17.384504      77.483389    
   2553000   1.0057849      17.277946      77.35093     
   2554000   1.0259083      17.590121      77.181957    
   2555000   1.0258055      18.410512      77.283799    
   2556000   1.0064672      17.610192      77.387823    
   2557000   1.0360001      17.802321      77.263548    
   2558000   0.9667387      17.6933        77.219928    
   2559000   1.0299237      17.520826      77.116372    
   2560000   0.99040907     17.201207      77.086606    
   2561000   0.94194919     17.381029      77.032274    
   2562000   1.0128371      17.658719      77.004127    
   2563000   1.0216426      17.584593      77.053599    
   2564000   0.98473726     17.873296      76.897699    
   2565000   1.0320993      17.510458      76.85027     
   2566000   0.99502786     17.912313      76.876047    
   2567000   0.98665512     16.850352      76.628335    
   2568000   0.98399844     17.324937      76.56905     
   2569000   1.0355578      17.447471      76.464961    
   2570000   0.98272316     17.568161      76.401308    
   2571000   1.0101652      17.471468      76.403332    
   2572000   0.96889424     17.604789      76.163161    
   2573000   0.94417383     17.398547      76.149695    
   2574000   1.0192529      17.916922      76.094854    
   2575000   1.0281561      17.72872       76.112863    
   2576000   0.98166669     17.50208       76.079112    
   2577000   1.0139647      17.824546      75.915431    
   2578000   1.0032653      18.176653      75.951526    
   2579000   0.98862864     17.850799      75.906221    
   2580000   0.9967664      17.850251      75.813543    
   2581000   0.95709353     17.691301      75.60891     
   2582000   1.0377161      17.365764      75.453246    
   2583000   0.94259213     17.55592       75.36584     
   2584000   1.0554691      18.195279      75.412843    
   2585000   1.0085968      17.949424      75.337092    
   2586000   0.98146562     17.474281      75.223329    
   2587000   1.0186665      17.672145      75.155533    
   2588000   1.0044569      17.790802      75.060203    
   2589000   0.99237542     17.635766      75.115203    
   2590000   1.0135552      17.641995      75.072608    
   2591000   0.99978389     17.148332      74.94887     
   2592000   0.9723018      17.722497      74.759728    
   2593000   0.97308783     17.166315      74.625277    
   2594000   0.99934226     17.659844      74.643128    
   2595000   1.0096017      17.679471      74.497269    
   2596000   1.015678       17.867078      74.337319    
   2597000   1.0205978      17.709686      74.389203    
   2598000   0.99533261     18.159986      74.264698    
   2599000   1.0039159      17.661166      74.10292     
   2600000   1.0215025      17.616652      73.843349    
   2601000   1.0091766      17.639341      73.530801    
   2602000   1.0088957      17.433741      73.491609    
   2603000   1.0392759      17.591883      73.364292    
   2604000   0.99677474     18.157654      73.275598    
   2605000   1.0161093      17.681068      73.233286    
   2606000   1.0007035      17.780111      73.015331    
   2607000   1.0066938      18.056986      72.882142    
   2608000   0.97578832     17.643418      72.599129    
   2609000   0.96733509     17.190538      72.51666     
   2610000   1.0229581      17.420922      72.617081    
   2611000   0.99049905     17.750528      72.253536    
   2612000   0.99364095     17.093548      72.045633    
   2613000   0.96517324     17.370108      72.016089    
   2614000   0.97662864     17.759316      71.905897    
   2615000   0.99628541     17.762612      71.766404    
   2616000   1.0033841      17.962676      71.941452    
   2617000   0.99344963     17.447835      71.934638    
   2618000   1.010861       17.706992      71.915168    
   2619000   0.98997961     17.73159       71.817662    
   2620000   0.99204861     17.618925      71.777021    
   2621000   0.98178844     17.498057      71.979663    
   2622000   1.0218732      17.696505      72.033204    
   2623000   1.0272501      17.486963      71.884885    
   2624000   1.0168025      17.900709      71.75393     
   2625000   0.94572742     17.357672      71.719038    
   2626000   1.0348274      17.306079      71.488513    
   2627000   0.98676073     17.8752        71.207133    
   2628000   0.97967025     17.455707      71.090123    
   2629000   1.0187769      18.11988       71.072864    
   2630000   1.0182851      17.806829      70.81653     
   2631000   0.99299443     17.224284      70.926307    
   2632000   0.99665441     17.414115      70.978228    
   2633000   0.98261757     17.22066       71.144542    
   2634000   0.99091498     18.055198      71.39802     
   2635000   1.0467272      17.968517      71.409182    
   2636000   0.99857535     17.968046      71.112042    
   2637000   0.99183066     17.380677      70.986998    
   2638000   0.98513236     17.566896      71.036583    
   2639000   1.0210487      17.637823      70.86475     
   2640000   1.0037635      17.635076      70.857545    
   2641000   1.0061759      17.636338      70.904566    
   2642000   1.0228735      18.075889      71.031549    
   2643000   1.042799       17.936289      71.073711    
   2644000   1.0045936      17.384258      71.139701    
   2645000   1.0314335      17.46645       71.042068    
   2646000   1.0082559      17.076664      71.081365    
   2647000   1.0085293      17.617939      70.922858    
   2648000   1.0059458      17.477055      70.868969    
   2649000   1.0093535      17.341429      70.628276    
   2650000   1.0109775      17.784528      70.649568    
   2651000   1.0035224      18.002122      70.712351    
   2652000   0.97749284     17.208816      70.733209    
   2653000   1.0000486      17.552266      70.660403    
   2654000   1.0639996      17.949539      70.657616    
   2655000   0.99228867     17.44456       70.415348    
   2656000   1.0161385      17.441635      70.355333    
   2657000   0.98142112     17.541211      70.43561     
   2658000   1.012265       17.520643      70.494227    
   2659000   0.98060315     17.075012      70.459061    
   2660000   0.98742787     18.000617      70.411474    
   2661000   1.0264476      17.291028      70.475581    
   2662000   0.99578396     17.501194      70.500638    
   2663000   0.97349676     16.939518      70.315418    
   2664000   1.0106369      17.531222      70.203993    
   2665000   0.96688969     17.568734      70.156182    
   2666000   0.99822645     17.486137      70.037307    
   2667000   1.0148279      17.612922      69.833802    
   2668000   1.0069119      17.668184      69.636764    
   2669000   1.0182324      17.557058      69.403153    
   2670000   1.0187971      17.657944      69.38922     
   2671000   0.96802915     17.560164      69.325975    
   2672000   1.0021875      17.2507        69.250788    
   2673000   1.0103585      17.81853       69.020158    
   2674000   0.9939397      17.761226      68.928831    
   2675000   0.96695318     17.622069      68.849017    
   2676000   0.97582711     16.710476      68.738536    
   2677000   0.96608052     17.318982      68.62507     
   2678000   1.0180204      17.620572      68.3946      
   2679000   0.98774889     17.084878      68.40387     
   2680000   1.0091228      17.739649      68.301868    
   2681000   1.0222737      17.630554      68.478397    
   2682000   1.0440216      17.733592      68.366794    
   2683000   1.0301204      17.669027      68.514615    
   2684000   0.99200154     17.765642      68.585694    
   2685000   1.050916       17.357937      68.469196    
   2686000   0.97506        17.039593      68.25269     
   2687000   0.95900366     17.115493      68.051885    
   2688000   0.95434726     17.248888      68.271721    
   2689000   1.0632366      17.514201      68.236889    
   2690000   1.0331512      17.789163      68.180133    
   2691000   1.0070226      17.016773      68.166117    
   2692000   1.0137485      17.669803      68.037426    
   2693000   1.0100976      17.254902      68.083391    
   2694000   1.0019164      17.526552      68.127113    
   2695000   0.99157144     17.696446      68.136459    
   2696000   1.0092552      17.099595      68.095177    
   2697000   1.0034984      17.34502       68.117831    
   2698000   0.99141223     17.466889      68.04471     
   2699000   1.0018095      18.223697      67.976514    
   2700000   1.0072293      17.122233      67.7986      
   2701000   1.000845       18.157755      67.748986    
   2702000   1.0130433      18.013973      67.610258    
   2703000   0.95236827     17.116286      67.632235    
   2704000   0.98819921     17.087242      67.750331    
   2705000   0.96840237     17.339496      67.744889    
   2706000   1.0200833      17.667823      67.743974    
   2707000   1.0054246      17.650985      67.698681    
   2708000   1.0258967      17.462525      67.698899    
   2709000   1.013983       17.569922      67.502064    
   2710000   0.99630718     17.305573      67.442223    
   2711000   1.0227459      17.848143      67.194142    
   2712000   1.029485       17.838992      66.993299    
   2713000   1.0041933      17.145267      66.913632    
   2714000   0.97592906     17.596603      66.898587    
   2715000   1.0305337      17.913479      66.800895    
   2716000   0.99237572     17.546703      66.657803    
   2717000   1.0404504      17.57816       66.734425    
   2718000   1.0038134      17.43797       66.722414    
   2719000   1.0079658      17.487911      66.850546    
   2720000   0.98906886     17.461116      66.652291    
   2721000   1.0058888      17.451808      66.324876    
   2722000   1.0548159      17.257431      66.106626    
   2723000   0.99988749     17.629517      66.119177    
   2724000   0.97763513     17.177925      66.05369     
   2725000   1.0007371      17.099642      65.989543    
   2726000   0.98802322     18.140346      66.053912    
   2727000   1.0289114      17.929128      66.146096    
   2728000   1.0491416      17.535814      66.211421    
   2729000   0.99028533     17.062875      66.271079    
   2730000   0.99401221     17.733051      66.331817    
   2731000   1.0030321      16.802622      66.246112    
   2732000   1.0607602      17.790679      66.248513    
   2733000   0.94729601     17.514139      66.201004    
   2734000   0.96968072     17.020702      66.319238    
   2735000   1.0101152      17.932065      66.05947     
   2736000   1.0406157      17.726414      65.861732    
   2737000   0.98880751     17.562426      65.624153    
   2738000   1.0221187      17.49371       65.683098    
   2739000   1.0100493      17.85326       65.64817     
   2740000   0.99307597     17.648273      65.393807    
   2741000   0.9825269      17.793413      65.016657    
   2742000   1.0298597      17.896217      64.887922    
   2743000   0.95992324     17.556299      64.817935    
   2744000   1.0349222      17.878983      64.852614    
   2745000   1.0089609      17.512815      64.75696     
   2746000   0.99262089     17.74782       64.605882    
   2747000   1.0150426      18.077204      64.412311    
   2748000   0.99259233     17.545156      64.372093    
   2749000   0.97915538     17.584248      64.309688    
   2750000   0.98648923     17.212997      64.244862    
   2751000   0.99519977     17.167691      64.297802    
   2752000   0.98575691     16.683054      64.282815    
   2753000   0.99381046     17.545974      64.290595    
   2754000   0.99221454     17.820757      64.240546    
   2755000   0.98959603     17.677867      64.103328    
   2756000   0.98749722     17.473642      64.057832    
   2757000   0.99719494     17.655151      63.847989    
   2758000   0.98547202     17.257327      63.8546      
   2759000   0.98921589     16.803719      63.722695    
   2760000   1.00804        17.748861      63.517589    
   2761000   0.9959078      17.204982      63.476479    
   2762000   1.0121562      17.507968      63.466667    
   2763000   1.0436053      17.394997      63.007554    
   2764000   0.96299862     17.590991      62.965693    
   2765000   0.99812093     17.922604      62.849881    
   2766000   0.98383699     17.574452      62.831354    
   2767000   0.98983997     17.685224      62.783818    
   2768000   0.95763567     17.61632       62.618799    
   2769000   0.98805407     17.782259      62.407287    
   2770000   1.0073903      17.322999      62.240787    
   2771000   0.95974047     17.47716       62.272905    
   2772000   1.018202       17.654871      62.394672    
   2773000   1.0377953      17.963799      62.395119    
   2774000   0.96120244     17.219691      62.345112    
   2775000   0.99637002     17.423062      62.205806    
   2776000   0.99569917     17.417576      62.109723    
   2777000   0.99930877     17.0627        62.083096    
   2778000   0.99118051     17.20705       61.895956    
   2779000   1.0277191      17.41486       61.992593    
   2780000   0.95693271     17.755646      62.15398     
   2781000   0.94422882     18.014107      62.082736    
   2782000   1.010268       17.481526      62.150647    
   2783000   1.0003664      17.467181      61.939908    
   2784000   1.0144127      17.292568      61.737151    
   2785000   0.98591324     17.710287      61.674198    
   2786000   0.99501817     17.264229      61.682986    
   2787000   0.98189142     17.070397      61.522237    
   2788000   0.96797744     17.565573      61.403512    
   2789000   0.9778163      17.856695      61.27963     
   2790000   1.0100518      17.165765      61.377192    
   2791000   0.97079757     17.113381      61.330664    
   2792000   1.0463797      17.794757      61.187899    
   2793000   1.0437849      17.241941      61.094496    
   2794000   0.97376476     17.337484      61.11777     
   2795000   1.0156328      17.098668      61.130841    
   2796000   0.99929345     17.635031      61.114759    
   2797000   1.0090783      17.941546      60.91081     
   2798000   1.0129564      17.170358      60.84871     
   2799000   0.97745896     17.523014      61.094417    
   2800000   0.97601006     16.994931      60.937749    
   2801000   0.97473335     17.134472      60.838801    
   2802000   0.97053615     17.085405      60.814677    
   2803000   1.0170971      17.91156       60.716545    
   2804000   0.99503092     17.679545      60.635649    
   2805000   0.97605318     16.587245      60.650951    
   2806000   1.0340137      17.364209      60.64351     
   2807000   1.0143929      17.711125      60.608546    
   2808000   1.029272       17.301233      60.572376    
   2809000   1.0114672      17.846912      60.317025    
   2810000   1.0429057      17.394631      60.387337    
   2811000   0.9886554      17.608283      60.463704    
   2812000   1.0011149      17.542007      60.193557    
   2813000   1.0067883      17.109203      59.945311    
   2814000   1.0178747      17.135278      59.807973    
   2815000   0.98601527     17.474454      59.970582    
   2816000   0.99556105     17.336265      59.778024    
   2817000   1.040727       17.616147      59.667423    
   2818000   1.0043357      17.539478      59.701956    
   2819000   0.99789633     17.315952      59.604916    
   2820000   0.9774012      17.663656      59.564487    
   2821000   0.99752948     17.093373      59.542583    
   2822000   0.97473357     17.581522      59.374196    
   2823000   0.97002197     17.474275      59.294426    
   2824000   1.0112371      17.618226      59.284821    
   2825000   0.99339565     17.8673        59.226821    
   2826000   0.9944112      17.881037      59.244697    
   2827000   1.0114416      17.130306      59.012611    
   2828000   1.0024092      17.814304      58.935822    
   2829000   1.0178683      17.540058      58.664508    
   2830000   1.0568434      17.948242      58.633861    
   2831000   0.98693319     17.517504      58.44164     
   2832000   1.001864       17.707895      58.067136    
   2833000   0.9838108      17.438204      57.865223    
   2834000   1.0263005      17.80423       57.645942    
   2835000   1.0269933      17.339137      57.559291    
   2836000   0.97451269     17.359153      57.378854    
   2837000   0.98677651     17.412878      57.277878    
   2838000   1.0296602      18.470353      57.369551    
   2839000   0.96368807     17.446959      57.196118    
   2840000   0.98369563     17.994699      57.170612    
   2841000   0.98340416     17.357247      57.269188    
   2842000   0.97548124     17.754194      57.069654    
   2843000   1.0328487      18.044079      56.720238    
   2844000   0.97047588     17.118801      56.528837    
   2845000   0.98318524     17.224326      56.43047     
   2846000   1.013594       17.334215      56.178903    
   2847000   0.96365825     17.134124      56.316994    
   2848000   0.98303705     17.136429      56.403716    
   2849000   1.0015515      17.579674      56.179246    
   2850000   0.96549361     17.084387      56.207808    
   2851000   0.99154767     18.04765       56.327825    
   2852000   0.95701671     17.141029      56.304648    
   2853000   1.0362553      17.462753      56.192091    
   2854000   0.99556399     17.293547      56.060727    
   2855000   1.0226925      17.132395      55.767638    
   2856000   1.007366       17.313591      55.37623     
   2857000   0.96818874     17.237386      55.255024    
   2858000   0.99021365     17.632436      55.020278    
   2859000   0.99871083     16.861593      54.893333    
   2860000   0.99108887     17.279516      54.795645    
   2861000   0.95704696     17.177606      54.736105    
   2862000   1.039155       17.597274      54.527538    
   2863000   0.92659236     17.325701      54.51723     
   2864000   1.0169569      16.841861      54.39337     
   2865000   0.99254436     17.423529      54.265418    
   2866000   0.96793613     16.41126       54.349962    
   2867000   0.97052843     17.555205      54.282172    
   2868000   1.0131553      17.533251      54.341588    
   2869000   1.0307277      16.506534      54.352329    
   2870000   1.0249827      17.656236      54.539114    
   2871000   1.0791862      17.666793      54.364765    
   2872000   0.99029189     17.593133      54.603599    
   2873000   1.0099403      17.072556      54.719675    
   2874000   0.98913971     17.222346      54.58429     
   2875000   0.94522411     17.038943      54.399338    
   2876000   1.0626762      17.786627      54.479166    
   2877000   0.99439151     17.776134      54.348832    
   2878000   0.98809886     17.380771      54.069925    
   2879000   0.9887446      17.675484      54.08677     
   2880000   0.98872561     17.062537      54.024186    
   2881000   0.97053673     17.52399       54.072129    
   2882000   0.99878215     17.804449      53.948279    
   2883000   1.0199386      17.483784      53.732025    
   2884000   1.0224393      17.58205       53.887614    
   2885000   1.0191387      17.616262      53.749929    
   2886000   0.99982291     17.386588      53.767764    
   2887000   1.0157211      17.109516      53.744403    
   2888000   1.0300352      17.541592      53.833171    
   2889000   0.99362718     17.335163      53.868211    
   2890000   0.9718906      17.408737      54.193083    
   2891000   1.034207       17.675604      54.298929    
   2892000   1.0067546      17.774807      54.039198    
   2893000   0.96289972     17.072679      54.110883    
   2894000   1.0359586      18.225233      54.031472    
   2895000   0.98178413     17.126856      53.914861    
   2896000   1.0394338      17.754116      53.714608    
   2897000   1.0305924      17.350542      53.695042    
   2898000   1.0044393      17.376961      53.790304    
   2899000   0.99652679     16.825682      53.643919    
   2900000   1.0177984      17.513187      53.492247    
   2901000   1.0192022      16.688058      53.509802    
   2902000   1.0046775      17.296764      53.385704    
   2903000   1.0162455      17.492593      53.313135    
   2904000   1.0290737      17.506608      53.49735     
   2905000   0.97294306     17.738977      53.278793    
   2906000   1.0144663      17.35688       53.056667    
   2907000   1.0176206      16.611743      53.021912    
   2908000   0.99926611     17.698356      53.059482    
   2909000   1.0135818      16.984362      53.234381    
   2910000   0.98522591     17.322049      53.279588    
   2911000   0.9917053      16.967059      53.325554    
   2912000   1.0216163      17.795765      53.164501    
   2913000   1.0373472      17.001138      52.892511    
   2914000   1.0133246      17.262609      52.873511    
   2915000   1.0240284      17.372227      52.922208    
   2916000   1.0179527      17.277224      53.074244    
   2917000   0.99050479     17.162016      53.05149     
   2918000   0.98136038     17.506885      53.13323     
   2919000   1.0469427      17.946753      53.094958    
   2920000   0.97238266     17.550876      53.154258    
   2921000   0.96053464     17.604943      53.048505    
   2922000   0.97233137     17.40871       52.91733     
   2923000   0.99935115     17.782785      53.008682    
   2924000   0.96773797     17.017729      53.138878    
   2925000   0.97037442     16.588298      53.234396    
   2926000   1.0310301      17.937514      53.091718    
   2927000   1.0036562      17.360606      53.004952    
   2928000   0.98632837     17.774821      52.662093    
   2929000   1.0351767      17.506119      52.633583    
   2930000   0.99394468     17.099931      52.593495    
   2931000   0.97685745     17.082355      52.475294    
   2932000   1.0397808      17.642437      52.151801    
   2933000   0.99267618     18.010519      52.076079    
   2934000   0.97918007     16.811608      52.265958    
   2935000   0.9800521      17.264034      52.311221    
   2936000   1.0039311      17.985536      52.272138    
   2937000   1.0013587      16.920936      52.43278     
   2938000   1.0135223      17.165014      52.438971    
   2939000   0.98619142     17.073732      52.335996    
   2940000   1.0012808      17.706329      52.265931    
   2941000   1.0131155      17.383431      52.238775    
   2942000   0.95036249     16.973487      52.22893     
   2943000   1.0340951      18.313278      52.174729    
   2944000   1.0201208      16.8878        52.284421    
   2945000   1.0264889      17.694544      52.341503    
   2946000   0.9697172      17.491757      52.189235    
   2947000   0.99557688     17.93998       52.251631    
   2948000   0.97079376     17.149258      52.367661    
   2949000   1.0050012      17.688247      52.324031    
   2950000   1.0174802      17.44497       52.216701    
   2951000   0.98625966     17.615997      52.086492    
   2952000   1.0137538      17.290495      51.986101    
   2953000   1.0066334      17.300837      51.978571    
   2954000   1.0305099      17.43569       51.875831    
   2955000   0.95972937     17.456471      51.950736    
   2956000   0.98659021     17.14906       51.859366    
   2957000   0.98132782     17.19506       51.486659    
   2958000   0.98851798     17.598161      51.256213    
   2959000   0.99997984     17.506323      51.065991    
   2960000   0.99653939     17.473149      50.958914    
   2961000   1.0097832      16.854827      50.71655     
   2962000   1.0447269      17.42217       50.784921    
   2963000   1.0346258      17.670879      50.76577     
   2964000   0.99397023     17.671666      50.785494    
   2965000   1.0150786      16.979392      50.645643    
   2966000   1.0493555      17.611507      50.652942    
   2967000   0.97730917     16.899432      50.593893    
   2968000   0.99962642     17.19527       50.767976    
   2969000   1.0032452      17.232567      50.511804    
   2970000   1.0232984      17.530844      50.377258    
   2971000   1.0303776      17.801774      50.321791    
   2972000   1.0123094      17.246399      50.328725    
   2973000   1.0450182      17.332371      50.218156    
   2974000   0.97389716     17.065011      50.287371    
   2975000   0.99580285     17.204194      50.284242    
   2976000   0.98912833     17.438175      50.30446     
   2977000   0.97035192     17.500621      50.069931    
   2978000   0.97318214     16.885753      50.036459    
   2979000   0.96916422     17.118072      50.216411    
   2980000   1.0036603      17.431726      50.009646    
   2981000   0.98310188     17.316165      49.811403    
   2982000   1.023039       17.017227      49.530481    
   2983000   1.0369491      16.976056      49.560303    
   2984000   0.96262632     17.233694      49.504393    
   2985000   0.97356823     17.652586      49.455255    
   2986000   1.0173523      17.040504      49.480183    
   2987000   0.96788857     17.957667      49.430083    
   2988000   0.98915364     17.749412      49.415242    
   2989000   1.0405142      17.839839      49.237377    
   2990000   0.97234419     16.966538      49.272525    
   2991000   1.0021169      17.779683      49.286107    
   2992000   0.97623759     17.187147      49.160113    
   2993000   0.97033788     17.124402      49.228264    
   2994000   0.97587382     17.2267        49.346447    
   2995000   0.98414456     17.499688      49.288755    
   2996000   0.99799052     17.046329      49.189715    
   2997000   0.96033299     17.440658      49.202807    
   2998000   1.0313322      17.553414      49.261319    
   2999000   1.0186953      17.433907      49.221246    
   3000000   1.0331398      18.273766      49.166265    
   3001000   0.99860366     17.74476       49.231076    
   3002000   1.03119        17.809695      49.169314    
   3003000   0.99760021     17.254541      49.159828    
   3004000   1.0378005      17.728078      49.132876    
   3005000   1.0060113      17.295152      49.227281    
   3006000   1.0032264      17.076599      49.275168    
   3007000   1.0029778      17.303363      49.431963    
   3008000   0.94932705     17.486615      49.377449    
   3009000   0.9984632      17.585721      49.19504     
   3010000   1.0329007      17.223188      49.055005    
   3011000   1.0226315      17.60678       49.096149    
   3012000   0.98692364     16.652752      49.108751    
   3013000   0.99808185     17.643205      48.94084     
   3014000   1.0093265      17.912308      49.058697    
   3015000   1.0940477      17.303773      49.082101    
   3016000   0.97123697     17.27626       49.166969    
   3017000   1.0325709      17.483723      49.079108    
   3018000   1.0424129      17.406257      49.10324     
   3019000   1.0000673      17.630974      49.024016    
   3020000   1.0363013      17.200981      49.124573    
   3021000   0.96953938     17.685454      49.332997    
   3022000   1.0025747      17.929091      49.083067    
   3023000   1.0064888      16.994142      49.015173    
   3024000   0.99860956     16.904477      49.040368    
   3025000   0.99859228     17.152519      49.117339    
   3026000   0.98467091     17.389374      48.942442    
   3027000   0.98609091     17.533889      48.966176    
   3028000   1.0248322      17.468127      49.054695    
   3029000   1.0763111      17.787489      49.157886    
   3030000   1.0155642      17.888908      49.288335    
   3031000   0.97863421     17.83336       49.164306    
   3032000   1.0040342      17.680579      48.913466    
   3033000   0.97277857     16.858113      49.112816    
   3034000   1.0238178      17.503756      48.997087    
   3035000   0.97994491     16.607442      48.800289    
   3036000   1.0046519      16.734025      48.818899    
   3037000   1.0293197      17.315143      48.929565    
   3038000   1.0109583      17.216243      48.90672     
   3039000   1.0035921      17.347256      48.953498    
   3040000   0.94905113     17.768086      48.790552    
   3041000   1.063226       17.466699      48.729856    
   3042000   1.0019439      16.747553      48.724192    
   3043000   0.9983574      17.77171       48.679148    
   3044000   0.9944792      16.945042      48.325198    
   3045000   1.0022486      17.457932      48.033925    
   3046000   1.021818       17.113009      47.859889    
   3047000   1.0288018      16.71507       47.784853    
   3048000   0.96992886     17.154066      47.871519    
   3049000   1.0271409      17.894105      47.57386     
   3050000   1.0408934      17.88294       47.493123    
   3051000   1.0285663      17.463645      47.497085    
   3052000   1.0310768      17.383312      47.394507    
   3053000   1.0268277      17.356404      47.354063    
   3054000   0.98120724     17.442883      47.353033    
   3055000   1.0514112      17.197971      47.241168    
   3056000   1.0233213      17.526036      47.237858    
   3057000   1.0094803      17.787353      47.246366    
   3058000   0.98690977     17.380735      47.149628    
   3059000   0.9796882      16.851416      47.111111    
   3060000   0.95185428     16.564619      46.954441    
   3061000   0.98300411     17.195826      46.808308    
   3062000   0.97253526     17.886828      46.620903    
   3063000   1.004808       17.898784      46.406142    
   3064000   1.0331129      17.316815      46.179319    
   3065000   1.0072181      17.259762      46.059735    
   3066000   1.0125858      17.480219      45.882761    
   3067000   1.0216191      17.158904      45.800877    
   3068000   1.0393111      18.193823      45.629703    
   3069000   0.98455383     17.115723      45.557665    
   3070000   0.99366785     16.954675      45.423219    
   3071000   1.0082154      17.62225       45.192853    
   3072000   1.0223399      17.347464      44.977212    
   3073000   1.0305693      17.08983       44.797138    
   3074000   1.0005367      17.32653       44.554217    
   3075000   0.97375444     17.422193      44.561076    
   3076000   0.98481218     17.215735      44.219825    
   3077000   0.98399428     17.413895      44.167147    
   3078000   1.0257032      17.670914      44.225834    
   3079000   1.0034269      17.64569       44.171901    
   3080000   0.99105918     17.131776      44.083055    
   3081000   1.0031773      16.78719       44.062302    
   3082000   0.96537582     17.093382      44.066278    
   3083000   0.98839979     17.395494      44.033917    
   3084000   1.0229962      17.305255      43.988153    
   3085000   1.041118       17.636186      44.06956     
   3086000   1.0478022      17.468704      43.962544    
   3087000   1.0279201      17.975125      43.96274     
   3088000   0.96425818     16.916105      43.854793    
   3089000   1.0121856      17.329934      43.568993    
   3090000   1.0108417      17.253355      43.458638    
   3091000   1.0068054      17.759602      43.257797    
   3092000   1.0151201      17.022779      43.078298    
   3093000   1.0064583      17.889106      43.155228    
   3094000   1.0231451      17.936383      43.293708    
   3095000   1.0249858      17.454841      43.336042    
   3096000   0.99109326     17.509423      43.304591    
   3097000   0.97089993     17.367255      43.353822    
   3098000   1.0553712      16.982411      43.307489    
   3099000   1.0523001      17.879183      43.266438    
   3100000   1.0024553      17.096714      43.299183    
   3101000   0.94570961     17.687515      43.16407     
   3102000   0.98135859     16.723878      42.970281    
   3103000   0.98833576     17.163972      42.892073    
   3104000   1.0036851      16.911972      42.915596    
   3105000   0.97205837     17.225065      43.103557    
   3106000   0.9815568      17.283262      42.936234    
   3107000   1.0255923      17.276942      43.072497    
   3108000   0.95913279     17.445517      43.05326     
   3109000   0.97695372     16.991337      43.232236    
   3110000   1.0367678      17.842303      43.067197    
   3111000   0.98412319     16.926298      43.002425    
   3112000   0.97178434     17.645003      42.980788    
   3113000   0.94888711     17.133437      43.064253    
   3114000   1.0166799      17.595825      43.065534    
   3115000   0.9990395      17.515276      42.903417    
   3116000   1.0219008      17.652126      42.862978    
   3117000   0.99969394     17.321935      42.632393    
   3118000   0.93698363     16.267194      42.372537    
   3119000   0.96945041     16.421876      42.416641    
   3120000   1.0268001      17.287012      42.352171    
   3121000   1.0250834      17.080029      42.477448    
   3122000   1.0181849      17.500539      42.564169    
   3123000   1.0143173      17.523329      42.651059    
   3124000   0.97378118     17.820725      42.523554    
   3125000   1.0195793      16.998201      42.413311    
   3126000   0.98396076     17.066354      42.296723    
   3127000   0.99569492     17.099717      42.385611    
   3128000   1.0066509      17.142631      42.587726    
   3129000   0.97842042     17.354552      42.444743    
   3130000   0.99220619     17.371836      42.218826    
   3131000   0.99544307     16.973374      42.449792    
   3132000   0.99016389     17.031624      42.192632    
   3133000   1.0086578      17.109005      42.002177    
   3134000   1.0015203      17.51069       41.776599    
   3135000   1.0119116      16.745423      41.597496    
   3136000   0.99996034     17.812326      41.51615     
   3137000   1.0166568      17.0216        41.41691     
   3138000   0.96944623     17.636493      41.107144    
   3139000   1.046544       17.54156       40.888026    
   3140000   0.98798691     17.795039      40.830787    
   3141000   1.0264089      17.758608      40.750402    
   3142000   1.0014606      17.595711      40.837262    
   3143000   1.0110924      17.640537      40.864101    
   3144000   1.0060312      17.195299      40.695327    
   3145000   0.99156915     17.233282      40.49262     
   3146000   1.013823       17.754352      40.482172    
   3147000   0.99283514     17.48243       40.507272    
   3148000   1.0034784      17.296473      40.334738    
   3149000   0.97762409     17.667709      40.219632    
   3150000   1.0452128      16.877915      40.312252    
   3151000   0.96087958     17.113136      40.365728    
   3152000   1.0142647      17.363363      40.259941    
   3153000   0.99576116     17.187684      40.106462    
   3154000   0.94758115     17.299133      39.992887    
   3155000   0.99885293     16.720057      40.04479     
   3156000   1.0050195      17.197897      39.791125    
   3157000   0.97988295     17.075471      39.57793     
   3158000   0.98554595     16.910264      39.72421     
   3159000   0.97666794     17.494703      39.480105    
   3160000   0.97371507     17.335619      39.372297    
   3161000   0.97933793     17.499201      39.364204    
   3162000   0.95949299     16.968261      39.304695    
   3163000   1.0078406      17.380251      39.181485    
   3164000   1.008216       17.655428      39.218342    
   3165000   0.99025434     17.388912      39.371557    
   3166000   1.0158036      17.378443      39.444328    
   3167000   1.0125503      17.220018      39.493708    
   3168000   0.98238835     17.497314      39.353703    
   3169000   0.99887228     17.280877      39.43116     
   3170000   1.0170781      17.19809       39.159052    
   3171000   1.0056223      17.227457      39.116081    
   3172000   0.96207264     17.208637      39.051321    
   3173000   1.0348907      16.932937      39.021635    
   3174000   0.99618182     17.19315       38.885142    
   3175000   1.0461226      18.138939      38.84155     
   3176000   0.99568381     16.913458      38.928196    
   3177000   0.99469155     17.554684      38.913943    
   3178000   0.9918226      16.938832      38.748766    
   3179000   1.0109514      17.315185      38.599364    
   3180000   0.96138201     16.893058      38.607962    
   3181000   1.0169505      17.168134      38.555933    
   3182000   1.0139172      17.442769      38.253791    
   3183000   0.97040291     16.934362      38.110248    
   3184000   1.0172479      17.808442      37.832882    
   3185000   1.0017115      17.806301      38.173482    
   3186000   1.0156333      17.36622       38.001847    
   3187000   0.99830627     17.277822      37.715807    
   3188000   0.99752434     17.33846       37.649204    
   3189000   0.99742488     17.334102      37.359552    
   3190000   1.0002923      17.243902      37.294731    
   3191000   1.0080782      17.571174      37.29794     
   3192000   1.0139789      17.139373      37.18118     
   3193000   1.0287977      17.113078      37.021863    
   3194000   0.97715259     17.688828      36.988242    
   3195000   1.0038608      17.438314      37.057992    
   3196000   0.99697766     17.269074      37.159577    
   3197000   0.99050895     16.561844      37.11517     
   3198000   1.000961       17.392428      36.970844    
   3199000   0.98125945     16.765277      36.867523    
   3200000   1.0304875      17.440964      36.860659    
   3201000   0.9636056      17.119754      36.625701    
   3202000   0.98302616     17.003163      36.684626    
   3203000   1.0049401      17.488577      36.770175    
   3204000   0.98936468     17.071205      36.885618    
   3205000   1.0644388      16.90614       36.703615    
   3206000   1.0228984      17.635161      36.503564    
   3207000   1.0395944      17.374587      36.543588    
   3208000   0.98640737     16.842948      36.53416     
   3209000   0.96598377     17.207743      36.462806    
   3210000   0.99621185     17.221663      36.474892    
   3211000   1.011675       17.342714      36.391397    
   3212000   0.9725322      16.585571      36.405632    
   3213000   0.99545595     17.702197      36.385721    
   3214000   0.97817646     17.321835      36.22129     
   3215000   1.0000979      17.502242      36.186109    
   3216000   0.97638721     17.183932      36.191983    
   3217000   1.0438393      17.526467      36.045927    
   3218000   1.0119032      17.255478      35.869888    
   3219000   1.0070353      17.990199      35.765355    
   3220000   1.010269       17.410801      35.489722    
   3221000   1.0129436      17.356415      35.642945    
   3222000   0.95257367     16.850307      35.705394    
   3223000   0.99581585     17.003868      35.623085    
   3224000   1.0722075      17.299259      35.682322    
   3225000   1.0111552      17.428893      35.570985    
   3226000   1.0365297      17.071581      35.388072    
   3227000   1.0334361      17.592586      35.339903    
   3228000   0.97717926     16.703608      35.52265     
   3229000   1.0032457      16.800083      35.593206    
   3230000   0.97204289     17.365649      35.656525    
   3231000   1.0224178      17.524897      35.574751    
   3232000   0.95865826     17.031083      35.300004    
   3233000   0.98086615     17.595818      35.192079    
   3234000   0.99262632     17.624583      35.054495    
   3235000   0.97983532     17.647694      34.761383    
   3236000   1.0138296      17.420217      34.524272    
   3237000   0.99551946     17.533247      34.364575    
   3238000   0.99271536     17.296366      34.353003    
   3239000   0.95463251     17.03426       34.579514    
   3240000   0.97377708     17.267466      34.604378    
   3241000   1.0409664      17.138101      34.302657    
   3242000   0.96208689     16.885809      33.979203    
   3243000   0.99252902     17.085536      33.998654    
   3244000   0.94866294     16.626795      33.858327    
   3245000   0.99477987     17.460224      33.752226    
   3246000   1.0033704      16.966538      33.622101    
   3247000   0.9852845      17.495857      33.452039    
   3248000   0.97977059     16.78554       33.352688    
   3249000   0.98854797     16.918711      33.394159    
   3250000   0.99018483     16.998399      33.372107    
   3251000   0.9872784      17.449425      33.473028    
   3252000   0.99220277     17.138608      33.241973    
   3253000   0.98954181     17.330635      32.934517    
   3254000   0.97622877     17.29549       32.571134    
   3255000   1.0310292      17.35341       32.589162    
   3256000   1.036119       17.545093      32.444592    
   3257000   1.0247044      16.671891      32.476156    
   3258000   1.0176145      17.836722      32.438519    
   3259000   0.9849799      17.406217      32.449961    
   3260000   0.9749053      17.044413      32.395002    
   3261000   0.97190298     16.802508      32.183387    
   3262000   0.98926016     16.893396      32.18486     
   3263000   1.0010871      17.250001      32.112902    
   3264000   1.00205        17.544786      31.944804    
   3265000   1.0135921      17.6151        31.723336    
   3266000   0.97759573     17.210191      31.550665    
   3267000   1.0153686      17.020422      31.656254    
   3268000   0.99332865     17.141441      31.617211    
   3269000   1.0024076      17.350177      31.573328    
   3270000   1.0322607      17.327107      31.493065    
   3271000   1.0049989      16.809445      31.770085    
   3272000   0.95891513     17.249954      31.72751     
   3273000   0.99068985     17.396379      31.586651    
   3274000   1.0493176      17.411074      31.372883    
   3275000   0.97232058     16.984831      31.447786    
   3276000   0.98889934     17.048837      31.364357    
   3277000   1.0060227      17.54135       30.911342    
   3278000   1.0173045      17.47762       30.661598    
   3279000   0.97859828     17.229577      30.407108    
   3280000   0.98240601     17.105737      30.201574    
   3281000   0.99630846     16.989583      30.360621    
   3282000   1.000684       17.485511      30.380301    
   3283000   0.94936072     17.315222      30.270279    
   3284000   0.99823019     16.721636      30.04145     
   3285000   1.0359084      17.403929      29.961566    
   3286000   1.0112566      17.516115      29.987245    
   3287000   0.99086849     17.045902      29.783608    
   3288000   0.95607254     16.693359      29.911191    
   3289000   0.99092406     17.642495      30.002472    
   3290000   1.0001643      17.260814      29.812296    
   3291000   1.0265595      17.64581       29.702381    
   3292000   1.0070487      17.162304      29.812371    
   3293000   0.98747784     18.103403      29.837581    
   3294000   0.99428479     16.851397      29.668967    
   3295000   1.0045203      17.659855      29.640293    
   3296000   1.0011491      17.246508      29.517665    
   3297000   1.0151359      17.134843      29.400679    
   3298000   1.0446074      16.632183      29.205479    
   3299000   1.0423423      17.566518      29.156458    
   3300000   1.0360267      17.447161      29.178526    
   3301000   1.0265828      17.24515       28.987281    
   3302000   0.99173708     17.025571      29.032805    
   3303000   1.0234682      17.059683      29.055146    
   3304000   0.98332317     17.158225      28.844743    
   3305000   0.97619648     17.262071      28.79606     
   3306000   0.996319       17.011907      28.73152     
   3307000   1.0417155      17.158349      28.485667    
   3308000   0.98862386     17.534408      28.58268     
   3309000   1.0187098      17.281689      28.38865     
   3310000   0.99345523     16.972764      28.334015    
   3311000   0.99231147     16.941079      28.043396    
   3312000   0.99788934     17.054421      28.13854     
   3313000   0.99654272     17.08974       28.045969    
   3314000   1.0152913      17.174248      28.007012    
   3315000   0.96891099     17.065935      27.940538    
   3316000   0.99576247     17.355973      27.846578    
   3317000   0.97758031     16.570454      27.722665    
   3318000   0.98772028     16.993112      27.580306    
   3319000   1.0202016      17.378185      27.245032    
   3320000   0.9936828      16.866975      26.982634    
   3321000   0.96445455     16.483411      26.837422    
   3322000   1.0104294      17.478328      26.791746    
   3323000   0.94212933     17.149253      26.725318    
   3324000   1.0051147      17.492574      26.565419    
   3325000   1.036689       17.268553      26.747283    
   3326000   0.99503587     17.268373      26.583843    
   3327000   1.010989       17.506706      26.721071    
   3328000   0.99086349     17.227639      26.630058    
   3329000   1.013403       17.090632      26.431712    
   3330000   0.98345082     16.903018      26.551768    
   3331000   1.0584288      17.30364       26.250134    
   3332000   1.0399917      17.511463      26.217891    
   3333000   1.034687       17.289446      26.207372    
   3334000   1.0091073      17.080345      26.222612    
   3335000   0.96669722     17.365866      26.144563    
   3336000   1.0271649      16.983764      25.951988    
   3337000   1.0051482      17.120616      25.841682    
   3338000   0.98620655     16.951093      25.824655    
   3339000   0.95904819     16.790945      25.779148    
   3340000   0.9880249      17.116456      25.86369     
   3341000   0.97462312     17.622421      25.855646    
   3342000   0.97755211     17.35795       26.002666    
   3343000   0.99584407     17.7153        25.789027    
   3344000   0.99901211     17.600372      25.685338    
   3345000   0.98478981     17.32436       25.41667     
   3346000   1.0181461      17.601689      25.514752    
   3347000   0.97729605     17.406303      25.485321    
   3348000   0.9892461      17.395714      25.238508    
   3349000   0.99796463     16.928763      24.939572    
   3350000   1.0009054      17.026436      24.82757     
   3351000   0.9916827      16.847809      24.730581    
   3352000   0.98790019     17.287723      24.628089    
   3353000   0.99018335     17.038886      24.627831    
   3354000   1.0385824      17.059307      24.410632    
   3355000   1.0039595      17.258185      24.230393    
   3356000   1.0044271      18.046963      24.28618     
   3357000   0.98899951     17.840854      24.182502    
   3358000   1.0369671      17.392934      23.920042    
   3359000   1.0047779      17.325949      23.809075    
   3360000   1.0203633      17.087653      23.697986    
   3361000   1.0133546      17.28799       23.74658     
   3362000   0.98165074     17.534577      23.680935    
   3363000   1.0407068      16.981263      23.56074     
   3364000   1.0204438      17.663785      23.335641    
   3365000   0.96664437     16.934059      23.323467    
   3366000   0.996066       16.664076      23.385244    
   3367000   1.0057158      17.088018      23.547668    
   3368000   1.027443       16.794124      23.496861    
   3369000   1.0497567      17.228337      23.248604    
   3370000   1.0085455      17.262005      23.265774    
   3371000   0.9809145      16.864648      22.966339    
   3372000   0.99764894     16.962352      22.911175    
   3373000   0.98129673     17.218164      23.000953    
   3374000   0.96088275     17.453864      22.741497    
   3375000   1.0169833      17.589807      22.733291    
   3376000   0.99977874     17.203884      22.583641    
   3377000   1.0170064      16.759421      22.592362    
   3378000   1.0107868      17.110046      22.405812    
   3379000   1.0031616      17.277503      22.404026    
   3380000   0.97826864     17.083476      22.330135    
   3381000   0.99760158     17.256751      22.144438    
   3382000   1.0056387      16.791128      22.19375     
   3383000   1.0532513      16.980751      22.133762    
   3384000   1.0127983      17.107639      22.096123    
   3385000   0.97199416     16.855829      21.934122    
   3386000   0.98697314     16.611088      21.876805    
   3387000   1.0282241      17.785378      21.820039    
   3388000   1.0272998      17.21821       21.82832     
   3389000   1.0114105      16.855939      21.892958    
   3390000   0.98705951     16.641111      21.943923    
   3391000   0.97681976     17.603989      22.015992    
   3392000   1.0254123      17.021532      21.852455    
   3393000   1.0188489      17.205312      21.792828    
   3394000   0.989294       17.21807       21.780412    
   3395000   0.98203777     17.439815      21.523478    
   3396000   0.99382635     17.059032      21.477066    
   3397000   0.97426426     16.763446      21.400912    
   3398000   1.0017046      17.004743      21.425289    
   3399000   1.0060475      17.193676      21.316838    
   3400000   0.98900898     17.255684      21.092044    
   3401000   1.0262528      17.117105      21.193095    
   3402000   1.0190406      17.430162      21.199497    
   3403000   1.0453706      16.998304      21.170246    
   3404000   1.0027567      17.040248      21.137108    
   3405000   0.98776776     17.620423      21.268887    
   3406000   1.0239207      17.408684      21.277942    
   3407000   0.99159436     18.028753      21.468771    
   3408000   1.0024145      16.974163      21.329324    
   3409000   0.97292898     17.13578       21.36108     
   3410000   1.0109512      17.196889      21.284985    
   3411000   0.9971283      16.945048      21.233734    
   3412000   1.0024888      17.014809      21.330655    
   3413000   1.015904       17.561207      21.177115    
   3414000   1.0313808      17.073539      21.180408    
   3415000   1.0203498      17.099514      21.3005      
   3416000   0.98768803     17.63618       21.310127    
   3417000   0.98109884     16.563506      21.362263    
   3418000   1.0504382      17.012226      21.319606    
   3419000   1.0342707      17.546631      21.423209    
   3420000   0.96200736     16.986891      21.464761    
   3421000   1.1040743      17.150354      21.500408    
   3422000   0.95565513     17.269836      21.167705    
   3423000   0.99064292     16.954648      21.12131     
   3424000   0.99838453     17.522532      21.135411    
   3425000   1.031103       16.929262      20.982377    
   3426000   0.98663861     17.058547      20.752778    
   3427000   0.99736419     17.150598      20.469512    
   3428000   1.0495943      16.966966      20.456932    
   3429000   0.99713231     17.116291      20.334916    
   3430000   1.0164071      16.881158      20.029957    
   3431000   1.0004535      17.185302      20.145712    
   3432000   1.0313499      17.124524      20.131148    
   3433000   0.98157884     16.87823       20.297675    
   3434000   0.99731784     16.796148      20.47835     
   3435000   0.97699548     16.906272      20.320341    
   3436000   0.99280325     17.367592      20.134071    
   3437000   0.97699365     17.356801      20.159964    
   3438000   0.97890527     17.046299      20.005343    
   3439000   0.95754461     17.275794      19.894016    
   3440000   0.99542542     17.146195      19.894232    
   3441000   0.99988633     17.604214      19.778467    
   3442000   1.0217976      17.37502       19.911212    
   3443000   1.0061752      17.374506      19.837535    
   3444000   1.0457397      16.845863      19.800023    
   3445000   1.0318721      17.023278      19.614955    
   3446000   0.96636333     17.232701      19.785164    
   3447000   1.0109142      16.419177      19.775983    
   3448000   0.97953854     17.007734      19.6291      
   3449000   1.0119657      17.431471      19.63871     
   3450000   0.98876665     16.462125      19.49434     
   3451000   1.0528397      17.321719      19.44964     
   3452000   0.99609617     17.09601       19.469806    
   3453000   0.97332874     16.958834      19.40616     
   3454000   0.97623395     17.651138      19.262836    
   3455000   0.98226632     17.203862      19.133016    
   3456000   0.99567382     17.148465      18.610003    
   3457000   0.99045909     17.500747      18.63632     
   3458000   0.96625281     16.704514      18.705162    
   3459000   1.0123976      16.772795      18.392301    
   3460000   0.95695688     17.11082       18.221545    
   3461000   0.97574558     17.150414      18.271758    
   3462000   0.9934206      16.54342       18.118278    
   3463000   1.0217252      16.945738      18.025803    
   3464000   1.025307       17.138808      17.767065    
   3465000   1.0038385      17.708292      17.5608      
   3466000   1.0032421      18.092915      17.344055    
   3467000   1.0221372      17.067802      17.328085    
   3468000   1.0095647      17.27718       17.34152     
   3469000   0.98483541     17.44787       17.252355    
   3470000   1.0426617      17.36534       17.177093    
   3471000   1.0524408      17.854228      17.167467    
   3472000   0.97634618     16.897255      17.166164    
   3473000   0.96417435     16.784196      16.987414    
   3474000   0.9805717      16.634881      16.845692    
   3475000   1.0132212      17.440942      16.827166    
   3476000   1.0070742      17.046789      16.607653    
   3477000   0.97522224     17.450629      16.541459    
   3478000   1.0022871      17.121013      16.616945    
   3479000   1.0109341      17.653908      16.513155    
   3480000   1.0208554      17.268464      16.37058     
   3481000   1.0312495      17.132367      16.180984    
   3482000   0.99048546     17.408414      15.928002    
   3483000   0.99788392     17.436451      16.098628    
   3484000   1.0069983      17.198172      16.12772     
   3485000   0.96336078     17.252088      16.191795    
   3486000   0.98528003     17.315457      16.139465    
   3487000   1.0022894      17.079656      16.06763     
   3488000   0.97688648     16.603413      16.145415    
   3489000   1.0084925      17.983483      16.121627    
   3490000   1.038479       17.178005      16.09263     
   3491000   1.0096791      17.138061      16.143249    
   3492000   0.99619074     17.155772      16.029449    
   3493000   0.99285121     16.606286      15.844374    
   3494000   0.97741664     16.994745      15.899005    
   3495000   1.0370192      17.146896      15.775966    
   3496000   0.9932225      17.345836      15.760472    
   3497000   1.0068875      17.530874      15.469181    
   3498000   1.0312666      17.077344      15.410676    
   3499000   0.97791759     17.207701      15.503031    
   3500000   1.0394182      17.52749       15.65106     
   3501000   0.99187457     17.378261      15.529898    
   3502000   0.97930088     17.042329      15.293309    
   3503000   0.99204335     16.875308      15.02577     
   3504000   1.0304822      16.592599      14.838621    
   3505000   1.0384171      17.544213      14.577437    
   3506000   1.0103508      17.651215      14.472197    
   3507000   0.98288282     16.525846      14.256515    
   3508000   0.98923825     17.158436      14.25291     
   3509000   1.0026081      16.90109       14.186025    
   3510000   1.028496       18.054093      14.263734    
   3511000   1.012657       16.785845      14.333643    
   3512000   0.97287429     17.011478      14.279312    
   3513000   0.97681263     17.113935      14.39662     
   3514000   1.0005577      17.312874      14.413052    
   3515000   1.0216568      17.18687       14.345373    
   3516000   1.002182       17.142986      14.44305     
   3517000   1.0132113      17.178636      14.388134    
   3518000   0.94320378     16.99978       14.373441    
   3519000   1.0029023      16.772911      14.339847    
   3520000   0.97067664     16.745014      14.33794     
   3521000   1.0158835      16.771164      14.208219    
   3522000   0.97708803     16.954319      14.098311    
   3523000   1.0203853      16.529261      13.962988    
   3524000   1.000101       16.58695       13.929475    
   3525000   0.98243385     17.652835      13.784531    
   3526000   1.0007033      16.771915      13.678058    
   3527000   0.930096       17.288583      13.358175    
   3528000   1.0078299      16.590658      13.22094     
   3529000   1.0029448      17.785301      13.304285    
   3530000   1.0103565      17.514813      13.177269    
   3531000   0.97378864     16.75592       13.130563    
   3532000   1.0197724      17.354549      13.184274    
   3533000   1.028735       17.187561      13.117795    
   3534000   1.0280584      17.273393      13.168395    
   3535000   0.98826628     16.943736      13.084444    
   3536000   0.98020351     16.934906      13.291815    
   3537000   1.0283337      17.294022      13.093604    
   3538000   1.0502962      16.738485      13.005633    
   3539000   0.98763878     16.930521      13.083068    
   3540000   1.0102023      16.862077      13.201824    
   3541000   0.96222721     16.810473      13.018485    
   3542000   0.99704466     17.130087      12.926942    
   3543000   0.99714209     17.090654      12.83079     
   3544000   0.97767807     17.257972      12.747572    
   3545000   0.99849846     16.480394      12.996861    
   3546000   1.0002752      17.297729      12.874977    
   3547000   1.0042608      17.629555      12.824675    
   3548000   1.0022899      16.563741      12.765991    
   3549000   0.97199024     17.519175      13.013177    
   3550000   1.0044863      16.996454      12.857756    
   3551000   1.0312555      17.516597      12.645985    
   3552000   1.0023296      17.41142       12.474703    
   3553000   1.0125008      16.673223      12.464595    
   3554000   0.9534537      17.188798      12.373742    
   3555000   0.96914882     16.529148      12.324755    
   3556000   0.97877579     17.134346      12.543739    
   3557000   1.0214692      16.810329      12.585076    
   3558000   1.0204378      17.802645      12.623573    
   3559000   1.0059776      16.651796      12.51537     
   3560000   1.0116551      17.442679      12.619961    
   3561000   0.99276287     17.11788       12.532321    
   3562000   0.99258199     17.182124      12.507328    
   3563000   0.98040934     16.739111      12.275408    
   3564000   1.0084439      17.102305      12.213019    
   3565000   1.0153938      17.120361      12.294127    
   3566000   0.96475859     17.063964      12.289249    
   3567000   1.0365407      17.71694       12.113469    
   3568000   0.99681167     16.757098      12.063031    
   3569000   1.0127252      17.370045      12.029354    
   3570000   1.0064186      16.853314      11.940512    
   3571000   1.000885       17.044115      11.929356    
   3572000   0.96536487     17.077159      11.674168    
   3573000   0.97530535     17.121919      11.633332    
   3574000   0.97377261     17.255758      11.513945    
   3575000   1.0198425      17.276782      11.343658    
   3576000   1.025131       17.257985      11.121449    
   3577000   0.97606981     17.385219      11.048312    
   3578000   0.98274195     16.906922      10.912803    
   3579000   1.0179135      17.505579      11.13508     
   3580000   1.0533105      17.216545      11.150686    
   3581000   1.0018609      17.190525      11.220893    
   3582000   1.0380761      17.507414      11.412151    
   3583000   1.0461036      17.833294      11.075765    
   3584000   0.9995303      17.235031      10.826463    
   3585000   1.0262509      17.370705      10.883988    
   3586000   1.008832       16.475579      10.912157    
   3587000   0.97929934     17.546915      10.667459    
   3588000   1.0085525      17.234727      10.505192    
   3589000   0.94415509     16.697734      10.597696    
   3590000   1.0027601      17.107102      10.287423    
   3591000   0.98946124     16.834298      10.337112    
   3592000   0.98631247     16.973856      10.366605    
   3593000   1.0476038      17.390086      10.287647    
   3594000   0.9424879      17.431604      9.998119     
   3595000   1.0249128      17.077304      9.9138692    
   3596000   0.96722276     16.754455      10.003788    
   3597000   1.0162178      16.878468      9.8994952    
   3598000   1.0148594      17.311674      9.7667316    
   3599000   1.0026161      17.527329      9.6721205    
   3600000   0.98625955     17.599016      9.6392248    
   3601000   1.0003309      17.003327      9.596996     
   3602000   0.97481397     16.970436      9.5604853    
   3603000   0.97806691     16.928086      9.6405851    
   3604000   1.0448199      17.287925      9.602795     
   3605000   0.98419889     17.164718      9.6179605    
   3606000   1.0771583      16.99115       9.5233501    
   3607000   1.0441574      17.329447      9.3942461    
   3608000   1.0032665      17.105478      9.3987318    
   3609000   1.0632821      17.508587      9.3744363    
   3610000   0.97580615     16.935716      9.2297103    
   3611000   0.97711322     16.72967       9.1842128    
   3612000   1.0098378      17.148094      8.9391361    
   3613000   1.0283907      17.347073      9.1582056    
   3614000   0.96276863     17.709244      9.0521129    
   3615000   1.0052487      16.525198      8.8807538    
   3616000   1.0116217      16.680564      8.9419753    
   3617000   0.98010259     16.471328      9.0662577    
   3618000   0.99672725     17.18574       9.0850049    
   3619000   1.0210135      16.818888      9.1055185    
   3620000   0.9853818      17.075663      9.1604219    
   3621000   1.0016847      16.963125      9.2297713    
   3622000   1.0138435      17.118585      9.1253373    
   3623000   1.0204166      16.905353      8.8793854    
   3624000   0.98430122     16.870044      8.9330779    
   3625000   1.0213881      17.379114      9.0078722    
   3626000   0.97603556     17.118306      8.9265958    
   3627000   1.0045268      16.905531      8.8420975    
   3628000   1.0184383      17.206105      9.0421372    
   3629000   0.99130786     16.842535      9.057219     
   3630000   1.0002238      17.719063      8.9376057    
   3631000   1.0146175      17.807926      8.9135589    
   3632000   1.006735       17.410979      8.7645763    
   3633000   0.9630616      17.402668      8.804333     
   3634000   1.0300959      17.44193       8.8865273    
   3635000   0.97572261     17.312656      8.7934014    
   3636000   1.0106016      17.024401      8.7572774    
   3637000   0.97930986     16.827182      8.6874183    
   3638000   1.0090338      16.823623      8.7036764    
   3639000   1.0156485      17.018775      8.6834686    
   3640000   1.0286904      17.186173      8.5150261    
   3641000   1.0176701      17.324168      8.3159854    
   3642000   0.95844781     16.907048      8.4118211    
   3643000   0.99553281     16.419297      8.2113398    
   3644000   1.0077538      17.498761      8.1036885    
   3645000   1.0208289      17.190352      8.0206554    
   3646000   1.0267135      16.973593      7.8094878    
   3647000   0.9907518      17.172256      7.6454916    
   3648000   1.0292836      16.447009      7.4144584    
   3649000   0.95834048     16.885867      7.1768543    
Fix halt condition for fix-id 3 met on step 3650000 with value 6.968654658527682 (src/fix_halt.cpp:237)
   3650000   0.96354478     16.715962      6.9686547    
Loop time of 6292.46 on 2 procs for 3550000 steps with 1100 atoms

Performance: 487440.910 tau/day, 564.168 timesteps/s
121.3% CPU use with 1 MPI tasks x 2 OpenMP threads

MPI task timing breakdown:
Section |  min time  |  avg time  |  max time  |%varavg| %total
---------------------------------------------------------------
Pair    | 1004.1     | 1004.1     | 1004.1     |   0.0 | 15.96
Bond    | 84.007     | 84.007     | 84.007     |   0.0 |  1.34
Neigh   | 5003.4     | 5003.4     | 5003.4     |   0.0 | 79.51
Comm    | 1.4365     | 1.4365     | 1.4365     |   0.0 |  0.02
Output  | 9.055      | 9.055      | 9.055      |   0.0 |  0.14
Modify  | 175.75     | 175.75     | 175.75     |   0.0 |  2.79
Other   |            | 14.65      |            |       |  0.23

Nlocal:           1100 ave        1100 max        1100 min
Histogram: 1 0 0 0 0 0 0 0 0 0
Nghost:              0 ave           0 max           0 min
Histogram: 1 0 0 0 0 0 0 0 0 0
Neighs:         243518 ave      243518 max      243518 min
Histogram: 1 0 0 0 0 0 0 0 0 0

Total # of neighbors = 243518
Ave neighs/atom = 221.38
Ave special neighs/atom = 1.9981818
Neighbor list builds = 34880
Dangerous builds = 0

# This simulation is done
# Move onto the next one
clear
  using 2 OpenMP thread(s) per MPI task
package omp 0
using multi-threaded neighbor list subroutines
next f
jump SELF

###
# Reference paper:
# K. Kremer and G. S. Grest
# Dynamics of entangled linear polymer melts: A molecular-dynamics simulation
# J Chem Phys 92, 5057 (1990)

##################################
# MIHIR: for branched polymers
# LJ minimum first to expand and explore, then collapse
###

###
# Looping through the various linear polymers to simulate,
# define variables to switch through
# variable f index bb100nuc0bl0bn0d30tot100 bb200nuc0bl0bn0d30tot200 bb300nuc0bl0bn0d30tot300 bb400nuc0bl0bn0d30tot400 bb500nuc0bl0bn0d30tot500 bb600nuc0bl0bn0d30tot600 bb700nuc0bl0bn0d30tot700 bb800nuc0bl0bn0d30tot800 bb900nuc0bl0bn0d30tot900 bb1000nuc0bl0bn0d30tot1000 bb1100nuc0bl0bn0d30tot1100 bb1200nuc0bl0bn0d30tot1200
variable f index bb500nuc0bl0bn0d30tot500 bb600nuc0bl0bn0d30tot600 bb700nuc0bl0bn0d30tot700 bb800nuc0bl0bn0d30tot800 bb900nuc0bl0bn0d30tot900 bb1000nuc0bl0bn0d30tot1000 bb1100nuc0bl0bn0d30tot1100 bb1200nuc0bl0bn0d30tot1200
###


###
# Box and units  (use LJ units and periodic boundaries)
###

units lj
log linear/logs2/$f.log
log linear/logs2/bb1200nuc0bl0bn0d30tot1200.log
