#atom_style bond #no stiffness
atom_style angle #with stiffness

boundary        p p p
###
# Pair interactions require lists of neighbours to be calculated
###

#neighbor 0.3 bin
neighbor 4 bin

neigh_modify every 1 delay 1 check yes
atom_modify sort 0 0
### Generate RESTART file, SPECIAL format, not a .txt file ###
### Useful if simulation crashes ###

restart 1000000 linear/restarts2/$f.restart
restart 1000000 linear/restarts2/bb300nuc0bl0bn0d30tot300.restart
#############################



### READ "start" data file ###

read_data linear/$f.dat
read_data linear/bb300nuc0bl0bn0d30tot300.dat
Reading data file ...
  orthogonal box = (-1000 -1000 -1000) to (1000 1000 1000)
  1 by 1 by 1 MPI processor grid
  reading atoms ...
  300 atoms
  scanning bonds ...
  1 = max bonds/atom
  scanning angles ...
  1 = max angles/atom
  reading bonds ...
  299 bonds
  reading angles ...
  298 angles
Finding 1-2 1-3 1-4 neighbors ...
  special bond factors lj:    0        0        0       
  special bond factors coul:  0        0        0       
     2 = max # of 1-2 neighbors
     2 = max # of 1-3 neighbors
     4 = max # of 1-4 neighbors
     6 = max # of special neighbors
  special bonds CPU = 0.001 seconds
  read_data CPU = 0.032 seconds

######################

### READ "REstart" data file ###

######################



###
# Define groups (atom type 1 is group 'all')
###
group all type 1
300 atoms in group all


###
# Dump configs - "simple dumpings"
###

###
# Dump configs + box coords
###

dump   1   all   custom   1000  linear/trjs2/$f.lammpstrj  id  x y z  ix iy iz
dump   1   all   custom   1000  linear/trjs2/bb300nuc0bl0bn0d30tot300.lammpstrj  id  x y z  ix iy iz
dump_modify   1   format line "%d %.5f %.5f %.5f %d %d %d"

########################################################################


###################################################################
# Stiffness term
#
# E = K * (1+cos(theta)), K>0
#
angle_style   cosine
#change this coefficient to change stiffness (e.g. 1,5,10)
angle_coeff   1 1.0
###################################################################

###################################################################
# Pair interaction between non-bonded atoms
#
#  Lennard-Jones 12-6 potential with cutoff:
#  potential E=4epsilon[ (sigma/r)^12 - (sigma/r)^6]  for r<r_cut
#
#  1.12246 = 2^(1/6) is the minimum of the potential


pair_style      lj/cut 1.12246152962189
#pair_style      lj/cut 3

#
#  pair_modify shift yes adds a constant to the potential such

#  that E(r_cut)=0. Forces remains unchanged.
#

pair_modify     shift yes

#
#  pair_coeff for lj/cut, specify 4:
#    * atom type interacting with
#    * atom type
#    * epsilon (energy units)
#    * sigma (distance units)
#

pair_coeff      1 1 1.0 1.0
###################################################################

###################################################################
# Pair interaction between non-bonded atoms
#
#  soft potential, for PUSHING apart overlapping atoms
#  potential E=A*(1 + cos(pi*r/r_c))
#
#  1.12246 = 2^(1/6) is the cut-off r_c

#pair_style     soft 1.12246152962189

#
#  pair_coeff for soft, specify 3:
#    * atom type interacting with
#    * atom type
#    * A
#
#

#pair_coeff      1 1 100.0
###################################################################

###################################################################
# Pair interaction between bonded atoms
#
# Fene potential + Lennard Jones 12-6:

#
#  E= - 0.5 K R0^2 ln[ 1- (r/R0)^2]
#     + 4epsilon[ (sigma/r)^12 - (sigma/r)^6] + epsilon
#

bond_style   fene


#
# For style fene, specify:
#   * bond type
#   * K (energy/distance^2)
#   * R0 (distance)
#   * epsilon (energy)  (LJ component)
#   * sigma (distance)  (LJ component)
#


special_bonds fene #<=== I M P O R T A N T (new command)
Finding 1-2 1-3 1-4 neighbors ...
  special bond factors lj:    0        1        1       
  special bond factors coul:  0        1        1       
     2 = max # of 1-2 neighbors
     6 = max # of special neighbors
  special bonds CPU = 0.000 seconds

bond_coeff   1   30   2   1.0   1.0


###################################################

###################################################################
# Pair interaction between bonded atoms
#
# Harmonic potential:
#
#  E= K * (R-R0)^2
#

#bond_style   harmonic

#
# For style harmonic, specify:
#   * bond type
#   * K (energy/distance^2)
#   * R0 (distance)
#

#bond_coeff   1   60.0   1.0
#bond_coeff   2   harmonic 0.1   1.0

###################################################
compute 1 all gyration
variable rog equal c_1
#compute 2 all coord/atom cutoff 1.1

#dump 2 all custom 10000 contact_number.dump id c_2


###
# Set up fixes
###
thermo_style   custom   step  temp enthalpy c_1
fix 1 all nve   ###NVE ensemble

fix 2 all   langevin   1.0 1.0 1.0  778655   ###Langevin integrator Tstart Tstop 1/friction rndseed


##### Sample thermodynamic info  (temperature, energy, pressure, etc.) #####
thermo 1000









############################################################################

###
# set timestep of integrator

timestep 0.01

###
# run integration for a number of steps
###
#run 0
#variable r equal c_1
#if "$r < 63.1" then "quit 1"

# lj potential minimum, cause molecule to explore
run 100000
Generated 0 of 0 mixed pair_coeff terms from geometric mixing rule
Last active /omp style is angle_style cosine/omp
Neighbor list info ...
  update: every = 1 steps, delay = 1 steps, check = yes
  max neighbors/atom: 2000, page size: 100000
  master list distance cutoff = 5.1224615
  ghost atom cutoff = 5.1224615
  binsize = 2.5612308, bins = 781 781 781
  1 neighbor lists, perpetual/occasional/extra = 1 0 0
  (1) pair lj/cut/omp, perpetual
      attributes: half, newton on, omp
      pair build: half/bin/newton/omp
      stencil: half/bin/3d
      bin: standard
WARNING: Communication cutoff 5.12246152962189 is shorter than a bond length based estimate of 5.455. This may lead to errors. (src/comm.cpp:723)
Per MPI rank memory allocation (min/avg/max) = 1860 | 1860 | 1860 Mbytes
   Step          Temp         Enthalpy         c_1      
         0   0              13.379946      75.000771    
      1000   0.92684249     18.798054      74.634053    
      2000   1.0162975      19.321286      74.29367     
      3000   0.9998326      19.183486      73.659545    
      4000   0.92766704     18.64315       73.007671    
      5000   0.93689004     19.002261      72.60282     
      6000   0.97322456     18.328356      72.108971    
      7000   1.0291336      18.293501      71.654153    
      8000   0.95872693     18.900443      71.084631    
      9000   1.0593382      19.474904      70.523271    
     10000   0.97421809     19.131868      69.996817    
     11000   0.9827148      20.289148      69.778766    
     12000   0.94964688     19.683015      69.024973    
     13000   0.96903902     19.994065      68.75455     
     14000   1.0236189      19.652878      68.570501    
     15000   0.99949412     18.645182      68.441786    
     16000   0.93481501     19.570572      68.638253    
     17000   1.1664346      18.799027      68.403269    
     18000   1.0593424      18.644965      68.17715     
     19000   1.0425593      19.833509      67.883246    
     20000   1.0315903      20.096586      67.177965    
     21000   1.0064736      19.178091      66.650566    
     22000   1.0293262      19.335229      66.23127     
     23000   1.078319       20.896055      65.86611     
     24000   1.0301445      20.044061      65.766153    
     25000   0.97626297     21.039332      65.366195    
     26000   0.95379575     19.944313      65.329575    
     27000   1.0062287      19.807268      65.213638    
     28000   0.98994587     20.366524      64.721075    
     29000   0.98614656     20.714225      63.934764    
     30000   1.0753727      20.710955      63.661848    
     31000   0.91020739     20.332446      63.597135    
     32000   1.0332042      20.396346      63.358504    
     33000   1.0878863      20.715488      63.257933    
     34000   0.96627893     19.357282      62.621141    
     35000   0.94739655     19.638031      62.396927    
     36000   0.8441017      20.499254      61.996699    
     37000   1.0729187      20.524868      61.923133    
     38000   0.99955815     19.14523       61.448751    
     39000   1.0362469      20.605305      61.165013    
     40000   0.96320204     19.082692      60.854807    
     41000   1.0423819      20.170957      60.434435    
     42000   0.96534576     19.726205      60.099041    
     43000   0.98325682     19.608833      60.04005     
     44000   0.88290797     19.86939       59.901941    
     45000   0.94881256     20.239601      59.862049    
     46000   0.98295378     19.733039      59.446814    
     47000   1.0373237      20.257006      59.389302    
     48000   1.0243773      19.90876       59.130511    
     49000   0.99124949     20.298267      59.370825    
     50000   1.0432398      19.839666      59.502797    
     51000   0.99525367     20.977016      59.342439    
     52000   1.071999       19.849524      59.067759    
     53000   1.0436495      20.687001      58.801165    
     54000   1.0362581      19.874313      58.599489    
     55000   1.0695139      19.925911      58.29582     
     56000   1.0275551      20.511607      58.507951    
     57000   0.95408469     19.852115      58.304432    
     58000   0.94824349     19.86043       58.124466    
     59000   1.0563117      19.694331      58.039692    
     60000   0.92767872     20.095511      58.137555    
     61000   0.97781167     20.372306      58.438629    
     62000   0.91468901     20.371711      57.974687    
     63000   0.99119325     19.628082      57.784469    
     64000   0.95310765     19.938563      57.651771    
     65000   0.98516315     20.175008      57.669945    
     66000   1.0261312      19.853882      57.496145    
     67000   1.0346248      20.737952      56.972576    
     68000   1.0446032      20.217059      57.122564    
     69000   1.0484077      19.391246      56.839254    
     70000   0.94042216     19.531236      56.834486    
     71000   1.0202542      20.021067      56.881702    
     72000   1.013304       20.388086      56.889532    
     73000   0.98216049     20.030363      56.1795      
     74000   1.0351807      20.161595      56.078964    
     75000   1.0349659      19.386929      55.583403    
     76000   1.0012443      20.504527      55.261658    
     77000   0.93352956     19.869433      55.504384    
     78000   0.9878872      20.539401      55.448383    
     79000   0.95399789     19.750129      55.329313    
     80000   1.0238732      21.215784      55.407576    
     81000   0.96391928     20.1416        55.551119    
     82000   1.0211306      19.480829      55.56055     
     83000   0.92885775     20.700451      55.0717      
     84000   1.0133659      19.833177      54.597948    
     85000   0.98899545     21.124791      54.631532    
     86000   1.0035561      19.580184      54.787085    
     87000   0.94860311     19.960406      54.581428    
     88000   0.92339258     19.613142      54.591267    
     89000   0.90699357     20.182576      54.724604    
     90000   0.88748114     19.641758      54.729058    
     91000   0.97566509     20.089437      54.912555    
     92000   0.98810375     20.3261        54.626474    
     93000   1.0555878      20.962398      54.886828    
     94000   0.98703242     19.82759       54.903502    
     95000   0.99772989     20.971159      54.624971    
     96000   0.97380467     21.05397       54.12257     
     97000   1.1000146      20.213678      53.793903    
     98000   0.94177101     19.733927      54.022463    
     99000   0.95486364     20.144111      53.221851    
    100000   1.0251014      20.524128      52.846896    
Loop time of 604.769 on 2 procs for 100000 steps with 300 atoms

Performance: 142864.452 tau/day, 165.352 timesteps/s
100.8% CPU use with 1 MPI tasks x 2 OpenMP threads

MPI task timing breakdown:
Section |  min time  |  avg time  |  max time  |%varavg| %total
---------------------------------------------------------------
Pair    | 0.47058    | 0.47058    | 0.47058    |   0.0 |  0.08
Bond    | 0.93988    | 0.93988    | 0.93988    |   0.0 |  0.16
Neigh   | 601.2      | 601.2      | 601.2      |   0.0 | 99.41
Comm    | 0.027953   | 0.027953   | 0.027953   |   0.0 |  0.00
Output  | 0.18457    | 0.18457    | 0.18457    |   0.0 |  0.03
Modify  | 1.7638     | 1.7638     | 1.7638     |   0.0 |  0.29
Other   |            | 0.1808     |            |       |  0.03

Nlocal:            300 ave         300 max         300 min
Histogram: 1 0 0 0 0 0 0 0 0 0
Nghost:              0 ave           0 max           0 min
Histogram: 1 0 0 0 0 0 0 0 0 0
Neighs:           1941 ave        1941 max        1941 min
Histogram: 1 0 0 0 0 0 0 0 0 0

Total # of neighbors = 1941
Ave neighs/atom = 6.47
Ave special neighs/atom = 1.9933333
Neighbor list builds = 992
Dangerous builds = 0

# Replace lj potential, now collapse
pair_style      lj/cut 3

# Cutoff simul when gyration under 5
# Variable created with equal requires v_ + 'name'
fix 3 all halt 1000 v_rog < 7

run 5000000
Generated 0 of 0 mixed pair_coeff terms from geometric mixing rule
Last active /omp style is angle_style cosine/omp
Per MPI rank memory allocation (min/avg/max) = 1860 | 1860 | 1860 Mbytes
   Step          Temp         Enthalpy         c_1      
    100000   1.0251014      19.823868      52.846896    
    101000   0.99624313     18.717442      52.701629    
    102000   1.0858987      19.938236      52.551463    
    103000   1.050841       19.431182      52.1623      
    104000   1.1401423      19.77513       51.681008    
    105000   1.0075552      19.159596      51.308979    
    106000   0.99058576     19.432773      50.700688    
    107000   1.1058872      20.340224      50.646492    
    108000   0.95497989     20.599284      50.189995    
    109000   1.0244904      19.978081      50.041355    
    110000   0.98404873     18.788062      49.779951    
    111000   0.92964135     18.490504      49.631883    
    112000   0.93483854     19.655227      48.743203    
    113000   1.0586827      19.615101      48.716783    
    114000   0.9923617      19.650965      48.290329    
    115000   1.0225434      20.14033       47.970114    
    116000   0.99546126     19.74689       47.813858    
    117000   1.0624462      18.902109      48.082431    
    118000   0.97497727     19.363445      48.248296    
    119000   1.0087202      18.962661      48.395637    
    120000   0.9872697      19.498927      48.286253    
    121000   1.0175203      20.076226      47.792196    
    122000   1.0319162      19.428557      47.586976    
    123000   0.96553022     20.025392      47.033109    
    124000   1.0333275      19.876717      46.924502    
    125000   0.99504749     18.718552      46.862485    
    126000   0.96975811     18.45878       46.282381    
    127000   1.0365855      19.353277      46.016083    
    128000   1.0843495      18.970287      45.676121    
    129000   1.0705597      19.509541      45.554748    
    130000   0.94549408     19.565155      45.623114    
    131000   1.0353387      18.466755      45.580255    
    132000   0.9865659      19.874662      45.308182    
    133000   1.0036818      20.016598      44.880808    
    134000   1.0877659      20.074261      44.669651    
    135000   1.053521       19.170151      44.382648    
    136000   1.0371693      19.40993       43.666502    
    137000   0.97266853     18.525055      43.649842    
    138000   1.0206531      19.22081       43.347572    
    139000   1.019247       19.263134      43.139941    
    140000   1.0265602      18.938407      42.649589    
    141000   1.0542035      20.456263      42.426038    
    142000   1.006451       18.18166       42.262804    
    143000   0.95691995     19.811326      42.359317    
    144000   1.0194292      18.363934      41.943232    
    145000   1.0374523      19.073014      41.572901    
    146000   1.0330822      19.783771      41.165803    
    147000   0.9619046      19.103382      40.457345    
    148000   1.041432       19.573507      39.953134    
    149000   0.95860702     18.242132      39.994986    
    150000   0.98090374     19.112088      39.62659     
    151000   1.0671873      19.488792      39.510126    
    152000   0.99705292     18.331676      39.465769    
    153000   0.97455486     18.198455      38.790337    
    154000   1.0254759      19.456894      38.915206    
    155000   0.98715186     18.353327      38.516941    
    156000   1.1130771      19.266819      38.306779    
    157000   1.00739        18.836179      38.24676     
    158000   0.96190648     18.468416      37.749738    
    159000   0.99976998     19.230655      37.232257    
    160000   0.99416461     19.377672      37.20893     
    161000   1.0493445      18.465781      36.902223    
    162000   1.0050708      18.753088      37.041347    
    163000   1.1001965      19.018061      36.767534    
    164000   1.015349       19.258525      36.390981    
    165000   0.99413874     18.814067      36.310976    
    166000   0.99357391     18.837907      36.132982    
    167000   1.0571374      19.310491      35.842132    
    168000   1.0199753      19.367636      35.577859    
    169000   0.99932212     18.928776      35.678864    
    170000   0.99872688     18.872364      35.368799    
    171000   0.95421581     17.780785      35.305704    
    172000   1.0899891      18.403745      35.392018    
    173000   1.0145013      19.242263      35.235779    
    174000   0.95576837     18.642411      34.736415    
    175000   1.07429        19.206557      34.285448    
    176000   0.97937337     18.54017       33.693071    
    177000   0.98840821     18.071229      33.47464     
    178000   0.98003291     17.970244      32.937441    
    179000   1.0738401      18.50999       32.638155    
    180000   0.95931004     18.448758      32.584448    
    181000   0.99365647     18.140442      32.578917    
    182000   0.99569308     18.082352      32.120035    
    183000   0.94093724     18.096341      32.260091    
    184000   0.97555041     19.105376      31.894785    
    185000   1.0612936      18.857937      32.365641    
    186000   1.1010101      18.743169      31.854598    
    187000   1.037053       18.582223      31.921496    
    188000   1.0038565      18.86039       32.280757    
    189000   1.1020984      19.065468      32.305748    
    190000   0.99622256     17.82449       32.305026    
    191000   0.95633758     18.663286      32.470975    
    192000   0.99617399     19.047681      32.758183    
    193000   1.0432315      18.283258      33.105876    
    194000   1.0127099      20.166748      32.648271    
    195000   1.005249       18.394108      32.373155    
    196000   1.0374306      18.128525      32.413294    
    197000   1.0741289      18.817646      32.392567    
    198000   1.0207655      19.060187      32.578415    
    199000   1.1697181      20.046463      31.79857     
    200000   1.0002917      18.223034      31.35515     
    201000   0.94040605     18.420066      30.855877    
    202000   1.0218465      17.843209      30.772978    
    203000   0.98321051     18.943833      30.599158    
    204000   1.0381948      19.540433      30.654559    
    205000   1.0523536      18.446421      30.215217    
    206000   0.9816612      18.624168      29.902499    
    207000   0.97607413     18.654539      29.542258    
    208000   1.007424       18.292344      29.333352    
    209000   0.96097329     18.778952      29.234702    
    210000   1.0337487      18.182245      28.79247     
    211000   0.99389594     18.357428      28.228249    
    212000   0.89501788     18.160203      27.931961    
    213000   0.98421334     17.829382      27.837015    
    214000   0.94614899     18.043974      28.013841    
    215000   0.93812846     18.65148       27.704687    
    216000   1.0721881      18.168502      27.008431    
    217000   0.98538561     18.110774      27.20721     
    218000   1.034058       18.070813      26.604405    
    219000   1.0524595      17.202173      26.197007    
    220000   1.096496       18.100222      25.863286    
    221000   0.95290004     18.332252      25.542842    
    222000   0.88555779     18.071046      24.883299    
    223000   1.065148       17.930971      24.739974    
    224000   1.0968551      18.259627      24.715641    
    225000   1.0746606      19.16043       24.86607     
    226000   1.0082806      17.988261      24.724441    
    227000   1.0006674      17.953164      24.632579    
    228000   1.0744403      18.036722      24.469236    
    229000   1.0452345      17.916058      24.234282    
    230000   0.93285323     18.411157      23.968295    
    231000   1.0382767      17.876854      24.034915    
    232000   1.0208678      17.387164      23.34914     
    233000   1.0334792      19.334587      23.252442    
    234000   0.99857166     17.768146      22.726713    
    235000   0.9821747      18.225269      22.721797    
    236000   0.99382207     18.670058      22.640138    
    237000   0.98632541     17.998208      22.480436    
    238000   0.87986138     17.873547      22.541149    
    239000   1.0331387      18.111577      22.195078    
    240000   0.99056107     18.161745      22.262098    
    241000   0.99840073     18.416046      22.017702    
    242000   1.0173533      18.854276      21.643455    
    243000   0.99251328     18.651652      21.928089    
    244000   0.98373499     18.087733      21.847574    
    245000   1.0094777      18.051185      21.484187    
    246000   1.0007204      18.518328      20.746171    
    247000   0.93030832     17.866235      20.640628    
    248000   1.0240597      18.303377      20.194081    
    249000   1.0235434      18.011564      19.867391    
    250000   0.99905116     17.937031      19.387101    
    251000   1.0479977      17.271534      18.884681    
    252000   0.94892904     17.104896      18.951391    
    253000   0.96871893     17.305616      18.828006    
    254000   1.0501905      18.378863      18.400743    
    255000   1.0232342      17.710262      18.026698    
    256000   0.98742092     18.332508      17.776288    
    257000   0.9504614      18.007999      18.027632    
    258000   1.030212       17.897292      18.231544    
    259000   0.9767289      17.770349      18.667953    
    260000   0.97132365     18.250388      18.539595    
    261000   0.95260469     17.79963       18.196669    
    262000   0.93616153     18.133904      17.903593    
    263000   1.0123267      18.226639      17.359829    
    264000   0.96041183     17.975767      16.971206    
    265000   0.92355669     17.631844      16.762931    
    266000   0.99631091     17.546148      16.613193    
    267000   1.0123795      17.656667      16.166152    
    268000   0.97584789     17.179432      15.945633    
    269000   1.0334278      17.886544      15.508091    
    270000   1.0364544      17.456301      15.382717    
    271000   1.0278902      18.640164      15.647979    
    272000   0.99275995     17.709638      15.486806    
    273000   0.99347738     18.163322      15.515877    
    274000   0.95902734     17.768308      15.336861    
    275000   1.0747697      16.859537      15.630352    
    276000   0.9454277      17.799834      15.628234    
    277000   1.044091       18.742494      15.250975    
    278000   1.0191699      18.855699      14.892235    
    279000   1.074869       18.520509      14.542924    
    280000   1.0178801      18.747627      14.493178    
    281000   0.93398231     16.936413      14.32212     
    282000   0.97879704     18.548047      13.514104    
    283000   1.0228804      17.786527      12.943361    
    284000   1.0136864      17.448717      12.831778    
    285000   1.0704536      19.653589      12.574757    
    286000   1.0022157      17.2218        12.225183    
    287000   0.96081111     17.851017      11.906377    
    288000   0.95229099     18.060414      11.811961    
    289000   1.084394       18.182228      11.686075    
    290000   0.99289489     16.688223      11.293748    
    291000   0.95077989     16.811924      11.365571    
    292000   0.99135692     18.16617       11.106646    
    293000   1.0313987      18.585537      10.350503    
    294000   0.96452707     18.068702      9.8728321    
    295000   0.90872038     17.826431      9.5893416    
    296000   0.98347087     17.907987      9.5677669    
    297000   1.0035039      18.766871      9.4053374    
    298000   1.054623       19.016818      9.2645962    
    299000   0.94967341     18.495748      9.7531739    
    300000   0.95063829     17.890881      9.3849137    
    301000   1.0411774      16.89303       8.8535223    
    302000   0.99054556     17.312927      8.3398173    
    303000   0.99039214     18.199605      7.9657759    
    304000   1.08031        18.844287      7.2951628    
Fix halt condition for fix-id 3 met on step 305000 with value 6.63819311624722 (src/fix_halt.cpp:237)
    305000   1.0619266      17.520663      6.6381931    
Loop time of 427.171 on 2 procs for 205000 steps with 300 atoms

Performance: 414635.304 tau/day, 479.902 timesteps/s
104.2% CPU use with 1 MPI tasks x 2 OpenMP threads

MPI task timing breakdown:
Section |  min time  |  avg time  |  max time  |%varavg| %total
---------------------------------------------------------------
Pair    | 9.5565     | 9.5565     | 9.5565     |   0.0 |  2.24
Bond    | 2.0279     | 2.0279     | 2.0279     |   0.0 |  0.47
Neigh   | 410.98     | 410.98     | 410.98     |   0.0 | 96.21
Comm    | 0.057737   | 0.057737   | 0.057737   |   0.0 |  0.01
Output  | 0.39548    | 0.39548    | 0.39548    |   0.0 |  0.09
Modify  | 3.7576     | 3.7576     | 3.7576     |   0.0 |  0.88
Other   |            | 0.3968     |            |       |  0.09

Nlocal:            300 ave         300 max         300 min
Histogram: 1 0 0 0 0 0 0 0 0 0
Nghost:              0 ave           0 max           0 min
Histogram: 1 0 0 0 0 0 0 0 0 0
Neighs:          22220 ave       22220 max       22220 min
Histogram: 1 0 0 0 0 0 0 0 0 0

Total # of neighbors = 22220
Ave neighs/atom = 74.066667
Ave special neighs/atom = 1.9933333
Neighbor list builds = 1739
Dangerous builds = 0

# This simulation is done
# Move onto the next one
clear
  using 2 OpenMP thread(s) per MPI task
package omp 0
using multi-threaded neighbor list subroutines
next f
jump SELF

###
# Reference paper:
# K. Kremer and G. S. Grest
# Dynamics of entangled linear polymer melts: A molecular-dynamics simulation
# J Chem Phys 92, 5057 (1990)

##################################
# MIHIR: for branched polymers
# LJ minimum first to expand and explore, then collapse
###

###
# Looping through the various linear polymers to simulate,
# define variables to switch through
variable f index bb100nuc0bl0bn0d30tot100 bb200nuc0bl0bn0d30tot200 bb300nuc0bl0bn0d30tot300 bb400nuc0bl0bn0d30tot400 bb500nuc0bl0bn0d30tot500 bb600nuc0bl0bn0d30tot600 bb700nuc0bl0bn0d30tot700 bb800nuc0bl0bn0d30tot800 bb900nuc0bl0bn0d30tot900 bb1000nuc0bl0bn0d30tot1000 bb1100nuc0bl0bn0d30tot1100 bb1200nuc0bl0bn0d30tot1200
###


###
# Box and units  (use LJ units and periodic boundaries)
###

units lj
log linear/logs2/$f.log
log linear/logs2/bb400nuc0bl0bn0d30tot400.log
