#atom_style bond #no stiffness
atom_style angle #with stiffness

boundary        p p p
###
# Pair interactions require lists of neighbours to be calculated
###

#neighbor 0.3 bin
neighbor 4 bin

neigh_modify every 1 delay 1 check yes
atom_modify sort 0 0
### Generate RESTART file, SPECIAL format, not a .txt file ###
### Useful if simulation crashes ###

restart 1000000 linear/restarts2/$f.restart
restart 1000000 linear/restarts2/bb600nuc0bl0bn0d30tot600.restart
#############################



### READ "start" data file ###

read_data linear/$f.dat
read_data linear/bb600nuc0bl0bn0d30tot600.dat
Reading data file ...
  orthogonal box = (-1000 -1000 -1000) to (1000 1000 1000)
  1 by 1 by 1 MPI processor grid
  reading atoms ...
  600 atoms
  scanning bonds ...
  1 = max bonds/atom
  scanning angles ...
  1 = max angles/atom
  reading bonds ...
  599 bonds
  reading angles ...
  598 angles
Finding 1-2 1-3 1-4 neighbors ...
  special bond factors lj:    0        0        0       
  special bond factors coul:  0        0        0       
     2 = max # of 1-2 neighbors
     2 = max # of 1-3 neighbors
     4 = max # of 1-4 neighbors
     6 = max # of special neighbors
  special bonds CPU = 0.001 seconds
  read_data CPU = 0.043 seconds

######################

### READ "REstart" data file ###

######################



###
# Define groups (atom type 1 is group 'all')
###
group all type 1
600 atoms in group all


###
# Dump configs - "simple dumpings"
###

###
# Dump configs + box coords
###

dump   1   all   custom   1000  linear/trjs2/$f.lammpstrj  id  x y z  ix iy iz
dump   1   all   custom   1000  linear/trjs2/bb600nuc0bl0bn0d30tot600.lammpstrj  id  x y z  ix iy iz
dump_modify   1   format line "%d %.5f %.5f %.5f %d %d %d"

########################################################################


###################################################################
# Stiffness term
#
# E = K * (1+cos(theta)), K>0
#
angle_style   cosine
#change this coefficient to change stiffness (e.g. 1,5,10)
angle_coeff   1 1.0
###################################################################

###################################################################
# Pair interaction between non-bonded atoms
#
#  Lennard-Jones 12-6 potential with cutoff:
#  potential E=4epsilon[ (sigma/r)^12 - (sigma/r)^6]  for r<r_cut
#
#  1.12246 = 2^(1/6) is the minimum of the potential


pair_style      lj/cut 1.12246152962189
#pair_style      lj/cut 3

#
#  pair_modify shift yes adds a constant to the potential such

#  that E(r_cut)=0. Forces remains unchanged.
#

pair_modify     shift yes

#
#  pair_coeff for lj/cut, specify 4:
#    * atom type interacting with
#    * atom type
#    * epsilon (energy units)
#    * sigma (distance units)
#

pair_coeff      1 1 1.0 1.0
###################################################################

###################################################################
# Pair interaction between non-bonded atoms
#
#  soft potential, for PUSHING apart overlapping atoms
#  potential E=A*(1 + cos(pi*r/r_c))
#
#  1.12246 = 2^(1/6) is the cut-off r_c

#pair_style     soft 1.12246152962189

#
#  pair_coeff for soft, specify 3:
#    * atom type interacting with
#    * atom type
#    * A
#
#

#pair_coeff      1 1 100.0
###################################################################

###################################################################
# Pair interaction between bonded atoms
#
# Fene potential + Lennard Jones 12-6:

#
#  E= - 0.5 K R0^2 ln[ 1- (r/R0)^2]
#     + 4epsilon[ (sigma/r)^12 - (sigma/r)^6] + epsilon
#

bond_style   fene


#
# For style fene, specify:
#   * bond type
#   * K (energy/distance^2)
#   * R0 (distance)
#   * epsilon (energy)  (LJ component)
#   * sigma (distance)  (LJ component)
#


special_bonds fene #<=== I M P O R T A N T (new command)
Finding 1-2 1-3 1-4 neighbors ...
  special bond factors lj:    0        1        1       
  special bond factors coul:  0        1        1       
     2 = max # of 1-2 neighbors
     6 = max # of special neighbors
  special bonds CPU = 0.000 seconds

bond_coeff   1   30   2   1.0   1.0


###################################################

###################################################################
# Pair interaction between bonded atoms
#
# Harmonic potential:
#
#  E= K * (R-R0)^2
#

#bond_style   harmonic

#
# For style harmonic, specify:
#   * bond type
#   * K (energy/distance^2)
#   * R0 (distance)
#

#bond_coeff   1   60.0   1.0
#bond_coeff   2   harmonic 0.1   1.0

###################################################
compute 1 all gyration
variable rog equal c_1
#compute 2 all coord/atom cutoff 1.1

#dump 2 all custom 10000 contact_number.dump id c_2


###
# Set up fixes
###
thermo_style   custom   step  temp enthalpy c_1
fix 1 all nve   ###NVE ensemble

fix 2 all   langevin   1.0 1.0 1.0  778655   ###Langevin integrator Tstart Tstop 1/friction rndseed


##### Sample thermodynamic info  (temperature, energy, pressure, etc.) #####
thermo 1000









############################################################################

###
# set timestep of integrator

timestep 0.01

###
# run integration for a number of steps
###
#run 0
#variable r equal c_1
#if "$r < 63.1" then "quit 1"

# lj potential minimum, cause molecule to explore
run 100000
Generated 0 of 0 mixed pair_coeff terms from geometric mixing rule
Last active /omp style is angle_style cosine/omp
Neighbor list info ...
  update: every = 1 steps, delay = 1 steps, check = yes
  max neighbors/atom: 2000, page size: 100000
  master list distance cutoff = 5.1224615
  ghost atom cutoff = 5.1224615
  binsize = 2.5612308, bins = 781 781 781
  1 neighbor lists, perpetual/occasional/extra = 1 0 0
  (1) pair lj/cut/omp, perpetual
      attributes: half, newton on, omp
      pair build: half/bin/newton/omp
      stencil: half/bin/3d
      bin: standard
WARNING: Communication cutoff 5.12246152962189 is shorter than a bond length based estimate of 5.455. This may lead to errors. (src/comm.cpp:723)
Per MPI rank memory allocation (min/avg/max) = 1860 | 1860 | 1860 Mbytes
   Step          Temp         Enthalpy         c_1      
         0   0              13.403768      150.00039    
      1000   1.0024218      19.006972      149.96432    
      2000   1.0109781      19.496849      149.93705    
      3000   1.0278137      19.002375      149.89422    
      4000   0.95054103     18.78428       149.63052    
      5000   1.0115922      18.434545      149.29435    
      6000   0.97643669     19.46091       149.08634    
      7000   0.96305252     18.566503      148.96291    
      8000   0.95336828     19.212972      148.80642    
      9000   0.99818002     18.465003      148.58657    
     10000   1.0193055      18.632193      148.26094    
     11000   1.0222594      18.980317      147.88864    
     12000   1.0052458      19.125149      147.72264    
     13000   1.004765       18.843456      147.3135     
     14000   0.98354474     19.096913      147.18007    
     15000   1.0032836      18.420648      146.63638    
     16000   0.96626752     18.594742      146.58901    
     17000   0.97592697     19.426557      146.30742    
     18000   1.0040774      19.807034      146.17656    
     19000   1.0094411      18.564166      146.10321    
     20000   0.96570385     18.831881      145.96707    
     21000   1.0104763      18.835327      145.74236    
     22000   1.0039216      19.562659      145.81778    
     23000   1.0064402      18.932031      145.61433    
     24000   1.0197283      19.024277      145.29752    
     25000   1.0054764      19.361333      145.34866    
     26000   0.910628       18.896968      145.13888    
     27000   1.0443934      19.792878      144.6677     
     28000   1.0076245      19.857501      144.4827     
     29000   1.0381916      19.160997      144.08354    
     30000   0.94426185     19.54061       144.21555    
     31000   0.98066378     19.225682      143.77909    
     32000   0.97685261     19.85807       143.80532    
     33000   0.98412383     19.51572       143.64456    
     34000   1.0166355      19.169318      143.56541    
     35000   0.96958687     19.487508      143.46513    
     36000   0.98851131     19.264847      143.18894    
     37000   0.9880379      19.513341      142.69554    
     38000   0.99208599     18.82114       142.53744    
     39000   1.0666852      19.784116      142.34527    
     40000   0.95548856     19.394967      142.13416    
     41000   0.96648735     19.566894      141.7478     
     42000   1.0350186      19.398835      141.47704    
     43000   1.0488162      19.543053      141.37858    
     44000   1.0110044      19.348317      141.20101    
     45000   0.99362362     19.336092      141.33673    
     46000   0.97307359     19.63544       141.1747     
     47000   1.0092128      20.114896      141.06933    
     48000   0.99972129     19.732051      140.73935    
     49000   0.97993412     19.491186      140.80258    
     50000   1.0115426      19.563092      140.33419    
     51000   0.96156962     19.313804      140.18349    
     52000   1.0097593      19.529711      139.8575     
     53000   0.98791866     19.622041      139.7226     
     54000   0.99342005     19.697402      139.58973    
     55000   0.98724492     18.850769      139.3285     
     56000   1.0260295      19.711087      138.8836     
     57000   0.99007605     19.983566      138.84266    
     58000   1.0440172      19.907208      138.56102    
     59000   0.95135733     19.68497       138.45116    
     60000   1.0211577      19.669653      138.55932    
     61000   1.0129481      19.756603      138.37546    
     62000   0.99414372     19.852818      137.97108    
     63000   0.95715253     19.736484      137.87015    
     64000   0.98960632     19.290769      137.64551    
     65000   1.0328687      19.513256      137.34771    
     66000   1.0438959      19.810389      137.41566    
     67000   1.0331107      19.001961      137.2878     
     68000   1.0095719      19.449919      137.25169    
     69000   0.97060705     19.942929      137.04689    
     70000   1.0646508      20.361588      136.78333    
     71000   1.0175828      19.892094      136.82073    
     72000   1.0160494      19.526399      136.77414    
     73000   0.96640917     19.356587      136.84417    
     74000   1.0416054      19.792302      136.71672    
     75000   1.0061305      19.477595      136.58436    
     76000   0.99187977     19.776189      136.48197    
     77000   1.0810958      19.460713      136.65764    
     78000   0.9270604      19.076917      136.46109    
     79000   1.0239317      19.17132       136.16932    
     80000   0.98836811     19.517886      135.85225    
     81000   1.0480784      20.323573      135.93203    
     82000   1.048224       19.392801      135.72071    
     83000   1.033382       19.499043      135.92384    
     84000   0.99429207     19.827227      135.81309    
     85000   1.0677023      19.578164      135.70017    
     86000   1.0055647      19.834801      135.86492    
     87000   0.94539321     19.240271      135.58401    
     88000   1.0483605      19.627543      135.1216     
     89000   0.94102366     19.427401      134.66735    
     90000   1.0597801      19.803019      134.63945    
     91000   0.99203799     19.56773       134.46374    
     92000   1.0107587      20.053768      134.5219     
     93000   0.98836298     19.94197       134.43209    
     94000   0.9267553      20.027733      134.42633    
     95000   1.0069625      19.832558      134.35106    
     96000   1.0263394      19.945415      134.53717    
     97000   1.005129       19.590625      134.41215    
     98000   0.9791378      19.498639      134.1212     
     99000   0.94847648     19.65465       134.12247    
    100000   0.97555345     20.063138      134.0648     
Loop time of 305.521 on 2 procs for 100000 steps with 600 atoms

Performance: 282795.447 tau/day, 327.310 timesteps/s
101.9% CPU use with 1 MPI tasks x 2 OpenMP threads

MPI task timing breakdown:
Section |  min time  |  avg time  |  max time  |%varavg| %total
---------------------------------------------------------------
Pair    | 0.53407    | 0.53407    | 0.53407    |   0.0 |  0.17
Bond    | 1.2165     | 1.2165     | 1.2165     |   0.0 |  0.40
Neigh   | 300.77     | 300.77     | 300.77     |   0.0 | 98.44
Comm    | 0.021423   | 0.021423   | 0.021423   |   0.0 |  0.01
Output  | 0.17832    | 0.17832    | 0.17832    |   0.0 |  0.06
Modify  | 2.6093     | 2.6093     | 2.6093     |   0.0 |  0.85
Other   |            | 0.1918     |            |       |  0.06

Nlocal:            600 ave         600 max         600 min
Histogram: 1 0 0 0 0 0 0 0 0 0
Nghost:              0 ave           0 max           0 min
Histogram: 1 0 0 0 0 0 0 0 0 0
Neighs:           3052 ave        3052 max        3052 min
Histogram: 1 0 0 0 0 0 0 0 0 0

Total # of neighbors = 3052
Ave neighs/atom = 5.0866667
Ave special neighs/atom = 1.9966667
Neighbor list builds = 1010
Dangerous builds = 0

# Replace lj potential, now collapse
pair_style      lj/cut 3

# Cutoff simul when gyration under 5
# Variable created with equal requires v_ + 'name'
fix 3 all halt 1000 v_rog < 7

run 5000000
Generated 0 of 0 mixed pair_coeff terms from geometric mixing rule
Last active /omp style is angle_style cosine/omp
Per MPI rank memory allocation (min/avg/max) = 1860 | 1860 | 1860 Mbytes
   Step          Temp         Enthalpy         c_1      
    100000   0.97555345     19.564507      134.0648     
    101000   0.99911944     19.213701      133.98762    
    102000   0.97903905     19.467762      133.77027    
    103000   1.044954       19.468631      133.40492    
    104000   0.96602765     19.504668      133.10915    
    105000   1.0662097      20.115072      132.92681    
    106000   0.96920524     19.524083      132.83071    
    107000   0.98164676     19.397886      132.84502    
    108000   0.99809776     19.512623      132.51678    
    109000   0.99988164     18.687676      132.26558    
    110000   0.96900694     19.46758       131.70432    
    111000   0.99291697     19.617399      131.52516    
    112000   1.0145977      19.206591      131.40932    
    113000   0.96858263     18.784883      131.14962    
    114000   1.0138462      19.395931      130.74126    
    115000   0.93422933     18.477537      130.36164    
    116000   0.98301104     19.282327      130.09295    
    117000   0.96917557     19.899994      129.65332    
    118000   1.0001558      18.633755      129.64022    
    119000   1.0337872      19.367959      129.28278    
    120000   1.0279478      19.11677       129.32675    
    121000   0.95813894     19.414262      129.46552    
    122000   0.97856913     19.195303      129.57694    
    123000   0.9763076      19.644788      129.37828    
    124000   0.97599721     19.432561      129.12454    
    125000   0.97356846     18.910993      128.79965    
    126000   1.0088766      19.540237      128.72853    
    127000   1.0414604      19.187115      128.35412    
    128000   1.0392852      19.142214      127.84269    
    129000   0.9612658      19.041132      127.72005    
    130000   0.9723826      19.128377      127.5021     
    131000   0.97955004     18.61857       127.07397    
    132000   1.0078754      19.707872      126.68454    
    133000   0.98459511     19.621014      126.5395     
    134000   1.0286585      18.619484      126.3528     
    135000   0.98963591     19.365899      126.2662     
    136000   0.96370951     18.792375      126.29657    
    137000   1.0757699      18.888114      126.19505    
    138000   0.9921274      19.181856      125.80516    
    139000   0.99315076     19.3662        125.41326    
    140000   1.0264829      19.733193      124.78403    
    141000   1.0250118      19.039225      124.34196    
    142000   0.99297404     19.387736      124.01709    
    143000   0.98495545     18.988837      123.72858    
    144000   1.0256406      19.392342      123.87237    
    145000   1.0182596      19.491616      123.80749    
    146000   1.0321666      19.361038      123.77887    
    147000   1.0608246      19.633926      123.30712    
    148000   1.0084396      19.2106        123.0832     
    149000   0.94284716     18.479047      123.01296    
    150000   1.0397975      18.721521      122.64195    
    151000   1.0453312      19.239719      122.48415    
    152000   1.000729       19.547746      122.06616    
    153000   0.97887906     19.50479       121.71785    
    154000   1.0036109      19.242224      121.79348    
    155000   0.95614803     18.522615      121.82427    
    156000   0.98665668     18.693866      121.95565    
    157000   1.0519323      19.34523       121.9235     
    158000   0.96277554     18.917683      121.85231    
    159000   0.99177273     18.962643      121.80689    
    160000   0.97438267     19.393764      122.10689    
    161000   0.99558044     19.024529      122.2484     
    162000   0.9829304      18.677318      122.23071    
    163000   1.0122815      18.565456      122.33837    
    164000   1.0473284      19.591197      122.2032     
    165000   1.0338075      19.254333      122.08678    
    166000   0.97553383     19.152502      121.70127    
    167000   1.0093557      19.488543      121.55645    
    168000   0.97561961     18.881115      121.109      
    169000   0.94459901     19.348213      121.24089    
    170000   0.93797374     19.247628      121.31137    
    171000   1.0030284      19.453412      121.10927    
    172000   1.0040514      18.958906      120.88796    
    173000   0.99252181     19.593894      120.70209    
    174000   1.0010016      19.692922      120.45624    
    175000   0.95350527     19.184067      120.28539    
    176000   1.0032864      18.837195      120.1453     
    177000   1.0350798      19.647395      120.15856    
    178000   1.0671693      18.986931      120.13166    
    179000   0.95587245     18.883885      119.7242     
    180000   0.97732483     19.248939      119.35996    
    181000   1.0175597      19.509587      119.13148    
    182000   0.99918866     19.1548        119.15168    
    183000   1.0808053      19.311326      119.1217     
    184000   1.0783049      19.172766      119.00103    
    185000   1.0295359      19.255491      118.81281    
    186000   0.93640679     19.25094       118.54348    
    187000   1.0031401      18.982903      118.64212    
    188000   0.97247493     18.747388      118.52582    
    189000   1.0281926      18.557365      118.33289    
    190000   0.9472068      19.565644      118.045      
    191000   0.9921303      18.83146       117.66611    
    192000   0.98802757     18.255939      117.55737    
    193000   0.98447409     19.054131      117.17122    
    194000   1.034091       18.38428       117.11061    
    195000   0.94406485     18.966069      116.95113    
    196000   1.0300869      19.913935      116.47038    
    197000   0.99136178     18.948559      116.23548    
    198000   1.0541113      18.860942      116.03948    
    199000   0.97921309     19.429043      115.95323    
    200000   0.97578517     19.454102      115.68348    
    201000   0.97954985     19.119657      115.46889    
    202000   1.045029       19.725574      115.37312    
    203000   0.96146963     19.157489      115.09813    
    204000   0.94481275     18.350329      115.06202    
    205000   0.998226       18.776201      115.19573    
    206000   0.94758707     18.730409      115.07249    
    207000   1.0500783      20.161903      114.70731    
    208000   1.0256511      19.623807      114.6189     
    209000   0.95559468     19.181388      114.86215    
    210000   1.0357517      19.096273      114.49164    
    211000   1.0295542      19.472957      114.19488    
    212000   1.0256165      19.179016      113.93622    
    213000   0.97784846     18.813638      113.65337    
    214000   1.0160361      19.907061      113.52369    
    215000   1.0095179      19.083205      113.2812     
    216000   0.95710261     18.983424      113.34195    
    217000   1.054674       19.19952       113.14512    
    218000   0.9790562      18.94841       112.93261    
    219000   1.0189456      19.163087      112.59011    
    220000   1.0000856      18.810755      112.41403    
    221000   1.0260889      18.98154       112.13723    
    222000   1.0075296      18.860732      111.97879    
    223000   1.0291831      19.047109      112.05097    
    224000   1.0420529      19.281189      112.0261     
    225000   1.0270891      18.960814      112.03018    
    226000   1.0223739      19.693944      111.98841    
    227000   0.98016713     19.014625      112.19194    
    228000   1.001614       18.97702       111.97913    
    229000   1.0694298      19.388778      111.66223    
    230000   0.96729102     19.512886      111.34898    
    231000   1.0013889      19.627711      111.16177    
    232000   0.95732377     19.604369      110.636      
    233000   1.0150356      18.790057      110.42543    
    234000   1.0532849      18.200797      110.33779    
    235000   0.94392704     19.122482      110.17383    
    236000   1.0551679      19.378049      110.00979    
    237000   1.0442121      19.120103      109.73216    
    238000   0.96416385     18.778471      109.45513    
    239000   1.0082234      19.0955        109.20378    
    240000   0.98614189     18.779525      108.92711    
    241000   1.0413896      18.647501      108.59635    
    242000   1.0045891      19.611517      108.2782     
    243000   1.0363929      19.568408      108.21162    
    244000   1.0517408      19.380517      107.93421    
    245000   1.0244013      18.858347      107.75377    
    246000   1.0211433      18.936327      107.47206    
    247000   1.0038805      18.718429      107.25582    
    248000   0.96264957     18.861431      107.09856    
    249000   1.04832        18.188988      107.06292    
    250000   0.95303827     18.50156       106.69347    
    251000   0.95876319     18.716089      106.6794     
    252000   1.0072978      19.81977       106.67239    
    253000   1.0820288      18.920514      106.76262    
    254000   1.0170312      18.768781      106.82476    
    255000   0.97109636     18.98938       106.4058     
    256000   1.0463821      19.133117      106.26651    
    257000   0.95345215     18.405286      106.2924     
    258000   0.95157476     19.521047      106.15923    
    259000   1.0726578      19.923511      106.09685    
    260000   1.0194006      19.330709      105.98217    
    261000   0.95315623     18.470418      105.74379    
    262000   0.96601864     19.035279      105.81768    
    263000   0.99070849     19.302658      105.2899     
    264000   1.0010938      19.02569       105.26586    
    265000   0.96418014     19.259155      105.25875    
    266000   1.0625544      19.224183      105.581      
    267000   1.0247444      19.542176      105.55796    
    268000   0.96884449     18.927444      105.31506    
    269000   1.0225698      18.597197      105.4396     
    270000   0.99429874     18.418659      105.39881    
    271000   1.0367579      19.553014      105.50961    
    272000   0.98285074     19.476497      105.56166    
    273000   1.006343       18.925245      105.43866    
    274000   1.0096473      19.722946      105.23716    
    275000   1.0088223      19.310864      105.19441    
    276000   0.99233481     18.768448      105.37315    
    277000   1.0464862      18.444962      105.04957    
    278000   0.94661553     18.981677      104.69877    
    279000   1.0004405      18.655994      104.57364    
    280000   1.0110026      19.680283      104.83432    
    281000   1.0384235      18.683203      104.55718    
    282000   0.95051466     19.117357      104.33995    
    283000   0.94676426     19.248209      103.88544    
    284000   1.0323548      19.127482      103.84309    
    285000   1.0024146      18.28599       103.73661    
    286000   1.0265404      18.105314      103.58826    
    287000   0.98655185     19.161345      103.78772    
    288000   0.99205162     18.819964      103.6281     
    289000   1.0387256      19.29716       103.29073    
    290000   0.9711798      19.185678      103.03578    
    291000   0.9766224      18.604606      103.00173    
    292000   0.96759074     19.077672      102.62304    
    293000   1.008988       18.929046      102.39024    
    294000   0.98778573     18.757052      102.07166    
    295000   0.95336838     18.942194      101.95347    
    296000   0.95711796     18.694592      102.1732     
    297000   0.99630531     19.273134      102.18237    
    298000   1.0580257      18.640273      102.35793    
    299000   1.0046697      19.170379      102.34339    
    300000   1.0081267      18.829257      101.99792    
    301000   1.0474712      18.092445      101.46437    
    302000   1.0354717      19.154959      101.14506    
    303000   1.0163601      18.753177      101.02092    
    304000   0.97184501     18.968582      100.89508    
    305000   1.0341152      18.944117      100.93552    
    306000   0.99467963     18.909302      100.86283    
    307000   0.92505474     18.835184      100.88544    
    308000   1.0002162      19.202993      100.57596    
    309000   0.9954178      18.71559       100.45006    
    310000   0.951755       18.181078      100.31562    
    311000   1.0043962      19.111343      100.00116    
    312000   0.96080281     18.81041       99.936424    
    313000   1.0329364      18.828245      99.764633    
    314000   1.0499315      19.227636      99.983191    
    315000   0.95443222     19.06175       100.31535    
    316000   0.9911002      18.549987      100.30552    
    317000   1.0123185      19.439641      100.1849     
    318000   1.0716812      18.75069       99.98761     
    319000   0.99068315     19.289789      99.927247    
    320000   0.98118803     19.285286      99.868572    
    321000   0.97019664     18.40984       99.860281    
    322000   1.0393513      19.381677      99.860343    
    323000   1.0500188      18.971512      99.641438    
    324000   1.0127214      19.125993      99.482669    
    325000   1.0677809      18.826419      99.401261    
    326000   1.004814       19.00905       99.30102     
    327000   0.96966642     18.966144      99.331722    
    328000   1.0226475      18.485469      99.089122    
    329000   0.978031       19.129742      98.82796     
    330000   1.0647906      19.387463      98.672175    
    331000   0.97108593     18.711351      98.414763    
    332000   0.98970985     18.867894      97.968507    
    333000   1.0211994      19.123882      97.949984    
    334000   1.0044018      18.949258      97.810746    
    335000   1.0391481      18.825457      97.963199    
    336000   0.98821648     18.62764       97.77467     
    337000   0.94296495     19.108982      97.573483    
    338000   0.981373       19.043684      97.759463    
    339000   0.96458579     18.493266      97.797484    
    340000   1.066558       19.41688       97.91146     
    341000   1.0269742      18.420715      97.828505    
    342000   0.96252801     19.172359      97.657958    
    343000   0.96534915     19.451281      97.195142    
    344000   1.0047247      19.438024      97.113431    
    345000   1.0158954      18.989505      97.03835     
    346000   1.0733542      18.491243      96.791029    
    347000   1.0023428      19.29169       96.792669    
    348000   0.98586393     19.123613      96.793085    
    349000   1.0004667      18.72898       96.689573    
    350000   1.0068721      19.297949      96.455394    
    351000   1.012511       18.855319      96.666083    
    352000   0.97465531     18.395249      96.562915    
    353000   0.95972504     18.321666      96.216191    
    354000   1.0192308      18.777205      96.299489    
    355000   0.96269384     18.707481      96.375175    
    356000   1.0241896      18.579345      96.073786    
    357000   1.0630278      18.972623      95.995279    
    358000   1.0350159      18.572964      95.871964    
    359000   1.0050379      19.187007      95.873627    
    360000   0.99251876     18.888583      95.646514    
    361000   0.9828181      18.538521      95.519081    
    362000   0.97880739     18.801913      95.422527    
    363000   1.0835905      19.376978      95.223888    
    364000   1.0681526      18.96562       94.797622    
    365000   0.97507066     19.928377      94.822243    
    366000   1.0605937      19.075614      94.553378    
    367000   1.0018414      18.066599      94.488523    
    368000   1.0120573      18.813509      94.198756    
    369000   0.9673625      18.639129      94.090783    
    370000   0.99321981     19.166585      93.848328    
    371000   1.0276135      18.729181      93.723972    
    372000   1.0663798      19.19061       93.376363    
    373000   0.94747236     19.143583      93.472301    
    374000   1.0474397      18.886186      93.283175    
    375000   1.0395904      19.252183      93.227521    
    376000   1.0106222      18.622757      93.088687    
    377000   0.98885046     19.022484      92.680543    
    378000   1.0010684      18.875575      92.601474    
    379000   1.0022797      19.392373      92.479975    
    380000   0.99287207     19.188759      92.054631    
    381000   0.99745986     18.986419      92.064148    
    382000   1.0238922      19.622774      91.658122    
    383000   0.97186294     19.110003      91.557697    
    384000   1.0082225      18.312888      91.487444    
    385000   0.98672773     18.733874      91.288992    
    386000   0.91996317     18.915654      90.955474    
    387000   1.0332857      18.679466      91.108361    
    388000   1.0198926      18.899119      91.176895    
    389000   1.0424197      18.355614      91.34202     
    390000   1.0208722      18.589457      91.410373    
    391000   1.0029729      18.574735      91.134171    
    392000   0.97294831     18.541014      91.167243    
    393000   1.0247642      19.082544      90.906103    
    394000   1.0407022      18.458682      90.988056    
    395000   0.98109505     18.081396      90.80059     
    396000   0.98523856     18.935713      90.781306    
    397000   0.97589726     18.530586      90.735776    
    398000   0.99566997     18.140261      90.881373    
    399000   1.0031815      18.298005      90.586272    
    400000   0.95826876     18.911667      90.480988    
    401000   1.0407546      18.658249      90.536992    
    402000   1.0275271      18.405356      90.411143    
    403000   1.0240154      19.376781      90.306957    
    404000   0.98616053     19.043429      90.357029    
    405000   1.0377429      18.742945      90.273313    
    406000   1.0590079      18.480697      90.141049    
    407000   1.0238029      18.226923      90.535277    
    408000   0.9820159      18.618534      90.424131    
    409000   0.92480541     18.686399      90.555096    
    410000   0.99068088     18.491397      90.299268    
    411000   1.0138864      19.345028      89.832823    
    412000   0.97759658     18.757279      89.790226    
    413000   0.98659068     18.839039      89.520369    
    414000   0.994037       18.882729      89.094108    
    415000   0.99772978     18.456668      88.966016    
    416000   0.96988189     17.916798      88.967728    
    417000   0.92642688     19.296453      88.82547     
    418000   0.96607934     18.059078      88.669942    
    419000   0.97536963     19.115394      88.520371    
    420000   0.9373861      18.848329      88.434624    
    421000   0.96815759     18.456741      88.40956     
    422000   0.96633232     18.076872      88.002409    
    423000   1.0220333      19.101116      87.927995    
    424000   1.0314159      18.811635      87.898007    
    425000   1.0681945      18.653519      87.547668    
    426000   0.99755114     19.214745      87.449177    
    427000   1.0099402      19.451252      87.041411    
    428000   0.94377563     18.679156      86.769435    
    429000   1.0340513      18.72471       86.614814    
    430000   0.9628955      18.920493      86.253975    
    431000   0.93482155     18.587186      86.357059    
    432000   1.0428644      18.7287        86.701868    
    433000   1.0141039      18.127416      86.672171    
    434000   0.96178737     18.868804      86.725631    
    435000   1.003447       18.699364      86.755089    
    436000   1.0321493      18.736819      86.650317    
    437000   0.92693135     18.031886      86.310567    
    438000   1.0213671      18.683998      86.21926     
    439000   1.0148862      17.951863      86.176389    
    440000   0.99988425     18.692594      86.225874    
    441000   0.99482285     18.837205      86.099148    
    442000   1.0160271      18.654388      85.859405    
    443000   1.0640396      19.495869      85.790323    
    444000   0.96407425     19.346487      85.510371    
    445000   1.0009547      18.088862      85.418455    
    446000   1.0290491      19.137287      85.10953     
    447000   0.97076167     17.953038      84.801148    
    448000   0.96782165     18.402472      85.007479    
    449000   1.035399       19.16258       84.797551    
    450000   0.96252857     17.91929       84.721875    
    451000   0.99057754     18.183314      84.383933    
    452000   1.0410004      18.584195      84.494906    
    453000   1.0275365      18.186419      84.215865    
    454000   1.017516       18.340102      83.88608     
    455000   0.99845851     18.380789      83.694037    
    456000   1.0067834      19.160107      83.576214    
    457000   0.99074288     18.392697      83.524957    
    458000   1.0153567      19.508815      83.59789     
    459000   0.97429744     18.899985      83.660044    
    460000   0.98810853     18.694079      83.347584    
    461000   0.93680189     18.30648       83.274127    
    462000   0.97967774     18.745092      82.991272    
    463000   1.0663823      17.929681      83.011251    
    464000   0.99253757     18.119231      82.783669    
    465000   1.0369769      18.432077      82.630863    
    466000   1.0125485      18.661006      82.422999    
    467000   1.0753947      18.691001      82.482913    
    468000   0.99426426     18.165649      82.413746    
    469000   1.0076828      18.514579      82.311159    
    470000   0.97656865     18.625332      82.313428    
    471000   1.0142354      18.195472      82.216862    
    472000   1.0096881      18.227045      82.177158    
    473000   1.0447551      18.683778      81.908644    
    474000   1.0010845      18.754109      81.975229    
    475000   1.0351845      17.72809       82.063869    
    476000   0.98591099     18.602933      82.075685    
    477000   1.0209673      18.675688      81.9072      
    478000   1.036709       18.202377      81.723846    
    479000   0.96842931     18.308146      81.328621    
    480000   1.0004863      18.365952      81.146773    
    481000   1.033362       18.612897      81.173758    
    482000   1.0130357      18.401091      80.937785    
    483000   1.0369941      18.849865      80.847676    
    484000   1.0127241      18.609591      80.85477     
    485000   1.0107653      18.74858       81.004003    
    486000   0.95638199     19.225292      81.125799    
    487000   0.99139565     17.737781      80.953737    
    488000   1.0187136      18.611374      80.678507    
    489000   1.0072661      18.330009      80.092223    
    490000   1.0552864      18.651454      79.945292    
    491000   0.98213329     19.37294       79.787474    
    492000   1.0471902      19.242232      79.460434    
    493000   1.0318857      18.608233      79.188212    
    494000   1.0395081      18.677457      79.171881    
    495000   1.062163       17.64945       79.050346    
    496000   1.0492778      18.262594      78.421226    
    497000   0.94833264     18.598422      77.970981    
    498000   0.96083502     18.713678      78.061044    
    499000   0.97691285     18.479679      78.078278    
    500000   1.0135997      18.49677       77.843056    
    501000   0.97656804     18.791477      77.63736     
    502000   1.0010545      19.541358      77.436434    
    503000   1.0476273      19.821313      77.190934    
    504000   1.0388888      18.293269      76.931066    
    505000   1.0384295      18.79578       76.778274    
    506000   1.0180683      18.111694      76.421005    
    507000   1.0153666      18.627157      76.051982    
    508000   0.99475715     18.347289      75.960811    
    509000   0.98072024     18.243574      75.601507    
    510000   1.0092673      19.014618      75.495332    
    511000   1.0188906      18.605768      75.339826    
    512000   0.9993195      17.715559      75.446822    
    513000   0.95697151     18.121869      75.531143    
    514000   1.0841657      19.112486      75.584516    
    515000   0.98517043     19.176538      75.526067    
    516000   1.0163984      18.120163      75.573226    
    517000   1.0374805      19.697514      75.385246    
    518000   1.0186309      18.949642      75.76013     
    519000   0.95847454     18.539966      75.68579     
    520000   0.98009399     18.564405      75.494351    
    521000   0.99847828     18.445703      75.630269    
    522000   1.0332636      19.090604      75.391559    
    523000   1.0026502      18.362089      75.262094    
    524000   0.99834495     18.829336      75.232459    
    525000   0.96230592     18.598074      75.167045    
    526000   0.97893075     18.262465      75.37111     
    527000   0.98330969     18.237073      75.415843    
    528000   1.0337456      18.617835      75.414711    
    529000   0.97537636     18.790654      75.242725    
    530000   1.0819202      18.778688      75.06845     
    531000   0.9722904      17.925595      74.974246    
    532000   0.95665564     18.81398       74.937845    
    533000   1.0202488      18.526059      74.87506     
    534000   1.0271986      18.120548      74.703625    
    535000   1.0052779      18.713489      74.866347    
    536000   0.98893416     19.008158      74.641189    
    537000   0.98990145     17.738504      74.490264    
    538000   0.94721933     17.774843      74.165575    
    539000   0.96348384     17.815668      73.62413     
    540000   1.0903355      18.373191      73.495059    
    541000   1.0138978      18.0263        73.388451    
    542000   1.0466803      18.71159       73.287802    
    543000   0.97500073     18.819492      73.041389    
    544000   1.0157714      18.383518      72.676688    
    545000   0.9832361      17.708706      72.561166    
    546000   0.99978389     18.338505      72.229745    
    547000   1.0436841      18.650847      72.040965    
    548000   0.96025818     18.221149      71.729974    
    549000   1.0102474      18.761348      71.485426    
    550000   1.0072612      17.748332      71.547135    
    551000   0.98066608     18.50664       71.711392    
    552000   1.0176004      18.446275      71.649824    
    553000   0.96733209     18.799567      71.400596    
    554000   1.02281        18.434427      71.138453    
    555000   0.95363937     18.478057      71.068444    
    556000   1.0392937      18.963265      70.918563    
    557000   1.0261936      18.776415      70.95178     
    558000   0.97806769     18.652947      70.917163    
    559000   0.94823829     18.094741      70.587789    
    560000   0.96400889     18.313227      70.532991    
    561000   0.93812878     18.035084      70.490357    
    562000   0.97160123     18.273471      70.31129     
    563000   1.0073884      18.110377      70.172103    
    564000   0.98221809     18.227472      69.909249    
    565000   0.9470635      17.594002      69.531268    
    566000   0.95439222     18.896389      69.497549    
    567000   0.97137597     18.588491      69.203266    
    568000   0.98569738     18.437738      69.094411    
    569000   1.04158        18.453921      68.773361    
    570000   1.0105354      18.764692      68.792742    
    571000   1.0848097      18.409014      68.789691    
    572000   0.99145682     18.158905      68.73077     
    573000   0.96076712     17.821311      68.382054    
    574000   1.0161422      18.168318      68.485081    
    575000   0.97769417     18.334821      68.1565      
    576000   0.98971224     18.389334      67.946409    
    577000   1.0404839      18.321044      68.037529    
    578000   1.0453035      18.524541      67.930566    
    579000   1.0352116      18.400414      67.579468    
    580000   1.0462366      18.049001      68.023967    
    581000   0.97954009     17.913834      68.188353    
    582000   1.0283163      18.680197      68.068174    
    583000   1.0469805      18.932993      67.862209    
    584000   1.0111976      18.312643      67.881664    
    585000   1.0195776      19.071369      67.787796    
    586000   0.97635792     18.343486      67.600782    
    587000   1.0125676      19.186402      67.313932    
    588000   1.0242295      18.447238      67.107354    
    589000   0.9715135      18.600322      67.118501    
    590000   1.0149821      17.903929      67.019773    
    591000   0.96289877     17.872537      66.722925    
    592000   1.0190538      18.369072      66.524457    
    593000   0.99316632     18.324866      66.333523    
    594000   1.025981       18.071861      66.595276    
    595000   0.98706105     18.140531      66.429472    
    596000   1.0275235      18.189357      66.440304    
    597000   1.0611425      18.419456      65.871053    
    598000   1.035673       18.044422      65.741454    
    599000   0.98016731     18.580348      65.591238    
    600000   1.042747       18.237221      65.175646    
    601000   0.99641045     18.120519      65.012379    
    602000   0.9809139      17.680011      65.000183    
    603000   0.95916288     17.536191      64.91709     
    604000   1.023707       18.879482      64.868095    
    605000   1.0552127      18.102097      64.727289    
    606000   0.94162852     17.934093      64.635598    
    607000   0.93892954     17.10342       64.577511    
    608000   0.97865963     17.980781      64.042126    
    609000   0.95957509     18.377866      63.870522    
    610000   0.93857335     17.997266      63.671169    
    611000   0.94740221     17.804547      63.832801    
    612000   1.0228063      18.898559      63.854483    
    613000   0.96520522     18.038048      63.366608    
    614000   1.0130713      17.711172      63.148969    
    615000   1.0305817      18.769847      63.007246    
    616000   1.0272341      17.914106      63.031076    
    617000   1.0435302      18.07831       62.556855    
    618000   0.97703444     18.511765      62.18333     
    619000   1.0533802      17.989366      61.942447    
    620000   1.0205088      17.924377      62.040013    
    621000   1.0268808      18.113661      61.979005    
    622000   0.99672683     18.000718      61.875836    
    623000   1.0160605      19.094337      61.87639     
    624000   1.0034337      18.25292       62.100269    
    625000   0.95094365     17.384491      62.201459    
    626000   0.95607965     18.025776      62.067306    
    627000   0.99612574     17.750815      62.106665    
    628000   1.0296201      18.740229      62.109449    
    629000   0.98191223     18.312235      62.123591    
    630000   0.97372031     17.850061      61.996381    
    631000   0.9620895      17.525867      62.280284    
    632000   1.0140781      18.84207       62.046785    
    633000   1.019029       17.995507      61.989734    
    634000   1.0350336      18.311256      61.738067    
    635000   1.0044144      19.49618       61.36352     
    636000   0.98014424     18.154938      61.435958    
    637000   1.0434607      18.254745      61.3813      
    638000   0.97777464     18.825299      60.935903    
    639000   1.0006054      18.075222      61.237466    
    640000   1.0295655      17.643923      61.165111    
    641000   1.036807       18.258332      60.919209    
    642000   0.93389532     18.089854      60.729829    
    643000   0.98407578     18.342059      60.537587    
    644000   1.0057212      18.306945      60.431446    
    645000   0.9965012      19.244221      60.324365    
    646000   0.99539342     18.882543      60.096989    
    647000   0.98348119     17.989658      59.533568    
    648000   0.97865565     18.035012      59.513356    
    649000   1.0352026      18.136358      59.517284    
    650000   0.96748104     17.739009      59.316852    
    651000   0.94202011     17.974601      58.989031    
    652000   0.9908484      18.495461      58.873869    
    653000   0.95942071     18.155173      58.681728    
    654000   0.97319387     17.680992      58.756072    
    655000   0.9655238      17.856091      58.75693     
    656000   0.96538569     17.567312      58.781578    
    657000   1.0579616      17.769552      58.646661    
    658000   1.0281225      18.5039        58.248839    
    659000   1.0404594      18.502741      58.165546    
    660000   1.0251082      17.875777      58.059182    
    661000   1.0317868      17.894909      57.76864     
    662000   0.98904787     17.39256       57.501239    
    663000   1.0371762      18.0554        57.60045     
    664000   0.95986583     17.358265      57.571412    
    665000   1.0139898      17.767173      57.191019    
    666000   0.97546619     18.25101       56.871371    
    667000   1.0332547      18.61818       56.726543    
    668000   1.0453383      18.779834      56.702977    
    669000   0.97637156     18.699803      56.565653    
    670000   0.99881723     18.08614       56.479208    
    671000   0.98867226     17.446655      56.311877    
    672000   1.0018837      18.323955      55.856451    
    673000   1.0222809      17.442684      55.588508    
    674000   1.0341759      17.926236      55.499208    
    675000   0.99080621     18.003107      55.352679    
    676000   1.065818       18.664105      55.034622    
    677000   1.0492705      18.73514       55.048679    
    678000   1.0138502      17.458795      54.801322    
    679000   0.97596878     17.996839      54.676786    
    680000   0.97641379     17.97044       54.393393    
    681000   0.9423698      17.773472      54.095648    
    682000   1.0278846      17.036361      54.02785     
    683000   1.0380311      18.56244       54.017167    
    684000   1.023761       18.0439        53.626333    
    685000   0.95075587     17.860011      53.428746    
    686000   0.95349497     18.354343      53.295912    
    687000   1.0298631      18.150303      53.169451    
    688000   0.97908156     17.667866      53.151682    
    689000   1.0546383      18.193208      52.86115     
    690000   1.0231499      17.821449      52.661536    
    691000   0.9984438      18.10819       52.411418    
    692000   1.021888       17.8921        52.532855    
    693000   1.0493304      17.773265      52.67855     
    694000   0.98387257     17.855993      52.75653     
    695000   1.0105587      17.646593      52.659028    
    696000   1.0215937      18.228625      52.420875    
    697000   1.0447738      18.527353      52.145808    
    698000   0.99615987     17.479181      52.159808    
    699000   0.99901428     17.503625      52.041504    
    700000   1.0389885      18.883522      51.770984    
    701000   1.02096        17.31368       51.633295    
    702000   1.03396        17.462492      51.346406    
    703000   1.0528136      18.074473      51.298928    
    704000   0.97501923     18.188363      51.203514    
    705000   0.99991484     18.146531      50.83647     
    706000   0.96606036     17.858015      50.92448     
    707000   0.9734869      18.110324      50.799114    
    708000   1.0171772      18.625466      50.64447     
    709000   1.0072209      17.647537      50.505486    
    710000   0.93694909     18.399323      50.437412    
    711000   0.95380636     17.811383      49.943975    
    712000   1.0270673      18.478553      50.105815    
    713000   1.0337713      18.023843      50.149619    
    714000   0.9738249      17.680848      50.083773    
    715000   1.0130997      18.17164       50.140345    
    716000   1.0010298      17.510524      50.006586    
    717000   0.99127515     17.869923      49.872173    
    718000   1.040409       17.465762      49.973738    
    719000   1.0098033      18.224686      49.603801    
    720000   1.0366243      17.772028      49.643136    
    721000   0.9682644      17.456369      49.828886    
    722000   1.022448       17.808927      49.54818     
    723000   1.0170846      18.229415      49.760703    
    724000   0.99484061     17.703616      49.743018    
    725000   0.96535568     18.163136      49.430837    
    726000   1.0384281      18.329547      49.420274    
    727000   1.0289372      17.80288       49.316411    
    728000   0.96744946     17.664371      49.407727    
    729000   0.98201039     18.292321      49.107247    
    730000   0.98007972     18.274431      48.965277    
    731000   1.0321365      17.450375      48.631023    
    732000   1.0086955      17.782629      48.744995    
    733000   1.0311721      18.343687      48.638571    
    734000   0.97479722     18.108447      48.671454    
    735000   0.96829966     18.029291      48.536298    
    736000   1.0284784      18.434625      48.207833    
    737000   1.0170182      17.885888      48.100083    
    738000   0.98764169     17.997391      47.931768    
    739000   1.0066353      17.668898      47.808589    
    740000   1.0109539      17.598068      47.538217    
    741000   1.0064689      18.260614      47.237801    
    742000   1.0395592      18.357783      46.910938    
    743000   0.93687104     17.606484      46.719112    
    744000   1.038903       18.617448      46.897871    
    745000   1.0076385      17.986854      46.533151    
    746000   0.97584088     18.424514      46.658859    
    747000   1.023987       18.219956      46.336705    
    748000   1.0689981      17.970067      46.210643    
    749000   0.9281939      18.111013      46.255032    
    750000   0.99908219     18.619713      46.311966    
    751000   1.020679       18.089172      46.251484    
    752000   1.0518751      18.735623      46.176102    
    753000   0.95432429     17.841648      46.0766      
    754000   0.94453583     17.468698      46.003986    
    755000   1.047565       18.109592      46.007563    
    756000   1.0027221      18.415623      45.659609    
    757000   1.0214583      17.991064      45.384181    
    758000   0.9830429      18.928943      45.06152     
    759000   1.004599       18.981092      44.767705    
    760000   1.0304264      18.352356      44.559649    
    761000   0.94614654     17.234232      44.564381    
    762000   0.97155663     17.877194      44.593095    
    763000   0.9537287      17.879263      44.580819    
    764000   1.0574574      17.859195      44.703041    
    765000   1.01359        18.213656      44.651059    
    766000   0.96962138     18.165386      44.498036    
    767000   1.0438131      18.075978      44.370679    
    768000   1.0164369      17.870483      44.126653    
    769000   1.0547201      17.809616      43.992276    
    770000   1.0135254      17.474807      43.836049    
    771000   0.91254267     17.744181      43.866677    
    772000   0.97553909     17.825313      43.730064    
    773000   1.0303447      18.374903      43.809722    
    774000   1.0044183      18.81684       43.533504    
    775000   1.0789399      18.060518      43.302291    
    776000   1.0222209      18.343236      43.190096    
    777000   1.0425727      17.709972      42.969729    
    778000   0.99960726     17.491973      42.960594    
    779000   0.96063816     17.972249      42.851933    
    780000   0.9975215      17.934095      42.619921    
    781000   1.0205479      17.596028      42.277928    
    782000   0.99320647     18.462129      42.193786    
    783000   0.96935416     17.883072      42.218524    
    784000   0.99325428     18.189854      42.16024     
    785000   1.0545881      17.858231      42.090832    
    786000   0.97247083     18.064667      42.132522    
    787000   0.96452456     17.618313      41.974762    
    788000   0.95856654     17.816438      41.833174    
    789000   1.0019622      17.989082      41.840087    
    790000   0.98409434     17.71397       41.914994    
    791000   1.0473535      17.597391      41.501703    
    792000   0.98691946     17.259057      41.375091    
    793000   1.0130001      17.897206      41.027171    
    794000   0.9406831      17.886536      40.945952    
    795000   0.97825578     17.773333      41.056882    
    796000   0.94277058     18.548621      40.88756     
    797000   1.0227469      17.432748      40.447782    
    798000   1.0370398      17.834495      40.273851    
    799000   0.95498228     17.691945      39.863299    
    800000   1.011294       17.144132      39.723798    
    801000   1.0076901      17.313891      39.517417    
    802000   0.98334273     17.343569      39.373741    
    803000   0.9955132      18.294276      39.261809    
    804000   1.0175183      17.613067      39.238622    
    805000   1.0109495      17.831186      39.245248    
    806000   1.0077837      18.132941      39.489265    
    807000   0.99455899     17.948097      39.28123     
    808000   1.0320788      17.435844      39.398567    
    809000   0.94045516     17.757255      39.440072    
    810000   1.0170851      17.987355      39.563294    
    811000   1.0092454      17.688119      39.026434    
    812000   1.0625718      16.715475      38.816382    
    813000   0.99167728     17.525977      38.865596    
    814000   0.96757647     16.902311      38.749538    
    815000   1.0166551      17.676538      38.314337    
    816000   0.9347119      18.234196      38.110431    
    817000   0.98323304     17.464648      37.842425    
    818000   0.99544098     17.182018      37.674897    
    819000   1.0307164      18.452582      37.528392    
    820000   1.0150678      17.926507      37.57726     
    821000   1.0413142      18.114749      37.532746    
    822000   0.99079165     17.357845      37.333161    
    823000   0.92741024     17.166288      37.502237    
    824000   0.99932174     17.370531      37.279801    
    825000   1.0377308      17.923741      37.332228    
    826000   0.97298658     17.688646      36.593913    
    827000   1.0295672      17.57671       36.606783    
    828000   1.0057917      17.654361      36.617209    
    829000   0.96946741     18.814039      36.920973    
    830000   1.013332       18.546645      36.508605    
    831000   0.98584778     17.614907      36.465116    
    832000   1.0426967      18.76691       36.335838    
    833000   1.0167449      18.024576      36.581563    
    834000   0.9659923      18.248516      36.438113    
    835000   1.0242229      18.506427      36.242918    
    836000   0.96626488     17.237791      36.167678    
    837000   0.98766887     18.53982       36.234849    
    838000   1.0077872      18.412247      36.058812    
    839000   0.95885981     17.883827      35.897018    
    840000   1.0055698      17.289045      35.495335    
    841000   0.97580618     17.581204      35.428451    
    842000   0.99417774     18.057813      35.368804    
    843000   0.98406732     17.969318      35.366207    
    844000   0.99315868     17.248803      35.238074    
    845000   0.99522566     18.42294       35.006461    
    846000   1.0927071      18.198778      34.620274    
    847000   1.0199478      17.853104      34.666216    
    848000   0.99510127     17.806711      34.654034    
    849000   0.99764574     18.186675      34.257014    
    850000   1.017228       17.041686      33.988542    
    851000   1.0554389      17.74495       33.917988    
    852000   0.99692478     17.888006      33.919658    
    853000   0.98426033     17.256871      33.734999    
    854000   0.98445419     18.169297      33.667773    
    855000   0.95243076     16.690869      33.766145    
    856000   0.94575862     17.400755      33.878258    
    857000   0.98670126     18.234103      34.193432    
    858000   1.0123927      17.927167      34.064477    
    859000   0.98647789     17.785184      33.74449     
    860000   1.0845339      17.690082      33.667491    
    861000   1.043026       18.198278      33.529111    
    862000   0.98273709     18.046395      33.519513    
    863000   0.89637913     17.247322      33.318478    
    864000   0.99953818     17.443558      33.279983    
    865000   1.0843492      17.838422      33.341694    
    866000   0.97328363     17.929387      33.113488    
    867000   0.98490382     18.269192      33.009978    
    868000   0.98867805     17.454275      32.759178    
    869000   0.97581533     17.652456      32.491229    
    870000   1.0150968      16.613033      32.076442    
    871000   0.96843784     17.926526      32.021173    
    872000   1.0433322      18.468898      31.951782    
    873000   0.97143139     17.257796      31.859232    
    874000   1.0288078      17.627143      31.356252    
    875000   1.0293051      16.939833      31.174669    
    876000   0.9789416      17.930984      31.369341    
    877000   0.95264796     16.975256      31.391954    
    878000   0.97305263     17.502567      31.0911      
    879000   1.0261639      17.609222      31.126214    
    880000   0.99382117     17.615737      30.999052    
    881000   1.0164578      17.032295      31.256984    
    882000   1.0355779      17.404458      31.162051    
    883000   1.0147892      17.526672      31.160387    
    884000   1.0017871      17.45543       31.11145     
    885000   1.0548422      17.717733      31.241686    
    886000   1.0269567      17.603055      30.922664    
    887000   0.95438441     17.499709      30.80471     
    888000   0.97497684     17.135507      30.553313    
    889000   1.0582938      18.215483      30.6269      
    890000   1.0261286      18.044861      30.453518    
    891000   1.0068302      17.452313      30.210066    
    892000   0.95243342     17.50776       30.238611    
    893000   0.98726052     17.70908       30.193631    
    894000   0.9702334      17.649788      30.238902    
    895000   0.97680195     17.637523      29.95918     
    896000   0.99910835     17.0921        29.634313    
    897000   1.0341548      17.516582      29.544553    
    898000   1.0085824      17.424049      29.308483    
    899000   1.0472921      17.857987      29.376073    
    900000   0.99916993     17.031727      29.088668    
    901000   0.99444652     17.473756      29.055861    
    902000   1.0156921      17.764912      29.01719     
    903000   1.0348983      16.797494      28.756608    
    904000   0.93466403     17.5923        28.474666    
    905000   1.0051289      17.675256      28.190053    
    906000   0.98555293     16.746461      28.428423    
    907000   0.99632411     17.26926       28.363561    
    908000   0.97851021     17.708432      28.465842    
    909000   1.0106192      18.059293      28.292322    
    910000   1.0470878      18.127216      28.118362    
    911000   1.02871        17.199955      27.878654    
    912000   1.0381432      17.638043      27.869475    
    913000   1.0043968      17.817184      27.785495    
    914000   1.0291015      18.005852      27.436734    
    915000   1.0387807      17.928402      27.39302     
    916000   1.0280831      18.26558       27.426549    
    917000   1.0514174      18.244088      27.673446    
    918000   0.97854459     17.481409      27.449492    
    919000   0.99196331     17.890922      27.293714    
    920000   0.95796525     18.223448      26.945751    
    921000   1.0023004      17.126941      27.04293     
    922000   0.97067502     16.552873      26.789034    
    923000   0.97310008     16.789002      26.75699     
    924000   0.98932582     17.640036      26.601578    
    925000   0.99054796     17.242036      26.496568    
    926000   0.97252621     18.212294      26.109886    
    927000   0.95801597     17.152355      26.247588    
    928000   1.0460932      17.116476      25.95359     
    929000   0.98594935     17.860929      25.756054    
    930000   0.95425226     16.9163        25.70646     
    931000   0.99854556     17.000272      25.426097    
    932000   0.93643135     17.349625      25.330054    
    933000   1.0255652      18.146662      25.26621     
    934000   0.98420516     17.754418      25.048352    
    935000   1.0054861      17.616688      24.732879    
    936000   0.97061506     17.063197      24.74256     
    937000   0.99291989     17.889814      24.677708    
    938000   1.0369705      18.558786      24.786927    
    939000   1.0461312      17.434817      24.598928    
    940000   1.0025394      17.711402      24.590303    
    941000   1.0365589      17.198428      24.523936    
    942000   1.0124846      17.406938      24.585935    
    943000   0.99018526     17.805494      24.614747    
    944000   0.97404328     17.237347      24.667962    
    945000   1.0095275      17.229758      24.738366    
    946000   0.97360199     17.578728      24.51248     
    947000   1.01476        17.222248      24.415326    
    948000   1.0298621      17.009533      24.196568    
    949000   0.95966601     16.915699      24.293689    
    950000   0.97069604     17.680992      24.209101    
    951000   1.0081683      16.928309      24.156366    
    952000   1.0697312      17.738361      24.034129    
    953000   0.95483676     17.372783      23.913883    
    954000   0.97691758     18.048282      23.593935    
    955000   0.98515106     17.231282      23.342049    
    956000   0.97379823     16.8636        23.233449    
    957000   1.0290258      17.838818      22.982163    
    958000   1.0196145      18.24204       22.740135    
    959000   0.98697678     18.292335      22.647152    
    960000   0.98422086     17.322619      22.703477    
    961000   1.0474064      18.30412       22.604466    
    962000   0.91556333     17.632408      22.404457    
    963000   0.99472532     18.803173      22.288842    
    964000   1.0374543      17.916438      22.318939    
    965000   1.0465707      17.238752      22.447503    
    966000   1.0237318      17.937358      22.300911    
    967000   0.95936107     18.082674      21.896256    
    968000   1.0149928      17.079166      21.628882    
    969000   0.98293479     17.408499      21.617816    
    970000   1.0048567      17.712768      21.624916    
    971000   0.96247943     17.336879      21.376915    
    972000   0.95261864     17.074116      21.009362    
    973000   0.98325623     17.386758      20.958094    
    974000   1.0339499      18.089523      20.990475    
    975000   1.0583574      17.456315      21.012574    
    976000   1.060568       17.636964      20.732433    
    977000   1.0055659      17.710995      20.402884    
    978000   1.0052674      17.919239      20.030164    
    979000   0.9805532      17.769936      19.878836    
    980000   1.0164138      17.710415      19.639513    
    981000   0.98169283     17.298411      19.458758    
    982000   1.0588929      16.99794       19.335028    
    983000   0.99150928     17.283868      18.833217    
    984000   1.0245805      17.133563      18.576211    
    985000   0.99214226     18.23007       18.593237    
    986000   0.99726201     17.740018      18.548097    
    987000   1.0122759      17.771367      18.577554    
    988000   1.0031797      17.611495      18.467433    
    989000   0.99480262     17.783009      18.627297    
    990000   0.98889754     17.628986      18.542146    
    991000   1.029236       17.067958      18.382286    
    992000   1.0596473      17.955892      18.112161    
    993000   1.024388       17.633783      17.920414    
    994000   1.0375446      17.457639      17.780449    
    995000   1.0209615      17.735871      17.836693    
    996000   1.0107159      17.907751      17.763804    
    997000   0.96251663     17.644302      17.973567    
    998000   0.98863941     18.174783      17.661672    
    999000   0.96592344     17.421871      17.521561    
   1000000   1.0746737      18.052656      17.452244    
   1001000   0.98226547     17.157406      17.268365    
   1002000   1.004391       17.752997      17.198177    
   1003000   0.99336956     16.728346      17.038823    
   1004000   0.96646436     17.790483      17.120358    
   1005000   1.0368074      18.13665       17.271301    
   1006000   0.98995964     17.021446      17.521134    
   1007000   1.0011763      17.742404      17.370111    
   1008000   1.0134013      17.57877       17.418683    
   1009000   1.0173892      17.716985      17.272849    
   1010000   0.98843602     17.074392      17.09458     
   1011000   1.0408154      17.717402      16.861538    
   1012000   0.97043486     17.211002      16.722722    
   1013000   1.020718       16.832039      16.64843     
   1014000   1.0673101      17.618991      16.588402    
   1015000   1.0396         16.696074      16.585349    
   1016000   0.99112493     17.423469      16.538962    
   1017000   0.94605375     17.0984        16.489658    
   1018000   0.94546111     17.13208       16.304253    
   1019000   0.97256051     17.751513      16.334304    
   1020000   0.98356386     18.112788      16.039728    
   1021000   1.015438       17.288317      16.022136    
   1022000   1.0111553      17.370235      15.954618    
   1023000   0.99719214     17.430011      15.973557    
   1024000   1.0002475      17.922353      16.110043    
   1025000   0.93842583     18.126872      16.289873    
   1026000   0.98149456     16.641383      16.265406    
   1027000   1.0512414      17.108077      15.794441    
   1028000   1.0516735      17.342264      15.870875    
   1029000   0.97665751     17.675437      15.501923    
   1030000   1.0507011      18.006069      15.509245    
   1031000   1.0320771      16.784218      15.620093    
   1032000   0.98855876     17.645594      15.609694    
   1033000   1.0566946      17.379541      15.555296    
   1034000   0.98180012     17.348457      15.013532    
   1035000   1.0055544      17.925649      14.808175    
   1036000   0.99049909     17.580591      14.650312    
   1037000   1.0205335      17.47761       14.450848    
   1038000   0.98733414     17.185779      13.947322    
   1039000   0.95485987     17.482563      14.023295    
   1040000   1.0001244      17.871965      13.908956    
   1041000   0.98729566     17.17722       14.025376    
   1042000   0.93868473     17.447286      13.961187    
   1043000   0.96556895     17.853251      14.013785    
   1044000   0.98460762     17.208869      13.817286    
   1045000   0.97312182     17.477598      13.813728    
   1046000   1.0215901      17.365321      13.546811    
   1047000   1.0344108      17.231005      13.574789    
   1048000   1.0337758      17.774043      13.56022     
   1049000   0.98912928     17.270518      13.339327    
   1050000   1.0242696      18.029932      13.472839    
   1051000   0.98693779     17.863272      13.321011    
   1052000   1.0097518      16.878498      13.372428    
   1053000   1.040309       17.313201      13.436429    
   1054000   0.92745168     17.610238      13.314609    
   1055000   0.93876365     17.456698      13.181046    
   1056000   0.98867383     17.243578      12.953218    
   1057000   0.94979448     16.945394      12.62818     
   1058000   0.92268751     17.020182      12.711038    
   1059000   1.0761976      18.09333       13.190824    
   1060000   0.98641994     16.905345      13.174736    
   1061000   1.0382195      18.537226      13.077758    
   1062000   1.0342899      17.53393       12.937887    
   1063000   0.98428791     17.531701      12.782683    
   1064000   1.0054141      17.143381      12.82629     
   1065000   0.99165449     17.74812       12.757161    
   1066000   0.95948199     17.200686      12.728044    
   1067000   1.0351742      17.438826      12.568746    
   1068000   1.0015536      17.040834      12.622377    
   1069000   1.0194689      17.74255       12.491067    
   1070000   1.050652       17.99758       12.349676    
   1071000   1.0017878      17.228263      12.239037    
   1072000   1.025103       17.465207      11.985085    
   1073000   1.0176342      17.476423      11.928002    
   1074000   0.96929687     17.03218       11.808266    
   1075000   0.98718457     17.412276      11.867056    
   1076000   0.97258359     17.000315      11.818579    
   1077000   0.93685281     16.881603      11.655026    
   1078000   0.98814235     17.317817      11.78145     
   1079000   1.0493417      17.325661      11.938107    
   1080000   1.0014494      17.669082      11.846688    
   1081000   1.0351836      17.053435      11.983762    
   1082000   0.97849162     17.578629      11.60289     
   1083000   1.0032789      17.170304      11.657425    
   1084000   1.0068231      18.032677      11.544248    
   1085000   0.9841332      17.723534      11.256966    
   1086000   0.95518109     17.419517      11.18792     
   1087000   1.0028824      17.952475      11.231314    
   1088000   0.96557916     17.511875      10.959638    
   1089000   1.021342       16.77448       10.550975    
   1090000   1.0230074      17.312316      10.096591    
   1091000   1.0043872      17.094117      9.8158091    
   1092000   1.025079       17.028419      9.7995474    
   1093000   0.9579354      17.157076      9.7454717    
   1094000   1.0068424      17.243599      9.7582256    
   1095000   0.98654988     17.729447      9.6546256    
   1096000   0.9491         17.167012      9.4822205    
   1097000   1.0080431      17.036458      9.0598943    
   1098000   1.0662875      17.883096      8.8979929    
   1099000   1.0271433      17.365627      8.9020434    
   1100000   0.99749414     18.182176      8.736831     
   1101000   0.96458145     17.130841      8.5071119    
   1102000   0.92969685     16.852733      8.2664122    
   1103000   0.99960042     17.49724       7.9590896    
   1104000   1.0198024      17.013486      7.869629     
   1105000   0.9695946      17.632173      7.6840239    
   1106000   0.99377915     17.010909      7.5661931    
   1107000   1.0506132      17.041224      7.5116798    
   1108000   0.98491798     16.892887      7.4380509    
   1109000   0.99745383     17.46956       7.4393177    
   1110000   0.94582634     17.356264      7.2520735    
   1111000   1.0483861      17.742545      7.32251      
   1112000   0.97145942     18.197453      7.3721256    
   1113000   0.99504855     17.530874      7.1551962    
   1114000   0.9696686      16.676465      7.0772631    
Fix halt condition for fix-id 3 met on step 1115000 with value 6.917455104654299 (src/fix_halt.cpp:237)
   1115000   0.96323422     18.180965      6.9174551    
Loop time of 1322.39 on 2 procs for 1015000 steps with 600 atoms

Performance: 663162.227 tau/day, 767.549 timesteps/s
112.6% CPU use with 1 MPI tasks x 2 OpenMP threads

MPI task timing breakdown:
Section |  min time  |  avg time  |  max time  |%varavg| %total
---------------------------------------------------------------
Pair    | 111.15     | 111.15     | 111.15     |   0.0 |  8.41
Bond    | 12.818     | 12.818     | 12.818     |   0.0 |  0.97
Neigh   | 1166.9     | 1166.9     | 1166.9     |   0.0 | 88.24
Comm    | 0.25412    | 0.25412    | 0.25412    |   0.0 |  0.02
Output  | 1.919      | 1.919      | 1.919      |   0.0 |  0.15
Modify  | 27.105     | 27.105     | 27.105     |   0.0 |  2.05
Other   |            | 2.224      |            |       |  0.17

Nlocal:            600 ave         600 max         600 min
Histogram: 1 0 0 0 0 0 0 0 0 0
Nghost:              0 ave           0 max           0 min
Histogram: 1 0 0 0 0 0 0 0 0 0
Neighs:          83454 ave       83454 max       83454 min
Histogram: 1 0 0 0 0 0 0 0 0 0

Total # of neighbors = 83454
Ave neighs/atom = 139.09
Ave special neighs/atom = 1.9966667
Neighbor list builds = 9329
Dangerous builds = 0

# This simulation is done
# Move onto the next one
clear
  using 2 OpenMP thread(s) per MPI task
package omp 0
using multi-threaded neighbor list subroutines
next f
jump SELF

###
# Reference paper:
# K. Kremer and G. S. Grest
# Dynamics of entangled linear polymer melts: A molecular-dynamics simulation
# J Chem Phys 92, 5057 (1990)

##################################
# MIHIR: for branched polymers
# LJ minimum first to expand and explore, then collapse
###

###
# Looping through the various linear polymers to simulate,
# define variables to switch through
# variable f index bb100nuc0bl0bn0d30tot100 bb200nuc0bl0bn0d30tot200 bb300nuc0bl0bn0d30tot300 bb400nuc0bl0bn0d30tot400 bb500nuc0bl0bn0d30tot500 bb600nuc0bl0bn0d30tot600 bb700nuc0bl0bn0d30tot700 bb800nuc0bl0bn0d30tot800 bb900nuc0bl0bn0d30tot900 bb1000nuc0bl0bn0d30tot1000 bb1100nuc0bl0bn0d30tot1100 bb1200nuc0bl0bn0d30tot1200
variable f index bb500nuc0bl0bn0d30tot500 bb600nuc0bl0bn0d30tot600 bb700nuc0bl0bn0d30tot700 bb800nuc0bl0bn0d30tot800 bb900nuc0bl0bn0d30tot900 bb1000nuc0bl0bn0d30tot1000 bb1100nuc0bl0bn0d30tot1100 bb1200nuc0bl0bn0d30tot1200
###


###
# Box and units  (use LJ units and periodic boundaries)
###

units lj
log linear/logs2/$f.log
log linear/logs2/bb700nuc0bl0bn0d30tot700.log
