#atom_style bond #no stiffness
atom_style angle #with stiffness

boundary        p p p
###
# Pair interactions require lists of neighbours to be calculated
###

#neighbor 0.3 bin
neighbor 4 bin

neigh_modify every 1 delay 1 check yes
atom_modify sort 0 0
### Generate RESTART file, SPECIAL format, not a .txt file ###
### Useful if simulation crashes ###

restart 1000000 linear/restarts2/$f.restart
restart 1000000 linear/restarts2/bb800nuc0bl0bn0d30tot800.restart
#############################



### READ "start" data file ###

read_data linear/$f.dat
read_data linear/bb800nuc0bl0bn0d30tot800.dat
Reading data file ...
  orthogonal box = (-1000 -1000 -1000) to (1000 1000 1000)
  1 by 1 by 1 MPI processor grid
  reading atoms ...
  800 atoms
  scanning bonds ...
  1 = max bonds/atom
  scanning angles ...
  1 = max angles/atom
  reading bonds ...
  799 bonds
  reading angles ...
  798 angles
Finding 1-2 1-3 1-4 neighbors ...
  special bond factors lj:    0        0        0       
  special bond factors coul:  0        0        0       
     2 = max # of 1-2 neighbors
     2 = max # of 1-3 neighbors
     4 = max # of 1-4 neighbors
     6 = max # of special neighbors
  special bonds CPU = 0.001 seconds
  read_data CPU = 0.048 seconds

######################

### READ "REstart" data file ###

######################



###
# Define groups (atom type 1 is group 'all')
###
group all type 1
800 atoms in group all


###
# Dump configs - "simple dumpings"
###

###
# Dump configs + box coords
###

dump   1   all   custom   1000  linear/trjs2/$f.lammpstrj  id  x y z  ix iy iz
dump   1   all   custom   1000  linear/trjs2/bb800nuc0bl0bn0d30tot800.lammpstrj  id  x y z  ix iy iz
dump_modify   1   format line "%d %.5f %.5f %.5f %d %d %d"

########################################################################


###################################################################
# Stiffness term
#
# E = K * (1+cos(theta)), K>0
#
angle_style   cosine
#change this coefficient to change stiffness (e.g. 1,5,10)
angle_coeff   1 1.0
###################################################################

###################################################################
# Pair interaction between non-bonded atoms
#
#  Lennard-Jones 12-6 potential with cutoff:
#  potential E=4epsilon[ (sigma/r)^12 - (sigma/r)^6]  for r<r_cut
#
#  1.12246 = 2^(1/6) is the minimum of the potential


pair_style      lj/cut 1.12246152962189
#pair_style      lj/cut 3

#
#  pair_modify shift yes adds a constant to the potential such

#  that E(r_cut)=0. Forces remains unchanged.
#

pair_modify     shift yes

#
#  pair_coeff for lj/cut, specify 4:
#    * atom type interacting with
#    * atom type
#    * epsilon (energy units)
#    * sigma (distance units)
#

pair_coeff      1 1 1.0 1.0
###################################################################

###################################################################
# Pair interaction between non-bonded atoms
#
#  soft potential, for PUSHING apart overlapping atoms
#  potential E=A*(1 + cos(pi*r/r_c))
#
#  1.12246 = 2^(1/6) is the cut-off r_c

#pair_style     soft 1.12246152962189

#
#  pair_coeff for soft, specify 3:
#    * atom type interacting with
#    * atom type
#    * A
#
#

#pair_coeff      1 1 100.0
###################################################################

###################################################################
# Pair interaction between bonded atoms
#
# Fene potential + Lennard Jones 12-6:

#
#  E= - 0.5 K R0^2 ln[ 1- (r/R0)^2]
#     + 4epsilon[ (sigma/r)^12 - (sigma/r)^6] + epsilon
#

bond_style   fene


#
# For style fene, specify:
#   * bond type
#   * K (energy/distance^2)
#   * R0 (distance)
#   * epsilon (energy)  (LJ component)
#   * sigma (distance)  (LJ component)
#


special_bonds fene #<=== I M P O R T A N T (new command)
Finding 1-2 1-3 1-4 neighbors ...
  special bond factors lj:    0        1        1       
  special bond factors coul:  0        1        1       
     2 = max # of 1-2 neighbors
     6 = max # of special neighbors
  special bonds CPU = 0.000 seconds

bond_coeff   1   30   2   1.0   1.0


###################################################

###################################################################
# Pair interaction between bonded atoms
#
# Harmonic potential:
#
#  E= K * (R-R0)^2
#

#bond_style   harmonic

#
# For style harmonic, specify:
#   * bond type
#   * K (energy/distance^2)
#   * R0 (distance)
#

#bond_coeff   1   60.0   1.0
#bond_coeff   2   harmonic 0.1   1.0

###################################################
compute 1 all gyration
variable rog equal c_1
#compute 2 all coord/atom cutoff 1.1

#dump 2 all custom 10000 contact_number.dump id c_2


###
# Set up fixes
###
thermo_style   custom   step  temp enthalpy c_1
fix 1 all nve   ###NVE ensemble

fix 2 all   langevin   1.0 1.0 1.0  778655   ###Langevin integrator Tstart Tstop 1/friction rndseed


##### Sample thermodynamic info  (temperature, energy, pressure, etc.) #####
thermo 1000









############################################################################

###
# set timestep of integrator

timestep 0.01

###
# run integration for a number of steps
###
#run 0
#variable r equal c_1
#if "$r < 63.1" then "quit 1"

# lj potential minimum, cause molecule to explore
run 100000
Generated 0 of 0 mixed pair_coeff terms from geometric mixing rule
Last active /omp style is angle_style cosine/omp
Neighbor list info ...
  update: every = 1 steps, delay = 1 steps, check = yes
  max neighbors/atom: 2000, page size: 100000
  master list distance cutoff = 5.1224615
  ghost atom cutoff = 5.1224615
  binsize = 2.5612308, bins = 781 781 781
  1 neighbor lists, perpetual/occasional/extra = 1 0 0
  (1) pair lj/cut/omp, perpetual
      attributes: half, newton on, omp
      pair build: half/bin/newton/omp
      stencil: half/bin/3d
      bin: standard
WARNING: Communication cutoff 5.12246152962189 is shorter than a bond length based estimate of 5.455. This may lead to errors. (src/comm.cpp:723)
Per MPI rank memory allocation (min/avg/max) = 1860 | 1860 | 1860 Mbytes
   Step          Temp         Enthalpy         c_1      
         0   0              13.409724      200.00029    
      1000   1.0376855      18.901241      199.62816    
      2000   0.98356132     18.874167      199.55736    
      3000   1.0378406      19.018347      199.51829    
      4000   1.019794       18.649247      199.27842    
      5000   1.054331       19.231677      198.98793    
      6000   0.93455334     18.66003       198.86997    
      7000   1.0714051      18.890519      198.7613     
      8000   1.0597672      19.198133      198.5426     
      9000   1.0336337      18.583888      198.34159    
     10000   0.98635452     18.838529      198.33604    
     11000   0.99191437     19.088202      197.85861    
     12000   1.0332175      19.044568      197.74579    
     13000   1.0030002      18.731486      197.43398    
     14000   1.0163603      19.401318      197.29001    
     15000   1.0110221      18.767988      196.82335    
     16000   1.0137289      19.199843      196.18604    
     17000   0.952549       19.379287      195.94091    
     18000   0.96894532     18.732814      195.6723     
     19000   1.0548783      19.324878      195.54592    
     20000   1.0068884      19.168522      195.401      
     21000   0.97559108     19.44188       195.3313     
     22000   0.97903878     19.665784      194.97331    
     23000   1.0198108      19.274236      195.03057    
     24000   0.98191043     19.49414       194.77458    
     25000   1.0327103      19.34287       194.68065    
     26000   1.0460837      18.912947      194.47714    
     27000   0.99221134     19.44858       194.31837    
     28000   1.0199497      18.67626       194.07287    
     29000   0.96625148     19.356693      193.88743    
     30000   0.9857855      19.10557       193.68277    
     31000   1.0054515      18.928531      193.53412    
     32000   0.9932416      19.364579      193.36643    
     33000   0.99697105     19.590093      193.00057    
     34000   1.013205       18.915994      192.74405    
     35000   1.0183213      19.120935      192.74159    
     36000   1.0663985      19.754931      192.50135    
     37000   1.000352       18.952481      192.07787    
     38000   0.99547232     19.232816      191.99526    
     39000   1.0130584      19.638219      192.02278    
     40000   1.042564       19.921857      192.05942    
     41000   1.0223814      19.338002      191.75599    
     42000   1.0346642      19.134996      191.38997    
     43000   0.95416928     19.034905      191.37389    
     44000   1.0182027      19.050192      191.26707    
     45000   0.97715011     19.738255      191.19516    
     46000   0.95611131     19.190335      191.0513     
     47000   1.0121444      19.349709      191.11927    
     48000   1.019203       19.520712      190.79557    
     49000   0.97758131     19.274505      190.65183    
     50000   0.96075956     19.189723      190.52919    
     51000   1.0354848      19.234884      190.48432    
     52000   0.98379295     19.026478      190.57072    
     53000   0.9283612      19.22709       190.50483    
     54000   1.000575       19.408441      190.49942    
     55000   1.0602589      19.444522      190.41933    
     56000   1.0094829      19.580242      190.44307    
     57000   0.95567496     19.204842      190.29679    
     58000   0.98548282     18.959512      190.27673    
     59000   1.0279233      18.896668      189.82307    
     60000   0.99067943     19.786433      189.78928    
     61000   0.99871825     19.446569      189.62915    
     62000   1.0073337      19.104082      189.65619    
     63000   1.0229483      19.438215      189.53457    
     64000   1.0020733      18.838372      189.36643    
     65000   1.0239659      19.571437      189.35764    
     66000   0.99654308     19.647424      188.96098    
     67000   1.0602646      19.826167      188.92097    
     68000   1.0060348      19.421526      188.72727    
     69000   0.96662534     18.992013      188.5537     
     70000   0.94953261     19.532248      188.53544    
     71000   0.96915721     19.361035      188.36659    
     72000   0.99980056     19.439544      188.1249     
     73000   1.0075921      19.427493      187.8001     
     74000   0.9758716      18.725318      187.51872    
     75000   0.97303052     19.591713      187.26701    
     76000   1.0134165      19.219175      186.9444     
     77000   1.0284626      19.734744      186.846      
     78000   0.97797113     19.540347      186.67058    
     79000   1.0284937      19.862597      186.41733    
     80000   1.0283276      19.552168      186.33299    
     81000   1.0441781      19.821962      186.15956    
     82000   0.98474434     19.524842      186.11504    
     83000   0.99817301     19.575691      186.16329    
     84000   1.0591776      19.452299      186.22209    
     85000   0.98425559     19.72204       186.13503    
     86000   0.99697797     19.373432      186.2958     
     87000   0.98433443     19.629542      185.89141    
     88000   0.99123262     19.289561      185.70648    
     89000   1.0216796      20.071146      185.6723     
     90000   0.97670463     19.291428      185.41852    
     91000   0.99672672     19.637142      185.2295     
     92000   1.0004836      19.594775      185.16902    
     93000   0.98540682     19.221301      184.99183    
     94000   1.0023272      18.803299      184.77741    
     95000   0.99570273     20.039443      184.76156    
     96000   0.98834211     19.842166      184.46772    
     97000   1.0050422      19.641509      184.29592    
     98000   1.0318471      18.949166      184.17476    
     99000   0.99723833     19.383062      184.04798    
    100000   0.99152572     19.722443      184.09462    
Loop time of 286.388 on 2 procs for 100000 steps with 800 atoms

Performance: 301688.958 tau/day, 349.177 timesteps/s
102.4% CPU use with 1 MPI tasks x 2 OpenMP threads

MPI task timing breakdown:
Section |  min time  |  avg time  |  max time  |%varavg| %total
---------------------------------------------------------------
Pair    | 0.64761    | 0.64761    | 0.64761    |   0.0 |  0.23
Bond    | 1.4651     | 1.4651     | 1.4651     |   0.0 |  0.51
Neigh   | 280.58     | 280.58     | 280.58     |   0.0 | 97.97
Comm    | 0.022695   | 0.022695   | 0.022695   |   0.0 |  0.01
Output  | 0.189      | 0.189      | 0.189      |   0.0 |  0.07
Modify  | 3.2582     | 3.2582     | 3.2582     |   0.0 |  1.14
Other   |            | 0.2291     |            |       |  0.08

Nlocal:            800 ave         800 max         800 min
Histogram: 1 0 0 0 0 0 0 0 0 0
Nghost:              0 ave           0 max           0 min
Histogram: 1 0 0 0 0 0 0 0 0 0
Neighs:           3865 ave        3865 max        3865 min
Histogram: 1 0 0 0 0 0 0 0 0 0

Total # of neighbors = 3865
Ave neighs/atom = 4.83125
Ave special neighs/atom = 1.9975
Neighbor list builds = 1038
Dangerous builds = 0

# Replace lj potential, now collapse
pair_style      lj/cut 3

# Cutoff simul when gyration under 5
# Variable created with equal requires v_ + 'name'
fix 3 all halt 1000 v_rog < 7

run 5000000
Generated 0 of 0 mixed pair_coeff terms from geometric mixing rule
Last active /omp style is angle_style cosine/omp
Per MPI rank memory allocation (min/avg/max) = 1860 | 1860 | 1860 Mbytes
   Step          Temp         Enthalpy         c_1      
    100000   0.99152572     19.263203      184.09462    
    101000   0.99845637     19.261026      183.83899    
    102000   1.0553113      19.411692      183.72922    
    103000   1.0142284      18.924467      183.65138    
    104000   1.0051829      19.446621      183.45798    
    105000   0.99330989     19.243157      183.11612    
    106000   0.98705736     19.056993      183.09168    
    107000   0.9986125      19.030476      183.0968     
    108000   1.0524493      19.046593      182.72585    
    109000   0.96525388     18.754482      182.57025    
    110000   1.0007786      19.921445      182.1108     
    111000   1.0040147      19.172527      182.21713    
    112000   0.96308235     19.129378      181.99584    
    113000   1.038833       19.117003      181.63443    
    114000   1.0703854      19.149929      181.63115    
    115000   1.0105476      19.609664      181.2478     
    116000   0.97962673     19.044176      181.33963    
    117000   1.0117765      19.12549       181.29948    
    118000   1.0420599      19.801148      180.72333    
    119000   0.94320191     19.866945      180.66879    
    120000   1.0290444      19.143302      180.55487    
    121000   1.011071       18.945462      180.59899    
    122000   1.0648591      19.139154      180.72738    
    123000   1.0446742      19.518238      181.05354    
    124000   1.017293       18.632875      181.04998    
    125000   0.98553678     19.038317      180.78072    
    126000   1.0580074      19.253641      180.54671    
    127000   0.98556715     19.107659      180.17146    
    128000   1.0798408      18.962536      180.20516    
    129000   0.96804957     19.225481      180.00763    
    130000   0.96022929     19.220678      179.54316    
    131000   1.0307056      19.052021      179.36723    
    132000   0.97164859     19.280506      179.4157     
    133000   0.98012816     19.22989       179.22759    
    134000   0.97880657     18.944461      179.17914    
    135000   1.0144856      19.382101      179.10589    
    136000   1.0720728      19.395564      178.81637    
    137000   0.9978339      19.051181      178.62528    
    138000   1.0203807      19.045353      178.49728    
    139000   1.0128349      19.584394      178.42668    
    140000   1.0235385      19.158406      178.33875    
    141000   1.0001579      18.798241      178.36582    
    142000   0.97597425     19.167643      178.35794    
    143000   0.95344182     18.67657       178.27549    
    144000   0.96313408     19.126217      178.15181    
    145000   1.0103085      18.66082       177.7989     
    146000   0.95801912     18.7764        177.51622    
    147000   1.0250252      19.56553       177.48682    
    148000   1.002769       19.345733      177.36725    
    149000   1.0237031      19.314496      177.31892    
    150000   1.0395415      19.652156      177.13502    
    151000   0.96955894     19.288646      177.001      
    152000   0.98233515     19.142146      176.64835    
    153000   0.97452408     19.092704      176.57633    
    154000   1.013535       18.693274      176.32835    
    155000   0.98568476     18.972133      176.25641    
    156000   1.0150163      19.389779      175.9551     
    157000   0.97759594     19.369475      175.79069    
    158000   1.0369936      18.826415      175.6289     
    159000   1.0173548      19.259557      175.45914    
    160000   1.0568546      19.171651      175.44918    
    161000   1.0019288      18.953666      175.2235     
    162000   1.0176679      19.315368      174.82222    
    163000   0.99870954     18.619926      174.45683    
    164000   1.0122994      19.186429      174.38042    
    165000   1.0408138      19.442893      174.48556    
    166000   0.9861033      18.972812      174.37386    
    167000   1.0435593      18.426801      174.1908     
    168000   1.0054614      18.173052      173.96809    
    169000   1.0464522      18.96398       173.78017    
    170000   0.96883466     18.786995      173.70901    
    171000   1.0160208      19.126383      173.58213    
    172000   0.99348383     18.920282      173.48174    
    173000   1.0179601      19.072987      173.31111    
    174000   0.97614586     18.373549      172.99633    
    175000   0.99476919     18.660185      172.88664    
    176000   1.040471       19.693999      172.96803    
    177000   0.99016178     19.341473      172.92635    
    178000   1.0293317      19.066002      172.6504     
    179000   1.022894       18.551865      172.3719     
    180000   0.98623925     18.904761      172.08857    
    181000   0.98761537     19.32723       171.91307    
    182000   1.0628352      18.925547      171.77259    
    183000   1.0311633      18.99084       171.47416    
    184000   1.0485604      19.834974      171.49088    
    185000   0.97184781     19.328698      171.56929    
    186000   0.99755883     19.277745      171.46953    
    187000   0.99484879     18.806962      170.96146    
    188000   1.0421153      19.459722      170.6005     
    189000   0.99864604     19.024287      170.41987    
    190000   1.0437085      19.312408      170.27622    
    191000   0.95815287     19.086238      170.17198    
    192000   0.98887443     19.209508      170.30637    
    193000   0.97802744     18.410568      170.46078    
    194000   1.045932       19.168435      170.38168    
    195000   1.0432133      19.522531      170.36088    
    196000   0.98273314     18.606351      170.27862    
    197000   1.0040615      18.909422      170.31371    
    198000   0.97324552     19.121956      170.4734     
    199000   1.0363651      19.645123      170.40039    
    200000   1.0115361      19.107728      170.4891     
    201000   0.97737263     19.026301      170.30986    
    202000   1.0069993      18.773563      170.25158    
    203000   0.96107033     18.28676       170.21415    
    204000   1.0065316      18.690671      170.0514     
    205000   1.0352916      19.264102      169.98661    
    206000   0.99754952     19.591888      169.72902    
    207000   0.97353329     19.066582      169.25619    
    208000   0.95218925     18.955456      169.28748    
    209000   0.99107191     18.816145      169.09183    
    210000   1.0071399      19.204025      168.89197    
    211000   1.0079409      19.443689      168.39497    
    212000   1.0039608      19.200844      168.14963    
    213000   0.95238795     18.303923      168.00852    
    214000   1.0127541      19.288917      168.17986    
    215000   0.99964751     19.130467      168.08081    
    216000   1.0233286      19.408776      167.99354    
    217000   0.99576281     19.063891      167.90067    
    218000   1.0412712      18.980616      167.54672    
    219000   1.0302117      19.710443      167.45048    
    220000   0.99098287     18.980041      167.05949    
    221000   0.9747026      18.814904      166.81185    
    222000   0.98165384     19.482183      166.83742    
    223000   0.96966509     19.530154      166.77614    
    224000   1.0505264      19.619627      166.54504    
    225000   1.0207085      18.996492      166.47155    
    226000   0.99087754     18.699696      166.31226    
    227000   1.0389533      18.866795      166.30874    
    228000   1.0114449      19.316282      166.15895    
    229000   1.0084931      18.660783      165.96913    
    230000   0.9631133      19.262285      165.94037    
    231000   1.0114646      19.320664      165.92222    
    232000   0.98866641     19.007189      165.54283    
    233000   0.97995359     19.463572      165.30608    
    234000   1.0025468      19.477679      165.25177    
    235000   0.99574159     18.787987      165.12371    
    236000   0.96803803     18.477123      164.85691    
    237000   1.0295873      19.708826      164.59891    
    238000   0.9808374      19.323857      164.6327     
    239000   1.0012588      18.986574      164.48317    
    240000   1.045147       18.464571      164.40581    
    241000   1.005361       18.923132      164.39367    
    242000   1.0379668      18.945583      164.2848     
    243000   0.97195789     19.619986      164.16526    
    244000   0.98451282     18.714223      164.41004    
    245000   1.0101963      19.516458      164.22633    
    246000   1.0230885      19.15841       164.13601    
    247000   1.0631691      19.144066      164.20633    
    248000   1.0302514      19.156884      164.04396    
    249000   1.0311196      19.450103      163.98919    
    250000   1.0267913      18.939709      163.86054    
    251000   1.0317509      19.394606      163.58389    
    252000   1.0325823      19.571587      163.19098    
    253000   1.0328176      18.953966      163.44328    
    254000   1.0001489      19.375743      163.45073    
    255000   1.0276795      19.262844      163.57735    
    256000   1.0121993      18.780556      163.578      
    257000   0.99634648     19.29597       163.27022    
    258000   1.0023142      18.958299      163.17409    
    259000   1.0118122      19.180994      163.05394    
    260000   0.98791274     18.99399       162.78885    
    261000   1.0120552      18.771783      162.64735    
    262000   0.99863595     19.078197      162.51186    
    263000   0.95955937     18.95432       162.44141    
    264000   0.9854013      19.128558      162.27587    
    265000   1.0007492      18.806477      162.2605     
    266000   0.9727517      19.533706      162.16663    
    267000   1.0014934      18.780644      162.05466    
    268000   0.96211986     19.1052        162.01284    
    269000   1.0730302      19.578266      161.78226    
    270000   0.99371495     19.112703      161.48555    
    271000   0.98384564     19.481226      161.54896    
    272000   0.96975074     18.615808      161.34413    
    273000   0.97074201     19.174227      161.30792    
    274000   1.0332814      19.19119       161.12932    
    275000   0.98456634     19.058223      161.01449    
    276000   0.99817667     18.611916      160.82352    
    277000   1.0016542      18.880224      160.84034    
    278000   0.97388596     18.990628      160.53132    
    279000   0.98442156     19.047574      160.31875    
    280000   0.97051783     19.384814      160.19947    
    281000   1.0187402      19.326168      159.9802     
    282000   1.0015035      19.5252        159.9603     
    283000   1.0053648      18.93919       159.76657    
    284000   1.0595629      19.488576      159.75281    
    285000   0.98037967     19.078836      159.65053    
    286000   0.92327483     19.043118      159.31731    
    287000   0.99643296     18.336537      159.25355    
    288000   0.97910728     18.610267      159.19022    
    289000   1.0032039      19.481851      159.14802    
    290000   0.96668898     19.469511      159.02347    
    291000   1.04654        18.95258       159.06616    
    292000   0.98985103     19.39523       158.95032    
    293000   1.0020504      19.065205      158.86562    
    294000   0.99821076     18.874939      158.41594    
    295000   0.99800714     18.927472      158.21748    
    296000   1.0068842      18.963684      157.98241    
    297000   0.97265312     19.038048      157.81236    
    298000   0.97143488     18.862528      157.62864    
    299000   1.0239307      18.264694      157.20362    
    300000   1.0151654      18.781676      156.6425     
    301000   1.0576665      19.310411      156.82099    
    302000   1.0266162      19.100518      156.60755    
    303000   0.99456173     19.227135      156.53655    
    304000   1.0293905      19.192057      156.52959    
    305000   1.0703781      19.293248      156.21764    
    306000   0.97606875     19.566194      155.91551    
    307000   0.99407883     19.402532      155.60678    
    308000   0.9758799      19.508124      155.52803    
    309000   0.95038073     18.816461      155.37562    
    310000   0.99198115     19.512984      155.22382    
    311000   1.0452618      18.79283       155.11072    
    312000   1.002358       18.748712      155.07222    
    313000   1.0526994      18.879016      154.91356    
    314000   1.0408632      18.884231      154.69556    
    315000   1.0199326      19.530088      154.70124    
    316000   1.0152632      18.797543      154.35583    
    317000   1.0039836      18.705537      154.0381     
    318000   0.98833311     18.679921      153.83014    
    319000   0.99362469     19.032101      153.72557    
    320000   0.92480165     19.153532      153.54026    
    321000   0.92610166     18.827158      153.16097    
    322000   0.97204522     18.819124      152.90146    
    323000   1.0471135      19.548857      152.94633    
    324000   0.98590095     18.719194      152.75143    
    325000   0.96017237     19.120695      152.37939    
    326000   0.98528446     19.419813      151.76739    
    327000   1.0218114      18.880145      151.57961    
    328000   1.0317216      18.969092      151.38816    
    329000   0.98249029     18.656191      151.35145    
    330000   1.002542       20.015585      151.40918    
    331000   1.0290266      19.672691      151.18374    
    332000   1.0133322      19.06205       151.09767    
    333000   0.99689025     19.504645      151.01094    
    334000   1.0076778      19.390625      151.05572    
    335000   0.97354323     19.578389      150.88957    
    336000   1.0061498      19.101526      150.76961    
    337000   0.99463178     18.781449      150.49032    
    338000   0.97233754     18.653175      150.50912    
    339000   1.013366       19.770989      150.53403    
    340000   0.99374462     19.38503       150.58468    
    341000   1.0848672      19.147155      150.4019     
    342000   0.99661758     19.152172      150.27137    
    343000   1.0873392      19.531995      150.26771    
    344000   0.96060874     19.039569      149.90062    
    345000   0.98333411     19.174722      149.66374    
    346000   0.99833109     18.942914      149.3889     
    347000   1.0157054      18.916889      149.02801    
    348000   0.98896394     18.549796      148.93774    
    349000   0.98204073     19.09446       148.43579    
    350000   1.0225507      18.902943      148.52784    
    351000   1.0328395      18.536129      148.29852    
    352000   1.004984       19.119054      148.09698    
    353000   1.0457661      19.573063      147.94736    
    354000   0.98855648     18.744567      147.92776    
    355000   1.032495       18.986177      147.73055    
    356000   1.0275372      19.607537      147.71896    
    357000   0.98058253     18.978017      147.8443     
    358000   1.0254627      18.70716       147.56525    
    359000   0.98078693     19.017178      147.53257    
    360000   0.99880045     18.970782      147.53664    
    361000   0.98688118     19.437829      147.69856    
    362000   0.98992884     18.512908      147.5155     
    363000   1.029372       19.164376      147.52442    
    364000   1.0235133      18.95649       147.52557    
    365000   0.99748054     19.021245      147.68878    
    366000   1.0223424      19.353941      147.39129    
    367000   0.97536408     18.504989      147.45913    
    368000   0.97135236     19.143812      147.52006    
    369000   0.98866911     18.494772      147.23687    
    370000   0.97384905     18.757643      147.01599    
    371000   0.99601992     18.782546      146.98214    
    372000   0.97492022     19.352068      146.78966    
    373000   1.0408203      18.798478      146.42588    
    374000   1.0414522      18.761876      146.36998    
    375000   1.0164871      19.247953      146.24685    
    376000   0.97896908     18.653501      146.12316    
    377000   0.97159178     19.069879      145.88244    
    378000   0.99118551     18.844918      145.98503    
    379000   0.99902283     18.998651      146.00803    
    380000   1.029889       18.949193      145.88141    
    381000   0.97007807     18.877846      145.68944    
    382000   0.97001839     19.17862       145.62478    
    383000   1.0065715      18.66206       145.50927    
    384000   1.0244299      19.124239      145.60498    
    385000   0.99849421     19.059691      145.55472    
    386000   0.99124242     18.609748      145.55918    
    387000   0.94277083     18.480586      145.63767    
    388000   1.006636       19.074078      145.79967    
    389000   0.97009192     18.537919      145.74975    
    390000   0.98242673     18.268038      145.93831    
    391000   0.97748998     19.153668      146.02695    
    392000   1.0574039      18.992284      146.00978    
    393000   1.039534       18.641649      146.14681    
    394000   0.97315379     18.586167      146.10323    
    395000   0.98020163     18.191515      146.07835    
    396000   1.0011851      19.486409      145.73186    
    397000   0.99588521     18.951756      145.52153    
    398000   0.99642389     18.730281      145.41218    
    399000   1.0034289      18.928619      145.3265     
    400000   1.0392447      19.402301      144.84563    
    401000   0.99012966     19.020732      144.62363    
    402000   1.0174579      18.27281       144.65113    
    403000   1.0153403      18.692422      144.45997    
    404000   0.96546241     19.131159      144.34556    
    405000   0.99228239     19.160755      143.97029    
    406000   1.0122057      18.542244      143.96996    
    407000   1.0083738      19.044184      144.05563    
    408000   0.97468334     18.465027      143.96887    
    409000   1.0011456      18.970129      143.81325    
    410000   0.98908366     18.23901       143.87351    
    411000   1.0063285      18.657421      143.6921     
    412000   1.0223621      19.00251       143.3166     
    413000   0.99089504     18.910118      143.40042    
    414000   1.0770726      19.053489      143.51057    
    415000   1.00512        19.601842      143.35033    
    416000   0.98761391     18.943834      143.15986    
    417000   0.98322789     18.908314      142.83646    
    418000   0.97569167     18.741974      142.61128    
    419000   1.003372       18.851252      142.63601    
    420000   0.99468189     19.133555      142.45533    
    421000   0.98634453     18.477122      142.16755    
    422000   1.0333879      18.739102      142.19399    
    423000   1.0326701      19.060768      142.22844    
    424000   0.99139659     18.735155      141.97085    
    425000   0.95543527     19.343087      141.79195    
    426000   1.0127515      18.515002      141.67565    
    427000   1.0489177      18.646154      141.64623    
    428000   1.0137399      18.640638      141.44476    
    429000   0.97751215     19.242089      141.38415    
    430000   1.0208989      19.44467       141.21046    
    431000   0.99789993     18.385655      140.80372    
    432000   0.97017007     18.660012      140.84375    
    433000   1.0169329      18.07349       140.67728    
    434000   0.99750783     19.337195      140.4442     
    435000   1.0092477      19.11636       140.4389     
    436000   0.95705981     18.097286      140.3832     
    437000   1.004891       18.546492      140.46397    
    438000   0.96636696     18.81185       140.24085    
    439000   1.0367411      18.558495      140.39601    
    440000   1.0175792      19.453009      140.47957    
    441000   0.97585592     19.007791      140.30187    
    442000   1.0161477      18.680488      140.28746    
    443000   1.004458       18.891685      139.85243    
    444000   0.96525154     18.912039      139.65945    
    445000   0.97170545     18.680764      139.27911    
    446000   1.0133876      19.305073      139.06075    
    447000   1.0333426      18.893006      139.16586    
    448000   0.99745733     18.57534       139.0579     
    449000   1.0462479      18.912238      139.17434    
    450000   1.035803       18.93977       139.1445     
    451000   0.98459266     18.712346      138.99347    
    452000   0.97090038     18.801424      138.77168    
    453000   0.97437709     18.901133      138.77161    
    454000   0.98671053     18.720454      138.718      
    455000   1.0190519      19.046495      138.55904    
    456000   0.95198011     18.976931      138.42393    
    457000   1.0199677      19.05339       138.17941    
    458000   0.98754972     18.799799      138.09728    
    459000   0.98256978     18.903938      138.1455     
    460000   0.98240335     18.907377      138.13995    
    461000   1.0151539      19.392685      137.82915    
    462000   0.99564002     18.913781      137.82732    
    463000   0.94504713     18.958887      138.01669    
    464000   1.0406549      19.118754      138.00134    
    465000   1.0360475      18.778037      137.87419    
    466000   1.0279464      18.993296      138.02559    
    467000   0.96953307     18.21418       137.98907    
    468000   1.021292       18.83834       137.6775     
    469000   1.0502253      18.910373      137.64487    
    470000   0.97107022     18.639492      137.34332    
    471000   0.98776533     19.366645      137.19095    
    472000   0.98676429     18.837675      136.98107    
    473000   0.98639371     18.864861      136.98806    
    474000   0.94739785     18.776346      136.96892    
    475000   1.0037344      19.018641      137.18611    
    476000   0.99637254     19.423301      137.26959    
    477000   0.97189457     18.728109      137.06063    
    478000   1.0634026      19.210363      136.85784    
    479000   1.0224436      19.094127      136.51399    
    480000   1.042325       18.438098      136.42788    
    481000   0.97871967     18.574026      136.58502    
    482000   0.96712422     19.36531       136.59225    
    483000   0.98862195     19.038021      136.46799    
    484000   1.0034294      18.930617      136.41117    
    485000   0.99747178     18.927512      136.20817    
    486000   0.98707675     18.740391      136.12983    
    487000   1.044968       19.292909      136.08425    
    488000   1.0186484      18.827077      136.01033    
    489000   0.95832487     18.600812      135.81721    
    490000   1.0161145      19.38802       135.72078    
    491000   1.0021993      18.357523      135.52742    
    492000   1.0468052      19.047881      135.32235    
    493000   0.98263625     18.478031      135.40955    
    494000   1.0295433      18.774147      135.2172     
    495000   0.93348773     17.807536      134.97566    
    496000   0.98684427     18.392615      134.84002    
    497000   0.97327028     18.765815      134.68859    
    498000   1.0367945      18.825402      134.26299    
    499000   1.0188857      18.797678      134.24831    
    500000   1.0238401      19.135784      134.22498    
    501000   0.99720275     19.102881      133.97305    
    502000   1.0206601      19.135016      133.70981    
    503000   1.0074976      19.010839      133.7569     
    504000   1.0061563      18.880822      133.64142    
    505000   0.99567449     18.569339      133.35012    
    506000   0.96860962     18.717847      133.19078    
    507000   1.0086643      19.112409      133.04009    
    508000   1.0044807      19.04683       133.10739    
    509000   0.99098214     18.735484      133.11718    
    510000   1.0004647      18.951749      133.05992    
    511000   0.93381899     19.063083      133.17828    
    512000   1.0157863      18.960681      133.32965    
    513000   1.0315989      18.673637      133.07549    
    514000   1.0340815      18.663419      133.07257    
    515000   0.99326071     19.178469      133.02529    
    516000   1.0323115      18.877887      132.68213    
    517000   0.99884717     19.118744      132.48811    
    518000   0.99314695     18.560144      132.55714    
    519000   1.026903       18.757883      132.66532    
    520000   1.0177221      18.967599      132.27366    
    521000   0.95643598     18.787328      132.26451    
    522000   0.95561011     18.298938      132.30015    
    523000   1.0109979      18.902085      132.04934    
    524000   0.99883793     18.780721      131.99335    
    525000   0.98891492     18.947599      132.24316    
    526000   1.0042675      18.797986      132.2281     
    527000   0.99441834     18.897292      132.20287    
    528000   1.0077299      18.576218      132.27158    
    529000   0.95749932     18.21434       132.15535    
    530000   0.98671327     18.149847      131.97103    
    531000   1.0315603      18.993765      131.91389    
    532000   0.9655456      18.35208       131.49093    
    533000   1.022929       18.792082      131.4452     
    534000   1.0081731      18.926344      131.4851     
    535000   0.99391976     19.040184      131.58279    
    536000   0.9816428      18.708416      131.44371    
    537000   0.96921471     18.480393      131.42866    
    538000   1.0212864      18.774269      131.19426    
    539000   1.0504168      19.163895      131.03763    
    540000   0.9953634      19.595413      130.79706    
    541000   0.99995862     19.327263      130.71349    
    542000   1.0421358      18.684223      130.55874    
    543000   1.0065902      18.913111      130.27589    
    544000   1.0012975      18.843684      130.42321    
    545000   1.0365137      18.564493      130.52102    
    546000   1.048474       18.81924       130.34743    
    547000   1.0053884      18.326498      130.36571    
    548000   0.97653165     18.052988      130.21589    
    549000   0.98709099     18.376263      130.07315    
    550000   0.9599997      18.838863      129.90323    
    551000   1.0174383      18.562129      129.92543    
    552000   1.0244519      19.033317      129.82107    
    553000   0.95260484     18.524584      129.724      
    554000   1.0032109      18.457432      129.58446    
    555000   1.0158707      18.499806      129.51651    
    556000   0.98495483     18.667833      129.43373    
    557000   1.0275435      18.972262      129.24893    
    558000   1.0344978      18.98032       129.20221    
    559000   0.96438245     18.878701      129.17661    
    560000   1.0084042      18.943773      128.91266    
    561000   0.97639461     18.182478      128.90658    
    562000   1.0540334      18.778496      128.89632    
    563000   1.0070307      18.737517      128.87824    
    564000   1.0703334      19.531985      128.80729    
    565000   1.0223907      18.878555      128.56842    
    566000   1.0528082      19.025762      128.5337     
    567000   1.030776       18.740534      128.38917    
    568000   0.99664234     18.450812      128.19211    
    569000   0.98679571     19.382869      127.89042    
    570000   1.0100519      18.506393      127.68942    
    571000   1.0346989      19.041172      127.45182    
    572000   0.98241404     19.085048      127.42068    
    573000   1.0264961      18.725613      127.46719    
    574000   0.99181186     18.198759      127.58645    
    575000   0.98103092     18.084789      127.39667    
    576000   0.95446567     18.57294       127.19305    
    577000   0.9996424      18.331527      127.27249    
    578000   0.98934166     18.137695      127.2149     
    579000   1.0099496      18.205888      127.12409    
    580000   1.0203319      18.700049      127.04178    
    581000   0.96542306     17.95395       126.82063    
    582000   1.0218907      18.202944      126.78388    
    583000   0.97758005     18.497445      126.84885    
    584000   1.0228426      18.705985      126.57807    
    585000   0.99837572     18.606734      126.37221    
    586000   0.96075673     19.02186       125.93904    
    587000   0.99107845     18.829487      125.80547    
    588000   1.0740008      18.78346       125.70613    
    589000   1.0041323      18.460367      125.67851    
    590000   0.98914104     18.485878      125.40303    
    591000   1.0051905      19.200949      125.2893     
    592000   1.0223228      18.807185      125.14456    
    593000   1.0332235      18.179665      124.8352     
    594000   1.0267676      18.831319      124.6387     
    595000   1.0138855      18.73143       124.23806    
    596000   0.97056116     18.47845       124.09544    
    597000   0.96447755     18.269108      124.31419    
    598000   0.99709731     18.435176      124.23468    
    599000   0.99257986     19.211462      124.23421    
    600000   1.0369518      18.717327      124.246      
    601000   0.9784509      18.281834      124.05585    
    602000   1.0286991      18.98992       124.11155    
    603000   1.0034875      18.634113      123.68166    
    604000   1.0282282      18.829779      123.54745    
    605000   0.98568246     18.63793       123.67017    
    606000   1.0505374      18.473104      123.58253    
    607000   0.97762927     18.561561      123.67144    
    608000   1.0509835      19.113477      123.77834    
    609000   1.0275218      18.762455      123.45876    
    610000   1.0631354      19.220414      123.04035    
    611000   0.98111875     18.395151      122.97168    
    612000   1.0127398      18.433443      122.91779    
    613000   0.99801766     18.778435      122.64579    
    614000   1.021649       19.153181      122.64202    
    615000   1.0097809      19.405107      122.3498     
    616000   1.033917       18.956892      122.13104    
    617000   1.0154604      18.919465      122.0178     
    618000   0.99253803     19.163719      121.81344    
    619000   0.99073846     17.934569      122.05574    
    620000   0.97560461     17.974883      122.1746     
    621000   1.0165539      18.632872      121.88373    
    622000   1.0286348      18.994393      121.97277    
    623000   1.0176709      18.778174      121.80131    
    624000   0.99246382     18.628863      121.42524    
    625000   1.028155       18.610879      121.48172    
    626000   1.0391041      19.382847      121.48083    
    627000   0.9388111      18.457035      121.35822    
    628000   0.97682166     18.839285      121.19887    
    629000   0.99959465     18.054477      121.07717    
    630000   0.98868299     18.426887      121.11238    
    631000   1.0149058      18.653548      120.63469    
    632000   0.99560821     18.348933      120.51297    
    633000   1.027817       18.771128      120.49785    
    634000   1.0145465      18.581083      120.39932    
    635000   1.0125957      18.821164      120.55124    
    636000   0.99454765     18.390527      120.14404    
    637000   0.98978866     18.812375      120.34457    
    638000   1.0391288      19.015476      120.28842    
    639000   0.99473398     18.962468      120.2022     
    640000   1.0081551      18.522312      120.09924    
    641000   1.0180047      18.813967      119.96344    
    642000   1.036738       18.847594      119.86679    
    643000   1.0351377      18.348322      119.79       
    644000   0.98216215     18.365411      119.69638    
    645000   0.99786564     18.928757      119.51041    
    646000   0.99414676     19.133679      119.35986    
    647000   0.98388626     19.106544      119.38347    
    648000   0.9835524      18.082358      119.42744    
    649000   0.99389043     18.514483      119.1364     
    650000   1.0656332      18.776425      119.22831    
    651000   0.98955132     18.562678      119.10745    
    652000   0.99888458     19.067071      119.03614    
    653000   0.98773848     18.050215      118.94138    
    654000   1.0225         18.744078      118.88824    
    655000   1.0481362      18.790355      118.6866     
    656000   0.94382579     18.557812      118.24259    
    657000   1.0616959      18.838571      118.14033    
    658000   0.97109656     18.579878      118.12544    
    659000   1.0171824      18.262445      117.9741     
    660000   0.9777605      18.960346      118.02633    
    661000   0.97281524     18.252598      118.20299    
    662000   0.98206873     18.321892      118.01132    
    663000   0.99125249     18.137026      118.03504    
    664000   0.97427165     19.631143      118.0578     
    665000   0.97417039     18.773755      117.78714    
    666000   0.99361639     18.700734      117.73688    
    667000   0.99902314     18.422904      117.91909    
    668000   1.0277057      19.241737      117.87865    
    669000   0.98478307     18.981968      117.93606    
    670000   0.98968224     18.465454      117.87324    
    671000   0.98118845     18.878029      117.95933    
    672000   1.0552937      18.648364      118.01263    
    673000   1.0423519      18.621297      117.97703    
    674000   0.98952167     18.287713      118.03794    
    675000   0.98199473     18.102329      118.06274    
    676000   0.9954273      18.948663      117.84013    
    677000   0.97308715     18.551952      117.86702    
    678000   0.99143086     18.919363      117.73416    
    679000   0.98335828     18.549572      117.68263    
    680000   1.0393424      18.362524      117.61531    
    681000   0.99436887     18.842572      117.56538    
    682000   1.0152526      17.993013      117.45373    
    683000   0.98810451     18.478082      117.29028    
    684000   1.02681        18.237601      117.27788    
    685000   1.0310342      18.57047       117.17814    
    686000   1.0089082      18.398099      117.08908    
    687000   1.1236121      19.202206      117.3304     
    688000   0.99445581     18.537002      117.25081    
    689000   0.99242483     18.215138      117.2666     
    690000   1.0226896      18.953293      117.228      
    691000   1.0143457      19.221977      117.08758    
    692000   1.0191417      18.919154      117.10198    
    693000   1.0101997      18.599213      116.91233    
    694000   0.97170888     18.149396      116.76694    
    695000   1.0386901      18.626414      116.66839    
    696000   0.98142549     18.117197      116.47984    
    697000   0.96502891     18.644668      116.35729    
    698000   0.98306111     18.270295      116.25049    
    699000   1.0161023      18.758941      116.21928    
    700000   1.0483676      18.670581      116.13845    
    701000   0.98700938     18.118342      115.97428    
    702000   1.0141002      17.905779      116.00741    
    703000   1.0057894      18.477705      116.09289    
    704000   1.0078377      18.66824       116.00067    
    705000   0.99163238     18.108397      116.06954    
    706000   0.9830969      18.146024      115.92187    
    707000   0.99617373     18.465823      116.05739    
    708000   1.0044232      18.647813      115.86436    
    709000   1.0282245      18.615871      115.49403    
    710000   0.91533127     18.391416      115.36857    
    711000   0.94879637     17.838271      115.53537    
    712000   0.99536256     18.175343      115.67699    
    713000   0.98566458     18.879152      115.76584    
    714000   0.97505098     18.244142      115.75525    
    715000   0.95816775     18.353648      115.71712    
    716000   1.0620251      18.865117      115.69157    
    717000   1.0475341      18.416108      115.45197    
    718000   0.99594465     18.377866      115.32081    
    719000   1.025388       17.932532      115.37895    
    720000   1.0000921      18.255777      115.50196    
    721000   0.90618438     18.978118      115.46269    
    722000   1.0183654      18.088161      115.43889    
    723000   0.99767161     18.285183      115.56877    
    724000   1.0027224      18.491386      115.5381     
    725000   0.98513041     18.655446      115.39445    
    726000   0.99473961     18.252189      115.53428    
    727000   1.0705736      18.722711      115.56931    
    728000   0.98704567     18.461595      115.46691    
    729000   0.98776953     18.458581      115.52654    
    730000   0.96513477     18.362782      115.52523    
    731000   1.0272265      18.635872      115.42692    
    732000   0.95436409     18.071583      115.49545    
    733000   0.97849274     18.448595      115.23448    
    734000   1.025122       18.113841      115.12545    
    735000   0.99019381     18.627099      115.07385    
    736000   1.0059154      18.340484      115.07174    
    737000   0.98892477     19.312807      115.06949    
    738000   1.024893       18.456792      115.10791    
    739000   0.96465484     18.231064      114.88421    
    740000   0.97072409     18.128475      115.11593    
    741000   0.97694824     18.120479      114.95475    
    742000   0.97082672     18.807037      114.74329    
    743000   0.96686864     18.589684      114.76468    
    744000   0.95218639     18.542739      114.75458    
    745000   0.98229753     18.524337      114.64318    
    746000   1.0530912      18.895856      114.58696    
    747000   1.038953       18.480885      114.44554    
    748000   1.05029        18.53402       114.37255    
    749000   1.0417073      19.214394      114.1129     
    750000   1.0132561      18.219755      114.05862    
    751000   1.0108777      18.108903      113.80412    
    752000   0.99760904     18.540132      113.76912    
    753000   0.98800397     18.479203      113.67566    
    754000   1.0045307      18.792575      113.75823    
    755000   0.97656005     18.450157      113.95207    
    756000   0.99905611     18.556709      114.06206    
    757000   1.0355238      18.330101      113.79517    
    758000   1.0320131      18.698076      113.81324    
    759000   0.9523173      18.41549       113.6911     
    760000   0.96317788     18.433856      113.48583    
    761000   0.97097145     18.181601      113.41989    
    762000   1.0306327      18.258345      113.34489    
    763000   0.97249935     18.688788      113.47175    
    764000   1.0062397      18.293011      113.37816    
    765000   1.0245801      18.809774      113.29595    
    766000   0.99858645     18.460084      113.49394    
    767000   1.0188693      18.299358      113.43813    
    768000   1.0074854      18.501412      113.23697    
    769000   0.97545207     18.577984      112.96583    
    770000   1.034616       18.205083      113.00482    
    771000   1.0607486      18.39804       113.14791    
    772000   0.93826123     18.118725      113.12455    
    773000   0.98610177     18.53512       112.87817    
    774000   1.0245328      18.758589      113.00518    
    775000   1.0311793      19.230881      113.01934    
    776000   1.0185235      17.778428      112.88686    
    777000   1.0408151      18.75853       112.56482    
    778000   1.0192827      18.45804       112.598      
    779000   0.99229284     18.155241      112.56254    
    780000   1.0053485      18.959818      112.51965    
    781000   0.98289542     18.911689      112.27119    
    782000   1.0022533      18.450363      111.9666     
    783000   0.99234087     18.152598      111.9217     
    784000   1.0272022      18.283056      111.90869    
    785000   0.9688191      18.219956      111.97081    
    786000   0.997227       18.895691      112.10439    
    787000   0.99919491     18.743183      112.14933    
    788000   1.0468996      18.588759      112.41098    
    789000   0.95245789     18.665604      112.36567    
    790000   0.98468291     18.731259      112.40959    
    791000   1.0048852      18.583809      112.46883    
    792000   1.0275117      18.213103      112.4784     
    793000   1.0448285      18.864854      112.5663     
    794000   1.0403536      18.675362      112.43031    
    795000   0.94948453     18.346296      112.22829    
    796000   1.0588681      18.422358      112.03764    
    797000   1.0951457      18.224406      112.08373    
    798000   1.0278687      18.234076      112.10192    
    799000   0.98867152     18.282518      112.28585    
    800000   1.0722538      18.686336      111.87436    
    801000   1.0334595      18.635618      111.99036    
    802000   0.99972814     18.479089      111.95169    
    803000   0.97625362     18.352309      111.76313    
    804000   0.96083372     18.047574      111.60336    
    805000   1.0208689      19.124409      111.559      
    806000   1.0034527      18.674575      111.48371    
    807000   0.95389747     18.12403       111.38517    
    808000   0.94575487     18.257859      111.30888    
    809000   1.0067649      18.95584       111.2989     
    810000   1.0117193      17.903785      111.33095    
    811000   0.96732739     18.214132      111.31346    
    812000   0.98095802     18.259677      111.2408     
    813000   0.97257755     18.397606      111.25021    
    814000   0.93261721     18.403162      110.97379    
    815000   0.97571056     18.153016      110.56946    
    816000   1.0533478      18.58042       110.73574    
    817000   1.0246392      18.478457      110.85869    
    818000   0.97139878     18.147248      110.83512    
    819000   1.0244153      18.965608      110.9381     
    820000   1.014713       18.275318      111.03522    
    821000   1.0260588      18.382422      110.8823     
    822000   0.98765174     18.281667      110.64158    
    823000   1.0516037      18.735284      110.7693     
    824000   1.0072706      18.459505      110.56909    
    825000   1.0620969      18.343441      110.3886     
    826000   1.0312489      18.630397      110.01166    
    827000   0.97633189     18.589831      109.95956    
    828000   0.95943691     18.459658      109.83075    
    829000   0.95287289     18.227233      109.58005    
    830000   1.0084812      18.709692      109.38364    
    831000   0.9469859      18.513158      109.12093    
    832000   1.0267144      18.699924      108.92562    
    833000   0.98058665     17.960109      109.02365    
    834000   1.0196896      18.199391      109.00629    
    835000   1.0218772      18.489494      109.01448    
    836000   1.0689898      18.991777      108.98178    
    837000   1.0028774      17.988402      108.93951    
    838000   1.0159755      18.142228      108.83257    
    839000   0.96221191     18.607174      108.94857    
    840000   0.98203784     17.854119      108.60291    
    841000   0.92438618     18.229728      108.58338    
    842000   1.0181866      18.685061      108.46254    
    843000   1.0189179      18.669409      108.5871     
    844000   0.99797123     18.287096      108.76329    
    845000   0.96891996     18.307267      108.6467     
    846000   0.9851476      18.255736      108.63872    
    847000   0.94678728     18.437708      108.51226    
    848000   1.0384303      19.055584      108.67199    
    849000   1.0033297      17.995448      108.68937    
    850000   1.0237494      18.601302      108.5383     
    851000   1.0070156      18.317001      108.45001    
    852000   1.0124745      19.122406      108.36073    
    853000   0.98183661     18.355614      108.24491    
    854000   1.0208225      19.004159      108.35818    
    855000   1.0104728      18.427867      108.4938     
    856000   1.0086335      18.54659       108.42905    
    857000   0.9718276      18.035832      108.43993    
    858000   0.98966712     18.395993      108.19897    
    859000   0.99559294     18.55404       108.2528     
    860000   1.0035474      18.501911      108.04137    
    861000   0.93649614     17.655747      108.10217    
    862000   0.99415887     18.392839      108.13695    
    863000   1.0357851      18.296691      107.95255    
    864000   1.0019321      18.367294      107.9836     
    865000   0.98594389     18.895564      108.02346    
    866000   0.99231771     17.91659       107.90102    
    867000   0.98552439     18.151883      107.93227    
    868000   1.0192066      17.734812      107.68818    
    869000   0.97195158     17.803447      107.30212    
    870000   0.99306877     18.193717      107.04013    
    871000   1.0072672      18.579363      107.20246    
    872000   1.0190403      18.329592      107.11049    
    873000   0.93689196     18.189084      107.02656    
    874000   1.0322966      18.232534      106.66406    
    875000   0.9809112      18.110714      106.488      
    876000   1.006104       18.386353      106.30294    
    877000   1.0393569      18.422866      106.19191    
    878000   0.98068034     18.350345      106.29872    
    879000   1.0326192      18.233238      106.12985    
    880000   1.0046276      18.960724      105.87203    
    881000   0.97886406     17.837172      105.88067    
    882000   1.0318965      18.537206      105.85813    
    883000   0.99357396     17.738709      105.78342    
    884000   0.99938845     18.212498      105.60117    
    885000   1.0121843      17.897857      105.52944    
    886000   0.99281093     18.549401      105.59889    
    887000   0.98974302     18.53787       105.21087    
    888000   1.0037347      18.64079       105.1306     
    889000   0.96196528     18.632887      105.18693    
    890000   0.97372817     18.273211      104.90193    
    891000   1.0018909      18.353954      104.58286    
    892000   1.0204405      18.358441      104.40068    
    893000   0.97660939     17.687546      104.17714    
    894000   1.0015793      18.27216       103.75936    
    895000   0.98373597     18.346146      103.78233    
    896000   0.99163178     17.736792      103.35419    
    897000   1.0151972      18.294322      103.23196    
    898000   1.0230152      18.49394       103.12865    
    899000   0.98505925     18.452688      103.15733    
    900000   0.99180154     18.117594      103.18075    
    901000   0.99790744     18.413378      102.91408    
    902000   0.97566046     18.232746      103.1897     
    903000   1.0022538      18.718286      103.05477    
    904000   0.96306403     18.588615      102.98485    
    905000   1.0429081      19.072385      102.93787    
    906000   1.0137637      18.444701      102.94065    
    907000   0.95429032     18.187887      103.0436     
    908000   1.0415072      18.434602      102.71984    
    909000   1.0524071      18.497444      102.47046    
    910000   1.0386783      18.189602      102.56841    
    911000   0.93257374     18.405261      102.27404    
    912000   1.0145768      18.610718      102.25965    
    913000   0.97684332     18.414377      102.27711    
    914000   1.0482582      18.528332      102.23925    
    915000   0.9805515      18.58638       102.23529    
    916000   1.0008336      18.156941      102.15837    
    917000   0.98781959     18.587266      102.08314    
    918000   0.95347376     17.788983      102.0263     
    919000   0.97828881     18.63461       101.94345    
    920000   1.0460458      18.70117       101.97587    
    921000   1.0642378      18.641615      102.24581    
    922000   0.98380844     18.314973      102.25694    
    923000   0.99306312     18.664299      102.21088    
    924000   0.96851382     18.166768      102.13331    
    925000   1.0097637      18.201868      102.19074    
    926000   1.0135061      18.064138      102.06225    
    927000   0.99488865     18.400639      102.11167    
    928000   1.0016497      17.833614      102.23338    
    929000   0.99328872     18.56657       102.24565    
    930000   0.98984242     18.036797      102.0902     
    931000   1.0390276      18.241415      101.91992    
    932000   0.98225729     18.298362      102.10386    
    933000   0.96596881     17.407351      102.03436    
    934000   0.99354047     18.868112      101.9613     
    935000   0.9630613      18.128399      101.65094    
    936000   0.98790757     18.382851      101.4811     
    937000   0.99770475     18.469618      101.27775    
    938000   0.99487547     18.050524      101.21126    
    939000   1.039151       18.294338      101.11858    
    940000   0.98690606     17.792095      100.86102    
    941000   1.0061141      18.242         100.57223    
    942000   1.0086322      18.861526      100.43062    
    943000   1.0189668      18.746576      100.50823    
    944000   0.95736208     18.214266      100.37656    
    945000   0.98220058     17.920829      99.895915    
    946000   1.0175412      18.454074      99.739214    
    947000   1.0251151      18.131059      99.59957     
    948000   1.0205278      18.395056      99.383244    
    949000   0.98268011     18.788414      99.351129    
    950000   1.0157139      17.891301      99.273874    
    951000   1.0193243      17.681178      98.961658    
    952000   1.0154525      17.81918       98.587009    
    953000   0.97947996     18.417222      98.609118    
    954000   1.0222055      19.110978      98.706693    
    955000   1.0373979      18.096566      98.530606    
    956000   0.98387195     17.995508      98.684276    
    957000   1.0360925      18.461582      98.801455    
    958000   1.0057946      17.704525      98.923173    
    959000   0.98034525     18.543278      98.698687    
    960000   1.0328454      18.461409      98.616331    
    961000   0.98863095     18.462434      98.326291    
    962000   1.0175682      18.072508      98.124224    
    963000   0.99311484     18.516499      98.103974    
    964000   0.95825406     18.557558      97.878211    
    965000   1.0069417      18.294874      97.694275    
    966000   1.0258009      18.706682      97.650965    
    967000   1.018528       18.236152      97.629788    
    968000   1.0284844      18.176853      97.568784    
    969000   1.0025368      18.145692      97.230051    
    970000   0.9496346      18.424802      96.919528    
    971000   0.97803602     18.383243      96.713156    
    972000   1.0048829      18.269108      96.579695    
    973000   1.0266768      18.099653      96.323039    
    974000   0.96283119     17.781246      96.187395    
    975000   0.99205828     17.871251      96.019189    
    976000   0.95284844     17.074151      95.981917    
    977000   1.0226639      18.193423      95.932228    
    978000   1.0058494      18.230396      96.199048    
    979000   1.0202097      18.410524      96.303419    
    980000   0.98568748     18.240354      96.369112    
    981000   1.0896544      18.384157      96.443762    
    982000   1.0299879      17.945867      96.393348    
    983000   1.0020211      18.350441      96.584872    
    984000   1.009981       18.404397      96.511091    
    985000   0.99069353     18.26271       96.513432    
    986000   0.93814676     18.001491      96.256997    
    987000   0.98689035     18.572391      96.090502    
    988000   1.0350041      17.937206      95.953984    
    989000   1.0347107      18.256835      95.886788    
    990000   1.002988       18.631242      96.05035     
    991000   0.99610191     17.981355      95.826284    
    992000   0.96798865     17.867416      95.776358    
    993000   1.0136558      18.001655      95.538853    
    994000   0.99696759     18.41416       95.118275    
    995000   0.99606247     18.217848      94.802742    
    996000   0.97286604     18.414544      94.773804    
    997000   1.0104874      18.475201      94.886914    
    998000   0.97649303     17.663359      94.954374    
    999000   1.0607638      18.523938      94.735222    
   1000000   1.0368819      18.372763      94.641835    
   1001000   1.0200371      17.831664      94.727707    
   1002000   0.99823387     18.25777       94.535937    
   1003000   0.97347435     18.275656      94.423399    
   1004000   1.0202103      18.098371      94.360551    
   1005000   1.0236987      18.503728      94.526172    
   1006000   0.96594979     18.137885      94.693344    
   1007000   0.94827943     17.9796        94.881905    
   1008000   1.017858       17.984784      94.580692    
   1009000   0.97822456     17.897978      94.442844    
   1010000   0.97134957     17.632283      94.289963    
   1011000   0.99046885     18.052528      94.130431    
   1012000   0.99210178     18.512269      93.928169    
   1013000   1.0163276      18.46945       93.880433    
   1014000   1.0156973      18.350336      93.828878    
   1015000   1.067162       18.90669       93.988023    
   1016000   1.0160659      18.007858      94.149756    
   1017000   0.99249942     18.954979      94.068498    
   1018000   0.94296575     18.141407      93.881413    
   1019000   0.99385715     18.64747       93.679876    
   1020000   0.99937872     17.762708      93.331091    
   1021000   0.9519325      17.989531      93.125302    
   1022000   0.99774795     18.09068       92.997482    
   1023000   1.03509        17.733364      92.97386     
   1024000   0.95147004     18.26126       92.835352    
   1025000   1.0406175      18.542473      92.510478    
   1026000   0.99393886     18.106985      92.256124    
   1027000   1.0250895      18.123116      92.229913    
   1028000   1.0747538      18.26471       92.377409    
   1029000   0.9914688      17.779586      92.281477    
   1030000   0.99185176     18.336087      92.345541    
   1031000   1.0071624      19.000838      92.201264    
   1032000   1.0206098      18.415526      92.069247    
   1033000   0.98342637     17.924441      92.216984    
   1034000   0.9969023      18.313051      92.102865    
   1035000   1.0631205      18.126269      92.05777     
   1036000   0.98510328     17.538735      91.625811    
   1037000   0.963309       17.681118      91.500352    
   1038000   0.96375018     18.230691      91.437187    
   1039000   0.98069352     17.869929      91.32345     
   1040000   0.98358715     18.044139      91.492956    
   1041000   0.98533307     17.958089      91.485168    
   1042000   1.0037021      17.980509      91.361699    
   1043000   0.98305043     17.913211      91.404061    
   1044000   1.0237553      18.010619      91.509245    
   1045000   0.96574969     18.767346      91.519846    
   1046000   1.0167605      17.618918      91.596284    
   1047000   1.0230377      17.875036      91.310849    
   1048000   1.069625       17.459922      91.139131    
   1049000   1.0246535      18.691101      91.104456    
   1050000   1.0535625      18.6837        90.974725    
   1051000   1.0148651      18.107096      90.79065     
   1052000   1.0199206      17.893942      90.633393    
   1053000   0.96654482     18.378746      90.438401    
   1054000   1.0623252      18.616128      90.271284    
   1055000   1.0032419      17.850971      90.23457     
   1056000   0.97312009     18.058406      89.852553    
   1057000   1.0127294      17.680145      89.762542    
   1058000   0.99027252     18.397157      89.657276    
   1059000   1.0524211      18.025607      89.693871    
   1060000   1.0078783      18.660454      89.494529    
   1061000   0.96941863     17.640747      89.281808    
   1062000   0.98659543     17.608149      89.200046    
   1063000   0.94206967     18.256947      89.339761    
   1064000   0.97719964     18.189861      89.114611    
   1065000   1.0253983      17.858816      89.086201    
   1066000   1.0286509      17.827371      88.751146    
   1067000   1.0158417      17.952398      88.506413    
   1068000   0.98065599     17.941821      88.423164    
   1069000   1.0207245      18.223594      88.155291    
   1070000   1.0477107      18.961714      87.766374    
   1071000   0.98981596     18.432283      87.597273    
   1072000   1.0050683      17.776947      87.60898     
   1073000   1.0112459      17.417717      87.535277    
   1074000   0.97482221     18.114009      87.463831    
   1075000   0.97949141     18.18023       87.281652    
   1076000   0.99440947     17.572297      87.069578    
   1077000   0.98927894     18.053942      86.840267    
   1078000   0.94454214     17.680851      86.644144    
   1079000   1.0131509      18.45707       86.522941    
   1080000   1.015946       17.489428      86.504708    
   1081000   1.0367547      17.776724      86.249471    
   1082000   0.98294428     17.89602       86.360677    
   1083000   1.0400336      17.49349       86.043215    
   1084000   0.98824037     17.757485      85.916426    
   1085000   1.0202551      17.945495      85.680853    
   1086000   1.0211431      18.580772      85.384437    
   1087000   0.96010018     17.492319      85.473245    
   1088000   1.004508       17.367429      85.628437    
   1089000   1.0041997      17.643105      85.617908    
   1090000   1.0205316      18.42985       85.46693     
   1091000   1.0469021      18.397839      85.310303    
   1092000   1.0542101      17.95982       85.354036    
   1093000   0.96552636     17.073042      85.247913    
   1094000   1.0197595      18.024689      85.119044    
   1095000   1.0010391      17.677989      85.089301    
   1096000   0.9947705      17.845062      85.11554     
   1097000   0.99174728     17.506876      84.946136    
   1098000   0.99258243     18.295728      84.698637    
   1099000   0.9890718      17.8602        84.347116    
   1100000   1.0059936      17.701987      84.378833    
   1101000   0.98457756     17.789768      84.393241    
   1102000   1.0651489      18.326597      84.170758    
   1103000   1.0210188      18.055013      83.992779    
   1104000   0.99480693     17.408233      83.976026    
   1105000   1.0216867      18.52467       83.836829    
   1106000   1.0437227      18.08455       83.694402    
   1107000   0.93546325     17.963991      83.479769    
   1108000   0.98618792     17.927526      83.314698    
   1109000   0.9575299      17.742545      83.287109    
   1110000   1.0480306      18.301824      83.162722    
   1111000   1.017417       17.811103      83.148783    
   1112000   0.98740957     18.268069      83.072437    
   1113000   0.99261352     17.949297      82.822212    
   1114000   0.95126865     18.038838      82.483452    
   1115000   0.98549655     18.273393      82.519462    
   1116000   1.0729744      18.191723      82.348791    
   1117000   1.0497134      18.166234      82.201073    
   1118000   1.0065238      17.999796      82.053608    
   1119000   1.0023133      18.127328      81.782664    
   1120000   0.98597454     18.281375      81.619813    
   1121000   1.039174       18.142769      81.557181    
   1122000   1.0339623      18.382811      81.461572    
   1123000   1.0162389      17.445158      81.373443    
   1124000   0.98895146     18.49747       81.168104    
   1125000   1.0152813      18.488077      80.804921    
   1126000   1.0106604      18.062843      80.924456    
   1127000   1.0064791      17.76956       80.990992    
   1128000   0.98052959     17.990242      80.799348    
   1129000   0.9995598      18.040531      80.387679    
   1130000   1.0469641      18.430364      80.384907    
   1131000   0.9467059      18.052761      79.784303    
   1132000   1.0025051      18.295292      79.645117    
   1133000   1.0157344      17.892557      79.325592    
   1134000   0.95975241     17.700064      79.213901    
   1135000   1.0541034      18.150745      78.874819    
   1136000   1.0196604      18.174757      78.66213     
   1137000   0.9783925      17.623952      78.551559    
   1138000   0.96593412     17.828034      78.580041    
   1139000   1.008436       18.001599      78.438234    
   1140000   1.0041954      17.589196      78.303794    
   1141000   0.95373742     17.728342      78.55373     
   1142000   1.0404982      18.030528      78.10066     
   1143000   0.99904395     18.33459       77.979193    
   1144000   0.92722965     17.529155      77.851379    
   1145000   0.98843263     18.228438      77.97251     
   1146000   0.96438213     17.883055      77.416357    
   1147000   0.98043953     17.500584      77.455157    
   1148000   0.98189723     17.666016      77.616132    
   1149000   1.0426432      18.087319      77.670477    
   1150000   0.98686614     18.421608      77.557894    
   1151000   1.0119589      17.643747      77.522311    
   1152000   1.0192263      17.948912      77.622722    
   1153000   0.94191513     18.0237        77.646242    
   1154000   1.0031092      18.384596      77.456223    
   1155000   0.9882749      18.150648      77.400875    
   1156000   0.9986859      17.384342      77.341854    
   1157000   0.9862284      17.941854      77.417666    
   1158000   1.0115646      18.617982      77.191798    
   1159000   0.96713989     18.128644      77.310892    
   1160000   0.96817531     17.667993      77.352724    
   1161000   0.95945515     17.48142       77.438048    
   1162000   1.0293257      18.209128      77.22658     
   1163000   0.98675931     18.36443       76.817109    
   1164000   0.96906136     17.078975      76.700506    
   1165000   0.97706485     18.494672      76.632624    
   1166000   1.0519939      18.010435      76.721304    
   1167000   0.96638589     17.912031      76.743468    
   1168000   1.0208796      17.941297      76.947296    
   1169000   0.95174363     17.753765      76.867053    
   1170000   1.0344941      18.299328      77.052285    
   1171000   0.99104994     18.843153      77.113416    
   1172000   1.018156       18.549264      77.025642    
   1173000   0.97966815     18.312153      76.905717    
   1174000   0.99145754     17.923124      76.643017    
   1175000   1.0304801      17.774144      76.680376    
   1176000   1.0200597      17.650382      76.436419    
   1177000   0.93857462     17.858073      76.533408    
   1178000   1.0101365      17.72055       76.471431    
   1179000   1.0385843      18.115071      76.530267    
   1180000   1.0034828      18.237774      76.468213    
   1181000   1.0302635      18.248592      76.419105    
   1182000   1.0229832      18.0999        76.300095    
   1183000   1.0052938      17.691822      76.294082    
   1184000   1.0428958      17.861919      76.109149    
   1185000   0.98049253     17.980403      75.914963    
   1186000   1.0118272      18.250688      75.773336    
   1187000   0.95806792     18.763661      75.72896     
   1188000   1.0036963      18.014076      75.648736    
   1189000   0.98254744     17.500042      75.810326    
   1190000   1.0141148      17.441141      75.592514    
   1191000   1.0023157      17.773269      75.290846    
   1192000   0.99293821     17.744767      75.004418    
   1193000   0.96363563     18.528407      75.445236    
   1194000   0.99551687     18.113557      75.366552    
   1195000   1.0177522      18.220503      75.528693    
   1196000   0.99480399     18.020997      75.427635    
   1197000   1.0557409      18.627832      75.419639    
   1198000   1.0308157      18.312709      75.548596    
   1199000   1.0061645      18.667251      75.738592    
   1200000   1.0537927      18.374197      75.606762    
   1201000   0.98618382     18.019877      75.615638    
   1202000   0.97356617     17.812072      75.508951    
   1203000   0.98117968     18.016592      75.41895     
   1204000   1.0153956      17.518585      75.517154    
   1205000   1.0205106      17.144865      75.431743    
   1206000   0.98857535     18.267266      75.548892    
   1207000   0.98551422     18.170607      75.717997    
   1208000   0.99978014     17.875279      75.659271    
   1209000   1.0073084      17.746845      75.492221    
   1210000   0.9305691      17.699946      75.327959    
   1211000   0.96452318     17.692965      75.237863    
   1212000   1.0038083      18.345279      75.229284    
   1213000   1.0072358      18.219068      75.090304    
   1214000   1.0187686      18.263771      74.915043    
   1215000   1.0288013      18.105011      74.910349    
   1216000   0.99600946     18.094447      74.753898    
   1217000   0.98175092     17.547553      74.677549    
   1218000   1.0634494      18.704246      74.901761    
   1219000   1.0051451      17.659354      74.832212    
   1220000   0.98772264     18.041809      75.021591    
   1221000   1.0350558      17.901648      74.631527    
   1222000   1.0068893      17.571653      74.741902    
   1223000   0.97682108     18.617454      74.674779    
   1224000   0.9795456      17.524871      74.54315     
   1225000   0.98710369     17.785738      74.424038    
   1226000   0.97860202     17.915441      74.297773    
   1227000   0.97984555     17.647516      74.09621     
   1228000   0.95772699     17.833135      74.158111    
   1229000   0.99105175     17.948893      74.224353    
   1230000   1.0205453      17.673716      73.822652    
   1231000   1.0508607      18.393395      73.719031    
   1232000   1.0466418      18.834224      73.780482    
   1233000   1.0382842      18.305007      73.772641    
   1234000   1.0267425      18.072138      73.561949    
   1235000   0.9986         17.614016      73.298501    
   1236000   0.99302111     18.560702      73.245852    
   1237000   1.0223045      17.987747      73.19867     
   1238000   1.0518029      18.222953      72.972448    
   1239000   0.99380803     17.73895       73.063455    
   1240000   1.0006224      18.118245      73.248526    
   1241000   0.99962043     17.9727        73.048726    
   1242000   1.0105617      17.91121       72.916392    
   1243000   0.93600046     17.772211      72.930675    
   1244000   0.99764009     17.557291      72.949042    
   1245000   0.97864886     18.005132      72.703469    
   1246000   1.0180748      18.43529       72.266502    
   1247000   1.0188718      18.586588      72.264348    
   1248000   0.98501903     18.016792      72.134904    
   1249000   0.9551134      18.0987        71.930123    
   1250000   0.97915297     18.062484      71.712602    
   1251000   1.0038886      17.962029      71.501541    
   1252000   1.0096126      18.588455      71.457254    
   1253000   0.97347656     17.998072      71.497155    
   1254000   1.0181444      17.460454      71.429281    
   1255000   0.99318376     18.38161       71.320639    
   1256000   1.052976       17.754853      71.107806    
   1257000   0.98875932     18.248062      71.110595    
   1258000   0.99536552     18.08841       71.043346    
   1259000   1.0132265      17.425728      71.042506    
   1260000   0.97015382     17.995998      70.761783    
   1261000   1.0356905      17.448133      70.79445     
   1262000   1.0154393      17.56663       70.798389    
   1263000   1.0284449      18.485418      70.579472    
   1264000   0.94082854     18.36778       70.497033    
   1265000   0.96421111     17.549668      70.697348    
   1266000   0.97417089     17.536476      70.750366    
   1267000   0.97313539     17.347864      70.737998    
   1268000   1.0693299      18.365201      70.799303    
   1269000   1.025826       17.786417      70.794386    
   1270000   0.96145251     18.5605        70.758112    
   1271000   0.99070545     18.216021      70.494593    
   1272000   1.0283834      17.922091      70.231827    
   1273000   1.0303315      18.310078      70.13422     
   1274000   0.97769015     17.920277      70.159546    
   1275000   1.0633966      18.09105       70.243712    
   1276000   0.97290989     17.387409      70.415745    
   1277000   0.99311307     17.300977      70.278773    
   1278000   1.006367       18.109862      70.542985    
   1279000   1.0328894      18.014626      70.41956     
   1280000   0.99952791     18.077019      70.359537    
   1281000   0.9627539      18.312071      70.376152    
   1282000   1.0115755      18.291552      70.030953    
   1283000   1.0033426      18.015136      69.898341    
   1284000   0.98904142     18.223306      69.898423    
   1285000   1.0250851      17.804117      69.634147    
   1286000   1.0370112      17.956665      69.210554    
   1287000   0.98614802     17.921721      69.001669    
   1288000   1.0502117      17.72915       68.748044    
   1289000   0.97198993     17.926749      68.546505    
   1290000   1.0191362      17.528736      68.578151    
   1291000   0.99220181     17.717253      68.333849    
   1292000   0.984869       18.137246      68.416       
   1293000   1.0009878      18.008506      68.199903    
   1294000   1.0058322      17.298709      68.111868    
   1295000   1.0420354      18.308725      67.717354    
   1296000   1.0008993      18.096877      67.530947    
   1297000   0.97785685     18.155299      67.472257    
   1298000   0.98737979     17.292897      67.359002    
   1299000   1.0019418      17.94885       67.302204    
   1300000   1.0002412      17.606155      67.178513    
   1301000   0.95675449     17.642396      67.070301    
   1302000   1.050521       17.721996      67.109358    
   1303000   0.98099718     18.334372      66.975713    
   1304000   0.98296811     17.567228      66.805972    
   1305000   0.98315047     17.180299      66.697632    
   1306000   1.0489169      17.879177      66.815676    
   1307000   1.0040457      17.460612      66.6314      
   1308000   1.0200978      17.635642      66.347497    
   1309000   1.0623129      17.984302      66.464445    
   1310000   0.97900193     17.8764        66.364689    
   1311000   0.98989577     17.148068      66.474499    
   1312000   0.98431329     17.867924      66.383565    
   1313000   1.0679656      17.889305      66.328794    
   1314000   0.9859962      18.22206       65.977994    
   1315000   1.0121569      18.165211      65.66213     
   1316000   1.0304436      18.02079       65.662528    
   1317000   0.96859876     17.861875      65.768424    
   1318000   0.97639039     18.220144      65.682181    
   1319000   0.97781883     18.192408      65.652673    
   1320000   1.0298448      18.156284      65.514091    
   1321000   1.0430719      17.677523      65.550564    
   1322000   1.0090373      17.752541      65.410693    
   1323000   1.0090023      17.104002      65.380976    
   1324000   1.0009056      17.532912      65.29252     
   1325000   1.0224328      17.754442      65.00113     
   1326000   0.93031641     17.55112       64.883565    
   1327000   0.97597789     17.593319      64.545023    
   1328000   0.96591752     17.573137      64.5991      
   1329000   1.0018092      18.215794      64.818767    
   1330000   0.96640483     18.360975      64.877807    
   1331000   1.0227531      17.404648      64.918905    
   1332000   0.99291853     17.263888      64.758668    
   1333000   1.0051592      18.285102      64.481623    
   1334000   1.0326737      17.54385       64.57585     
   1335000   1.0120371      17.309355      64.623526    
   1336000   1.0346398      17.892371      64.71116     
   1337000   1.0342208      17.607795      64.633339    
   1338000   0.99538399     17.611349      64.72548     
   1339000   1.0368698      18.609189      64.751433    
   1340000   0.9508912      17.610139      64.677409    
   1341000   1.0272113      17.210894      64.522041    
   1342000   1.0576176      17.829061      64.43032     
   1343000   0.96175071     16.995823      64.28053     
   1344000   1.0436249      18.129923      64.160885    
   1345000   0.97375475     18.037081      64.09983     
   1346000   1.0413691      18.049174      63.965379    
   1347000   0.9810471      18.225887      63.729549    
   1348000   1.0195591      17.878232      63.785928    
   1349000   0.97210399     17.957325      63.711405    
   1350000   1.0469681      17.620389      63.340193    
   1351000   1.0338772      17.63319       63.382515    
   1352000   0.9841635      18.146663      63.157649    
   1353000   0.99656761     17.674461      62.983365    
   1354000   0.99248162     17.12963       62.850113    
   1355000   0.98637773     17.020512      62.513376    
   1356000   0.99477275     17.872825      62.346635    
   1357000   1.0248846      17.913746      62.15049     
   1358000   0.99016262     17.286377      62.220166    
   1359000   1.011795       17.740024      62.232399    
   1360000   1.0006588      17.78776       62.320233    
   1361000   0.99721341     18.199642      62.146162    
   1362000   0.99469099     17.754934      61.775502    
   1363000   1.018472       17.615663      61.74615     
   1364000   1.0097507      17.110365      61.542613    
   1365000   1.0189106      17.661785      61.310283    
   1366000   0.99902437     17.802587      61.057241    
   1367000   1.0194523      18.069775      61.237528    
   1368000   0.98343599     18.003374      61.172238    
   1369000   1.0196318      18.191168      61.12644     
   1370000   0.98831343     17.248984      61.196407    
   1371000   0.99662929     18.135696      61.140075    
   1372000   1.0083152      17.998567      60.85779     
   1373000   0.96940902     17.297335      60.9281      
   1374000   1.0084061      17.307501      60.635309    
   1375000   1.0049867      17.796112      60.704585    
   1376000   1.0134663      17.002884      60.360573    
   1377000   0.97165187     17.661612      60.079503    
   1378000   0.98066518     17.145571      59.817817    
   1379000   0.96791487     17.533222      59.633177    
   1380000   0.98433578     17.913967      59.772917    
   1381000   0.96671967     17.678472      59.61837     
   1382000   1.027929       18.126606      59.508642    
   1383000   0.99028991     17.374614      59.252878    
   1384000   1.0160485      17.66251       59.102207    
   1385000   1.0166732      17.742251      58.871758    
   1386000   1.0504342      17.786556      58.732593    
   1387000   0.99352881     18.656586      58.753991    
   1388000   1.0287076      17.600312      58.412751    
   1389000   0.98556145     17.377993      58.237738    
   1390000   1.0312411      17.89567       58.347204    
   1391000   1.0235369      18.048499      58.334318    
   1392000   1.0158681      17.932808      58.335628    
   1393000   0.97192372     18.01062       58.460747    
   1394000   1.0301023      17.525825      58.276435    
   1395000   1.0278458      17.630629      58.260276    
   1396000   0.97727845     18.113078      58.022351    
   1397000   1.0161101      17.691529      57.941963    
   1398000   1.0037671      17.820779      57.832375    
   1399000   0.98579676     18.119658      57.966924    
   1400000   0.97557272     17.787469      57.636903    
   1401000   1.0397749      18.036297      57.631951    
   1402000   1.0162563      18.20099       57.532659    
   1403000   1.0219415      17.453555      57.332911    
   1404000   0.9708119      17.419536      57.386534    
   1405000   1.0814984      18.06147       57.38129     
   1406000   0.994529       17.528673      57.169086    
   1407000   1.02124        18.498211      57.060819    
   1408000   1.0162345      18.356958      56.915232    
   1409000   1.0015626      17.256869      56.704155    
   1410000   1.0160944      18.022484      56.495008    
   1411000   1.025928       18.154154      56.347308    
   1412000   1.0048179      17.801816      56.092672    
   1413000   0.97436671     17.836523      56.059194    
   1414000   1.0068712      17.434928      55.995187    
   1415000   0.99089445     17.176884      55.734659    
   1416000   1.0130268      17.887337      55.831905    
   1417000   0.98610384     17.319398      55.675912    
   1418000   0.94766509     17.524749      55.230097    
   1419000   0.96091485     17.613742      55.074066    
   1420000   1.0583671      17.623169      54.900399    
   1421000   0.94136522     18.037315      54.700037    
   1422000   0.97329785     17.791849      54.39726     
   1423000   0.98131639     18.105194      54.334153    
   1424000   0.93503914     18.388602      54.169412    
   1425000   0.99599311     17.94363       54.124155    
   1426000   1.0172659      17.649167      54.284323    
   1427000   1.036577       17.820274      54.337568    
   1428000   1.0278243      18.092423      54.136704    
   1429000   1.02757        18.085412      54.171653    
   1430000   0.98476526     17.617824      54.010717    
   1431000   1.0437779      17.871461      53.827971    
   1432000   1.03182        17.528407      54.014988    
   1433000   1.0218696      17.706295      53.842884    
   1434000   1.0201904      17.678064      53.847259    
   1435000   1.004592       17.536823      53.774479    
   1436000   1.0283136      17.045904      53.697521    
   1437000   1.0196997      17.496207      53.700456    
   1438000   0.99038384     17.700162      53.687619    
   1439000   1.031354       17.16482       53.75931     
   1440000   1.0401826      17.613406      53.629904    
   1441000   1.0126264      17.452096      53.638862    
   1442000   0.98663758     17.539595      53.427493    
   1443000   1.0086905      17.324097      53.198123    
   1444000   0.97702929     17.49197       53.022736    
   1445000   1.0319075      17.593179      52.811574    
   1446000   1.0144742      17.722949      52.608971    
   1447000   1.0743577      17.858356      52.628058    
   1448000   1.0285693      17.188157      52.589121    
   1449000   1.0075948      17.206469      52.365037    
   1450000   0.9912463      17.909109      52.237329    
   1451000   1.0071322      17.353828      52.279203    
   1452000   1.0260004      17.18442       52.189375    
   1453000   0.96301273     17.506071      51.965556    
   1454000   1.0098765      17.627017      51.981634    
   1455000   1.0267617      17.935215      51.921281    
   1456000   1.0353186      17.940343      51.822397    
   1457000   0.97964782     17.771696      51.846357    
   1458000   0.99046226     17.805121      51.6439      
   1459000   1.0138288      17.882668      51.572792    
   1460000   1.0226446      18.282528      51.531153    
   1461000   1.0263366      17.486353      51.635366    
   1462000   1.0385182      17.779592      51.523193    
   1463000   1.0245122      17.575474      51.428912    
   1464000   0.97205738     17.4663        51.271482    
   1465000   1.0113191      17.53617       51.277142    
   1466000   1.017022       17.826383      51.003115    
   1467000   0.94174401     17.696736      50.951347    
   1468000   1.0173215      18.055333      50.920094    
   1469000   0.98527689     17.729119      50.918957    
   1470000   1.0150301      17.780114      50.811212    
   1471000   0.99918079     17.82232       50.836894    
   1472000   1.0312499      17.669035      50.605124    
   1473000   0.980277       17.52231       50.394569    
   1474000   1.0152665      17.250377      50.572605    
   1475000   1.0288867      18.163834      50.679452    
   1476000   0.9936568      17.976367      50.51681     
   1477000   1.023212       18.043735      50.585064    
   1478000   1.0050785      17.629707      50.589521    
   1479000   1.0240642      18.011877      50.600659    
   1480000   1.0118749      17.664334      50.451685    
   1481000   1.0117638      17.926688      50.38389     
   1482000   0.98583214     17.440366      50.446043    
   1483000   0.95846926     17.655094      50.224512    
   1484000   1.0139085      17.763204      50.249922    
   1485000   0.99798831     17.417257      50.088276    
   1486000   1.0377966      17.476228      49.962605    
   1487000   1.0029937      17.498863      49.930558    
   1488000   0.9532797      17.661336      49.66542     
   1489000   0.94915789     17.293694      49.417382    
   1490000   0.97293315     17.478007      49.337133    
   1491000   0.97308618     17.642065      49.312732    
   1492000   0.9738212      17.112937      49.410207    
   1493000   1.0728253      17.667424      49.446542    
   1494000   0.96421779     17.464329      49.449292    
   1495000   0.9581845      17.441521      49.350956    
   1496000   0.97861075     17.978035      49.295149    
   1497000   1.0219135      17.546958      49.33072     
   1498000   1.0311008      16.837782      49.198546    
   1499000   1.0102597      17.867647      49.135757    
   1500000   0.98347192     17.573313      48.875776    
   1501000   1.0074286      17.576183      48.863103    
   1502000   1.0746556      17.813548      48.676319    
   1503000   0.96023993     17.781496      48.468611    
   1504000   1.0012405      17.843896      48.320434    
   1505000   1.009153       17.781394      48.322134    
   1506000   1.0066629      17.877373      48.297079    
   1507000   0.94577283     17.018697      48.215937    
   1508000   0.98853618     18.223215      48.135994    
   1509000   1.0205519      17.271727      48.085619    
   1510000   1.0067787      17.675394      48.070422    
   1511000   1.0188262      18.696284      47.885927    
   1512000   1.0048922      17.703556      47.94629     
   1513000   0.97533918     18.378777      48.019112    
   1514000   0.97053634     17.419304      48.050785    
   1515000   1.0267709      17.018035      47.788959    
   1516000   1.0606008      18.066939      47.86723     
   1517000   0.98198257     17.15642       47.890939    
   1518000   1.0132244      17.840383      47.988653    
   1519000   0.95924553     17.36979       47.996999    
   1520000   0.95070779     17.547713      47.714832    
   1521000   1.0157701      17.613661      47.577754    
   1522000   1.0474211      17.943804      47.19641     
   1523000   1.0025488      17.03056       46.966763    
   1524000   1.0170693      17.317579      46.82991     
   1525000   0.97725278     17.020809      46.724093    
   1526000   0.98315232     18.15524       46.754787    
   1527000   0.98178682     17.506657      46.657607    
   1528000   1.0141256      17.867133      46.742003    
   1529000   1.0001214      17.580645      46.651011    
   1530000   0.94568601     17.618219      46.658521    
   1531000   0.98564565     17.464639      46.690474    
   1532000   1.0181573      17.83771       46.578329    
   1533000   0.98339106     16.915021      46.533899    
   1534000   1.0529252      17.701569      46.410042    
   1535000   1.0817107      17.512358      46.269186    
   1536000   1.023784       17.943513      46.36227     
   1537000   1.0634824      18.400278      46.14876     
   1538000   1.004697       16.881392      46.077526    
   1539000   1.0174109      17.808527      46.21067     
   1540000   0.9961992      18.17567       45.872362    
   1541000   1.0247456      17.343216      45.702129    
   1542000   1.0157084      17.607658      45.588675    
   1543000   0.9872625      17.520258      45.931496    
   1544000   1.0643921      17.728527      46.077366    
   1545000   0.98084292     17.734947      46.026406    
   1546000   0.95944489     17.078105      45.781651    
   1547000   1.0258496      17.580081      45.740333    
   1548000   0.9989847      17.345344      45.569627    
   1549000   0.99395438     17.272088      45.528292    
   1550000   0.96749112     18.34424       45.273219    
   1551000   0.99708709     18.097251      45.43566     
   1552000   1.0005481      16.455948      45.218367    
   1553000   0.98993        17.873328      45.166107    
   1554000   1.0080996      17.392362      45.198084    
   1555000   1.0072916      18.10466       45.403088    
   1556000   0.95624454     17.941168      45.175242    
   1557000   0.98885853     17.615906      45.417601    
   1558000   0.9840414      17.401675      45.267866    
   1559000   0.98156777     17.566156      44.813501    
   1560000   0.92447205     17.881932      44.672583    
   1561000   0.98641601     17.585442      44.546444    
   1562000   0.99665792     17.781668      44.589525    
   1563000   1.0257463      18.392514      44.29902     
   1564000   0.99922178     17.446032      44.019602    
   1565000   1.0144358      17.427657      43.841361    
   1566000   0.9801013      17.799418      43.703195    
   1567000   1.0161826      18.060886      43.433689    
   1568000   0.97211128     17.078486      43.432269    
   1569000   1.0146812      18.134439      43.555445    
   1570000   0.98390886     17.575266      43.465422    
   1571000   0.96229892     17.654087      43.317468    
   1572000   0.96394621     17.920381      43.15557     
   1573000   0.99557846     17.460957      42.962599    
   1574000   1.014777       17.274147      43.036908    
   1575000   0.99636847     17.294331      43.086055    
   1576000   0.99614566     17.398484      43.144669    
   1577000   1.010402       17.596368      43.196742    
   1578000   1.0193733      18.144891      43.118902    
   1579000   0.99478167     17.095501      43.140964    
   1580000   1.0092232      17.24703       42.867545    
   1581000   1.0086495      17.457148      42.789866    
   1582000   1.0159886      17.75583       42.685476    
   1583000   0.99031969     18.168468      42.452112    
   1584000   1.0122044      17.661067      42.464363    
   1585000   1.0355237      17.043219      42.391429    
   1586000   1.0343525      17.762632      42.04084     
   1587000   0.98475217     17.653706      41.700191    
   1588000   0.9997116      17.36698       41.426173    
   1589000   0.99879718     17.035515      41.362461    
   1590000   0.94455692     17.613113      40.87329     
   1591000   1.0087385      16.995051      40.772514    
   1592000   0.96985945     16.99005       40.740166    
   1593000   1.0189541      17.503059      40.658569    
   1594000   1.0076666      18.117578      40.40991     
   1595000   0.98864456     17.263117      40.372981    
   1596000   1.050327       17.487953      40.212818    
   1597000   0.98992635     17.869654      40.27648     
   1598000   1.0433708      18.095036      40.001261    
   1599000   1.0115941      17.622342      39.660251    
   1600000   1.0010989      17.425518      39.78095     
   1601000   0.99124033     17.376159      39.68753     
   1602000   0.99437693     17.138546      39.318609    
   1603000   1.0000829      18.347935      39.478673    
   1604000   1.0098365      17.469919      39.042257    
   1605000   1.0078172      17.866617      39.110966    
   1606000   1.0174943      17.398104      39.107664    
   1607000   0.99805101     16.884022      38.909272    
   1608000   0.99851637     17.529278      38.876827    
   1609000   1.005496       17.910777      39.072042    
   1610000   1.0169205      17.521849      38.86213     
   1611000   0.99131251     17.566218      38.783692    
   1612000   1.0156466      17.168049      38.708452    
   1613000   1.0064624      17.807862      38.385622    
   1614000   1.0032512      17.492808      38.408525    
   1615000   1.0171294      17.535186      38.601283    
   1616000   0.9747637      17.847429      38.424304    
   1617000   0.98412381     17.350477      38.35365     
   1618000   0.98058007     17.770887      38.224739    
   1619000   1.0131836      17.769916      38.095111    
   1620000   1.0428466      17.875638      38.059834    
   1621000   0.99752185     17.677135      38.268185    
   1622000   0.9646998      17.253973      38.136567    
   1623000   0.99857502     17.609665      37.979649    
   1624000   0.99349998     17.44515       37.730451    
   1625000   1.0290964      17.949963      37.679879    
   1626000   0.9910308      16.936194      37.613847    
   1627000   1.0132931      17.363702      37.432014    
   1628000   1.0273929      17.872042      37.34403     
   1629000   0.98345726     17.508178      37.198114    
   1630000   0.9748535      16.854789      37.076176    
   1631000   0.99811276     17.439409      36.924221    
   1632000   1.0053977      17.749817      36.949169    
   1633000   1.0189696      17.538733      36.778263    
   1634000   0.97241233     17.941867      36.671544    
   1635000   0.99884172     17.557556      36.520901    
   1636000   0.97996793     17.802106      36.357573    
   1637000   0.98250465     17.708246      36.265404    
   1638000   0.98131713     16.875875      36.52481     
   1639000   0.9901031      18.000167      36.452039    
   1640000   1.003407       17.568405      36.434395    
   1641000   1.0432321      18.132522      36.407654    
   1642000   1.0028659      17.506587      36.441756    
   1643000   1.0105589      17.818222      35.985633    
   1644000   0.95544275     17.647477      35.528767    
   1645000   1.0022276      16.957729      35.585067    
   1646000   0.98532862     17.811464      35.669331    
   1647000   1.0090647      17.710121      35.464825    
   1648000   1.0155972      18.126692      35.416867    
   1649000   1.0390559      16.706349      35.63631     
   1650000   1.0084757      17.618951      35.421077    
   1651000   0.99996942     18.028588      35.362043    
   1652000   1.0221167      18.512381      35.337594    
   1653000   0.99591144     17.814509      35.169541    
   1654000   0.97630851     17.153557      35.312887    
   1655000   0.96583273     17.48455       35.21633     
   1656000   1.0018661      17.910807      35.463122    
   1657000   0.93663174     16.773894      35.666762    
   1658000   0.98545291     17.076836      35.562274    
   1659000   1.0571922      17.142343      35.422068    
   1660000   0.98294591     17.75777       35.345951    
   1661000   1.0058259      17.830501      35.350969    
   1662000   1.0206517      17.735311      35.260652    
   1663000   1.0212382      17.7174        35.165074    
   1664000   1.0001107      16.570113      35.085104    
   1665000   0.97224422     18.069474      34.88399     
   1666000   0.97486301     17.614882      34.777001    
   1667000   0.98391983     18.013823      34.634621    
   1668000   0.97141163     17.286045      34.569545    
   1669000   0.99541012     17.467503      34.387473    
   1670000   1.0151134      17.531884      34.221935    
   1671000   1.034075       17.443009      34.261824    
   1672000   1.0434646      17.011815      34.316913    
   1673000   1.0130862      17.637083      34.326859    
   1674000   1.0324798      16.709406      34.295611    
   1675000   0.9494433      17.503151      34.145263    
   1676000   1.012528       17.462344      34.302232    
   1677000   0.97657993     17.588757      34.291959    
   1678000   0.99808943     18.098369      34.509583    
   1679000   1.002509       17.477332      34.558204    
   1680000   1.0244071      17.656944      34.609022    
   1681000   0.99436261     17.246756      34.397665    
   1682000   0.98783157     17.757027      34.344464    
   1683000   0.99387457     17.274122      34.122595    
   1684000   0.9430029      17.245896      34.105196    
   1685000   0.96091413     18.014203      33.863123    
   1686000   1.0389101      17.005227      33.842646    
   1687000   0.98280456     16.862823      33.932447    
   1688000   0.97411136     18.012027      33.931907    
   1689000   1.0152093      17.726757      33.768423    
   1690000   0.92328194     17.106121      33.614926    
   1691000   1.0024199      17.578028      33.390371    
   1692000   0.98946641     17.83002       33.542375    
   1693000   1.0393047      17.386081      33.537619    
   1694000   1.0420419      17.546055      33.548258    
   1695000   1.0120865      17.728027      33.291559    
   1696000   0.9750361      17.186985      33.27488     
   1697000   1.0026874      17.26883       33.133488    
   1698000   1.0135171      17.059047      32.997207    
   1699000   1.0298995      17.366314      33.088002    
   1700000   1.0108242      16.891691      33.057179    
   1701000   1.0555465      17.244294      32.712586    
   1702000   0.99208834     17.107507      32.768299    
   1703000   0.99797075     17.664855      32.752647    
   1704000   0.99703283     17.422507      32.76187     
   1705000   0.99300386     17.002383      32.712991    
   1706000   1.0244289      18.113968      32.68908     
   1707000   1.0182932      16.978269      32.700677    
   1708000   0.97810738     17.801248      32.603122    
   1709000   0.99238442     17.473447      32.627347    
   1710000   0.99443862     17.090547      32.502622    
   1711000   0.98448914     18.002599      32.323458    
   1712000   0.96794299     17.051444      32.078349    
   1713000   0.9995256      16.930519      32.054533    
   1714000   0.94583862     17.018246      31.830035    
   1715000   1.0419815      17.442553      31.833148    
   1716000   0.99990081     17.622508      31.76938     
   1717000   1.0226287      17.618116      31.80569     
   1718000   0.98575169     17.761214      31.628425    
   1719000   0.98296349     16.446053      31.315541    
   1720000   1.0108639      17.563297      31.149322    
   1721000   1.0253176      17.286083      31.337549    
   1722000   1.0068349      17.149333      31.484577    
   1723000   1.0043333      17.838878      31.377998    
   1724000   0.97283781     16.96679       31.402112    
   1725000   0.99978185     17.590734      31.403365    
   1726000   1.0377363      17.467245      31.401415    
   1727000   1.0332308      17.634079      31.155838    
   1728000   1.0092142      17.495702      31.08476     
   1729000   1.0277733      17.765496      31.375428    
   1730000   0.99055781     17.310686      31.392089    
   1731000   0.99959811     17.916438      31.261998    
   1732000   1.0209839      17.572494      31.213931    
   1733000   0.98457765     17.79852       31.053409    
   1734000   0.98833271     16.945161      30.746142    
   1735000   0.9499521      17.148686      30.618633    
   1736000   0.99465086     17.602145      30.762906    
   1737000   1.0156283      17.366804      30.813796    
   1738000   1.0113206      17.536607      30.737023    
   1739000   0.96588912     17.208061      30.392906    
   1740000   0.98263996     17.19377       30.549833    
   1741000   0.9497841      17.726266      30.412881    
   1742000   1.0049566      18.044398      30.598226    
   1743000   1.0426858      17.164545      30.690602    
   1744000   0.99406197     17.451266      30.391588    
   1745000   0.9917607      17.40615       30.246254    
   1746000   1.0035975      17.032908      29.970949    
   1747000   1.0096585      17.160079      30.096858    
   1748000   1.036495       17.742759      30.213246    
   1749000   0.96804467     17.421527      30.098633    
   1750000   0.98580697     17.392741      29.84344     
   1751000   0.95302275     17.538749      29.674022    
   1752000   1.0382621      17.397692      29.602909    
   1753000   0.98705435     17.491329      29.501817    
   1754000   1.0269376      17.279052      29.243419    
   1755000   1.0238246      18.090271      29.146135    
   1756000   0.95931233     17.803347      29.100453    
   1757000   1.0343529      17.795959      28.884703    
   1758000   0.98192986     17.831282      28.872194    
   1759000   0.99745525     17.04272       29.097919    
   1760000   1.018037       17.366638      28.828935    
   1761000   1.0086076      17.149133      28.82778     
   1762000   0.97987847     17.541748      28.712294    
   1763000   1.0298808      17.726112      28.692371    
   1764000   1.0211631      17.201124      28.749155    
   1765000   1.0023394      17.389411      28.612063    
   1766000   0.99208047     17.988409      28.68976     
   1767000   0.99535537     17.176643      28.675532    
   1768000   0.96947909     17.837038      28.622596    
   1769000   1.0026016      17.563836      28.487755    
   1770000   1.009154       17.764807      28.484453    
   1771000   1.0185266      17.567032      28.408476    
   1772000   0.95019298     18.398452      28.379854    
   1773000   1.0190401      17.483719      28.465021    
   1774000   1.0151831      17.568574      28.469331    
   1775000   0.99559035     17.1692        28.303211    
   1776000   1.0262151      17.538537      28.164187    
   1777000   0.99895385     18.038982      28.022794    
   1778000   1.025225       17.912814      27.721146    
   1779000   0.98607872     17.580353      27.543325    
   1780000   1.0217877      16.979696      27.416324    
   1781000   0.96879828     17.599756      27.203434    
   1782000   1.0300597      17.634812      27.042742    
   1783000   0.97464381     17.911067      26.90096     
   1784000   0.97519169     17.854293      26.926909    
   1785000   0.97852776     17.688556      27.02971     
   1786000   1.029657       17.571732      26.774364    
   1787000   0.97912601     17.289448      26.600443    
   1788000   1.0008328      17.779267      26.550033    
   1789000   0.9721669      17.038113      26.623329    
   1790000   1.0014877      17.532481      26.776325    
   1791000   1.0112064      17.350334      26.710973    
   1792000   0.95813805     17.41422       26.654428    
   1793000   0.98598161     16.855488      26.528535    
   1794000   1.0034528      17.237688      26.76182     
   1795000   1.0303127      17.444074      27.01512     
   1796000   0.99441587     17.339546      27.009487    
   1797000   0.96720606     17.854536      26.846128    
   1798000   0.98154368     17.737517      26.589652    
   1799000   1.038893       17.282946      26.405418    
   1800000   1.02358        17.814265      26.453364    
   1801000   1.0590405      17.345502      26.399794    
   1802000   0.99603399     16.905848      26.297718    
   1803000   1.0080632      18.124408      26.233949    
   1804000   1.0717215      17.517887      26.006588    
   1805000   0.99789424     17.299386      25.954974    
   1806000   1.0305936      16.908127      26.127402    
   1807000   1.052234       18.07966       25.941269    
   1808000   1.0311356      17.573795      25.67497     
   1809000   1.0241362      17.227828      25.466335    
   1810000   0.97546094     17.686948      25.490456    
   1811000   1.0484212      16.934613      25.415677    
   1812000   0.97802474     17.557441      25.553313    
   1813000   1.0137227      17.30577       25.207853    
   1814000   1.0057326      16.600164      25.150246    
   1815000   0.93002785     17.80901       25.223986    
   1816000   0.98920508     17.711588      25.205837    
   1817000   0.96296431     17.682561      25.030486    
   1818000   1.0413234      17.590378      24.986444    
   1819000   0.95208162     17.326396      24.693044    
   1820000   1.0003032      17.530353      24.434766    
   1821000   1.0218689      16.6722        24.227324    
   1822000   1.0035238      17.010609      24.028817    
   1823000   0.96080541     16.755655      24.096928    
   1824000   0.98987656     17.541161      24.027662    
   1825000   0.99894579     17.179144      23.928002    
   1826000   1.0053195      17.128073      23.508675    
   1827000   1.0547839      17.519794      23.135451    
   1828000   1.0040866      17.326778      23.012383    
   1829000   0.99913864     17.048959      22.896965    
   1830000   1.0523126      17.490141      23.050189    
   1831000   1.0018062      17.283616      22.87951     
   1832000   0.9429308      17.688394      22.898023    
   1833000   1.0330363      18.063158      22.939882    
   1834000   1.0112203      17.753805      23.273741    
   1835000   1.0266826      16.683422      23.031829    
   1836000   1.0286068      16.904074      22.973924    
   1837000   1.0207772      17.723928      22.982495    
   1838000   0.97127685     17.547975      23.045029    
   1839000   0.93558283     17.37457       23.099874    
   1840000   1.0404056      17.105866      23.265572    
   1841000   0.99693874     17.119053      23.120987    
   1842000   0.9933937      17.702872      23.086013    
   1843000   1.0262103      17.234551      22.954384    
   1844000   1.0224487      17.151451      23.137987    
   1845000   1.0044169      17.33127       22.690543    
   1846000   1.0500903      17.170342      22.730514    
   1847000   0.96602637     16.75493       22.550436    
   1848000   0.98757443     17.662891      22.612871    
   1849000   1.0432995      17.007266      22.447167    
   1850000   0.98248977     16.827501      22.324425    
   1851000   0.9678493      17.635769      22.337806    
   1852000   0.98565005     17.414488      21.99731     
   1853000   1.0436556      17.691924      22.028075    
   1854000   0.99487453     17.111168      22.246216    
   1855000   0.97862046     17.239407      22.169735    
   1856000   0.97153016     17.076281      22.067989    
   1857000   0.99217564     16.920666      22.180008    
   1858000   1.0123604      17.911112      21.767732    
   1859000   0.97881485     17.173936      21.578865    
   1860000   0.99221551     17.740116      21.671983    
   1861000   0.97801006     17.434128      21.587128    
   1862000   0.96058093     17.82696       21.443817    
   1863000   1.0181194      16.311221      21.33547     
   1864000   1.0575459      16.808752      21.403223    
   1865000   1.0070608      17.515372      21.206088    
   1866000   0.99626461     16.914688      21.246165    
   1867000   0.97104459     17.943027      20.989858    
   1868000   1.0323596      17.845391      21.020908    
   1869000   0.97284646     16.953372      20.874009    
   1870000   0.9819414      17.124545      20.948791    
   1871000   0.98240294     17.906836      20.841086    
   1872000   0.98227095     17.192819      20.927461    
   1873000   0.9732819      16.750123      20.549595    
   1874000   1.058514       17.695884      20.400982    
   1875000   0.96023576     17.277713      20.208753    
   1876000   1.0449153      17.514019      20.235813    
   1877000   0.99112093     17.293604      20.096189    
   1878000   0.99019009     17.428312      19.76528     
   1879000   0.99518299     17.398576      19.721559    
   1880000   1.0034487      16.915074      19.536876    
   1881000   1.0053315      17.236243      19.45552     
   1882000   0.96997386     17.133093      19.469453    
   1883000   1.0260661      17.719281      19.515629    
   1884000   1.0042456      17.494546      19.417738    
   1885000   1.0138575      17.114569      19.262475    
   1886000   1.0046061      17.717508      19.260554    
   1887000   0.9883886      17.183813      19.281153    
   1888000   1.0210275      17.359054      19.305424    
   1889000   1.0210096      17.40599       19.324258    
   1890000   1.0828419      17.839398      19.322175    
   1891000   1.0069449      17.134034      19.147308    
   1892000   0.99950362     17.486891      19.334367    
   1893000   0.94476301     17.636541      19.514889    
   1894000   1.0567529      17.320432      19.373966    
   1895000   0.98280097     17.307545      19.312605    
   1896000   1.0110731      16.640614      19.101002    
   1897000   1.0324964      17.000341      18.990441    
   1898000   0.96943561     17.252206      18.799271    
   1899000   0.98646932     17.304687      18.730145    
   1900000   0.97236596     17.389358      18.519918    
   1901000   0.97881104     17.467087      18.516603    
   1902000   1.0377776      17.135181      18.306586    
   1903000   1.02273        17.055421      18.161992    
   1904000   1.0362257      17.494181      18.288583    
   1905000   0.95272611     16.957114      18.360045    
   1906000   0.98779514     17.427345      18.264461    
   1907000   0.98496006     17.573158      18.404541    
   1908000   0.95251242     17.008778      18.375802    
   1909000   1.013269       17.037062      18.351271    
   1910000   1.0279451      17.527391      18.335839    
   1911000   1.0226852      17.877143      18.246136    
   1912000   1.0419398      17.149768      18.222027    
   1913000   1.0095911      16.697798      17.797549    
   1914000   1.0543464      17.248379      17.781779    
   1915000   1.0026433      17.412211      17.814179    
   1916000   0.99046569     17.046519      17.700178    
   1917000   1.0444064      17.271679      17.638056    
   1918000   0.99712959     17.163181      17.287456    
   1919000   0.97283633     16.728156      17.352555    
   1920000   1.0215342      17.27363       17.222555    
   1921000   0.963398       17.246169      16.987309    
   1922000   1.0071748      17.277871      16.945826    
   1923000   1.000312       17.720185      16.951373    
   1924000   1.0013818      17.441083      17.114555    
   1925000   0.95807108     16.872418      17.122174    
   1926000   1.039068       16.766815      17.122059    
   1927000   0.93419295     16.790283      16.819637    
   1928000   0.97294245     17.271647      16.809389    
   1929000   0.95942196     17.472866      16.751256    
   1930000   1.0369044      17.237469      16.721227    
   1931000   1.0098607      17.381706      16.806367    
   1932000   1.0374346      17.018332      16.632751    
   1933000   1.0121367      17.58102       16.366531    
   1934000   1.0114618      16.746454      16.104895    
   1935000   0.96726944     16.870763      16.021755    
   1936000   1.0014547      17.424727      15.752811    
   1937000   1.0057205      17.402725      15.638187    
   1938000   1.0326776      17.093027      15.62456     
   1939000   1.0037697      16.55043       15.369884    
   1940000   0.99654664     16.713146      15.200472    
   1941000   0.96360886     17.019923      15.129047    
   1942000   1.0256089      17.636677      14.844905    
   1943000   1.0162553      17.711548      14.82104     
   1944000   1.0245347      17.131169      14.894122    
   1945000   1.0075044      17.591112      14.702248    
   1946000   1.0070932      17.431962      14.397678    
   1947000   1.0199201      17.214114      14.252473    
   1948000   0.95782884     16.82533       14.012372    
   1949000   1.0338763      17.080071      13.933188    
   1950000   0.97439884     17.806174      13.83706     
   1951000   1.0182898      17.391019      13.837891    
   1952000   0.98536663     16.909785      13.547858    
   1953000   1.010281       17.01699       13.485156    
   1954000   1.0087254      17.195522      13.278071    
   1955000   0.99957348     17.632437      13.220024    
   1956000   0.98770064     16.928412      13.267881    
   1957000   0.98089161     16.476778      13.424518    
   1958000   1.0155317      17.052527      13.544146    
   1959000   1.0216587      16.963607      13.603059    
   1960000   1.0079947      16.630904      13.643122    
   1961000   1.0189241      18.13394       13.349644    
   1962000   1.0288863      17.524063      13.410404    
   1963000   0.98348178     17.031406      13.399459    
   1964000   1.029902       17.781756      13.202686    
   1965000   0.99130953     17.873309      12.904575    
   1966000   1.0383646      17.165038      13.113791    
   1967000   0.98047079     17.203841      13.415739    
   1968000   1.0053505      16.528301      13.260174    
   1969000   0.99681884     16.855116      13.122837    
   1970000   0.94589741     17.068521      13.187349    
   1971000   1.0105327      17.075474      13.007428    
   1972000   0.9952875      16.884635      12.968542    
   1973000   0.98627837     17.852076      12.809664    
   1974000   1.0073422      17.100709      12.696521    
   1975000   0.98837868     17.094626      12.603371    
   1976000   1.0251668      17.265781      12.296511    
   1977000   0.99642082     17.263474      12.257629    
   1978000   0.98122043     17.520457      12.34801     
   1979000   1.001356       17.361787      12.483631    
   1980000   1.0294632      17.204012      12.577637    
   1981000   1.0120952      17.136683      12.456005    
   1982000   1.0210789      17.297536      12.101271    
   1983000   1.0002546      17.028123      12.077973    
   1984000   0.96027986     17.605326      11.736418    
   1985000   1.0164204      17.4944        11.576586    
   1986000   0.95826729     16.956739      11.568119    
   1987000   0.98838229     17.405225      11.412685    
   1988000   0.96828163     17.849288      11.371165    
   1989000   1.022637       17.14614       11.637787    
   1990000   1.0581694      17.476509      11.440628    
   1991000   1.0974504      16.759312      11.338051    
   1992000   0.94733601     16.458825      11.352258    
   1993000   1.0447         17.056271      11.219944    
   1994000   1.0099959      17.370452      11.237471    
   1995000   1.0060061      17.012369      11.075151    
   1996000   0.99072807     17.642543      11.093797    
   1997000   0.95510823     17.263014      11.103559    
   1998000   0.97735371     17.049348      10.97514     
   1999000   0.99568507     17.16465       11.058472    
   2000000   1.01723        16.884787      11.050401    
   2001000   0.99534372     17.321284      11.071082    
   2002000   0.9781596      18.020772      11.031852    
   2003000   1.0002082      17.345653      11.077936    
   2004000   1.0015251      17.026936      11.166261    
   2005000   1.0387399      17.605329      11.091889    
   2006000   1.0468562      17.192856      11.247654    
   2007000   1.040235       17.437684      11.355022    
   2008000   0.98415813     16.991562      11.25923     
   2009000   1.0276552      17.542562      11.318394    
   2010000   1.0292952      17.739541      11.218114    
   2011000   0.98516297     17.283642      11.067868    
   2012000   1.0302559      17.369262      10.884048    
   2013000   0.92861965     17.092781      10.745156    
   2014000   1.0005582      17.60221       10.536445    
   2015000   0.99010075     17.499907      10.243677    
   2016000   0.96633904     16.707345      10.064745    
   2017000   0.99748225     16.921233      9.9954885    
   2018000   0.9763012      16.834381      9.6998483    
   2019000   1.0098884      17.740765      9.5677484    
   2020000   0.97806974     17.459313      9.5771209    
   2021000   1.0123231      17.251588      9.4866158    
   2022000   1.0106342      16.499049      9.4866398    
   2023000   1.0166166      16.830613      9.1480915    
   2024000   0.9990906      17.03411       8.9434361    
   2025000   0.99057037     17.458481      9.1039121    
   2026000   1.0466384      17.538429      9.1682455    
   2027000   0.97755317     17.462385      8.8957208    
   2028000   1.0008569      16.793853      8.6548788    
   2029000   0.99738641     17.196276      8.602009     
   2030000   1.0136486      17.206864      8.6958607    
   2031000   1.0333821      16.823757      8.4679065    
   2032000   1.003142       17.057451      8.4197457    
   2033000   0.97810522     16.818809      8.2403953    
   2034000   1.0172495      17.068722      8.2406912    
   2035000   0.98981033     16.933281      8.08038      
   2036000   0.90270421     16.777685      8.0914537    
   2037000   0.98906909     17.983349      7.9590052    
   2038000   1.0071156      17.747387      7.8522931    
   2039000   1.0246804      16.79342       7.5958672    
   2040000   1.0100205      16.936351      7.5437631    
   2041000   1.020217       17.69519       7.3630136    
   2042000   0.98282945     17.324265      7.3714992    
   2043000   0.96189376     17.320012      7.3112646    
   2044000   1.0447767      16.896472      7.0405631    
Fix halt condition for fix-id 3 met on step 2045000 with value 6.986581981437292 (src/fix_halt.cpp:237)
   2045000   1.0004343      16.953057      6.986582     
Loop time of 2796.71 on 2 procs for 1945000 steps with 800 atoms

Performance: 600877.293 tau/day, 695.460 timesteps/s
117.4% CPU use with 1 MPI tasks x 2 OpenMP threads

MPI task timing breakdown:
Section |  min time  |  avg time  |  max time  |%varavg| %total
---------------------------------------------------------------
Pair    | 353.86     | 353.86     | 353.86     |   0.0 | 12.65
Bond    | 31.824     | 31.824     | 31.824     |   0.0 |  1.14
Neigh   | 2332.7     | 2332.7     | 2332.7     |   0.0 | 83.41
Comm    | 0.5665     | 0.5665     | 0.5665     |   0.0 |  0.02
Output  | 3.9453     | 3.9453     | 3.9453     |   0.0 |  0.14
Modify  | 68.407     | 68.407     | 68.407     |   0.0 |  2.45
Other   |            | 5.373      |            |       |  0.19

Nlocal:            800 ave         800 max         800 min
Histogram: 1 0 0 0 0 0 0 0 0 0
Nghost:              0 ave           0 max           0 min
Histogram: 1 0 0 0 0 0 0 0 0 0
Neighs:         141101 ave      141101 max      141101 min
Histogram: 1 0 0 0 0 0 0 0 0 0

Total # of neighbors = 141101
Ave neighs/atom = 176.37625
Ave special neighs/atom = 1.9975
Neighbor list builds = 18402
Dangerous builds = 0

# This simulation is done
# Move onto the next one
clear
  using 2 OpenMP thread(s) per MPI task
package omp 0
using multi-threaded neighbor list subroutines
next f
jump SELF

###
# Reference paper:
# K. Kremer and G. S. Grest
# Dynamics of entangled linear polymer melts: A molecular-dynamics simulation
# J Chem Phys 92, 5057 (1990)

##################################
# MIHIR: for branched polymers
# LJ minimum first to expand and explore, then collapse
###

###
# Looping through the various linear polymers to simulate,
# define variables to switch through
# variable f index bb100nuc0bl0bn0d30tot100 bb200nuc0bl0bn0d30tot200 bb300nuc0bl0bn0d30tot300 bb400nuc0bl0bn0d30tot400 bb500nuc0bl0bn0d30tot500 bb600nuc0bl0bn0d30tot600 bb700nuc0bl0bn0d30tot700 bb800nuc0bl0bn0d30tot800 bb900nuc0bl0bn0d30tot900 bb1000nuc0bl0bn0d30tot1000 bb1100nuc0bl0bn0d30tot1100 bb1200nuc0bl0bn0d30tot1200
variable f index bb500nuc0bl0bn0d30tot500 bb600nuc0bl0bn0d30tot600 bb700nuc0bl0bn0d30tot700 bb800nuc0bl0bn0d30tot800 bb900nuc0bl0bn0d30tot900 bb1000nuc0bl0bn0d30tot1000 bb1100nuc0bl0bn0d30tot1100 bb1200nuc0bl0bn0d30tot1200
###


###
# Box and units  (use LJ units and periodic boundaries)
###

units lj
log linear/logs2/$f.log
log linear/logs2/bb900nuc0bl0bn0d30tot900.log
