#atom_style bond #no stiffness
atom_style angle #with stiffness

boundary        p p p
###
# Pair interactions require lists of neighbours to be calculated
###

#neighbor 0.3 bin
neighbor 4 bin

neigh_modify every 1 delay 1 check yes
atom_modify sort 0 0
### Generate RESTART file, SPECIAL format, not a .txt file ###
### Useful if simulation crashes ###

restart 1000000 linear/restarts2/$f.restart
restart 1000000 linear/restarts2/bb900nuc0bl0bn0d30tot900.restart
#############################



### READ "start" data file ###

read_data linear/$f.dat
read_data linear/bb900nuc0bl0bn0d30tot900.dat
Reading data file ...
  orthogonal box = (-1000 -1000 -1000) to (1000 1000 1000)
  1 by 1 by 1 MPI processor grid
  reading atoms ...
  900 atoms
  scanning bonds ...
  1 = max bonds/atom
  scanning angles ...
  1 = max angles/atom
  reading bonds ...
  899 bonds
  reading angles ...
  898 angles
Finding 1-2 1-3 1-4 neighbors ...
  special bond factors lj:    0        0        0       
  special bond factors coul:  0        0        0       
     2 = max # of 1-2 neighbors
     2 = max # of 1-3 neighbors
     4 = max # of 1-4 neighbors
     6 = max # of special neighbors
  special bonds CPU = 0.001 seconds
  read_data CPU = 0.057 seconds

######################

### READ "REstart" data file ###

######################



###
# Define groups (atom type 1 is group 'all')
###
group all type 1
900 atoms in group all


###
# Dump configs - "simple dumpings"
###

###
# Dump configs + box coords
###

dump   1   all   custom   1000  linear/trjs2/$f.lammpstrj  id  x y z  ix iy iz
dump   1   all   custom   1000  linear/trjs2/bb900nuc0bl0bn0d30tot900.lammpstrj  id  x y z  ix iy iz
dump_modify   1   format line "%d %.5f %.5f %.5f %d %d %d"

########################################################################


###################################################################
# Stiffness term
#
# E = K * (1+cos(theta)), K>0
#
angle_style   cosine
#change this coefficient to change stiffness (e.g. 1,5,10)
angle_coeff   1 1.0
###################################################################

###################################################################
# Pair interaction between non-bonded atoms
#
#  Lennard-Jones 12-6 potential with cutoff:
#  potential E=4epsilon[ (sigma/r)^12 - (sigma/r)^6]  for r<r_cut
#
#  1.12246 = 2^(1/6) is the minimum of the potential


pair_style      lj/cut 1.12246152962189
#pair_style      lj/cut 3

#
#  pair_modify shift yes adds a constant to the potential such

#  that E(r_cut)=0. Forces remains unchanged.
#

pair_modify     shift yes

#
#  pair_coeff for lj/cut, specify 4:
#    * atom type interacting with
#    * atom type
#    * epsilon (energy units)
#    * sigma (distance units)
#

pair_coeff      1 1 1.0 1.0
###################################################################

###################################################################
# Pair interaction between non-bonded atoms
#
#  soft potential, for PUSHING apart overlapping atoms
#  potential E=A*(1 + cos(pi*r/r_c))
#
#  1.12246 = 2^(1/6) is the cut-off r_c

#pair_style     soft 1.12246152962189

#
#  pair_coeff for soft, specify 3:
#    * atom type interacting with
#    * atom type
#    * A
#
#

#pair_coeff      1 1 100.0
###################################################################

###################################################################
# Pair interaction between bonded atoms
#
# Fene potential + Lennard Jones 12-6:

#
#  E= - 0.5 K R0^2 ln[ 1- (r/R0)^2]
#     + 4epsilon[ (sigma/r)^12 - (sigma/r)^6] + epsilon
#

bond_style   fene


#
# For style fene, specify:
#   * bond type
#   * K (energy/distance^2)
#   * R0 (distance)
#   * epsilon (energy)  (LJ component)
#   * sigma (distance)  (LJ component)
#


special_bonds fene #<=== I M P O R T A N T (new command)
Finding 1-2 1-3 1-4 neighbors ...
  special bond factors lj:    0        1        1       
  special bond factors coul:  0        1        1       
     2 = max # of 1-2 neighbors
     6 = max # of special neighbors
  special bonds CPU = 0.001 seconds

bond_coeff   1   30   2   1.0   1.0


###################################################

###################################################################
# Pair interaction between bonded atoms
#
# Harmonic potential:
#
#  E= K * (R-R0)^2
#

#bond_style   harmonic

#
# For style harmonic, specify:
#   * bond type
#   * K (energy/distance^2)
#   * R0 (distance)
#

#bond_coeff   1   60.0   1.0
#bond_coeff   2   harmonic 0.1   1.0

###################################################
compute 1 all gyration
variable rog equal c_1
#compute 2 all coord/atom cutoff 1.1

#dump 2 all custom 10000 contact_number.dump id c_2


###
# Set up fixes
###
thermo_style   custom   step  temp enthalpy c_1
fix 1 all nve   ###NVE ensemble

fix 2 all   langevin   1.0 1.0 1.0  778655   ###Langevin integrator Tstart Tstop 1/friction rndseed


##### Sample thermodynamic info  (temperature, energy, pressure, etc.) #####
thermo 1000









############################################################################

###
# set timestep of integrator

timestep 0.01

###
# run integration for a number of steps
###
#run 0
#variable r equal c_1
#if "$r < 63.1" then "quit 1"

# lj potential minimum, cause molecule to explore
run 100000
Generated 0 of 0 mixed pair_coeff terms from geometric mixing rule
Last active /omp style is angle_style cosine/omp
Neighbor list info ...
  update: every = 1 steps, delay = 1 steps, check = yes
  max neighbors/atom: 2000, page size: 100000
  master list distance cutoff = 5.1224615
  ghost atom cutoff = 5.1224615
  binsize = 2.5612308, bins = 781 781 781
  1 neighbor lists, perpetual/occasional/extra = 1 0 0
  (1) pair lj/cut/omp, perpetual
      attributes: half, newton on, omp
      pair build: half/bin/newton/omp
      stencil: half/bin/3d
      bin: standard
WARNING: Communication cutoff 5.12246152962189 is shorter than a bond length based estimate of 5.455. This may lead to errors. (src/comm.cpp:723)
Per MPI rank memory allocation (min/avg/max) = 1860 | 1860 | 1860 Mbytes
   Step          Temp         Enthalpy         c_1      
         0   0              13.411709      225.00026    
      1000   1.0210845      19.18192       224.99451    
      2000   1.0073663      18.413702      224.81608    
      3000   1.0098355      18.773379      224.60441    
      4000   0.9796918      18.878701      224.38857    
      5000   0.96034535     18.928461      224.02281    
      6000   1.0069815      19.442298      223.86888    
      7000   0.97118294     19.108105      223.81929    
      8000   0.99345532     19.10177       223.57437    
      9000   1.0448505      19.213102      223.29699    
     10000   0.97276038     18.917049      222.98854    
     11000   0.9902684      19.153689      222.77766    
     12000   1.0137098      18.987234      222.50324    
     13000   1.0208742      18.740897      222.17765    
     14000   1.0057037      18.998775      221.9161     
     15000   1.0417646      18.906489      221.54632    
     16000   0.99517366     19.331331      221.03342    
     17000   1.0076614      19.15083       220.88495    
     18000   0.98206929     18.765303      220.61966    
     19000   0.98808515     18.603552      220.3556     
     20000   1.0074606      19.430213      220.29505    
     21000   1.0075458      18.933671      219.89995    
     22000   0.96667208     19.17536       219.76943    
     23000   1.0186113      19.129146      219.52413    
     24000   0.98284587     18.869804      219.69089    
     25000   0.99006727     19.239341      219.46654    
     26000   0.95079615     19.125904      219.17606    
     27000   1.0150744      19.559211      219.03974    
     28000   1.0364387      19.267702      218.86101    
     29000   0.96491889     19.421204      218.6647     
     30000   0.99470482     19.020907      218.54507    
     31000   1.0487952      19.46087       218.50467    
     32000   0.95349358     19.019078      218.2379     
     33000   0.98374514     18.832895      218.45732    
     34000   0.97406153     19.297892      218.30947    
     35000   1.0167766      19.19679       217.86269    
     36000   0.95882066     19.185827      217.71117    
     37000   1.052838       19.878242      217.56384    
     38000   1.0069448      19.565539      217.1735     
     39000   1.0146512      19.592276      217.06465    
     40000   1.0041737      18.802029      217.33292    
     41000   1.0050501      19.182258      217.1185     
     42000   1.0030547      19.222273      217.11404    
     43000   1.0416797      19.076706      216.85534    
     44000   1.0301811      19.125662      216.74538    
     45000   0.99632949     19.028993      216.57275    
     46000   1.0357714      19.229788      216.31216    
     47000   0.97211624     18.676809      216.19717    
     48000   1.0495044      19.284594      216.08496    
     49000   0.9775075      19.354352      215.79543    
     50000   0.99513941     19.212412      215.58219    
     51000   0.96294225     18.89907       215.36238    
     52000   0.93942712     19.417068      215.43259    
     53000   0.95063112     18.873218      215.25246    
     54000   0.99507856     19.187429      215.1688     
     55000   1.0407577      19.294333      215.323      
     56000   0.97747442     19.414989      215.27493    
     57000   0.99682698     19.082162      215.31135    
     58000   0.98770743     19.424338      215.18674    
     59000   0.95946671     19.196962      215.03883    
     60000   1.0106112      19.546417      215.01396    
     61000   1.0215229      19.60145       215.02673    
     62000   1.0341865      19.558243      214.80072    
     63000   0.96263326     19.203143      214.67947    
     64000   1.0280951      19.570293      214.5628     
     65000   1.0271835      19.749544      214.52344    
     66000   0.97347789     19.335862      214.68737    
     67000   1.0178733      19.276609      214.38818    
     68000   0.98337017     19.353047      214.15673    
     69000   1.0312678      19.531735      213.96383    
     70000   1.0535809      19.892698      214.0167     
     71000   0.97433975     19.275486      213.96688    
     72000   0.98391199     19.234625      213.70801    
     73000   0.96538057     19.579035      213.60588    
     74000   1.0512601      19.375998      213.39192    
     75000   0.99980714     19.458166      213.32396    
     76000   1.0736519      19.499265      213.35396    
     77000   1.005278       18.90765       213.2464     
     78000   0.95385259     19.267838      212.7874     
     79000   1.0255153      19.183101      212.57813    
     80000   1.0300286      19.474952      212.43144    
     81000   1.0369498      19.541349      212.24043    
     82000   0.99565784     19.42724       211.99714    
     83000   1.0203182      19.277311      211.85571    
     84000   0.99726391     19.388986      211.57833    
     85000   0.99226248     20.015375      211.41258    
     86000   1.0333916      19.127287      211.46637    
     87000   0.97738553     19.551243      211.36494    
     88000   0.98714964     19.756085      211.21659    
     89000   0.99184097     19.566155      210.97527    
     90000   1.0459         19.585836      210.81449    
     91000   1.0155693      19.608475      210.73545    
     92000   1.0358119      19.707141      210.6868     
     93000   0.99570937     19.698468      210.56919    
     94000   0.96849943     19.27142       210.38552    
     95000   1.0437742      19.477663      210.4062     
     96000   0.9564166      19.01274       210.15666    
     97000   0.97132205     19.35321       210.04717    
     98000   0.98764549     19.310342      209.86489    
     99000   0.98796993     19.329934      209.74204    
    100000   0.9988301      19.569465      210.00479    
Loop time of 336.97 on 2 procs for 100000 steps with 900 atoms

Performance: 256402.470 tau/day, 296.762 timesteps/s
102.3% CPU use with 1 MPI tasks x 2 OpenMP threads

MPI task timing breakdown:
Section |  min time  |  avg time  |  max time  |%varavg| %total
---------------------------------------------------------------
Pair    | 0.71427    | 0.71427    | 0.71427    |   0.0 |  0.21
Bond    | 1.6569     | 1.6569     | 1.6569     |   0.0 |  0.49
Neigh   | 330.44     | 330.44     | 330.44     |   0.0 | 98.06
Comm    | 0.025112   | 0.025112   | 0.025112   |   0.0 |  0.01
Output  | 0.20274    | 0.20274    | 0.20274    |   0.0 |  0.06
Modify  | 3.6682     | 3.6682     | 3.6682     |   0.0 |  1.09
Other   |            | 0.2667     |            |       |  0.08

Nlocal:            900 ave         900 max         900 min
Histogram: 1 0 0 0 0 0 0 0 0 0
Nghost:              0 ave           0 max           0 min
Histogram: 1 0 0 0 0 0 0 0 0 0
Neighs:           4356 ave        4356 max        4356 min
Histogram: 1 0 0 0 0 0 0 0 0 0

Total # of neighbors = 4356
Ave neighs/atom = 4.84
Ave special neighs/atom = 1.9977778
Neighbor list builds = 1046
Dangerous builds = 0

# Replace lj potential, now collapse
pair_style      lj/cut 3

# Cutoff simul when gyration under 5
# Variable created with equal requires v_ + 'name'
fix 3 all halt 1000 v_rog < 7

run 5000000
Generated 0 of 0 mixed pair_coeff terms from geometric mixing rule
Last active /omp style is angle_style cosine/omp
Per MPI rank memory allocation (min/avg/max) = 1860 | 1860 | 1860 Mbytes
   Step          Temp         Enthalpy         c_1      
    100000   0.9988301      19.127639      210.00479    
    101000   1.0127427      19.306484      209.61062    
    102000   0.99083113     18.928515      209.23467    
    103000   0.99056726     18.851855      209.09578    
    104000   0.99347168     18.592438      209.01076    
    105000   0.96470452     19.142768      208.91466    
    106000   0.98447246     18.769684      208.71344    
    107000   1.0059272      19.186838      208.61684    
    108000   1.0050815      19.194942      208.5319     
    109000   0.99472293     19.712336      208.15647    
    110000   0.95864147     19.1987        207.99224    
    111000   1.029845       19.534779      208.01416    
    112000   0.98456672     18.803255      207.90095    
    113000   0.96792356     19.060368      208.01892    
    114000   0.95729813     18.972043      207.93781    
    115000   1.0070659      18.978173      207.65438    
    116000   1.0070204      19.337176      207.55913    
    117000   1.016603       19.469577      207.31888    
    118000   1.0055472      19.313928      207.50321    
    119000   1.0367744      18.972724      207.2901     
    120000   1.0162963      19.247883      207.36017    
    121000   1.0235256      18.918735      207.24139    
    122000   1.0265947      19.0636        206.97342    
    123000   1.0147763      19.174774      206.84565    
    124000   1.0450874      19.280196      206.8377     
    125000   0.98785099     19.463608      206.57218    
    126000   1.0214885      19.412529      206.49824    
    127000   1.0204617      19.048672      206.61212    
    128000   0.96933303     18.702712      206.33734    
    129000   0.97326046     18.949196      206.1506     
    130000   0.97081498     19.09336       206.189      
    131000   0.97203279     19.033115      206.17579    
    132000   0.99042915     19.466827      205.84533    
    133000   1.0226635      19.142078      205.56146    
    134000   1.0729233      19.619404      205.23208    
    135000   1.0065843      19.227216      205.16363    
    136000   1.0395416      19.594383      205.11538    
    137000   1.0085244      18.645969      204.92573    
    138000   1.0195746      18.721875      204.98786    
    139000   0.98905368     18.770852      204.64583    
    140000   1.0005048      19.061473      204.64743    
    141000   1.0059141      18.79218       204.4966     
    142000   1.0007645      19.098457      204.37791    
    143000   0.98490895     18.613182      204.24333    
    144000   1.0059385      18.703676      203.91397    
    145000   0.97579925     19.128946      203.78753    
    146000   0.9479794      18.840323      203.73153    
    147000   1.0033042      19.246138      203.59469    
    148000   0.96126029     18.59596       203.56448    
    149000   0.96985174     19.055938      203.64244    
    150000   1.008343       18.788677      203.58172    
    151000   1.0323354      18.465842      203.54063    
    152000   1.0296551      18.505061      203.48399    
    153000   0.99163123     18.928369      203.40387    
    154000   1.0084829      19.332716      203.23883    
    155000   0.97588304     19.122541      203.17444    
    156000   1.0185694      19.394748      202.74774    
    157000   1.0141032      19.246997      202.7759     
    158000   0.97512269     19.391918      202.5516     
    159000   1.016527       19.412183      202.08933    
    160000   1.0695378      18.800617      202.07766    
    161000   0.99701851     19.023803      201.71768    
    162000   1.0183449      19.260779      201.51098    
    163000   0.99296831     18.982332      201.32406    
    164000   1.025466       18.662801      201.27132    
    165000   0.96144179     19.035909      201.3147     
    166000   1.0140565      18.741891      201.28176    
    167000   1.011098       18.891807      201.08871    
    168000   0.99275369     18.651565      201.15113    
    169000   0.99263649     19.014901      201.16008    
    170000   1.0235781      19.610127      201.21014    
    171000   0.99260732     18.58623       201.11664    
    172000   0.97911539     18.899897      201.03701    
    173000   0.98825153     19.224964      200.94845    
    174000   0.98922152     19.113421      200.92123    
    175000   1.0439937      19.025568      200.99695    
    176000   1.027896       19.242062      200.93472    
    177000   1.0423769      19.268164      200.65854    
    178000   1.0398063      19.053478      200.58225    
    179000   0.96521646     18.986472      200.35669    
    180000   1.0583596      19.16345       200.27245    
    181000   0.94725591     18.642511      200.4529     
    182000   0.99058324     19.00835       200.25939    
    183000   1.0106658      19.150603      200.23377    
    184000   0.98859609     18.746894      200.20714    
    185000   1.0015681      18.67819       200.10201    
    186000   0.99396022     19.263858      199.7726     
    187000   0.9973336      19.359899      199.71492    
    188000   1.0125966      18.917177      199.70283    
    189000   1.0119894      18.77779       199.39519    
    190000   1.0076578      19.300286      199.17207    
    191000   0.97855873     18.808059      198.93294    
    192000   0.98017889     19.429961      198.82376    
    193000   0.98181931     19.10067       198.47375    
    194000   0.98716996     19.01632       198.41145    
    195000   1.0518055      19.280855      198.26874    
    196000   1.0128504      19.468527      198.01538    
    197000   0.98860324     19.280159      197.9245     
    198000   0.99078469     18.755501      197.99355    
    199000   1.0000091      18.946739      197.90294    
    200000   0.99380279     18.38918       198.09777    
    201000   1.0324374      18.575624      197.96363    
    202000   1.0152052      18.786141      197.8221     
    203000   1.0360173      18.751445      197.69716    
    204000   0.94637655     19.403561      197.76698    
    205000   1.0200564      18.3394        197.54937    
    206000   0.95698217     18.943406      197.44942    
    207000   0.99636662     18.96676       197.29964    
    208000   1.00798        18.562947      196.96542    
    209000   1.0298901      18.932239      197.00671    
    210000   1.0047974      18.811864      197.07274    
    211000   0.99825877     19.306525      197.04523    
    212000   0.96653511     18.70975       196.89631    
    213000   1.008835       19.315481      196.80335    
    214000   0.99922913     19.049638      196.89165    
    215000   0.96082395     18.688912      196.89908    
    216000   1.0542904      19.100285      196.55296    
    217000   0.98014645     19.337634      196.47236    
    218000   0.97910724     18.956325      196.64971    
    219000   0.99621073     18.982883      196.67236    
    220000   1.0101514      18.79689       196.40344    
    221000   0.97648083     19.155981      196.14739    
    222000   1.0329037      18.495799      196.21974    
    223000   0.97936594     19.106327      196.04301    
    224000   0.98099649     19.505797      195.91032    
    225000   0.98929453     19.241052      195.70599    
    226000   1.0202         19.070192      195.53133    
    227000   1.0233619      19.105451      195.3765     
    228000   0.97963597     19.005789      195.25931    
    229000   1.0325907      17.988988      195.11949    
    230000   1.0408579      19.215868      194.89917    
    231000   1.0071097      18.812378      194.83206    
    232000   0.98982965     19.358221      194.69189    
    233000   1.0161634      19.694758      194.52119    
    234000   1.011091       18.930523      194.46037    
    235000   1.0120303      19.264988      194.46882    
    236000   0.99036374     18.68174       194.40187    
    237000   0.97091125     18.147154      194.25008    
    238000   0.99333723     19.345839      193.99515    
    239000   0.94166873     19.331773      193.66726    
    240000   0.97654159     19.21077       193.39732    
    241000   1.0094034      18.61082       193.02834    
    242000   0.96835528     19.053363      192.7465     
    243000   0.9401082      19.173789      192.59426    
    244000   1.0034249      19.634626      192.37213    
    245000   0.98680467     18.994693      192.28208    
    246000   1.0029393      18.099107      192.25176    
    247000   0.95710479     18.937279      192.35328    
    248000   1.0058138      19.162186      192.28571    
    249000   0.9766743      19.77682       192.10917    
    250000   1.0132338      18.596749      192.03015    
    251000   1.0053111      18.780759      191.75102    
    252000   0.95471929     18.971865      191.68723    
    253000   1.0136395      19.038116      191.58833    
    254000   0.99071042     19.132605      191.33653    
    255000   1.0161861      18.715708      191.15954    
    256000   0.99768066     18.470512      190.94679    
    257000   1.0221003      18.973961      190.79105    
    258000   0.9810803      18.820507      190.48018    
    259000   0.98361546     19.377608      190.27951    
    260000   1.0194167      19.036001      190.16627    
    261000   1.0028042      19.534571      190.03191    
    262000   0.9633186      18.340453      189.81043    
    263000   1.0293999      18.775763      189.53251    
    264000   0.99316215     18.765259      189.39472    
    265000   1.0303299      19.64101       189.22669    
    266000   0.98731532     19.33167       189.07895    
    267000   0.96739716     18.730231      188.9986     
    268000   1.0720935      18.580801      188.94054    
    269000   1.0093593      19.060821      188.94966    
    270000   0.98977013     18.662813      188.84147    
    271000   1.0012392      18.645574      188.81461    
    272000   0.99876021     18.486082      188.60049    
    273000   1.0018598      18.773114      188.61015    
    274000   0.98077352     18.966049      188.38605    
    275000   0.9695161      18.724613      188.44999    
    276000   1.0150045      18.985417      188.37718    
    277000   1.0172535      18.572488      188.38343    
    278000   1.0266295      18.946158      188.32295    
    279000   1.0064672      19.05181       188.03822    
    280000   0.99109846     19.346526      187.87711    
    281000   0.97658718     18.960204      187.70318    
    282000   1.0342493      18.964901      187.53107    
    283000   1.0171042      19.142199      187.60131    
    284000   1.009886       18.53969       187.44461    
    285000   0.99836823     18.849018      187.37479    
    286000   0.98146264     18.658287      187.42207    
    287000   0.97748028     18.309019      187.28111    
    288000   1.0071334      19.326548      187.40687    
    289000   0.96607916     19.075773      187.26344    
    290000   0.99245309     18.708153      187.20864    
    291000   0.99467938     18.818958      186.9592     
    292000   1.0131096      18.961978      187.06166    
    293000   1.0075508      19.141929      186.78257    
    294000   1.0358368      18.891006      187.00226    
    295000   0.9447353      18.595683      186.78204    
    296000   1.03114        19.046707      186.72319    
    297000   0.9816569      18.307963      186.61865    
    298000   1.0217907      18.656518      186.93014    
    299000   1.0593016      19.046708      186.91216    
    300000   1.0171794      18.805787      187.00373    
    301000   1.022057       18.96424       186.76869    
    302000   1.0248002      19.141632      186.79375    
    303000   1.0480998      19.53096       186.61544    
    304000   0.95001933     18.875649      186.58119    
    305000   1.046636       18.899293      186.47978    
    306000   0.9876109      18.917835      186.41899    
    307000   0.99836264     19.015133      186.40724    
    308000   1.0265912      18.998701      186.0958     
    309000   0.9910947      18.89555       185.84587    
    310000   1.0120673      19.55389       185.64201    
    311000   0.98546479     19.022118      185.51263    
    312000   1.0104985      19.340245      185.34888    
    313000   0.99411281     18.914315      185.12932    
    314000   0.96110946     18.970003      185.07553    
    315000   0.96622312     19.145935      184.79876    
    316000   0.99469155     18.658249      184.46714    
    317000   0.98969747     19.369018      184.25032    
    318000   1.0310453      18.733698      184.04711    
    319000   0.99740478     18.998045      184.08994    
    320000   1.0024074      19.099021      184.02254    
    321000   0.99190412     18.901956      183.92506    
    322000   1.0206837      18.859055      183.59653    
    323000   1.0244262      19.119603      183.43257    
    324000   0.99858427     18.703596      183.38142    
    325000   0.99086475     19.265498      183.24066    
    326000   0.98760115     18.974398      183.09368    
    327000   0.99401        18.454231      183.08876    
    328000   1.0412143      19.024804      183.04965    
    329000   1.0022757      18.870615      182.82226    
    330000   0.97672602     18.888784      182.60227    
    331000   1.0044652      19.504673      182.44684    
    332000   0.97951599     19.068577      182.48895    
    333000   1.0007853      18.405906      182.06357    
    334000   0.99094863     18.889271      182.04033    
    335000   0.96999228     19.158747      181.79201    
    336000   1.0097895      19.383158      181.57874    
    337000   1.0024421      18.918485      181.43788    
    338000   0.9548632      18.859167      181.15031    
    339000   0.96405279     18.991352      181.03118    
    340000   0.99191765     18.970759      180.98841    
    341000   1.0097876      19.068132      180.86427    
    342000   1.0582629      18.796626      180.7491     
    343000   0.9835287      19.05653       180.82654    
    344000   0.99806589     18.98853       180.61315    
    345000   0.98540487     19.483444      180.60982    
    346000   1.0003834      19.450329      180.29913    
    347000   0.97449104     19.40078       180.21315    
    348000   0.98752293     18.831049      180.21806    
    349000   1.0521798      19.057791      179.96837    
    350000   0.99578001     19.073046      180.18988    
    351000   1.0184461      19.380302      180.12534    
    352000   0.98880477     18.50636       180.09447    
    353000   0.95981305     18.659823      179.6905     
    354000   1.0094836      18.937803      179.5826     
    355000   1.0140427      18.768301      179.75171    
    356000   1.0116964      19.072249      179.83001    
    357000   1.0105445      18.591983      179.5799     
    358000   1.005354       18.623785      179.50447    
    359000   0.94490841     18.991587      179.20443    
    360000   1.0185807      19.416668      179.09434    
    361000   0.95273908     18.7679        179.1315     
    362000   0.99962407     19.028756      179.15529    
    363000   1.029159       18.700483      179.20184    
    364000   1.017286       18.82168       178.94093    
    365000   1.0031088      18.668751      178.76166    
    366000   0.96344181     18.796284      178.44195    
    367000   1.0109188      18.804229      178.35526    
    368000   0.97044427     19.133635      178.03618    
    369000   0.95726621     18.520158      178.07651    
    370000   0.98544977     18.401526      178.21353    
    371000   1.0408005      18.240793      178.11528    
    372000   1.0481003      19.392783      177.92915    
    373000   0.99684267     18.969577      177.50227    
    374000   0.99130496     18.40692       177.52074    
    375000   0.98709194     18.811315      177.24698    
    376000   1.0118944      18.835755      177.18122    
    377000   0.97295442     18.280143      177.17546    
    378000   0.94048942     18.619442      177.19511    
    379000   0.97170718     18.150361      177.11301    
    380000   1.0139672      18.977184      177.04324    
    381000   0.99049668     18.813769      176.87365    
    382000   1.0416508      19.003429      176.91474    
    383000   0.97561378     18.581875      176.69817    
    384000   0.97432586     18.826818      176.73718    
    385000   1.0035427      19.036324      176.80089    
    386000   1.0525209      18.849189      176.61261    
    387000   1.0283801      18.645606      176.27774    
    388000   0.99255625     18.601537      176.10597    
    389000   0.99996408     19.329162      176.09018    
    390000   1.0374948      19.445493      176.22281    
    391000   0.98696017     18.953173      176.23608    
    392000   1.0201223      19.048731      176.27624    
    393000   1.0012469      18.847662      176.28207    
    394000   0.93947275     18.263005      176.21634    
    395000   1.0063345      18.772962      176.09996    
    396000   0.99956932     18.788859      175.70138    
    397000   1.0314396      19.090018      175.79251    
    398000   1.0314982      19.191367      175.86707    
    399000   1.0174032      19.245704      175.80609    
    400000   0.99988073     19.088234      175.72006    
    401000   0.97393139     19.010771      175.8511     
    402000   0.99411279     19.156388      175.54576    
    403000   1.00034        18.969832      175.35414    
    404000   1.016711       19.26768       175.31435    
    405000   0.94475796     18.770709      175.07173    
    406000   0.97429721     18.853691      174.76517    
    407000   1.0077127      19.058004      174.5807     
    408000   1.0041264      18.602026      174.56919    
    409000   1.0243612      18.907582      174.48537    
    410000   0.92852252     17.868188      174.30891    
    411000   0.99207834     18.271393      174.24372    
    412000   0.96215127     19.060369      173.97915    
    413000   1.0305621      18.916012      173.78817    
    414000   1.0105319      18.46063       173.71822    
    415000   0.9807874      18.330622      173.53675    
    416000   0.99460318     18.896923      173.26477    
    417000   1.0041327      18.572445      173.0979     
    418000   0.99307564     19.031045      173.07109    
    419000   0.98598469     18.872212      173.03111    
    420000   0.98213816     18.765092      172.80884    
    421000   0.97799934     18.96067       172.67546    
    422000   0.97795772     18.27867       172.68666    
    423000   1.0052173      18.716304      172.28401    
    424000   0.99207319     18.780967      172.31559    
    425000   0.96153996     18.681961      172.4269     
    426000   1.0066394      18.920977      172.0991     
    427000   0.95568207     19.24022       172.13486    
    428000   1.0064346      18.519179      171.99457    
    429000   0.96885878     18.524566      172.10089    
    430000   1.0384215      19.058156      172.09374    
    431000   1.0672305      18.950498      172.11363    
    432000   1.0044697      19.243571      172.08595    
    433000   0.99429662     19.030893      172.01722    
    434000   1.0019084      18.88166       171.86629    
    435000   0.99338695     18.465488      171.70833    
    436000   1.0254999      18.557379      171.75298    
    437000   1.0402467      19.297496      171.55568    
    438000   1.0097253      18.948077      171.67832    
    439000   1.0054787      18.823385      171.41237    
    440000   1.0542339      19.765144      171.11342    
    441000   0.99738826     18.204066      170.97733    
    442000   1.0064288      19.021063      170.64515    
    443000   0.9945428      18.994058      170.38692    
    444000   0.99132121     18.80719       170.0221     
    445000   0.99459055     19.086204      169.86883    
    446000   1.0204537      18.655688      169.79173    
    447000   0.98935317     18.832705      169.48902    
    448000   0.9859013      18.762734      169.35964    
    449000   1.0430104      18.912251      169.10023    
    450000   0.9937265      18.895122      169.10071    
    451000   1.0243311      18.991628      168.845      
    452000   0.95568741     18.694353      168.68338    
    453000   1.0015635      18.770268      168.53484    
    454000   1.0017981      19.493173      168.4117     
    455000   0.99040119     18.9897        168.45526    
    456000   1.0237343      18.598783      168.44793    
    457000   0.98588628     18.638432      168.44609    
    458000   0.9979021      19.048042      168.35288    
    459000   1.026412       18.992763      168.15973    
    460000   1.0077483      18.519919      167.98776    
    461000   0.95259402     18.516929      168.26456    
    462000   1.0485226      18.833603      168.20873    
    463000   1.0175966      18.086605      168.12227    
    464000   0.95040855     18.884939      168.2483     
    465000   1.0032251      18.317406      168.27895    
    466000   0.98817476     18.989031      168.08587    
    467000   1.0104866      18.363264      167.80069    
    468000   1.036376       18.93657       167.76399    
    469000   1.000271       18.64691       167.46868    
    470000   1.0423347      18.496516      167.29954    
    471000   1.0257307      19.469401      167.1068     
    472000   1.0048161      18.599477      166.72165    
    473000   0.99006536     18.480173      166.7642     
    474000   0.93070852     19.25496       166.96156    
    475000   1.0227761      18.721224      166.84221    
    476000   0.95480462     18.70494       166.51359    
    477000   1.0084487      18.605405      166.40488    
    478000   1.0175786      19.283792      166.2922     
    479000   0.99407138     18.687703      166.1055     
    480000   0.98569676     19.281586      166.23849    
    481000   1.0414297      18.655217      165.96225    
    482000   0.98888007     18.748431      165.76141    
    483000   0.97520108     18.708296      165.61381    
    484000   0.99699169     18.708498      165.46548    
    485000   1.011115       18.882388      165.24437    
    486000   1.008676       18.160635      164.92219    
    487000   0.98130152     18.99798       164.8481     
    488000   1.0094226      18.610688      164.85247    
    489000   0.98505779     18.564836      164.64341    
    490000   1.0199241      18.369903      164.52024    
    491000   1.0787313      18.929654      164.35438    
    492000   1.0163966      18.8259        164.3483     
    493000   0.98641234     18.989316      164.16801    
    494000   0.98223138     18.283746      164.07671    
    495000   0.94263236     18.437317      164.10397    
    496000   0.97129726     18.587456      163.85314    
    497000   0.97471457     18.334933      163.62972    
    498000   0.97256563     18.511702      163.64797    
    499000   1.0302615      19.293814      163.73317    
    500000   1.0568476      18.406767      163.61849    
    501000   0.97755502     18.612995      163.3846     
    502000   1.0368147      18.365792      163.2854     
    503000   1.0133112      19.466855      163.27836    
    504000   1.0143721      19.07854       163.28277    
    505000   0.98568363     18.355752      163.25356    
    506000   1.003276       18.509021      163.09297    
    507000   0.96867203     18.463018      163.24787    
    508000   0.98807055     19.155517      163.30224    
    509000   0.971315       18.718575      163.21902    
    510000   0.99981268     18.98637       163.08499    
    511000   1.0111478      18.691096      163.08573    
    512000   0.95762799     19.343172      162.90212    
    513000   1.008985       18.875798      162.86339    
    514000   1.0011618      18.567637      162.72949    
    515000   1.0109338      18.850071      162.62741    
    516000   0.97378787     18.679854      162.75303    
    517000   1.008096       18.852928      162.8453     
    518000   0.99244375     18.855641      162.78187    
    519000   0.99393774     18.609507      162.46689    
    520000   0.99319435     18.254417      162.24545    
    521000   0.96351034     18.344997      161.92743    
    522000   0.93201637     18.442655      161.73242    
    523000   1.0501324      18.885752      161.49866    
    524000   0.98527696     18.385873      161.35382    
    525000   1.0059919      18.332638      161.21961    
    526000   0.97681375     18.553871      161.14339    
    527000   0.95461711     19.151193      161.12933    
    528000   0.95272225     18.447057      161.0961     
    529000   1.0542925      19.152842      160.89149    
    530000   1.0121798      19.151347      160.67967    
    531000   0.9791227      18.601961      160.67822    
    532000   0.96743602     18.736851      160.61131    
    533000   0.95828369     18.253972      160.30783    
    534000   0.99124906     18.790608      160.19631    
    535000   1.0479956      18.882958      160.00547    
    536000   0.98239255     18.383422      159.79266    
    537000   1.0262604      18.628684      159.59003    
    538000   1.0259525      18.750104      159.41883    
    539000   0.94235027     18.717402      159.37122    
    540000   0.97560797     19.139572      159.26902    
    541000   0.96782651     18.614492      159.35393    
    542000   1.0074824      18.506313      159.0572     
    543000   1.0373062      18.472108      158.91235    
    544000   0.99223952     18.553978      158.82045    
    545000   0.96273092     18.755367      158.75248    
    546000   1.0200542      18.880364      158.6094     
    547000   0.98027143     18.383508      158.55069    
    548000   1.019789       18.994352      158.59618    
    549000   0.99854829     19.423093      158.40446    
    550000   1.0253831      18.811144      158.5423     
    551000   0.96586751     18.809949      158.43245    
    552000   1.0110373      18.470013      158.29578    
    553000   1.0216364      18.449226      158.01318    
    554000   0.99663105     18.914031      157.82739    
    555000   1.0017659      19.376747      157.64876    
    556000   0.970822       18.365198      157.62437    
    557000   0.97080053     18.430471      157.45733    
    558000   1.0248399      18.96365       157.32936    
    559000   0.9755003      18.669876      157.26801    
    560000   0.98592378     19.013603      156.95615    
    561000   1.0414478      18.955085      156.75196    
    562000   0.96489681     18.749795      156.82019    
    563000   0.99883271     19.404903      156.80973    
    564000   1.0116001      18.747678      156.6039     
    565000   0.98882942     18.654664      156.54823    
    566000   1.023041       19.088956      156.45252    
    567000   0.99285005     18.669229      156.26298    
    568000   1.0497526      18.4022        155.92612    
    569000   0.97326802     18.996916      155.98184    
    570000   1.0291554      18.931573      156.00778    
    571000   0.98661276     18.813441      155.94809    
    572000   0.98314776     19.956498      155.90313    
    573000   1.0089616      18.713563      155.82205    
    574000   1.043983       18.976658      155.59661    
    575000   1.0269864      19.599903      155.32127    
    576000   1.0209215      19.078728      154.988      
    577000   1.0077049      18.630884      154.9072     
    578000   1.0110203      18.700985      154.81956    
    579000   1.0098987      18.816735      154.77869    
    580000   1.030501       18.056189      154.85246    
    581000   0.97886114     19.193259      154.78567    
    582000   0.9988399      18.71874       154.47095    
    583000   0.97268724     18.815466      154.41659    
    584000   1.0205705      18.978246      154.6179     
    585000   1.0184331      18.704359      154.37961    
    586000   0.98729076     19.112598      154.21401    
    587000   1.0406206      18.76412       154.20173    
    588000   0.97590849     18.663906      153.95587    
    589000   1.0145911      19.146269      153.89191    
    590000   0.9721423      19.028683      153.71373    
    591000   0.99570779     19.297668      153.75535    
    592000   0.99308443     19.0901        153.8084     
    593000   0.93068347     18.749772      153.88612    
    594000   1.0118537      18.918573      153.5291     
    595000   1.0040179      18.229539      153.28083    
    596000   0.98483612     18.439263      153.19187    
    597000   0.98113485     18.752826      153.14709    
    598000   0.99658207     19.051424      153.23267    
    599000   1.0114505      18.927846      153.07225    
    600000   0.99228669     18.60598       152.85307    
    601000   0.96964146     18.423404      152.54474    
    602000   1.0152388      18.731115      152.36927    
    603000   1.0178221      18.74636       152.2635     
    604000   1.0129118      19.036274      152.03318    
    605000   0.99312084     18.70662       152.08034    
    606000   0.99576304     18.482536      151.81888    
    607000   0.94718651     18.869419      151.71518    
    608000   1.0439983      19.147639      151.36457    
    609000   1.0330021      18.796705      151.47828    
    610000   1.0188167      19.198924      151.17613    
    611000   0.95274017     18.63034       151.11699    
    612000   0.99935265     18.873685      150.90971    
    613000   1.0211273      19.051627      150.7512     
    614000   1.0336875      19.496793      150.6337     
    615000   1.019592       19.21308       150.57279    
    616000   1.0362628      18.685521      150.51676    
    617000   1.0261242      19.018573      150.4648     
    618000   1.031935       18.7839        150.28198    
    619000   1.0111032      18.996884      150.20256    
    620000   1.0337365      18.752636      150.27007    
    621000   1.0242332      18.291462      150.33812    
    622000   1.0079477      18.794921      150.31809    
    623000   0.99915653     18.265791      150.24744    
    624000   1.0202783      18.267818      150.19019    
    625000   1.0189539      18.840063      150.08755    
    626000   1.0387702      18.67918       150.12895    
    627000   0.97818198     18.784751      149.61652    
    628000   0.99766363     18.885054      149.50988    
    629000   1.0084174      18.583056      149.35414    
    630000   1.0135122      18.500802      149.23733    
    631000   0.98391912     19.153962      149.10547    
    632000   1.0657309      19.173052      148.79442    
    633000   1.0174502      18.829614      148.75955    
    634000   1.0320487      18.778992      148.89978    
    635000   0.98754932     18.342664      148.62311    
    636000   0.95358508     18.551508      148.645      
    637000   0.98039292     18.56161       148.8458     
    638000   0.93496548     18.600617      148.70784    
    639000   0.98867043     19.072474      148.63586    
    640000   0.97600727     18.992728      148.26572    
    641000   1.0164989      18.598407      148.04721    
    642000   0.99786187     18.672069      147.96208    
    643000   0.97017498     18.466898      147.86776    
    644000   0.96298846     18.552044      147.66523    
    645000   0.96266266     18.375438      147.64464    
    646000   1.0197256      18.697859      147.54065    
    647000   1.0010805      18.601454      147.44283    
    648000   1.0549421      19.391193      147.44367    
    649000   0.99384036     18.190729      147.36813    
    650000   0.98045909     18.609118      147.14102    
    651000   1.0264679      18.624477      147.0328     
    652000   0.99127491     18.800011      146.74579    
    653000   1.0263203      18.519017      146.3817     
    654000   1.0221948      18.493978      146.18372    
    655000   0.98703412     18.401744      146.151      
    656000   1.0802446      19.045819      145.96402    
    657000   1.0051562      18.844636      145.89746    
    658000   1.002359       18.021417      145.73996    
    659000   1.0490169      18.22888       145.73584    
    660000   1.0219618      18.523545      145.6463     
    661000   0.98281643     19.133071      145.45378    
    662000   0.98216658     18.253801      145.54505    
    663000   1.0148515      18.196121      145.50301    
    664000   1.0209259      18.995146      145.26827    
    665000   0.98019301     18.854745      144.96666    
    666000   1.006635       18.474944      144.95722    
    667000   1.0426534      18.43105       144.94815    
    668000   1.0483845      18.266468      144.76048    
    669000   0.95651109     18.8313        144.6967     
    670000   0.98681053     19.321559      144.57247    
    671000   1.0185784      18.010624      144.42813    
    672000   1.0339785      18.920008      144.56791    
    673000   1.0276129      19.109691      144.4264     
    674000   0.98869309     18.92135       144.4067     
    675000   1.0009124      18.895264      144.41803    
    676000   1.0184601      18.18622       144.14643    
    677000   1.0281272      18.43185       144.05633    
    678000   0.98615626     18.691035      143.71237    
    679000   1.0239899      18.822225      143.64881    
    680000   1.0092677      18.178498      143.54203    
    681000   0.98527272     18.642203      143.61741    
    682000   1.0250024      18.20229       143.75605    
    683000   0.97273691     18.219244      143.75079    
    684000   0.99627961     18.567384      143.81562    
    685000   0.96827769     18.742795      143.92005    
    686000   1.0362407      18.701748      143.8368     
    687000   1.0095611      19.144555      143.65643    
    688000   0.96433855     18.464201      143.56818    
    689000   0.99952868     18.387371      143.16097    
    690000   0.97076974     17.791678      142.99914    
    691000   0.9862491      18.390338      143.0205     
    692000   1.0195306      18.762755      143.10622    
    693000   1.0205309      18.274569      142.9189     
    694000   1.0008225      18.628014      143.02931    
    695000   0.98713036     18.668467      143.0096     
    696000   1.0321646      18.883844      142.95407    
    697000   1.034083       18.585672      143.01093    
    698000   1.033974       18.527165      142.84429    
    699000   0.97845115     18.442525      142.67943    
    700000   0.99344829     18.016511      142.56287    
    701000   1.0308746      18.510975      142.41056    
    702000   1.0106861      19.018747      142.37245    
    703000   1.0157615      18.207524      142.1565     
    704000   0.96471533     17.735061      141.83343    
    705000   1.0198325      18.916009      141.59563    
    706000   1.0278744      18.535065      141.39519    
    707000   0.97514769     19.037882      141.30605    
    708000   1.0059783      18.623727      141.29089    
    709000   0.98053454     18.769619      141.40091    
    710000   0.99858633     18.244217      141.13548    
    711000   0.9769581      18.303717      141.31467    
    712000   1.0395261      18.212332      141.16311    
    713000   0.96552306     18.741156      141.21859    
    714000   1.0054633      18.629593      141.15318    
    715000   0.9642564      18.993378      141.0954     
    716000   1.0142976      19.134315      141.23699    
    717000   0.98924835     18.636041      140.94145    
    718000   0.97440007     18.287787      141.03292    
    719000   0.95352338     18.048645      141.12928    
    720000   1.0015044      19.0068        140.90386    
    721000   1.0180384      19.235522      140.92772    
    722000   0.98834257     18.094644      140.95956    
    723000   0.97838249     17.991507      140.71872    
    724000   0.98058831     18.341038      140.72238    
    725000   1.0175094      18.829651      140.38302    
    726000   0.96148207     18.745785      140.25898    
    727000   1.0392576      18.955145      140.02165    
    728000   0.99685477     18.748426      139.84276    
    729000   1.0525093      18.814126      139.88567    
    730000   1.0019553      18.446242      139.76497    
    731000   0.99244155     18.876623      139.80929    
    732000   0.9793416      19.038011      139.53746    
    733000   1.0052824      18.400238      139.39599    
    734000   1.0103672      18.699073      139.31466    
    735000   1.0162754      18.290091      139.13466    
    736000   0.99675307     18.467951      138.90901    
    737000   1.0287473      19.229398      138.81027    
    738000   0.97113766     18.588716      138.88227    
    739000   0.98746171     18.622133      138.71716    
    740000   1.0271648      18.447522      138.60862    
    741000   1.037988       18.853616      138.47514    
    742000   1.0479587      18.696727      138.42679    
    743000   0.95575862     18.524373      138.25907    
    744000   1.0118619      19.058771      138.11919    
    745000   1.0454297      18.560626      138.02428    
    746000   1.0058213      18.495655      137.91471    
    747000   0.96029881     18.31164       137.787      
    748000   0.98313353     18.253196      137.74491    
    749000   0.99144158     18.70103       137.65475    
    750000   1.0146029      18.157042      137.65286    
    751000   1.0154082      18.548041      137.3189     
    752000   1.0010343      18.253274      137.36216    
    753000   0.98365874     18.819937      137.26354    
    754000   1.0106248      18.403247      137.23785    
    755000   1.0395928      18.776172      137.25442    
    756000   1.0448186      19.048983      137.05829    
    757000   1.0203606      18.225796      136.93493    
    758000   1.0007853      18.367295      136.77375    
    759000   0.94029927     18.578886      136.70264    
    760000   1.0562388      18.185595      136.70282    
    761000   1.044933       18.812672      136.34216    
    762000   0.97843835     18.797679      136.25075    
    763000   0.98344271     18.244798      136.00051    
    764000   0.93886692     18.490985      135.91954    
    765000   1.0307109      18.67489       135.66846    
    766000   0.99205136     18.122105      135.78799    
    767000   0.970881       18.273833      135.97708    
    768000   0.97540519     18.630436      136.01773    
    769000   1.0087762      18.455176      136.06249    
    770000   0.96694835     18.821212      135.81778    
    771000   0.94615343     18.571129      135.86066    
    772000   1.0047805      18.826275      135.67888    
    773000   1.0322433      18.436016      135.47174    
    774000   0.95430678     18.943949      135.18575    
    775000   1.0012874      18.351701      135.12686    
    776000   0.99200876     17.844528      134.68248    
    777000   0.96090329     18.640641      134.79009    
    778000   0.98770247     19.074226      134.93714    
    779000   0.93394749     17.964579      134.95433    
    780000   1.0004841      18.426354      135.00019    
    781000   0.99414311     18.959515      134.76154    
    782000   1.0386472      18.840815      134.79405    
    783000   1.0430959      18.662597      134.61106    
    784000   1.0370657      18.472635      134.68073    
    785000   0.98915125     19.048237      134.56923    
    786000   1.0542637      18.524197      134.4095     
    787000   0.96562747     18.359128      134.3482     
    788000   1.0169747      18.236452      134.36453    
    789000   0.98109904     18.396123      134.49717    
    790000   1.0271502      18.819495      134.45857    
    791000   1.0297829      18.79461       134.4571     
    792000   0.9846273      18.268917      134.35059    
    793000   0.99857942     18.570225      134.30251    
    794000   1.0324726      18.079992      134.12721    
    795000   1.0317142      18.084671      134.04651    
    796000   0.96428556     18.644451      133.94171    
    797000   1.0150673      18.24345       133.88896    
    798000   1.0212888      18.665186      133.89094    
    799000   0.99512708     19.00576       133.62978    
    800000   0.98074002     18.450066      133.499      
    801000   1.0291514      18.211806      133.58458    
    802000   1.0342241      19.338381      133.09998    
    803000   0.95625354     17.910136      132.95519    
    804000   0.99231095     18.680731      133.06001    
    805000   0.98371445     18.078256      132.90576    
    806000   0.98778211     18.252895      132.94596    
    807000   1.0004062      18.671578      133.19884    
    808000   0.98375261     18.24534       133.18492    
    809000   1.0239315      18.588853      133.1644     
    810000   0.98955921     18.503857      133.039      
    811000   0.965761       18.790625      132.86038    
    812000   0.99322598     18.634775      132.8731     
    813000   0.97872036     18.388891      132.81161    
    814000   1.0569677      19.355769      132.60105    
    815000   1.0082783      18.788429      132.38689    
    816000   0.99044445     18.50986       132.28868    
    817000   0.997364       18.84725       132.25895    
    818000   1.0020321      18.283156      132.40247    
    819000   1.0043152      18.553639      132.19444    
    820000   0.99222133     18.300604      132.04895    
    821000   1.0152446      18.444364      131.98567    
    822000   1.0036153      18.393855      131.85011    
    823000   1.0040016      18.235582      131.87873    
    824000   1.0148632      18.446752      132.20657    
    825000   1.0382092      18.45649       132.07877    
    826000   1.0103708      18.717888      131.93005    
    827000   1.0316911      19.191714      131.84307    
    828000   1.00792        18.921849      131.99663    
    829000   0.99892379     18.126508      131.87447    
    830000   1.0376065      19.200315      131.7412     
    831000   1.0002382      17.622622      131.54649    
    832000   1.0087869      18.542364      131.41504    
    833000   0.9726836      18.794531      131.30372    
    834000   0.95961699     18.278216      131.16144    
    835000   0.96483722     18.756594      131.14607    
    836000   1.0257696      18.362744      131.03755    
    837000   1.0174019      18.548187      130.84998    
    838000   1.0031654      18.388784      130.9227     
    839000   1.0299271      18.887004      130.88264    
    840000   1.0161921      18.308665      130.88684    
    841000   0.97288774     18.924718      130.66198    
    842000   1.0390774      18.511567      130.72838    
    843000   0.93798979     18.466649      130.65746    
    844000   1.0187767      18.60191       130.63134    
    845000   1.0238133      18.705158      130.56174    
    846000   1.0074171      18.628067      130.47861    
    847000   1.0257229      18.686111      130.38069    
    848000   1.0256772      18.59327       130.22435    
    849000   0.98538103     18.525173      130.12841    
    850000   1.0208242      18.834771      129.9122     
    851000   1.0552851      18.744147      129.87044    
    852000   0.99556694     18.316256      129.6469     
    853000   0.96924115     18.416355      129.39671    
    854000   0.98795291     18.989134      129.19549    
    855000   0.97264305     18.404702      128.86773    
    856000   0.98793431     18.134414      128.9653     
    857000   1.0245909      18.587771      128.77867    
    858000   0.9932554      18.2466        128.80024    
    859000   0.96654395     18.211241      128.51322    
    860000   1.014724       18.880694      128.76808    
    861000   1.0226414      18.508117      128.53297    
    862000   1.0174172      18.448691      128.50513    
    863000   0.97009923     18.259173      128.49088    
    864000   1.0025918      18.584971      128.43       
    865000   0.96815565     18.384941      128.23956    
    866000   0.992006       18.087348      128.05888    
    867000   0.98179073     18.354181      127.98415    
    868000   0.94434952     18.25966       127.76003    
    869000   1.0518134      19.099273      127.68763    
    870000   1.0446722      19.036456      127.71292    
    871000   1.0029962      18.163554      127.66045    
    872000   0.97684776     18.495699      127.84127    
    873000   1.0232444      17.946358      127.5531     
    874000   1.017663       18.676638      127.25829    
    875000   1.0344706      18.260408      127.42246    
    876000   0.950024       18.119448      127.26803    
    877000   1.01999        18.51459       127.18156    
    878000   1.0407197      18.630186      127.03805    
    879000   1.011902       18.703334      126.621      
    880000   0.97997964     18.178933      126.35332    
    881000   0.98977354     18.15761       126.12894    
    882000   1.0100433      18.017435      125.94091    
    883000   0.99921301     18.53056       125.81503    
    884000   0.96609024     18.203166      125.84214    
    885000   0.96256277     18.26848       125.63102    
    886000   1.0144721      18.736941      125.64347    
    887000   0.97248913     18.122585      125.6927     
    888000   1.0119753      18.177015      125.63218    
    889000   1.0077297      18.714229      125.71726    
    890000   1.0021815      18.604014      125.62044    
    891000   0.97281641     18.557697      125.63504    
    892000   0.98133686     18.253669      125.63648    
    893000   0.97162174     18.808858      125.55458    
    894000   0.99344323     18.725933      125.51222    
    895000   0.98121183     18.100834      125.16098    
    896000   1.0299323      18.186102      125.11889    
    897000   1.0307327      18.5157        124.89607    
    898000   1.0006623      18.416722      124.76993    
    899000   0.97627614     18.233376      124.58725    
    900000   1.0084812      18.255906      124.21281    
    901000   1.0344534      18.736915      124.0252     
    902000   1.0158273      19.13257       124.07919    
    903000   0.99254737     17.948668      123.91703    
    904000   0.99919493     18.419899      123.66123    
    905000   0.97871989     18.305319      123.30611    
    906000   0.984158       18.531215      123.29705    
    907000   0.98568483     18.758843      123.14781    
    908000   0.96170442     18.766073      123.12278    
    909000   0.99535157     18.354107      123.07372    
    910000   0.97171961     18.666612      122.9398     
    911000   0.96637266     18.287626      122.91047    
    912000   0.99093635     18.458969      123.08399    
    913000   1.0151649      18.692369      122.66334    
    914000   0.98194514     18.342959      122.61675    
    915000   0.97563955     18.419957      122.43955    
    916000   1.0276912      18.094547      122.22593    
    917000   0.98499673     18.134932      122.39819    
    918000   1.0182739      18.600734      122.28903    
    919000   0.98974028     18.52171       122.33742    
    920000   0.96783739     18.343524      122.42052    
    921000   0.97197601     18.26069       122.49569    
    922000   1.0366257      18.589268      122.32626    
    923000   0.97906362     18.825243      122.19155    
    924000   0.95969581     18.408447      121.89441    
    925000   0.97986769     17.777435      121.90148    
    926000   0.99653111     18.476556      121.80543    
    927000   0.99135966     17.908623      121.65923    
    928000   1.0306707      18.340733      121.66931    
    929000   0.99341356     18.198326      121.65528    
    930000   0.98414683     18.151556      121.60942    
    931000   1.0169489      18.049072      121.62796    
    932000   0.99868665     18.143344      121.56971    
    933000   0.9879694      18.356087      121.32743    
    934000   0.98349611     18.377867      121.30691    
    935000   0.99402636     18.665767      121.40473    
    936000   1.0176447      18.397947      121.38265    
    937000   1.0119862      18.042952      121.29439    
    938000   1.0102379      18.870683      121.36703    
    939000   0.98413737     18.498311      121.25686    
    940000   1.0562692      18.345861      121.20883    
    941000   0.96766794     18.348038      121.10838    
    942000   1.0163421      18.88005       121.21942    
    943000   1.0005941      19.141221      121.14669    
    944000   1.0289832      18.313157      121.12616    
    945000   0.96340914     17.782334      121.15581    
    946000   1.0336147      18.495091      121.0648     
    947000   0.99732162     18.37792       120.99285    
    948000   0.97184971     18.209921      120.95426    
    949000   1.0138496      18.714241      120.70105    
    950000   0.98643345     17.58549       120.52207    
    951000   0.96302529     18.125409      120.37102    
    952000   1.0220162      18.62977       120.28004    
    953000   0.95868568     17.851513      120.06983    
    954000   0.98270756     18.58102       119.87468    
    955000   0.96739208     18.425635      119.87571    
    956000   0.97528719     18.411327      120.07225    
    957000   0.991602       18.88663       120.03478    
    958000   1.0080742      17.781571      119.89315    
    959000   1.029011       18.842368      119.76901    
    960000   1.0339908      18.662828      119.44528    
    961000   1.0621795      18.960226      119.23268    
    962000   1.036509       18.577261      119.27129    
    963000   1.0067787      17.662048      119.32616    
    964000   1.0162324      18.224778      119.05753    
    965000   0.97385902     18.156144      118.99614    
    966000   0.9548685      17.877595      118.55339    
    967000   1.0164505      18.523813      118.46802    
    968000   1.0108289      18.173747      118.75027    
    969000   1.0208303      18.516123      118.48942    
    970000   1.0481564      19.201214      118.5267     
    971000   1.0034123      18.338952      118.42462    
    972000   0.98581703     18.490484      118.21244    
    973000   1.0071552      18.512557      118.0371     
    974000   0.98283539     18.705277      117.80862    
    975000   1.0072237      18.186886      117.36092    
    976000   1.021898       18.266628      117.40091    
    977000   0.99322141     18.320039      117.34163    
    978000   0.99251898     18.464648      117.21426    
    979000   1.0305194      18.053569      117.10038    
    980000   0.96306919     18.246644      117.16801    
    981000   0.94416269     18.29357       116.95226    
    982000   0.98790068     18.514631      117.037      
    983000   0.99174894     18.605674      117.06716    
    984000   1.0211728      18.539238      116.98626    
    985000   1.0057643      18.379085      117.02914    
    986000   1.0122348      18.440384      116.86623    
    987000   1.0131087      17.988901      116.80969    
    988000   1.0097485      18.277755      116.7261     
    989000   1.0050465      18.391468      116.67758    
    990000   0.99881631     18.591974      116.52231    
    991000   1.00182        18.011799      116.474      
    992000   0.99018796     18.527778      116.51626    
    993000   0.99068712     17.982806      116.52436    
    994000   1.0253721      18.072557      116.24106    
    995000   1.0129295      18.148855      115.85157    
    996000   0.98368605     18.520433      115.62071    
    997000   1.0146864      18.15352       115.56994    
    998000   1.0156441      18.143235      115.7527     
    999000   1.0368619      19.031833      115.83686    
   1000000   0.96326192     18.238343      116.06484    
   1001000   0.99920019     17.856767      115.96478    
   1002000   1.0101534      18.349475      115.82327    
   1003000   0.97454412     18.499741      115.83773    
   1004000   1.0224545      18.739414      115.7912     
   1005000   1.039703       18.167151      115.57455    
   1006000   0.96995758     17.946443      115.59292    
   1007000   1.0113584      18.774213      115.682      
   1008000   1.0059054      17.95446       115.54633    
   1009000   0.96563589     18.242266      115.51758    
   1010000   0.98844496     18.21564       115.26794    
   1011000   1.0475408      18.245274      115.05694    
   1012000   1.001017       18.354985      114.87495    
   1013000   1.0565411      18.765411      114.77821    
   1014000   0.94525399     18.050759      114.32342    
   1015000   0.96792185     18.262052      114.33272    
   1016000   1.0364357      18.088064      114.26183    
   1017000   1.0338249      18.513255      114.36821    
   1018000   1.0338269      18.258078      114.25336    
   1019000   0.99778822     18.169367      114.21835    
   1020000   0.99583015     17.94221       114.04673    
   1021000   0.97096277     18.42421       113.79811    
   1022000   1.0517671      18.740478      113.84422    
   1023000   0.98478321     18.005943      113.70495    
   1024000   1.0254835      18.423945      113.71087    
   1025000   0.97509235     18.331514      113.41003    
   1026000   1.0126916      18.387975      113.46327    
   1027000   0.9613244      18.184469      113.47616    
   1028000   0.95944767     18.266784      113.31759    
   1029000   0.99720362     17.992617      113.1862     
   1030000   0.94323507     18.228299      113.03902    
   1031000   0.95962332     17.923578      113.06242    
   1032000   1.0016974      19.203622      112.94468    
   1033000   0.99047784     18.273509      112.92329    
   1034000   0.9623738      18.615282      113.07029    
   1035000   0.9787688      18.223526      112.97503    
   1036000   1.0106909      18.127406      113.01679    
   1037000   1.0159843      18.612204      113.07968    
   1038000   0.96475059     18.362866      113.03394    
   1039000   0.9659995      18.47128       112.92641    
   1040000   0.99573325     18.330924      112.90903    
   1041000   1.0472142      18.452217      113.07418    
   1042000   0.97191478     17.977537      113.03205    
   1043000   1.003212       18.127138      112.84513    
   1044000   0.98414914     18.015808      112.80989    
   1045000   1.0290481      18.662493      112.7029     
   1046000   1.0526429      18.52823       112.72334    
   1047000   1.0071473      17.751528      112.75371    
   1048000   0.96545252     17.982229      112.66492    
   1049000   0.97740623     18.568157      112.46284    
   1050000   1.0328798      18.657886      112.53009    
   1051000   1.0033113      18.389097      112.56693    
   1052000   1.0020173      18.379954      112.53534    
   1053000   0.95591894     18.22846       112.48874    
   1054000   1.0268788      17.542058      112.51809    
   1055000   1.01827        18.444139      112.48417    
   1056000   0.99292515     18.559989      112.41279    
   1057000   0.96179313     17.426132      112.44506    
   1058000   1.0373738      17.832613      112.5456     
   1059000   0.97171344     18.319151      112.56656    
   1060000   1.0009208      18.171541      112.49611    
   1061000   1.0147949      18.448489      112.5337     
   1062000   0.94401704     18.168829      112.57609    
   1063000   0.99174874     18.358728      112.36204    
   1064000   1.0242271      17.997466      112.22398    
   1065000   1.0428715      18.720864      112.1441     
   1066000   0.96828977     17.770669      112.16296    
   1067000   1.0079896      17.93747       112.08582    
   1068000   1.0005051      18.473128      111.95284    
   1069000   0.9734528      18.190794      111.8129     
   1070000   1.0240759      18.467466      111.55939    
   1071000   1.0271621      18.149374      111.6353     
   1072000   1.0188689      18.676957      111.49582    
   1073000   0.98339329     18.434294      111.5015     
   1074000   0.98620772     18.302623      111.50139    
   1075000   0.99666388     18.598776      111.3458     
   1076000   0.9652923      18.03044       111.22191    
   1077000   1.0598041      17.836085      111.13817    
   1078000   0.99951731     19.014707      110.92844    
   1079000   1.0142629      17.850093      111.04273    
   1080000   1.0312532      18.051316      110.7031     
   1081000   0.98831413     17.920195      110.41062    
   1082000   1.0532067      18.580189      110.32022    
   1083000   0.98848571     18.386293      110.19214    
   1084000   1.0152809      18.523203      110.17411    
   1085000   1.0193353      18.336436      109.96412    
   1086000   1.0253565      18.918409      110.02792    
   1087000   1.0039354      18.700647      110.24655    
   1088000   0.99798155     18.376857      110.27558    
   1089000   0.9710577      18.008033      110.2954     
   1090000   0.94180855     18.165679      110.26039    
   1091000   1.0045608      18.517232      110.20532    
   1092000   1.0148677      19.08842       110.08519    
   1093000   0.97487318     18.335423      110.18048    
   1094000   0.98451297     18.387488      109.96013    
   1095000   1.0073711      18.4653        110.0408     
   1096000   1.0124956      18.509571      110.10817    
   1097000   1.0139661      18.11089       110.1524     
   1098000   1.0404484      18.7959        110.1007     
   1099000   1.012496       18.275957      110.13303    
   1100000   0.94336144     18.632363      110.1764     
   1101000   1.0633432      18.301715      110.101      
   1102000   1.0471665      18.181689      110.17564    
   1103000   0.99315984     17.952606      110.04223    
   1104000   1.0343341      18.397216      109.90996    
   1105000   1.0007508      17.91834       109.80823    
   1106000   1.0058105      18.345333      109.76086    
   1107000   1.0316424      18.349098      109.71053    
   1108000   1.0043617      17.964166      109.75071    
   1109000   0.98382072     18.043811      109.65025    
   1110000   0.97703695     18.641463      109.41604    
   1111000   0.9831885      17.654192      109.27362    
   1112000   1.0275933      18.632639      109.41395    
   1113000   0.9830204      18.056692      109.2805     
   1114000   1.0317646      17.712398      109.03992    
   1115000   0.96390206     18.220689      109.01138    
   1116000   1.0558735      18.708981      108.87985    
   1117000   0.99808825     17.86191       108.62297    
   1118000   1.0319496      18.587315      108.58239    
   1119000   0.99535978     18.879797      108.48272    
   1120000   1.0125907      18.522961      108.48626    
   1121000   1.0402844      18.430109      108.31346    
   1122000   0.95700425     17.926264      107.94007    
   1123000   0.98324592     18.02071       108.05904    
   1124000   1.0173818      18.254772      107.9361     
   1125000   1.0057164      17.810385      107.79246    
   1126000   1.0170903      18.468246      107.52863    
   1127000   1.0176444      18.724707      107.34419    
   1128000   0.98906827     18.518294      107.18256    
   1129000   1.002927       18.334604      107.16552    
   1130000   0.95379194     17.916149      106.89998    
   1131000   1.0125981      18.282723      107.02385    
   1132000   0.99080502     17.85454       106.9318     
   1133000   0.95806521     18.134154      106.66361    
   1134000   0.9906487      17.748277      106.47255    
   1135000   1.014003       18.657041      106.07755    
   1136000   1.0039745      18.636118      105.9181     
   1137000   0.99256712     18.215796      105.72781    
   1138000   0.98605482     18.536665      105.7199     
   1139000   1.0331011      17.627359      105.72132    
   1140000   1.0416661      17.864709      105.52654    
   1141000   0.97524372     18.028041      105.57938    
   1142000   0.98140059     18.213408      105.48916    
   1143000   1.0335253      18.149651      105.366      
   1144000   1.0270166      17.884848      105.50108    
   1145000   0.99268374     18.108452      105.37737    
   1146000   1.0357793      18.175199      105.63206    
   1147000   1.0019898      18.084844      105.53179    
   1148000   0.99651621     18.227215      105.43413    
   1149000   1.0412919      18.371294      105.48877    
   1150000   1.0006703      18.322548      105.56015    
   1151000   0.98449754     17.967579      105.46532    
   1152000   1.016877       17.997275      105.4753     
   1153000   0.97580439     18.209009      105.44457    
   1154000   0.95665325     18.312671      105.28317    
   1155000   1.0523501      17.777665      105.14659    
   1156000   0.95398456     17.827196      105.22678    
   1157000   1.0231692      17.933832      105.34035    
   1158000   1.0245796      18.210522      105.14983    
   1159000   0.98528515     17.988766      105.17745    
   1160000   0.98781836     17.704646      105.13172    
   1161000   0.94978853     17.817936      104.80485    
   1162000   0.97207349     17.823896      104.62524    
   1163000   1.047483       18.190531      104.23696    
   1164000   1.0083135      18.16465       103.97739    
   1165000   0.97997287     17.838092      103.92346    
   1166000   0.96843651     17.396351      103.77534    
   1167000   1.0187989      18.271908      103.52336    
   1168000   1.0818995      18.197605      103.36377    
   1169000   0.99159109     17.667         103.21808    
   1170000   0.96362839     19.136914      102.89729    
   1171000   1.0038649      17.900552      102.74723    
   1172000   1.0396372      18.038331      102.56684    
   1173000   1.0125611      18.135609      102.30064    
   1174000   0.98765324     17.521679      102.186      
   1175000   0.99439687     17.77145       102.07717    
   1176000   0.93589853     18.171783      102.00507    
   1177000   0.94798974     17.840155      101.99649    
   1178000   1.0042195      18.03057       101.90175    
   1179000   0.99480544     17.751413      102.01112    
   1180000   1.028938       17.862779      101.98125    
   1181000   1.0348665      17.641033      102.07138    
   1182000   0.98212379     18.334324      101.99691    
   1183000   1.0248105      18.25369       102.02366    
   1184000   1.0268961      18.125987      101.92876    
   1185000   1.0358516      17.877845      101.47503    
   1186000   0.99552462     18.127123      101.19174    
   1187000   1.0075687      17.289719      101.10958    
   1188000   1.065029       17.874131      101.11295    
   1189000   0.99499776     17.370626      100.85457    
   1190000   0.98768276     17.722653      100.67244    
   1191000   1.0092101      18.245273      100.51905    
   1192000   0.97355741     17.890943      100.20576    
   1193000   0.96111717     18.443563      100.2356     
   1194000   1.0502409      17.98217       99.921445    
   1195000   0.99054465     18.318334      99.799295    
   1196000   0.98350117     18.057596      99.652373    
   1197000   0.98073059     17.791744      99.644657    
   1198000   1.0281919      17.954473      99.455916    
   1199000   0.96289329     18.112346      99.324334    
   1200000   1.0011603      18.61116       99.29695     
   1201000   0.98261        17.891052      99.143342    
   1202000   1.0564577      18.318139      98.888593    
   1203000   0.96952653     17.918345      98.691953    
   1204000   1.0378815      18.286143      98.576727    
   1205000   1.0215013      18.403648      98.432423    
   1206000   0.97672465     17.99136       98.512471    
   1207000   0.9863703      18.056847      98.30224     
   1208000   1.0242156      18.010422      97.972846    
   1209000   1.0162332      18.014337      98.164434    
   1210000   0.98677432     17.451107      98.086801    
   1211000   0.96096115     17.548656      97.564661    
   1212000   0.97494539     18.038535      97.327318    
   1213000   1.0351254      18.183551      97.265287    
   1214000   0.95606343     17.422224      97.316839    
   1215000   0.99528688     17.670536      97.280905    
   1216000   1.0659044      18.705091      97.068938    
   1217000   1.0475061      17.794497      97.153507    
   1218000   1.026842       18.306812      97.059953    
   1219000   0.99285855     18.37552       97.04783     
   1220000   0.9675097      17.741047      96.914773    
   1221000   1.0002351      18.008564      96.966451    
   1222000   1.0122895      18.321138      96.795156    
   1223000   0.9690264      17.540365      96.66098     
   1224000   1.0427939      17.885437      96.452982    
   1225000   0.98955548     18.240978      96.499134    
   1226000   0.94032715     17.986267      96.552529    
   1227000   0.98594188     17.78284       96.303642    
   1228000   1.056601       17.871832      96.305273    
   1229000   1.000977       18.174161      96.171791    
   1230000   1.0869874      18.521061      96.209136    
   1231000   1.0070081      17.428573      96.299724    
   1232000   1.0391235      18.369002      96.119221    
   1233000   0.99361996     18.121974      96.159158    
   1234000   0.97253996     17.898809      96.254975    
   1235000   1.0051261      18.151563      96.344994    
   1236000   1.0231204      17.851366      96.427248    
   1237000   0.99089525     18.15014       96.257343    
   1238000   1.004104       18.31055       96.207531    
   1239000   1.0090976      17.449926      96.226432    
   1240000   1.0260639      17.417583      96.05065     
   1241000   0.97176895     18.202158      96.333524    
   1242000   0.96081078     18.316589      96.282885    
   1243000   0.96092672     17.966204      96.387886    
   1244000   0.99882543     18.35821       96.226517    
   1245000   0.98920112     18.143619      96.301622    
   1246000   1.0143515      17.897667      96.314123    
   1247000   1.0079046      18.023319      96.349901    
   1248000   0.99336303     18.087843      96.351894    
   1249000   0.99306605     17.660016      96.353525    
   1250000   1.009047       17.82157       96.267844    
   1251000   0.99669533     18.001996      96.239597    
   1252000   0.98136757     18.525285      96.221058    
   1253000   1.0006032      18.374244      96.398269    
   1254000   0.98974487     18.058306      96.283858    
   1255000   0.99551607     18.057347      95.930592    
   1256000   0.975838       18.047638      95.667029    
   1257000   0.97919207     17.470007      95.465895    
   1258000   1.0012439      17.881744      95.292134    
   1259000   1.0133107      18.191979      95.31372     
   1260000   0.97483762     17.426137      95.151989    
   1261000   1.0288734      18.045649      94.77848     
   1262000   0.9843951      18.044477      94.527225    
   1263000   1.0044789      17.4494        94.573907    
   1264000   1.0444647      18.152589      94.568036    
   1265000   1.0301898      18.236906      94.43769     
   1266000   0.97104432     18.145185      94.393989    
   1267000   0.9587593      18.137553      94.40424     
   1268000   1.0070534      17.989785      94.379491    
   1269000   1.0006478      18.126276      94.2267      
   1270000   1.0146123      18.558466      94.068586    
   1271000   0.98341697     17.715414      94.089571    
   1272000   0.98771211     18.195978      93.944798    
   1273000   1.0112015      17.963287      94.09149     
   1274000   0.96678294     17.966336      94.056651    
   1275000   0.99601894     18.258736      94.020296    
   1276000   0.97937667     17.764608      93.897631    
   1277000   1.011487       17.860836      93.707444    
   1278000   1.0056998      17.914969      93.718956    
   1279000   0.96525007     17.595316      93.796555    
   1280000   1.0527852      18.025631      93.584354    
   1281000   1.0254773      17.48834       93.440861    
   1282000   1.0593976      18.300132      93.39844     
   1283000   1.0435427      17.816388      93.254326    
   1284000   0.99401079     18.323287      93.23537     
   1285000   1.0268217      18.294571      93.287784    
   1286000   0.97854925     18.106582      93.049412    
   1287000   1.009097       17.046778      92.808825    
   1288000   1.0129094      17.892599      92.733244    
   1289000   0.99026641     17.909853      92.735107    
   1290000   1.0102762      17.68474       92.626808    
   1291000   1.0027816      17.462942      92.618259    
   1292000   1.0512494      17.974285      92.716985    
   1293000   1.0134933      18.422537      92.789768    
   1294000   0.96697182     17.817672      92.982192    
   1295000   0.98698987     17.742341      93.10173     
   1296000   1.0080291      17.381451      93.023528    
   1297000   1.0035676      17.590948      92.855101    
   1298000   0.98699495     17.542415      92.716994    
   1299000   0.99681926     18.231586      92.709666    
   1300000   1.0218423      17.963403      92.475464    
   1301000   1.0088668      17.788676      92.196486    
   1302000   0.98775841     17.789489      92.06068     
   1303000   0.96015149     18.171672      91.996783    
   1304000   0.99519455     18.077076      91.835784    
   1305000   1.0351951      18.093028      91.724182    
   1306000   0.98933993     18.010839      91.683584    
   1307000   1.0064977      18.112816      91.623012    
   1308000   1.0086069      18.012675      91.622934    
   1309000   1.0296749      18.203442      91.392408    
   1310000   1.0094462      17.861137      91.215422    
   1311000   1.0072676      18.162043      90.980625    
   1312000   1.0456165      18.131927      90.934473    
   1313000   0.99332005     17.767078      90.724153    
   1314000   1.0261063      18.324736      90.545515    
   1315000   0.97771062     18.09286       90.708471    
   1316000   1.0399088      18.535171      90.563909    
   1317000   0.97048387     18.009615      90.3498      
   1318000   1.0201849      18.172003      90.118262    
   1319000   0.98917365     17.84235       90.002818    
   1320000   1.0375022      17.682066      89.900363    
   1321000   0.99809666     18.148354      89.968298    
   1322000   0.98957488     17.350471      90.014959    
   1323000   1.0158205      17.963782      90.014785    
   1324000   0.95511766     17.766481      89.860899    
   1325000   1.017328       17.370456      89.669014    
   1326000   1.0130108      17.993541      89.334938    
   1327000   0.9714643      18.469027      89.308774    
   1328000   1.0167108      18.340584      89.139701    
   1329000   0.98856456     17.404597      89.092751    
   1330000   1.0111705      17.775908      88.974335    
   1331000   1.020174       18.507378      89.155793    
   1332000   1.0324524      18.435825      89.043298    
   1333000   0.95105884     17.684326      89.03285     
   1334000   1.0008381      17.576288      88.505518    
   1335000   0.98059752     17.885233      88.241929    
   1336000   0.98975741     18.861172      88.503143    
   1337000   0.98182074     18.658737      88.455036    
   1338000   0.99830735     17.843209      88.273207    
   1339000   1.0132892      18.255878      88.240889    
   1340000   1.0161661      18.348642      88.226868    
   1341000   1.0227026      17.835709      88.119348    
   1342000   1.0110386      17.986987      88.018259    
   1343000   1.0074975      18.060453      88.198598    
   1344000   1.0005034      17.931357      88.221388    
   1345000   1.0082583      18.694299      88.010621    
   1346000   1.0215228      17.527201      87.651714    
   1347000   0.99566093     18.100517      87.75479     
   1348000   0.99327407     18.045685      87.771684    
   1349000   1.0575654      18.026645      87.572313    
   1350000   0.97421442     18.092792      87.538539    
   1351000   1.043126       18.369194      87.534652    
   1352000   1.0128372      17.775346      87.389873    
   1353000   0.99044701     17.832464      87.183492    
   1354000   1.0173341      17.725199      87.05945     
   1355000   1.0311129      18.474406      87.210867    
   1356000   0.99249385     17.879432      86.884239    
   1357000   1.0040977      17.965801      86.906005    
   1358000   0.99363219     18.486093      86.874079    
   1359000   1.0109906      17.716793      86.784932    
   1360000   1.0476663      18.053209      86.575237    
   1361000   1.0295226      18.057005      86.417443    
   1362000   1.0203223      18.544231      86.429814    
   1363000   1.0353768      17.827752      86.251912    
   1364000   1.0142321      18.557386      86.026378    
   1365000   1.0425834      18.061561      86.096364    
   1366000   0.97656925     18.261284      85.977475    
   1367000   0.97888075     18.374612      86.115044    
   1368000   0.98594881     17.95638       86.088413    
   1369000   1.0427543      18.36039       85.756424    
   1370000   0.93922639     17.4235        85.646631    
   1371000   0.94494294     17.763579      85.381672    
   1372000   1.0159371      18.191142      85.081753    
   1373000   1.0452312      18.126299      84.989684    
   1374000   0.99659794     18.351314      85.036956    
   1375000   0.98377926     17.843719      84.808908    
   1376000   0.99794225     18.022398      84.386566    
   1377000   0.9947117      17.98772       84.254634    
   1378000   1.0390346      17.757217      84.151358    
   1379000   0.95966015     17.886355      84.215475    
   1380000   1.0590033      17.953906      84.128343    
   1381000   0.98841036     17.680717      83.92735     
   1382000   1.0331483      17.690493      83.985628    
   1383000   0.97585676     17.443784      84.197289    
   1384000   1.0252191      17.836336      84.082897    
   1385000   1.0247223      18.080706      84.292241    
   1386000   0.97615015     17.828836      84.151211    
   1387000   1.009129       18.585796      83.850671    
   1388000   0.99149415     17.778695      83.803526    
   1389000   1.0502223      18.211238      83.403206    
   1390000   1.0540363      18.820545      83.396868    
   1391000   0.98486795     17.110482      83.574291    
   1392000   0.9791046      17.469378      83.665373    
   1393000   1.0383973      17.211131      83.61635     
   1394000   1.0450764      18.187151      83.589563    
   1395000   0.98769676     18.318782      83.830575    
   1396000   0.99007587     18.054708      83.544189    
   1397000   0.97654947     18.197218      83.558529    
   1398000   1.0080635      17.626527      83.335313    
   1399000   0.98047017     18.400189      83.216596    
   1400000   0.99460212     18.228982      83.150623    
   1401000   1.0217003      18.417746      83.15127     
   1402000   1.024404       18.224732      83.022692    
   1403000   1.0086655      18.190428      83.098161    
   1404000   1.0224606      17.967886      83.204896    
   1405000   1.0307867      17.864059      83.411122    
   1406000   1.0094274      17.86239       83.211267    
   1407000   1.007249       18.178885      83.245543    
   1408000   0.97813012     17.625095      82.967222    
   1409000   0.99113947     18.244469      82.724503    
   1410000   1.0638078      17.845081      82.532232    
   1411000   0.98942272     17.706274      82.518866    
   1412000   1.0460698      18.509821      82.472524    
   1413000   0.97368122     17.556998      82.373991    
   1414000   0.97982299     17.57047       82.135898    
   1415000   1.0038089      17.968764      81.837265    
   1416000   0.96276767     18.26551       81.913634    
   1417000   0.97988655     17.595817      82.117078    
   1418000   0.97001064     17.939097      81.954906    
   1419000   1.0141401      16.843607      81.827405    
   1420000   0.98705336     17.875225      81.759956    
   1421000   0.9610814      17.788251      81.440068    
   1422000   1.0187028      17.933054      81.329488    
   1423000   0.98647702     17.863096      81.244597    
   1424000   0.96812685     17.766644      81.071227    
   1425000   0.96605711     17.456521      81.043447    
   1426000   1.0020191      18.496088      80.937199    
   1427000   0.96299475     17.824868      80.930434    
   1428000   0.98774809     17.616628      80.851192    
   1429000   1.0282234      17.686937      80.643399    
   1430000   1.0329933      17.979819      80.866411    
   1431000   1.0259684      18.283233      80.709937    
   1432000   0.99335634     18.013867      80.584367    
   1433000   1.0630421      18.132088      80.544996    
   1434000   0.9726905      17.595921      80.560959    
   1435000   1.0376572      17.871028      80.600598    
   1436000   1.0163112      17.938032      80.582128    
   1437000   1.0309701      18.208184      80.392814    
   1438000   1.037715       17.519654      80.195651    
   1439000   1.0165576      17.225645      80.226887    
   1440000   0.988418       17.907389      80.101309    
   1441000   0.9573305      17.170404      79.875377    
   1442000   1.0345989      18.222731      79.995467    
   1443000   1.0045694      17.490214      79.841593    
   1444000   1.0330842      18.388273      79.733514    
   1445000   0.97080155     18.012788      79.54955     
   1446000   0.99750078     18.020616      79.563702    
   1447000   1.0309163      18.088905      79.585031    
   1448000   1.0207765      17.652315      79.636529    
   1449000   0.98639759     17.168113      79.411457    
   1450000   0.93861012     17.569504      79.16082     
   1451000   1.0064142      18.13946       79.078711    
   1452000   1.0347523      18.059011      79.226097    
   1453000   0.98711699     17.999844      79.142247    
   1454000   1.0050091      17.718452      79.059189    
   1455000   1.0168324      17.82551       79.032881    
   1456000   0.99017659     17.777993      79.032187    
   1457000   1.0019668      17.544771      79.102248    
   1458000   1.0274946      17.874337      78.920742    
   1459000   1.0099258      17.585968      78.95301     
   1460000   1.0204626      17.87143       78.983665    
   1461000   1.0097178      17.668526      78.837001    
   1462000   1.0196468      18.333374      78.764915    
   1463000   1.0007373      17.973308      78.618744    
   1464000   1.0145024      17.456336      78.604919    
   1465000   0.98284492     18.428615      78.455493    
   1466000   1.036589       18.229401      78.56376     
   1467000   1.0377898      18.276657      78.544979    
   1468000   1.0161727      17.529197      78.836886    
   1469000   0.96181539     17.335875      78.868493    
   1470000   0.95386052     17.604739      78.82321     
   1471000   1.0052488      18.202748      78.716382    
   1472000   1.0066122      17.702267      78.457608    
   1473000   1.0010294      17.755178      78.24002     
   1474000   1.0223731      18.026123      78.183749    
   1475000   0.95744566     18.013295      78.004166    
   1476000   0.99782684     18.143258      77.803954    
   1477000   1.0396025      18.473961      77.881387    
   1478000   0.96836553     18.012159      77.648403    
   1479000   1.0336649      17.705894      77.384226    
   1480000   1.0100776      17.822613      77.36513     
   1481000   1.0095143      17.638592      77.370972    
   1482000   1.0156448      17.766047      77.22515     
   1483000   0.97771333     17.556547      77.130488    
   1484000   1.0071643      17.419145      77.091002    
   1485000   0.98962449     18.100681      77.346939    
   1486000   1.0013206      17.57599       77.199071    
   1487000   0.98522406     17.652106      77.471415    
   1488000   0.92803764     18.086245      77.553186    
   1489000   1.0465459      17.688084      77.280539    
   1490000   0.94813322     17.934341      77.382744    
   1491000   1.0135703      17.962279      77.178142    
   1492000   0.9557916      17.516142      77.245867    
   1493000   1.0196074      17.6109        77.3384      
   1494000   1.0077173      18.185487      77.360917    
   1495000   0.96781784     18.211436      77.109901    
   1496000   1.0164419      18.129513      76.827247    
   1497000   0.97150769     17.967313      76.660141    
   1498000   1.0272252      18.110504      76.598461    
   1499000   1.0301956      17.809962      76.386144    
   1500000   0.9830827      18.05216       76.110265    
   1501000   0.97144977     17.221369      75.744531    
   1502000   1.0125065      17.462523      75.724636    
   1503000   1.0664683      17.558246      75.700421    
   1504000   0.95343088     17.918958      75.576564    
   1505000   0.98535988     17.579481      75.595625    
   1506000   0.99867916     17.980558      75.613508    
   1507000   1.033702       17.620043      75.551718    
   1508000   1.0290249      17.765999      75.444177    
   1509000   0.99025785     18.038086      75.384789    
   1510000   1.0151725      17.787843      75.31589     
   1511000   0.98193245     18.299371      75.245674    
   1512000   0.96146395     18.089339      75.439816    
   1513000   0.95494383     17.981755      75.1247      
   1514000   0.98249995     17.629249      74.917567    
   1515000   0.99271759     17.690413      75.071136    
   1516000   0.9806289      17.726323      75.039816    
   1517000   1.025172       18.207986      74.871238    
   1518000   1.040993       18.233021      74.689283    
   1519000   1.0168627      17.994244      74.679896    
   1520000   1.0011961      16.996239      74.6122      
   1521000   1.0024361      17.732793      74.495371    
   1522000   0.98732782     18.225699      74.347188    
   1523000   1.0213133      18.399109      74.175516    
   1524000   0.97907537     17.279158      74.398234    
   1525000   0.95988319     17.377197      74.157548    
   1526000   0.97790791     17.231111      73.99769     
   1527000   1.0237242      17.866979      74.029296    
   1528000   1.027911       18.746179      73.897629    
   1529000   1.0073821      17.908898      74.080629    
   1530000   0.98830281     17.921775      74.02377     
   1531000   1.0086003      18.072826      73.948662    
   1532000   1.0195194      18.133411      73.810467    
   1533000   1.0327612      17.865314      73.86561     
   1534000   1.0168357      18.371003      73.880947    
   1535000   1.01032        17.929796      73.685406    
   1536000   1.0131304      17.59281       73.598057    
   1537000   0.97672739     18.232739      73.581224    
   1538000   0.96361856     17.694141      73.463294    
   1539000   1.0090896      17.56992       73.282026    
   1540000   0.99956533     18.474679      73.208406    
   1541000   1.0196939      17.400047      73.246109    
   1542000   0.99818886     17.594122      73.206825    
   1543000   1.0306699      18.094666      72.839955    
   1544000   0.99459614     17.79046       72.495503    
   1545000   0.9775787      17.219658      72.307062    
   1546000   0.969163       16.886612      72.201911    
   1547000   1.02917        18.065649      72.012871    
   1548000   0.95181919     17.571822      71.910172    
   1549000   0.97519157     17.618037      71.901112    
   1550000   0.99939497     17.685797      71.810203    
   1551000   1.0175075      17.66937       71.787092    
   1552000   1.0049827      18.042983      71.864303    
   1553000   1.0140937      17.245003      71.771545    
   1554000   1.0273144      17.682343      71.644425    
   1555000   0.99011307     17.526956      71.533942    
   1556000   1.0323574      17.382325      71.612014    
   1557000   0.96913213     17.601495      71.733734    
   1558000   1.0153043      17.410458      71.631919    
   1559000   0.99696703     17.715316      71.488995    
   1560000   1.0094474      17.999146      71.517176    
   1561000   1.0161694      18.083494      71.414451    
   1562000   1.0236872      17.988915      71.255798    
   1563000   0.98713875     17.697726      71.048334    
   1564000   0.99340742     17.670062      70.83616     
   1565000   0.98780715     18.13507       71.001776    
   1566000   1.0665599      17.952169      70.946993    
   1567000   1.0148977      17.93217       70.713106    
   1568000   1.0420617      17.757299      70.526739    
   1569000   0.9836803      17.737278      70.50802     
   1570000   0.96605517     17.919143      70.423741    
   1571000   1.00785        17.938543      70.457966    
   1572000   1.0456233      18.38348       70.281615    
   1573000   0.97739742     17.581629      70.38713     
   1574000   0.99789623     17.657852      70.23679     
   1575000   1.0209079      18.056215      70.128094    
   1576000   0.9942916      17.330113      70.052649    
   1577000   0.97386072     17.173328      70.099457    
   1578000   1.0444868      17.62256       70.031328    
   1579000   0.98488263     17.449537      70.103815    
   1580000   0.98063502     17.828871      70.091639    
   1581000   1.0358175      17.710639      70.166968    
   1582000   0.96695516     17.387902      70.107748    
   1583000   1.0178733      18.144229      70.216743    
   1584000   1.0078159      17.749922      70.138444    
   1585000   1.0233578      18.591887      69.990769    
   1586000   1.0668419      18.51712       70.059277    
   1587000   0.99476041     17.451153      69.902422    
   1588000   0.97895637     17.430708      69.823666    
   1589000   0.98301509     17.728776      69.920496    
   1590000   1.0048922      17.918511      69.913334    
   1591000   0.98974833     17.977347      69.788306    
   1592000   0.98199431     17.749457      69.781396    
   1593000   1.0498731      18.02953       69.783505    
   1594000   0.91467966     17.867107      69.885798    
   1595000   0.99059857     17.851743      70.124638    
   1596000   0.98394716     17.774455      69.907712    
   1597000   1.0298515      17.574729      69.950979    
   1598000   1.0463993      17.699103      69.783748    
   1599000   0.97403694     17.224888      69.715085    
   1600000   1.0576081      17.824351      69.331101    
   1601000   0.95201968     17.731274      69.287488    
   1602000   1.0438987      17.915615      69.112629    
   1603000   0.94919407     17.624802      69.159363    
   1604000   0.97580424     17.987842      69.081703    
   1605000   0.98278816     17.79316       69.114355    
   1606000   1.0053285      17.862166      69.047688    
   1607000   0.99607321     17.512478      68.825527    
   1608000   0.95737534     17.852354      68.893127    
   1609000   0.99764609     17.342832      68.90117     
   1610000   0.96282163     17.70997       69.012831    
   1611000   1.0311966      18.556992      69.122968    
   1612000   1.0234724      17.781857      69.263354    
   1613000   0.95717748     17.655239      69.265285    
   1614000   0.9696247      17.201318      69.039755    
   1615000   0.99828754     17.717914      68.773686    
   1616000   0.96782223     17.650733      68.694526    
   1617000   1.0419155      17.722657      68.500424    
   1618000   0.99140438     17.655218      68.629623    
   1619000   0.99310145     18.019086      68.561002    
   1620000   0.99370373     17.798488      68.435389    
   1621000   0.98088385     17.037032      68.342286    
   1622000   0.96195469     17.643125      68.305212    
   1623000   1.0116183      17.853382      68.275584    
   1624000   0.98244696     17.579012      68.318021    
   1625000   1.0180333      17.866434      68.0054      
   1626000   0.96204898     17.671575      67.945092    
   1627000   0.97223677     17.540645      67.887715    
   1628000   0.97273441     17.883296      67.594287    
   1629000   1.0530614      18.027356      67.39577     
   1630000   0.98943147     18.001169      67.453851    
   1631000   0.99270138     17.779363      67.5936      
   1632000   1.0306957      17.760693      67.457559    
   1633000   1.027905       17.889202      67.437463    
   1634000   1.0464731      17.776391      67.333243    
   1635000   0.98571574     17.668676      67.515515    
   1636000   1.0174933      17.853881      67.573529    
   1637000   0.96274415     17.245066      67.977343    
   1638000   1.0052911      18.367163      67.768949    
   1639000   1.0882796      17.766423      67.815658    
   1640000   0.99443333     17.720241      67.478356    
   1641000   1.0101786      18.201654      67.156379    
   1642000   1.0112272      18.484764      66.880573    
   1643000   1.019031       17.677937      66.953383    
   1644000   0.9887832      18.157952      66.666769    
   1645000   0.98995775     17.750836      66.778917    
   1646000   1.0363913      17.477088      66.421778    
   1647000   0.99445864     17.726397      66.37671     
   1648000   0.9783281      17.770388      66.449574    
   1649000   0.97209747     17.563271      66.210376    
   1650000   0.96626084     17.861805      66.160108    
   1651000   0.99546701     18.546588      66.007993    
   1652000   1.0307631      17.62837       65.887174    
   1653000   1.0050613      17.543711      65.618665    
   1654000   0.99991897     17.714448      65.63617     
   1655000   1.0045627      17.812392      65.743993    
   1656000   1.0125334      17.861215      65.725988    
   1657000   1.018125       17.593435      65.559007    
   1658000   1.0164315      17.644469      65.53459     
   1659000   1.0626026      17.520961      65.292144    
   1660000   1.0039624      18.103084      64.896976    
   1661000   1.0119909      17.551624      64.668165    
   1662000   1.0326352      17.606194      64.608963    
   1663000   0.9595129      18.007644      64.537453    
   1664000   1.0100981      17.550847      64.638614    
   1665000   0.97862384     17.785704      64.636057    
   1666000   0.97507156     17.81853       64.784338    
   1667000   0.99398501     16.863898      64.600288    
   1668000   0.96026343     17.701371      64.516882    
   1669000   1.0239725      17.891203      64.311838    
   1670000   1.0122853      18.052926      64.241553    
   1671000   0.99122778     17.556988      63.968559    
   1672000   1.0019251      17.880014      63.79507     
   1673000   0.99491327     17.920832      63.516663    
   1674000   0.99913071     17.573401      63.493891    
   1675000   1.0182042      17.80904       63.352589    
   1676000   1.0052658      17.60571       63.515332    
   1677000   1.0095377      17.671761      63.548085    
   1678000   0.98218144     18.039004      63.646298    
   1679000   1.0169535      17.848329      63.571977    
   1680000   1.0236365      18.016512      63.429243    
   1681000   1.0126393      17.810008      63.549508    
   1682000   1.0248851      17.479925      63.530084    
   1683000   1.0074821      17.296186      63.313967    
   1684000   0.96694534     17.378666      63.312936    
   1685000   1.0178119      18.427103      63.33944     
   1686000   1.0070971      18.11623       63.252733    
   1687000   1.0239916      17.192338      63.204181    
   1688000   1.0134559      17.646054      62.947521    
   1689000   0.96995202     17.673897      62.936552    
   1690000   0.98342778     18.12293       62.817005    
   1691000   0.97332975     17.810419      62.854363    
   1692000   0.96160958     18.158187      62.926975    
   1693000   1.0264713      17.279392      62.641503    
   1694000   0.99668569     17.318044      62.583214    
   1695000   1.0393756      17.190042      62.589245    
   1696000   0.96507791     17.255453      62.517264    
   1697000   1.0200017      18.324303      62.13982     
   1698000   1.0252902      17.620463      62.317218    
   1699000   1.0103811      17.266079      62.101799    
   1700000   1.0034695      18.239292      62.434104    
   1701000   1.0540222      17.988598      62.265202    
   1702000   0.99616044     17.545709      62.124434    
   1703000   0.98170973     18.148335      61.817497    
   1704000   0.95990363     17.903076      61.847085    
   1705000   0.98354202     18.250232      61.661369    
   1706000   0.93272632     17.467391      61.59821     
   1707000   0.98797076     17.671523      61.707086    
   1708000   1.0439749      17.809395      61.359366    
   1709000   0.97060756     17.37704       61.231986    
   1710000   1.0277824      17.775235      61.259376    
   1711000   1.0125719      17.585525      61.24758     
   1712000   1.0256686      17.562296      61.418061    
   1713000   0.97275171     17.540923      61.468144    
   1714000   0.95219552     17.584822      61.259135    
   1715000   1.0528016      17.384531      61.269542    
   1716000   1.0333701      17.786683      61.171311    
   1717000   1.0003558      18.02397       61.175615    
   1718000   0.99910854     17.730278      61.113065    
   1719000   1.0033868      17.05619       60.866218    
   1720000   1.0008022      17.516316      60.582317    
   1721000   1.006246       18.222639      60.472589    
   1722000   1.017081       17.426073      60.505542    
   1723000   1.0080927      17.79491       60.508787    
   1724000   1.0481988      18.152484      60.529089    
   1725000   1.0082051      17.609019      60.534173    
   1726000   0.95935281     17.184785      60.438411    
   1727000   1.0194123      18.213577      60.276843    
   1728000   0.99353512     17.699842      59.960561    
   1729000   0.97151263     17.295103      59.934049    
   1730000   0.97816696     17.857926      59.634291    
   1731000   0.98645671     17.904484      59.446166    
   1732000   1.0287675      18.05276       59.411736    
   1733000   0.97532911     17.483351      59.505565    
   1734000   0.98803001     17.677126      59.259196    
   1735000   0.96958068     18.161868      59.109878    
   1736000   1.0372675      18.341797      59.080812    
   1737000   1.0347396      17.07853       59.191834    
   1738000   1.0240634      17.956581      59.039821    
   1739000   0.99464051     17.81308       58.907981    
   1740000   1.0214534      18.153369      59.031362    
   1741000   1.0033497      17.553228      58.69504     
   1742000   0.99501025     17.634788      58.638876    
   1743000   0.9851597      17.510917      58.564947    
   1744000   1.0348955      17.676107      58.49093     
   1745000   1.0095082      17.793231      58.51444     
   1746000   1.0877693      18.254438      58.479594    
   1747000   0.98752327     17.20497       58.400976    
   1748000   1.0289221      17.403503      58.367802    
   1749000   0.99215926     17.302211      58.40493     
   1750000   1.0333851      17.51328       58.260794    
   1751000   1.0110483      17.459262      57.847827    
   1752000   1.0694375      17.90487       57.696619    
   1753000   1.0339254      17.667146      57.422624    
   1754000   1.0244497      17.743244      57.193906    
   1755000   0.9538651      17.416246      57.162928    
   1756000   1.0067526      17.784055      57.211311    
   1757000   0.98835271     17.256657      57.225582    
   1758000   1.0201904      17.72553       56.894664    
   1759000   0.99434374     17.612173      56.826522    
   1760000   0.99648037     16.972134      56.764681    
   1761000   0.99385136     17.693797      56.597108    
   1762000   1.0080388      17.799269      56.312031    
   1763000   0.98708116     17.481254      56.08845     
   1764000   1.0211731      17.920241      55.672974    
   1765000   0.99166992     17.766461      55.596956    
   1766000   1.0501486      17.990601      55.175509    
   1767000   0.99084997     17.09644       54.92442     
   1768000   1.0412107      18.237583      54.900774    
   1769000   0.99743199     17.359943      54.713922    
   1770000   1.0176798      17.119608      54.52726     
   1771000   1.0028574      18.039125      54.636825    
   1772000   0.98905423     17.640257      54.606306    
   1773000   1.0002514      18.063762      54.418934    
   1774000   1.0221738      17.714078      54.450298    
   1775000   0.97478052     17.671497      54.651036    
   1776000   1.0039471      16.900312      54.39078     
   1777000   0.96673875     17.682218      54.015253    
   1778000   0.98117753     17.750043      53.975169    
   1779000   1.0052213      17.488179      53.631828    
   1780000   0.99735194     17.395601      53.860167    
   1781000   1.0005622      18.09897       53.528752    
   1782000   0.96391351     17.682859      53.443677    
   1783000   0.97944726     17.561552      53.151555    
   1784000   0.97258622     18.021593      53.168791    
   1785000   0.9814696      17.615787      53.162867    
   1786000   1.0074584      16.977282      53.01087     
   1787000   1.0412534      17.19151       52.893272    
   1788000   1.0314488      17.606298      52.664114    
   1789000   1.0055307      17.537761      52.516976    
   1790000   0.96497984     17.102373      52.281724    
   1791000   1.0424862      17.863975      52.262417    
   1792000   1.0175518      18.166357      52.198351    
   1793000   0.99971095     18.006437      52.090461    
   1794000   0.93780935     17.581432      52.001459    
   1795000   0.98590727     17.747432      51.96272     
   1796000   1.0658805      18.217431      51.811813    
   1797000   0.98263556     17.226297      51.943781    
   1798000   0.97365008     17.74028       51.85529     
   1799000   0.99429288     17.077187      51.789396    
   1800000   0.99435938     17.590828      51.936066    
   1801000   0.99220016     18.321622      51.924527    
   1802000   1.0000879      17.34487       51.853791    
   1803000   1.0051824      16.803676      52.000904    
   1804000   1.0311913      17.863065      51.830044    
   1805000   1.0176668      17.792116      51.898271    
   1806000   1.0362024      17.790402      51.960273    
   1807000   0.97002622     17.572802      51.940105    
   1808000   0.96677472     17.416176      51.942873    
   1809000   1.0161343      17.689864      51.831259    
   1810000   0.98579636     17.798717      51.916908    
   1811000   0.99932284     17.91955       51.711325    
   1812000   1.030109       17.893882      51.609135    
   1813000   0.98720592     16.967266      51.543219    
   1814000   1.0267662      18.033169      51.440415    
   1815000   1.0440828      17.481962      51.503081    
   1816000   0.99455001     17.652296      51.480327    
   1817000   0.96659863     17.039634      51.589119    
   1818000   1.0173304      17.602084      51.383504    
   1819000   1.0025053      17.691062      51.456658    
   1820000   1.0366261      17.350698      51.262186    
   1821000   1.0161627      17.969568      51.122794    
   1822000   1.0152427      17.665512      50.865106    
   1823000   0.99899132     18.150333      50.708066    
   1824000   0.98004773     17.164966      50.628516    
   1825000   0.99394592     17.464547      50.531846    
   1826000   0.97743004     17.87388       50.640622    
   1827000   1.0324809      17.867035      50.807226    
   1828000   0.96745868     16.98452       50.518496    
   1829000   1.077687       18.090035      50.307927    
   1830000   1.0137011      17.742119      50.427588    
   1831000   0.95041841     17.608679      50.330765    
   1832000   1.0020576      17.208475      50.08144     
   1833000   1.0122933      17.202801      49.968036    
   1834000   1.017563       17.74802       49.770053    
   1835000   1.0485771      17.527656      49.672776    
   1836000   1.0040554      17.714628      49.31852     
   1837000   1.0177552      17.89958       49.010691    
   1838000   1.0515925      17.601088      48.998846    
   1839000   1.028534       17.789549      48.692312    
   1840000   1.0379898      17.490287      48.788516    
   1841000   0.98648271     18.22889       48.788168    
   1842000   1.0208415      17.438958      48.507116    
   1843000   0.98800701     17.887977      48.372048    
   1844000   1.0351577      18.234775      48.529934    
   1845000   0.99950672     17.704367      48.433349    
   1846000   0.99891998     17.677806      48.38171     
   1847000   1.0315959      17.788088      48.218533    
   1848000   0.96767368     17.225403      48.034228    
   1849000   1.0261118      17.765065      47.966147    
   1850000   1.0200881      17.53475       47.789373    
   1851000   0.99572148     17.487661      47.679584    
   1852000   0.9973875      17.470134      47.538736    
   1853000   1.0058603      16.738457      47.613331    
   1854000   1.0586836      18.013814      47.096086    
   1855000   0.98231438     17.575611      47.083225    
   1856000   0.99617296     17.432197      46.849085    
   1857000   1.0142122      17.672293      46.630432    
   1858000   1.0397885      17.614596      46.261313    
   1859000   0.97886557     17.409679      46.05887     
   1860000   1.0333058      17.138278      46.140594    
   1861000   0.98047624     17.659443      46.148028    
   1862000   1.0076316      17.821397      45.759132    
   1863000   1.0174684      17.769927      45.753264    
   1864000   0.99559508     17.592484      45.609992    
   1865000   0.99720229     17.095663      45.509977    
   1866000   0.99853979     17.290024      45.407821    
   1867000   0.95776588     16.803439      45.111004    
   1868000   1.0460181      17.560713      44.938427    
   1869000   1.0154645      17.184888      44.905073    
   1870000   1.0349444      17.660659      44.595814    
   1871000   0.99190308     17.835226      44.544432    
   1872000   0.97571083     18.273662      44.553314    
   1873000   1.0183637      17.680922      44.496239    
   1874000   0.99958449     17.351833      44.533434    
   1875000   1.0196557      16.690747      44.560269    
   1876000   1.0078641      17.338961      44.440017    
   1877000   0.97166923     17.268078      44.501555    
   1878000   0.98130618     17.934632      44.460068    
   1879000   0.99389895     17.007924      44.457069    
   1880000   0.96072501     17.530117      44.222832    
   1881000   1.0524316      17.416079      44.241786    
   1882000   0.951207       17.398632      44.485045    
   1883000   1.0042513      17.741253      44.36471     
   1884000   1.0088162      17.366552      44.444979    
   1885000   1.0059604      17.348106      44.268647    
   1886000   1.0232004      17.54068       44.232557    
   1887000   1.0199279      17.604554      44.317776    
   1888000   0.98582208     17.825825      44.076301    
   1889000   1.0016909      17.585263      44.189433    
   1890000   0.95861583     18.035583      44.097709    
   1891000   1.0135415      17.299109      43.964458    
   1892000   1.0169793      18.585655      43.82618     
   1893000   0.95094563     17.346573      43.7294      
   1894000   1.0141304      17.145355      43.358735    
   1895000   1.0097407      17.850092      43.290744    
   1896000   1.0538195      18.245238      43.235877    
   1897000   1.0360975      16.92519       43.264158    
   1898000   0.97685134     17.384068      43.256959    
   1899000   1.0106804      17.751885      43.116536    
   1900000   0.97840296     18.21687       43.22263     
   1901000   0.98620597     17.238739      42.858932    
   1902000   0.99944421     17.817188      42.637944    
   1903000   0.96375743     17.786662      42.375417    
   1904000   0.93265298     17.551928      42.282905    
   1905000   1.0485446      17.617328      42.143162    
   1906000   0.98957804     18.359473      41.856055    
   1907000   0.98388842     18.305806      41.717518    
   1908000   1.0278031      17.771277      41.658854    
   1909000   1.0075981      17.340835      41.671544    
   1910000   1.0017129      17.490655      41.585372    
   1911000   1.0771799      17.525223      41.783305    
   1912000   0.97341688     16.808623      41.544646    
   1913000   0.99437274     18.344285      41.309702    
   1914000   0.99476565     16.866786      41.451037    
   1915000   0.9693648      17.390415      41.382731    
   1916000   1.0207874      17.471501      41.413502    
   1917000   0.97612956     17.599838      41.293759    
   1918000   1.0181597      17.521584      41.350186    
   1919000   0.98306056     17.113186      41.466415    
   1920000   0.97291377     17.31143       41.386384    
   1921000   1.0022353      17.605426      41.114465    
   1922000   0.93930825     17.088992      41.142182    
   1923000   0.95749686     17.524058      40.939089    
   1924000   1.0547254      17.351023      40.838293    
   1925000   0.99158089     17.858177      40.771669    
   1926000   1.0100907      17.636819      40.634802    
   1927000   1.0072717      17.491815      40.395166    
   1928000   1.0319041      17.616337      40.334726    
   1929000   0.99695489     17.197517      40.247633    
   1930000   1.0332608      17.300037      40.29222     
   1931000   0.96292323     17.573906      40.21075     
   1932000   0.98232322     17.130982      40.10759     
   1933000   1.0281777      17.30383       40.155706    
   1934000   1.0204998      17.26805       40.030645    
   1935000   1.0336569      17.135607      40.078934    
   1936000   1.0401181      17.56534       39.917964    
   1937000   1.0205313      18.120527      39.697396    
   1938000   0.95617909     17.12825       39.560208    
   1939000   0.98404035     17.400171      39.766347    
   1940000   1.0636132      17.480317      39.816798    
   1941000   1.0118411      17.467218      39.612899    
   1942000   1.0278057      17.071647      39.796969    
   1943000   1.0021226      17.045031      39.773759    
   1944000   1.0081372      17.067587      39.562622    
   1945000   1.0183298      17.565109      39.438952    
   1946000   1.0284539      17.594568      39.404656    
   1947000   1.0216738      17.901071      39.461984    
   1948000   0.96613358     17.237494      39.284776    
   1949000   1.0179892      17.392973      39.175126    
   1950000   0.99344079     17.650917      38.901061    
   1951000   1.0253878      17.073236      38.788313    
   1952000   1.0116235      17.326677      38.675355    
   1953000   0.99711803     17.503508      38.332383    
   1954000   1.0013672      17.386919      38.180005    
   1955000   1.038752       17.281108      38.00486     
   1956000   1.0118547      18.023095      38.197318    
   1957000   0.94317086     16.972986      38.054307    
   1958000   1.0075468      17.228586      37.87031     
   1959000   0.98901921     17.504093      37.620278    
   1960000   1.0018188      16.796498      37.344389    
   1961000   1.0525046      17.320386      37.254662    
   1962000   1.0284482      17.146604      37.17722     
   1963000   0.99537563     17.888081      37.205326    
   1964000   0.98834018     17.607087      37.10922     
   1965000   1.0462441      18.110163      37.12574     
   1966000   0.97636659     17.523274      37.020546    
   1967000   0.98583135     17.487191      36.730728    
   1968000   1.0277472      17.652209      36.639543    
   1969000   1.0496544      17.834754      36.506483    
   1970000   1.0156934      18.100009      36.431388    
   1971000   0.97538551     17.649235      36.24329     
   1972000   1.0275924      17.565939      36.165645    
   1973000   1.0172852      17.937492      36.076309    
   1974000   0.95916686     17.698564      35.990772    
   1975000   0.9823008      16.942655      35.740062    
   1976000   1.0418426      17.180154      35.663201    
   1977000   1.0105716      17.912865      35.576859    
   1978000   0.98595031     17.595919      35.435245    
   1979000   1.0118583      17.498939      35.222884    
   1980000   0.97466685     17.651205      35.07307     
   1981000   1.027856       18.178265      35.092646    
   1982000   1.0427126      18.043729      35.168964    
   1983000   1.0013003      18.010101      35.126559    
   1984000   0.99775857     17.556226      35.331631    
   1985000   1.0152644      17.539405      35.17867     
   1986000   1.0390378      17.492965      35.046788    
   1987000   1.015207       17.364998      35.250162    
   1988000   1.0087533      17.311339      35.259198    
   1989000   0.98815019     17.301831      35.380486    
   1990000   1.0008606      16.871695      35.273262    
   1991000   1.0539569      17.443488      35.153053    
   1992000   0.96014095     17.343932      34.986188    
   1993000   1.0297108      17.089983      34.807522    
   1994000   0.99017696     17.215139      34.670042    
   1995000   1.0049851      16.939346      34.53925     
   1996000   0.94351897     17.263535      34.435918    
   1997000   0.98889302     16.914175      34.353283    
   1998000   0.96814398     16.915578      34.249355    
   1999000   0.96429578     17.426111      34.110899    
   2000000   0.94895162     17.903752      33.717237    
   2001000   1.0142007      17.08507       33.677125    
   2002000   0.99079334     17.078087      33.462297    
   2003000   1.0420454      17.788427      33.585935    
   2004000   0.9804908      17.891094      33.365725    
   2005000   0.96122519     17.239031      33.181216    
   2006000   0.9694584      17.654599      33.310449    
   2007000   1.0162231      17.743388      33.455631    
   2008000   0.99521823     17.453206      33.454547    
   2009000   0.98890287     17.542273      33.577243    
   2010000   1.0558568      17.742632      33.400735    
   2011000   1.0151823      17.445717      33.217778    
   2012000   0.97744416     17.588855      33.142725    
   2013000   0.96774824     17.318154      33.103665    
   2014000   1.037781       17.535258      33.305029    
   2015000   0.98437882     17.703294      33.474034    
   2016000   1.001648       17.111482      33.584634    
   2017000   0.99277918     16.752394      33.625023    
   2018000   1.0301124      17.247913      33.315657    
   2019000   0.96629968     17.569064      33.27065     
   2020000   0.99824317     17.186542      32.865695    
   2021000   1.0533347      18.425355      33.08446     
   2022000   1.0179102      17.360808      33.410009    
   2023000   0.96143465     16.747756      33.235881    
   2024000   1.0368757      17.181038      32.957856    
   2025000   1.0299956      17.442828      32.957063    
   2026000   1.0317099      17.818843      32.625093    
   2027000   1.0426695      17.020983      32.480542    
   2028000   0.99811088     17.417951      32.584332    
   2029000   0.98504205     17.186378      32.328294    
   2030000   0.9989827      16.893948      32.017873    
   2031000   0.98929687     17.558156      31.931636    
   2032000   1.0031479      17.376135      31.807507    
   2033000   1.0103919      17.237944      31.491981    
   2034000   1.0459662      17.764486      31.305312    
   2035000   0.94563831     16.859283      31.422113    
   2036000   0.98394035     17.408982      31.377768    
   2037000   0.97234081     17.344925      31.315995    
   2038000   0.99714153     17.947336      31.378848    
   2039000   0.95896341     17.131301      31.285549    
   2040000   1.0384424      17.602457      31.306408    
   2041000   1.0184136      17.585489      31.178199    
   2042000   0.93885098     17.468581      31.08281     
   2043000   1.0151817      17.712384      31.044751    
   2044000   1.0415325      17.095263      30.995285    
   2045000   0.97226079     17.413999      31.122961    
   2046000   1.0337245      17.302498      30.992095    
   2047000   1.0421505      18.279198      31.252707    
   2048000   1.0561618      18.219354      31.156665    
   2049000   1.0081574      17.381154      31.293389    
   2050000   0.95713382     17.335478      31.401763    
   2051000   0.98262863     17.22634       31.286453    
   2052000   1.0227762      17.054037      31.330231    
   2053000   0.99319613     17.562696      31.41779     
   2054000   1.0073888      17.367769      31.206347    
   2055000   0.97746996     17.254883      31.148543    
   2056000   0.97644111     17.252857      30.874945    
   2057000   1.0326539      17.551881      30.836051    
   2058000   1.065415       17.088097      31.115673    
   2059000   0.9842246      17.325621      30.988562    
   2060000   0.98032818     17.259567      31.173943    
   2061000   1.006435       17.339053      31.34373     
   2062000   0.98285043     16.766759      31.492808    
   2063000   1.0134148      17.210817      31.629154    
   2064000   1.0197541      17.786028      31.478284    
   2065000   0.95023432     16.562917      31.575384    
   2066000   1.0115396      17.177797      31.38144     
   2067000   1.000003       17.319191      31.331785    
   2068000   0.95987794     17.370694      30.804072    
   2069000   1.0201642      17.273434      30.677392    
   2070000   0.98882992     17.775327      30.587       
   2071000   0.99735643     17.358941      30.658235    
   2072000   0.99994804     17.098773      30.511141    
   2073000   0.9783192      17.417137      30.443143    
   2074000   1.0059327      17.467727      30.44048     
   2075000   1.0148648      17.731466      30.520346    
   2076000   0.94732561     17.095183      30.532532    
   2077000   0.98917173     17.766901      30.494143    
   2078000   0.96496159     17.389232      30.351239    
   2079000   0.95974913     16.678328      30.29464     
   2080000   0.94224504     17.251442      30.300663    
   2081000   1.0084379      17.346497      30.243748    
   2082000   0.98502888     17.967269      29.916001    
   2083000   0.97190864     16.906274      29.822294    
   2084000   0.94710608     16.901924      29.782876    
   2085000   1.0328223      17.046248      29.680197    
   2086000   1.0022804      17.259781      29.774234    
   2087000   1.0031888      17.32381       29.549713    
   2088000   0.97454182     17.004315      29.551359    
   2089000   0.98855371     16.846251      29.311427    
   2090000   1.0256165      17.338219      29.257168    
   2091000   0.94996743     17.636299      29.493945    
   2092000   1.0667629      17.595637      29.242136    
   2093000   0.99088497     17.921478      29.177912    
   2094000   1.0410591      17.37885       29.296036    
   2095000   1.0329563      17.306534      29.272215    
   2096000   0.98437176     17.117334      29.136306    
   2097000   1.0439498      17.057822      29.053949    
   2098000   1.0104495      17.760884      28.892471    
   2099000   0.98307624     17.454995      28.800863    
   2100000   0.98843239     17.400174      28.804312    
   2101000   1.0270937      17.379718      28.993892    
   2102000   1.0116434      17.817041      28.988271    
   2103000   1.0212769      17.803212      28.787036    
   2104000   0.98428641     17.825257      28.874307    
   2105000   1.0201069      17.243196      28.735116    
   2106000   1.0518514      17.464449      28.73975     
   2107000   1.0044365      17.371103      28.728299    
   2108000   1.0382189      17.314563      28.774954    
   2109000   1.005914       17.112921      28.582936    
   2110000   1.005489       17.247092      28.373228    
   2111000   0.98174643     18.177792      28.263147    
   2112000   1.0254491      17.274932      28.064903    
   2113000   1.0389693      17.511462      27.8847      
   2114000   1.0351304      17.468172      27.790664    
   2115000   0.95905866     17.522517      27.753426    
   2116000   0.96587975     17.165084      27.770229    
   2117000   0.9830673      17.208035      27.86592     
   2118000   1.0351693      17.276503      27.951541    
   2119000   1.0310885      17.372565      27.849936    
   2120000   1.0427348      17.197283      27.735231    
   2121000   1.0050046      17.672234      27.820922    
   2122000   1.0080973      17.015748      27.8561      
   2123000   1.0136682      17.245687      27.629473    
   2124000   0.97189764     17.516382      27.604737    
   2125000   1.0673472      17.685835      27.393954    
   2126000   0.98821915     16.95705       27.090572    
   2127000   0.96996064     16.49761       27.121883    
   2128000   1.0318462      16.990066      27.125643    
   2129000   1.0484292      17.259197      27.040653    
   2130000   1.0011451      16.812577      26.917463    
   2131000   0.98792741     17.103318      26.955657    
   2132000   0.99015763     17.207956      26.852571    
   2133000   1.0317634      17.042741      26.684154    
   2134000   1.0134196      16.791619      26.664678    
   2135000   1.042336       17.779913      26.428821    
   2136000   0.94990782     16.543568      26.395131    
   2137000   0.9775598      17.796228      26.086616    
   2138000   0.99881886     16.6184        26.089783    
   2139000   1.011194       17.891572      26.049319    
   2140000   0.950036       17.503939      25.665999    
   2141000   0.99033776     17.197014      25.439394    
   2142000   1.051849       17.943642      25.257777    
   2143000   0.97806766     16.759379      25.15603     
   2144000   1.0251409      17.023967      25.065433    
   2145000   1.0454689      17.161507      25.175297    
   2146000   0.98856869     17.588742      25.238298    
   2147000   1.0145104      17.537796      25.051244    
   2148000   0.99080383     17.427082      25.000554    
   2149000   1.0735067      17.804335      24.896602    
   2150000   1.0325127      17.61035       24.869277    
   2151000   0.97269979     17.194748      24.57954     
   2152000   1.0103633      17.701224      24.525963    
   2153000   0.96883089     17.54112       24.365621    
   2154000   1.0013437      17.223548      24.261706    
   2155000   0.98335559     17.615583      24.203342    
   2156000   1.0028372      17.555175      24.346571    
   2157000   1.0012854      17.145385      24.276869    
   2158000   1.0127267      17.197275      24.106891    
   2159000   0.98016854     17.18714       23.740963    
   2160000   1.0493062      17.726733      23.624259    
   2161000   0.97973454     17.463413      23.438681    
   2162000   0.99306666     17.219562      23.188103    
   2163000   0.98193163     17.153507      22.887888    
   2164000   1.0388633      18.01528       22.972132    
   2165000   0.97533278     17.087065      22.7342      
   2166000   0.99390612     17.715628      22.716261    
   2167000   1.0009368      17.721831      22.687109    
   2168000   1.0064777      17.42807       22.675293    
   2169000   0.97796272     17.506484      22.688455    
   2170000   1.007927       17.008788      22.548859    
   2171000   0.97632304     17.449396      22.396516    
   2172000   0.9977049      17.270922      22.284132    
   2173000   1.0036079      17.225187      22.199099    
   2174000   1.0274899      17.214409      22.18667     
   2175000   1.0326976      17.183875      21.866559    
   2176000   0.95908783     16.770513      21.699924    
   2177000   0.97192923     17.540809      21.435279    
   2178000   1.0172148      17.104064      21.446221    
   2179000   1.0151827      16.908871      21.568235    
   2180000   1.0117586      17.019009      21.422867    
   2181000   0.98998815     16.761721      21.339313    
   2182000   0.99501632     17.356717      21.283423    
   2183000   1.0046625      16.661285      21.157372    
   2184000   0.99984699     17.081174      21.182547    
   2185000   0.95815282     16.582639      20.963824    
   2186000   1.0159464      17.482234      20.907892    
   2187000   1.0292285      17.807766      20.618846    
   2188000   1.0509756      17.472614      20.647074    
   2189000   1.0397683      17.569428      20.689281    
   2190000   0.98959899     16.498406      20.433789    
   2191000   1.0577811      17.368982      20.300879    
   2192000   1.0162645      17.217933      20.452131    
   2193000   0.98290619     17.356708      20.436029    
   2194000   0.99465227     17.288942      20.445262    
   2195000   0.99675736     17.221774      20.45307     
   2196000   0.96665108     17.154925      20.201574    
   2197000   1.0005743      17.257261      20.056191    
   2198000   0.93560382     16.582215      19.814549    
   2199000   1.027418       17.079258      19.609832    
   2200000   0.93798087     16.986516      19.543408    
   2201000   0.96219493     16.908012      19.491516    
   2202000   0.99099342     17.504801      19.519307    
   2203000   1.0259675      17.395631      19.404418    
   2204000   0.99171275     17.178624      19.193613    
   2205000   1.0016344      16.815709      19.188416    
   2206000   0.97871352     17.133906      19.084694    
   2207000   1.0037761      17.042837      18.992557    
   2208000   1.0044746      17.058697      18.562802    
   2209000   0.95247343     17.108719      18.235868    
   2210000   0.99095589     17.054393      18.377545    
   2211000   0.98721938     17.293721      18.516609    
   2212000   0.99741851     17.532274      18.557324    
   2213000   1.042978       17.054111      18.554187    
   2214000   1.0132894      17.724835      18.374021    
   2215000   0.99434358     16.681101      18.374174    
   2216000   0.9951956      17.505907      18.259648    
   2217000   1.0064903      17.54106       18.155453    
   2218000   1.0411182      17.576295      18.147502    
   2219000   0.99458392     16.8937        17.846049    
   2220000   1.0093819      17.181377      17.535727    
   2221000   1.0013932      17.522674      17.625103    
   2222000   0.97052918     16.7603        17.514049    
   2223000   0.95281449     17.597089      17.31315     
   2224000   0.9822703      17.126606      17.209478    
   2225000   1.0165066      16.975398      17.236948    
   2226000   1.0215697      18.149006      17.25727     
   2227000   0.96556508     17.129139      17.029899    
   2228000   0.99736666     16.795803      16.909772    
   2229000   1.0047256      17.680172      16.91485     
   2230000   1.0228555      17.692421      16.678137    
   2231000   0.9688721      16.809294      16.623219    
   2232000   0.97036939     17.478022      16.658617    
   2233000   1.0370918      17.557217      16.610443    
   2234000   1.0161279      16.710746      16.605055    
   2235000   1.00577        17.108375      16.390248    
   2236000   1.0000284      17.484984      16.359403    
   2237000   0.98974375     17.479994      16.241679    
   2238000   0.98936913     16.851994      16.388893    
   2239000   0.98903866     16.924807      16.104588    
   2240000   0.94769392     17.047216      15.971134    
   2241000   1.0376961      17.232915      15.846492    
   2242000   1.0154613      17.305529      15.856297    
   2243000   1.0306864      17.213442      15.972105    
   2244000   1.06229        17.313045      15.92432     
   2245000   1.0286299      16.940027      15.806712    
   2246000   0.979186       17.372343      15.844394    
   2247000   0.96450664     17.141243      15.643221    
   2248000   1.0135897      17.177053      15.625762    
   2249000   1.0005838      18.129656      15.661393    
   2250000   1.0464146      17.445317      15.489308    
   2251000   0.99170516     17.617358      15.783378    
   2252000   1.0148238      17.640656      15.636178    
   2253000   1.0259077      17.366499      15.584766    
   2254000   1.0602352      17.736392      15.352269    
   2255000   0.96037137     17.287203      14.990777    
   2256000   0.96760906     16.729616      14.84036     
   2257000   1.0124287      17.471492      14.659366    
   2258000   1.0241         17.572238      14.55973     
   2259000   0.98712839     17.344485      14.394163    
   2260000   1.0066241      17.064454      14.124222    
   2261000   1.0244404      16.969123      14.135784    
   2262000   0.93015183     16.987119      13.889016    
   2263000   0.98842651     17.495722      13.638261    
   2264000   1.0000567      17.148652      13.640391    
   2265000   1.0367925      17.072211      13.553064    
   2266000   1.0203108      17.563694      13.419035    
   2267000   1.022408       17.680365      13.120879    
   2268000   0.96386041     17.303053      13.272059    
   2269000   1.030845       17.660198      13.055504    
   2270000   1.0218902      17.368407      12.948566    
   2271000   0.99823102     16.24991       12.948258    
   2272000   1.0255852      17.044082      13.06424     
   2273000   1.0182515      17.905753      13.02354     
   2274000   0.94582439     16.700609      12.840019    
   2275000   1.0064623      17.228038      12.849165    
   2276000   1.0238599      17.184767      12.644173    
   2277000   1.0129689      17.651303      12.627378    
   2278000   1.0271866      17.582774      12.694916    
   2279000   0.99535326     17.27401       12.52939     
   2280000   0.99920281     17.129306      12.425206    
   2281000   1.0081281      17.138825      12.349634    
   2282000   0.97677737     17.347137      12.292902    
   2283000   1.0227949      17.384215      12.138897    
   2284000   1.0337291      17.426336      11.87659     
   2285000   1.0140876      16.973309      11.698224    
   2286000   1.0093785      17.355503      11.55025     
   2287000   0.96386935     16.618614      11.517723    
   2288000   0.96266972     16.311586      11.595339    
   2289000   1.0229887      17.121935      11.745001    
   2290000   1.0084252      17.318296      11.586921    
   2291000   0.9811855      17.043226      11.560515    
   2292000   1.0242797      17.532979      11.410413    
   2293000   1.037495       17.235141      11.369198    
   2294000   0.97355575     17.502981      11.297579    
   2295000   0.99886346     16.625111      11.192715    
   2296000   0.99982614     17.068582      11.111403    
   2297000   1.0156428      16.994155      10.851205    
   2298000   0.96215394     16.749611      10.997991    
   2299000   0.99445254     16.412811      11.058355    
   2300000   1.045192       17.552854      11.024991    
   2301000   0.98014844     17.19974       11.009567    
   2302000   1.0064576      17.566095      10.858504    
   2303000   0.98613971     17.130783      10.42706     
   2304000   1.0630265      17.044328      10.29589     
   2305000   0.99955603     16.843848      10.339769    
   2306000   0.97743496     17.140951      10.359704    
   2307000   1.0509402      16.644609      10.204035    
   2308000   0.99673106     17.812668      10.057185    
   2309000   1.0381787      17.532306      9.7941014    
   2310000   1.0204721      17.533608      9.7733991    
   2311000   0.96625041     16.418803      9.7744467    
   2312000   1.0197863      17.397922      9.8279134    
   2313000   1.0128605      17.475574      9.6761331    
   2314000   1.0489198      16.798207      9.6237869    
   2315000   0.97545194     17.073677      9.6323051    
   2316000   1.0275552      17.591037      9.6743025    
   2317000   0.95894043     17.089732      9.6806303    
   2318000   0.97493248     16.481302      9.6029007    
   2319000   1.0222353      16.776471      9.5039413    
   2320000   0.98460373     16.604846      9.5137845    
   2321000   1.0151716      17.367861      9.3500302    
   2322000   0.96525414     16.840659      9.2054543    
   2323000   1.0418004      18.088279      9.1805808    
   2324000   1.0247262      17.507907      9.0947794    
   2325000   0.98676674     16.992382      8.8193971    
   2326000   0.99883203     17.329598      8.6252983    
   2327000   1.0213103      17.340857      8.7186969    
   2328000   0.99337982     17.123679      8.5091024    
   2329000   0.99711897     17.357035      8.3166879    
   2330000   1.023958       16.853912      8.0958019    
   2331000   1.0071294      17.129819      8.0141726    
   2332000   1.0117735      17.643599      7.7231504    
   2333000   1.0418017      17.160675      7.535769     
   2334000   1.0393124      17.219444      7.3168349    
   2335000   1.0280802      17.00684       7.1187992    
Fix halt condition for fix-id 3 met on step 2336000 with value 6.8994302536516345 (src/fix_halt.cpp:237)
   2336000   1.0090001      17.010449      6.8994303    
Loop time of 3212.48 on 2 procs for 2236000 steps with 900 atoms

Performance: 601375.428 tau/day, 696.036 timesteps/s
121.1% CPU use with 1 MPI tasks x 2 OpenMP threads

MPI task timing breakdown:
Section |  min time  |  avg time  |  max time  |%varavg| %total
---------------------------------------------------------------
Pair    | 496.79     | 496.79     | 496.79     |   0.0 | 15.46
Bond    | 44.136     | 44.136     | 44.136     |   0.0 |  1.37
Neigh   | 2564.5     | 2564.5     | 2564.5     |   0.0 | 79.83
Comm    | 0.74298    | 0.74298    | 0.74298    |   0.0 |  0.02
Output  | 4.8105     | 4.8105     | 4.8105     |   0.0 |  0.15
Modify  | 94.274     | 94.274     | 94.274     |   0.0 |  2.93
Other   |            | 7.247      |            |       |  0.23

Nlocal:            900 ave         900 max         900 min
Histogram: 1 0 0 0 0 0 0 0 0 0
Nghost:              0 ave           0 max           0 min
Histogram: 1 0 0 0 0 0 0 0 0 0
Neighs:         174728 ave      174728 max      174728 min
Histogram: 1 0 0 0 0 0 0 0 0 0

Total # of neighbors = 174728
Ave neighs/atom = 194.14222
Ave special neighs/atom = 1.9977778
Neighbor list builds = 21524
Dangerous builds = 0

# This simulation is done
# Move onto the next one
clear
  using 2 OpenMP thread(s) per MPI task
package omp 0
using multi-threaded neighbor list subroutines
next f
jump SELF

###
# Reference paper:
# K. Kremer and G. S. Grest
# Dynamics of entangled linear polymer melts: A molecular-dynamics simulation
# J Chem Phys 92, 5057 (1990)

##################################
# MIHIR: for branched polymers
# LJ minimum first to expand and explore, then collapse
###

###
# Looping through the various linear polymers to simulate,
# define variables to switch through
# variable f index bb100nuc0bl0bn0d30tot100 bb200nuc0bl0bn0d30tot200 bb300nuc0bl0bn0d30tot300 bb400nuc0bl0bn0d30tot400 bb500nuc0bl0bn0d30tot500 bb600nuc0bl0bn0d30tot600 bb700nuc0bl0bn0d30tot700 bb800nuc0bl0bn0d30tot800 bb900nuc0bl0bn0d30tot900 bb1000nuc0bl0bn0d30tot1000 bb1100nuc0bl0bn0d30tot1100 bb1200nuc0bl0bn0d30tot1200
variable f index bb500nuc0bl0bn0d30tot500 bb600nuc0bl0bn0d30tot600 bb700nuc0bl0bn0d30tot700 bb800nuc0bl0bn0d30tot800 bb900nuc0bl0bn0d30tot900 bb1000nuc0bl0bn0d30tot1000 bb1100nuc0bl0bn0d30tot1100 bb1200nuc0bl0bn0d30tot1200
###


###
# Box and units  (use LJ units and periodic boundaries)
###

units lj
log linear/logs2/$f.log
log linear/logs2/bb1000nuc0bl0bn0d30tot1000.log
