#atom_style bond #no stiffness
atom_style angle #with stiffness

boundary        p p p
###
# Pair interactions require lists of neighbours to be calculated
###

#neighbor 0.3 bin
neighbor 4 bin

neigh_modify every 1 delay 1 check yes
atom_modify sort 0 0
### Generate RESTART file, SPECIAL format, not a .txt file ###
### Useful if simulation crashes ###

restart 1000000 nuc5branch4/restarts/$f.restart
restart 1000000 nuc5branch4/restarts/bb112nuc5bl18bn4d30tot300.restart
#############################



### READ "start" data file ###

read_data nuc5branch4/$f.dat
read_data nuc5branch4/bb112nuc5bl18bn4d30tot300.dat
Reading data file ...
  orthogonal box = (-1000 -1000 -1000) to (1000 1000 1000)
  1 by 1 by 2 MPI processor grid
  reading atoms ...
  293 atoms
  scanning bonds ...
  3 = max bonds/atom
  scanning angles ...
  6 = max angles/atom
  reading bonds ...
  292 bonds
  reading angles ...
  306 angles
Finding 1-2 1-3 1-4 neighbors ...
  special bond factors lj:    0        0        0       
  special bond factors coul:  0        0        0       
     4 = max # of 1-2 neighbors
     4 = max # of 1-3 neighbors
     8 = max # of 1-4 neighbors
    12 = max # of special neighbors
  special bonds CPU = 0.001 seconds
  read_data CPU = 0.035 seconds

######################

### READ "REstart" data file ###

######################



###
# Define groups (atom type 1 is group 'all')
###
group all type 1
293 atoms in group all


###
# Dump configs - "simple dumpings"
###

###
# Dump configs + box coords
###

dump   1   all   custom   1000  nuc5branch4/trjs/$f.lammpstrj  id  x y z  ix iy iz
dump   1   all   custom   1000  nuc5branch4/trjs/bb112nuc5bl18bn4d30tot300.lammpstrj  id  x y z  ix iy iz
dump_modify   1   format line "%d %.5f %.5f %.5f %d %d %d"

########################################################################


###################################################################
# Stiffness term
#
# E = K * (1+cos(theta)), K>0
#
angle_style   cosine
#change this coefficient to change stiffness (e.g. 1,5,10)
angle_coeff   1 1.0
###################################################################

###################################################################
# Pair interaction between non-bonded atoms
#
#  Lennard-Jones 12-6 potential with cutoff:
#  potential E=4epsilon[ (sigma/r)^12 - (sigma/r)^6]  for r<r_cut
#
#  1.12246 = 2^(1/6) is the minimum of the potential


pair_style      lj/cut 1.12246152962189
#pair_style      lj/cut 3

#
#  pair_modify shift yes adds a constant to the potential such

#  that E(r_cut)=0. Forces remains unchanged.
#

pair_modify     shift yes

#
#  pair_coeff for lj/cut, specify 4:
#    * atom type interacting with
#    * atom type
#    * epsilon (energy units)
#    * sigma (distance units)
#

pair_coeff      1 1 1.0 1.0
###################################################################

###################################################################
# Pair interaction between non-bonded atoms
#
#  soft potential, for PUSHING apart overlapping atoms
#  potential E=A*(1 + cos(pi*r/r_c))
#
#  1.12246 = 2^(1/6) is the cut-off r_c

#pair_style     soft 1.12246152962189

#
#  pair_coeff for soft, specify 3:
#    * atom type interacting with
#    * atom type
#    * A
#
#

#pair_coeff      1 1 100.0
###################################################################

###################################################################
# Pair interaction between bonded atoms
#
# Fene potential + Lennard Jones 12-6:

#
#  E= - 0.5 K R0^2 ln[ 1- (r/R0)^2]
#     + 4epsilon[ (sigma/r)^12 - (sigma/r)^6] + epsilon
#

bond_style   fene


#
# For style fene, specify:
#   * bond type
#   * K (energy/distance^2)
#   * R0 (distance)
#   * epsilon (energy)  (LJ component)
#   * sigma (distance)  (LJ component)
#


special_bonds fene #<=== I M P O R T A N T (new command)
Finding 1-2 1-3 1-4 neighbors ...
  special bond factors lj:    0        1        1       
  special bond factors coul:  0        1        1       
     4 = max # of 1-2 neighbors
    12 = max # of special neighbors
  special bonds CPU = 0.000 seconds

bond_coeff   1   30   2   1.0   1.0


###################################################

###################################################################
# Pair interaction between bonded atoms
#
# Harmonic potential:
#
#  E= K * (R-R0)^2
#

#bond_style   harmonic

#
# For style harmonic, specify:
#   * bond type
#   * K (energy/distance^2)
#   * R0 (distance)
#

#bond_coeff   1   60.0   1.0
#bond_coeff   2   harmonic 0.1   1.0

###################################################
compute 1 all gyration
variable rog equal c_1
#compute 2 all coord/atom cutoff 1.1

#dump 2 all custom 10000 contact_number.dump id c_2


###
# Set up fixes
###
thermo_style   custom   step  temp enthalpy c_1
fix 1 all nve   ###NVE ensemble

fix 2 all   langevin   1.0 1.0 1.0  100103   ###Langevin integrator Tstart Tstop 1/friction rndseed


##### Sample thermodynamic info  (temperature, energy, pressure, etc.) #####
thermo 1000









############################################################################

###
# set timestep of integrator

timestep 0.01

###
# run integration for a number of steps
###
#run 0
#variable r equal c_1
#if "$r < 63.1" then "quit 1"

# lj potential minimum, cause molecule to explore
run 100000
Generated 0 of 0 mixed pair_coeff terms from geometric mixing rule
Last active /omp style is angle_style cosine/omp
Neighbor list info ...
  update: every = 1 steps, delay = 1 steps, check = yes
  max neighbors/atom: 2000, page size: 100000
  master list distance cutoff = 5.1224615
  ghost atom cutoff = 5.1224615
  binsize = 2.5612308, bins = 781 781 781
  1 neighbor lists, perpetual/occasional/extra = 1 0 0
  (1) pair lj/cut/omp, perpetual
      attributes: half, newton on, omp
      pair build: half/bin/newton/omp
      stencil: half/bin/3d
      bin: standard
WARNING: Communication cutoff 5.12246152962189 is shorter than a bond length based estimate of 5.455. This may lead to errors. (src/comm.cpp:723)
Per MPI rank memory allocation (min/avg/max) = 942.3 | 942.5 | 942.6 Mbytes
   Step          Temp         Enthalpy         c_1      
         0   0              13.273084      23.954956    
      1000   1.0820612      19.706238      22.95328     
      2000   0.99414805     20.170777      22.079641    
      3000   1.0109172      20.2958        21.69211     
      4000   0.99660837     20.480032      20.98674     
      5000   0.98228656     20.296638      20.748937    
      6000   1.0188461      20.487737      20.899194    
      7000   1.1120748      20.752748      20.999674    
      8000   1.0575179      21.376093      20.551311    
      9000   0.97254231     20.848783      20.444886    
     10000   1.0290912      19.332103      20.349189    
     11000   0.95935031     21.062011      19.994556    
     12000   0.91353468     20.636445      19.720871    
     13000   0.92613956     19.622613      19.445244    
     14000   0.99583724     20.624285      19.234366    
     15000   1.03038        20.589637      19.245454    
     16000   1.0340801      21.293676      18.742919    
     17000   1.1063037      21.360276      18.967081    
     18000   0.93012895     19.818576      18.917507    
     19000   1.0361043      20.368101      18.644404    
     20000   1.1586257      20.792327      17.989823    
     21000   0.98650812     20.270014      17.82147     
     22000   1.0066089      20.866384      17.865516    
     23000   1.0464064      21.631947      18.265277    
     24000   0.96781586     21.059031      18.214367    
     25000   1.0883212      21.266366      18.357845    
     26000   1.0048356      21.091677      17.85087     
     27000   1.0456035      20.645756      17.815933    
     28000   1.0736718      20.510979      17.866222    
     29000   1.0332618      20.165824      17.928578    
     30000   0.97356091     20.512832      18.371051    
     31000   0.98987324     20.842898      18.114955    
     32000   0.9160454      20.725672      17.94303     
     33000   0.88324756     19.81298       18.094368    
     34000   0.89510528     19.699795      17.947247    
     35000   1.1004137      21.6084        18.140731    
     36000   0.95129734     20.840591      18.244197    
     37000   0.96753561     21.287042      18.056519    
     38000   0.95305466     20.082105      17.80467     
     39000   1.0242154      20.527758      17.850298    
     40000   1.0516385      21.285713      17.319241    
     41000   0.90661649     20.091471      17.068267    
     42000   1.0657411      21.444882      16.784985    
     43000   1.0893077      20.596288      16.997833    
     44000   0.99676759     20.617334      16.731435    
     45000   1.1025671      20.633246      16.499576    
     46000   1.0665612      19.670519      16.344581    
     47000   1.009431       20.456635      15.808635    
     48000   1.072263       21.460303      15.485665    
     49000   1.0724303      21.225941      15.412533    
     50000   0.96578855     21.345836      15.49107     
     51000   1.0817597      20.956062      15.761791    
     52000   0.9945946      20.12146       15.577461    
     53000   1.0493881      20.58924       15.423859    
     54000   1.0686445      19.253796      15.276596    
     55000   1.0971493      20.526568      15.346709    
     56000   1.0913413      21.16335       15.71321     
     57000   0.96514269     20.855302      15.592269    
     58000   1.0671991      20.060063      15.174753    
     59000   1.0258734      20.370785      14.911112    
     60000   1.0352449      19.128369      14.863796    
     61000   1.0238101      20.548246      14.66102     
     62000   1.0042125      20.651857      14.333429    
     63000   1.016151       21.14505       14.835196    
     64000   1.0010656      21.166253      14.760337    
     65000   1.0057544      20.542483      15.04787     
     66000   1.0255447      20.34967       15.078611    
     67000   0.98039321     20.388511      15.44016     
     68000   1.056796       20.366752      15.668621    
     69000   0.9325401      20.211463      15.090813    
     70000   1.0474175      19.77687       14.727008    
     71000   0.97496495     20.485856      14.90446     
     72000   1.0075846      20.166207      14.568232    
     73000   0.99256077     20.070777      14.602705    
     74000   1.0279711      19.974655      14.776456    
     75000   1.0472914      20.558565      14.528451    
     76000   1.014019       20.37672       14.847108    
     77000   1.0068103      20.724076      14.543083    
     78000   1.0531421      21.069329      14.723624    
     79000   1.0506464      21.188099      14.749059    
     80000   0.96992061     20.704698      14.691698    
     81000   0.98252246     21.847305      14.553448    
     82000   1.1205296      20.924982      14.13003     
     83000   0.95261266     20.231668      13.942893    
     84000   1.0984105      21.341505      14.316834    
     85000   1.0310047      20.57562       14.603701    
     86000   1.0397905      21.497845      14.485868    
     87000   1.0172545      20.194104      14.347733    
     88000   1.0807456      21.98103       14.031855    
     89000   1.016538       21.060825      13.999377    
     90000   0.97044453     20.973025      13.732453    
     91000   1.0273862      21.41576       14.096504    
     92000   0.91934574     19.703114      13.998847    
     93000   0.96127294     19.847109      13.745695    
     94000   0.94598967     20.409004      13.628732    
     95000   0.91419564     20.179978      13.914466    
     96000   1.0199824      21.376974      13.705325    
     97000   0.95876001     20.828351      13.515969    
     98000   0.97761908     20.014958      13.772189    
     99000   1.0266784      19.960151      13.574221    
    100000   1.0267587      19.646977      13.151161    
Loop time of 189.036 on 4 procs for 100000 steps with 293 atoms

Performance: 457055.694 tau/day, 529.000 timesteps/s
102.8% CPU use with 2 MPI tasks x 2 OpenMP threads

MPI task timing breakdown:
Section |  min time  |  avg time  |  max time  |%varavg| %total
---------------------------------------------------------------
Pair    | 0.079482   | 0.36319    | 0.64691    |  47.1 |  0.19
Bond    | 0.15367    | 0.45478    | 0.75588    |  44.7 |  0.24
Neigh   | 185.69     | 185.69     | 185.69     |   0.0 | 98.23
Comm    | 0.038341   | 0.042317   | 0.046293   |   1.9 |  0.02
Output  | 0.1279     | 0.1323     | 0.1367     |   1.2 |  0.07
Modify  | 0.22379    | 0.90347    | 1.5832     |  71.5 |  0.48
Other   |            | 1.445      |            |       |  0.76

Nlocal:          146.5 ave         293 max           0 min
Histogram: 1 0 0 0 0 0 0 0 0 1
Nghost:              0 ave           0 max           0 min
Histogram: 2 0 0 0 0 0 0 0 0 0
Neighs:         2028.5 ave        4057 max           0 min
Histogram: 1 0 0 0 0 0 0 0 0 1

Total # of neighbors = 4057
Ave neighs/atom = 13.846416
Ave special neighs/atom = 1.9931741
Neighbor list builds = 1077
Dangerous builds = 0

# Replace lj potential, now collapse
pair_style      lj/cut 3

# Cutoff simul when gyration under 10
# Variable created with equal requires v_ + 'name'
fix 3 all halt 1000 v_rog < 7

run 3000000
Generated 0 of 0 mixed pair_coeff terms from geometric mixing rule
Last active /omp style is angle_style cosine/omp
Per MPI rank memory allocation (min/avg/max) = 942.3 | 942.5 | 942.6 Mbytes
   Step          Temp         Enthalpy         c_1      
    100000   1.0267587      18.553489      13.151161    
    101000   1.0781139      20.169276      12.69844     
    102000   1.0242754      19.700956      12.186059    
    103000   1.0218051      19.080292      11.864811    
    104000   1.029085       18.961376      11.761906    
    105000   1.0221377      17.603972      11.564486    
    106000   1.0064297      19.601216      11.261841    
    107000   1.0603114      19.41779       11.232315    
    108000   1.1088885      18.272608      10.446449    
    109000   0.99441084     17.876954      10.183298    
    110000   0.9081779      17.181203      9.9529593    
    111000   0.93023135     17.164302      9.842843     
    112000   1.0257545      18.465936      9.6371318    
    113000   1.0238354      17.996643      9.4846242    
    114000   1.0061703      18.434175      9.1837389    
    115000   1.0040025      17.535428      9.1556377    
    116000   1.0407852      17.960041      8.5636117    
    117000   1.008267       18.231924      8.2944585    
    118000   0.98106985     18.008006      7.8544522    
    119000   1.0426985      17.210364      7.4144749    
    120000   1.0812086      17.512726      7.430697     
    121000   1.037344       18.029586      7.3499781    
    122000   1.0923124      18.198939      7.1202548    
    123000   1.10989        17.327206      7.4311128    
    124000   0.95494799     17.133947      7.3632303    
    125000   1.0242188      18.01466       7.1754443    
Fix halt condition for fix-id 3 met on step 126000 with value 6.965306014604102 (src/fix_halt.cpp:237)
    126000   1.0160216      17.76886       6.965306     
Loop time of 15.3989 on 4 procs for 26000 steps with 293 atoms

Performance: 1458805.499 tau/day, 1688.432 timesteps/s
116.0% CPU use with 2 MPI tasks x 2 OpenMP threads

MPI task timing breakdown:
Section |  min time  |  avg time  |  max time  |%varavg| %total
---------------------------------------------------------------
Pair    | 0.021502   | 0.73962    | 1.4577     |  83.5 |  4.80
Bond    | 0.039924   | 0.12052    | 0.20111    |  23.2 |  0.78
Neigh   | 13.23      | 13.23      | 13.23      |   0.0 | 85.92
Comm    | 0.0074373  | 0.0077389  | 0.0080406  |   0.3 |  0.05
Output  | 0.033268   | 0.034114   | 0.03496    |   0.5 |  0.22
Modify  | 0.060676   | 0.23706    | 0.41344    |  36.2 |  1.54
Other   |            | 1.03       |            |       |  6.69

Nlocal:          146.5 ave         293 max           0 min
Histogram: 1 0 0 0 0 0 0 0 0 1
Nghost:              0 ave           0 max           0 min
Histogram: 2 0 0 0 0 0 0 0 0 0
Neighs:        10814.5 ave       21629 max           0 min
Histogram: 1 0 0 0 0 0 0 0 0 1

Total # of neighbors = 21629
Ave neighs/atom = 73.819113
Ave special neighs/atom = 1.9931741
Neighbor list builds = 192
Dangerous builds = 0

# This simulation is done
# Move onto the next one
clear
  using 2 OpenMP thread(s) per MPI task
package omp 0
using multi-threaded neighbor list subroutines
next f
jump SELF

###
# Reference paper:
# K. Kremer and G. S. Grest
# Dynamics of entangled linear polymer melts: A molecular-dynamics simulation
# J Chem Phys 92, 5057 (1990)

##################################
# MIHIR: for branched polymers
# LJ minimum first to expand and explore, then collapse
###

###
# Looping through the various nuc5branch4 polymers to simulate,
# define variables to switch through
variable f index bb112nuc5bl18bn4d30tot300 bb150nuc5bl25bn4d30tot400 bb187nuc5bl31bn4d30tot500 bb225nuc5bl37bn4d30tot600 bb262nuc5bl43bn4d30tot700 bb300nuc5bl50bn4d30tot800 bb337nuc5bl56bn4d30tot900 bb375nuc5bl62bn4d30tot1000 bb412nuc5bl68bn4d30tot1100 bb450nuc5bl75bn4d30tot1200
# bb75nuc5bl12bn4d30tot200
###


###
# Box and units  (use LJ units and periodic boundaries)
###

units lj
log nuc5branch4/logs/$f.log
log nuc5branch4/logs/bb150nuc5bl25bn4d30tot400.log
