#atom_style bond #no stiffness
atom_style angle #with stiffness

boundary        p p p
###
# Pair interactions require lists of neighbours to be calculated
###

#neighbor 0.3 bin
neighbor 4 bin

neigh_modify every 1 delay 1 check yes
atom_modify sort 0 0
### Generate RESTART file, SPECIAL format, not a .txt file ###
### Useful if simulation crashes ###

restart 1000000 nuc5branch4/restarts/$f.restart
restart 1000000 nuc5branch4/restarts/bb187nuc5bl31bn4d30tot500.restart
#############################



### READ "start" data file ###

read_data nuc5branch4/$f.dat
read_data nuc5branch4/bb187nuc5bl31bn4d30tot500.dat
Reading data file ...
  orthogonal box = (-1000 -1000 -1000) to (1000 1000 1000)
  1 by 1 by 2 MPI processor grid
  reading atoms ...
  497 atoms
  scanning bonds ...
  3 = max bonds/atom
  scanning angles ...
  6 = max angles/atom
  reading bonds ...
  496 bonds
  reading angles ...
  510 angles
Finding 1-2 1-3 1-4 neighbors ...
  special bond factors lj:    0        0        0       
  special bond factors coul:  0        0        0       
     4 = max # of 1-2 neighbors
     4 = max # of 1-3 neighbors
     8 = max # of 1-4 neighbors
    12 = max # of special neighbors
  special bonds CPU = 0.001 seconds
  read_data CPU = 0.031 seconds

######################

### READ "REstart" data file ###

######################



###
# Define groups (atom type 1 is group 'all')
###
group all type 1
497 atoms in group all


###
# Dump configs - "simple dumpings"
###

###
# Dump configs + box coords
###

dump   1   all   custom   1000  nuc5branch4/trjs/$f.lammpstrj  id  x y z  ix iy iz
dump   1   all   custom   1000  nuc5branch4/trjs/bb187nuc5bl31bn4d30tot500.lammpstrj  id  x y z  ix iy iz
dump_modify   1   format line "%d %.5f %.5f %.5f %d %d %d"

########################################################################


###################################################################
# Stiffness term
#
# E = K * (1+cos(theta)), K>0
#
angle_style   cosine
#change this coefficient to change stiffness (e.g. 1,5,10)
angle_coeff   1 1.0
###################################################################

###################################################################
# Pair interaction between non-bonded atoms
#
#  Lennard-Jones 12-6 potential with cutoff:
#  potential E=4epsilon[ (sigma/r)^12 - (sigma/r)^6]  for r<r_cut
#
#  1.12246 = 2^(1/6) is the minimum of the potential


pair_style      lj/cut 1.12246152962189
#pair_style      lj/cut 3

#
#  pair_modify shift yes adds a constant to the potential such

#  that E(r_cut)=0. Forces remains unchanged.
#

pair_modify     shift yes

#
#  pair_coeff for lj/cut, specify 4:
#    * atom type interacting with
#    * atom type
#    * epsilon (energy units)
#    * sigma (distance units)
#

pair_coeff      1 1 1.0 1.0
###################################################################

###################################################################
# Pair interaction between non-bonded atoms
#
#  soft potential, for PUSHING apart overlapping atoms
#  potential E=A*(1 + cos(pi*r/r_c))
#
#  1.12246 = 2^(1/6) is the cut-off r_c

#pair_style     soft 1.12246152962189

#
#  pair_coeff for soft, specify 3:
#    * atom type interacting with
#    * atom type
#    * A
#
#

#pair_coeff      1 1 100.0
###################################################################

###################################################################
# Pair interaction between bonded atoms
#
# Fene potential + Lennard Jones 12-6:

#
#  E= - 0.5 K R0^2 ln[ 1- (r/R0)^2]
#     + 4epsilon[ (sigma/r)^12 - (sigma/r)^6] + epsilon
#

bond_style   fene


#
# For style fene, specify:
#   * bond type
#   * K (energy/distance^2)
#   * R0 (distance)
#   * epsilon (energy)  (LJ component)
#   * sigma (distance)  (LJ component)
#


special_bonds fene #<=== I M P O R T A N T (new command)
Finding 1-2 1-3 1-4 neighbors ...
  special bond factors lj:    0        1        1       
  special bond factors coul:  0        1        1       
     4 = max # of 1-2 neighbors
    12 = max # of special neighbors
  special bonds CPU = 0.000 seconds

bond_coeff   1   30   2   1.0   1.0


###################################################

###################################################################
# Pair interaction between bonded atoms
#
# Harmonic potential:
#
#  E= K * (R-R0)^2
#

#bond_style   harmonic

#
# For style harmonic, specify:
#   * bond type
#   * K (energy/distance^2)
#   * R0 (distance)
#

#bond_coeff   1   60.0   1.0
#bond_coeff   2   harmonic 0.1   1.0

###################################################
compute 1 all gyration
variable rog equal c_1
#compute 2 all coord/atom cutoff 1.1

#dump 2 all custom 10000 contact_number.dump id c_2


###
# Set up fixes
###
thermo_style   custom   step  temp enthalpy c_1
fix 1 all nve   ###NVE ensemble

fix 2 all   langevin   1.0 1.0 1.0  100103   ###Langevin integrator Tstart Tstop 1/friction rndseed


##### Sample thermodynamic info  (temperature, energy, pressure, etc.) #####
thermo 1000









############################################################################

###
# set timestep of integrator

timestep 0.01

###
# run integration for a number of steps
###
#run 0
#variable r equal c_1
#if "$r < 63.1" then "quit 1"

# lj potential minimum, cause molecule to explore
run 100000
Generated 0 of 0 mixed pair_coeff terms from geometric mixing rule
Last active /omp style is angle_style cosine/omp
Neighbor list info ...
  update: every = 1 steps, delay = 1 steps, check = yes
  max neighbors/atom: 2000, page size: 100000
  master list distance cutoff = 5.1224615
  ghost atom cutoff = 5.1224615
  binsize = 2.5612308, bins = 781 781 781
  1 neighbor lists, perpetual/occasional/extra = 1 0 0
  (1) pair lj/cut/omp, perpetual
      attributes: half, newton on, omp
      pair build: half/bin/newton/omp
      stencil: half/bin/3d
      bin: standard
WARNING: Communication cutoff 5.12246152962189 is shorter than a bond length based estimate of 5.455. This may lead to errors. (src/comm.cpp:723)
Per MPI rank memory allocation (min/avg/max) = 941.4 | 942 | 942.6 Mbytes
   Step          Temp         Enthalpy         c_1      
         0   0              13.258451      38.704835    
      1000   0.99891401     19.059407      37.989231    
      2000   0.97505249     19.102351      36.842265    
      3000   1.0952154      20.099719      36.160722    
      4000   0.98735975     19.888074      35.700974    
      5000   0.98660691     19.969676      35.434602    
      6000   0.98093977     20.033548      34.752094    
      7000   1.018347       20.07133       34.162919    
      8000   1.034856       19.856915      33.891203    
      9000   0.99007031     20.714423      33.610296    
     10000   0.95097163     20.809552      33.293912    
     11000   1.0177002      19.838629      33.454079    
     12000   1.0449699      20.333744      33.608333    
     13000   0.95774832     19.644085      33.192015    
     14000   0.96300815     19.718068      32.74343     
     15000   0.99741224     20.319089      32.667235    
     16000   1.0218207      19.885836      32.504834    
     17000   1.041296       19.781446      32.19304     
     18000   1.0412308      19.667524      31.949905    
     19000   1.0102208      20.254796      31.924862    
     20000   0.95011953     20.543167      31.993372    
     21000   1.0067878      20.918273      32.149976    
     22000   1.0112243      20.881895      32.239075    
     23000   0.99529918     20.45657       31.993653    
     24000   1.0353361      20.452267      31.732872    
     25000   1.051154       20.78803       31.798491    
     26000   1.0090201      20.177142      31.655317    
     27000   1.0418726      20.317863      31.280909    
     28000   0.97461262     20.029743      30.851262    
     29000   1.0337841      20.666301      30.558579    
     30000   0.97835679     20.910369      30.523401    
     31000   0.95092587     20.881708      30.330292    
     32000   1.0411551      20.319281      30.142812    
     33000   0.92308997     19.590731      30.129222    
     34000   0.98966187     20.875511      29.812091    
     35000   0.93419455     20.851491      29.713802    
     36000   1.0171271      20.286826      29.644829    
     37000   0.98817818     19.878193      29.79052     
     38000   0.99814556     20.886273      29.787818    
     39000   0.98970538     20.421197      29.854635    
     40000   1.0095281      21.049084      29.653945    
     41000   0.98506709     20.440807      29.72473     
     42000   0.95106874     20.391991      29.655784    
     43000   0.95919545     20.771835      29.614023    
     44000   0.99132435     20.680294      29.500977    
     45000   0.98765816     21.046766      29.443773    
     46000   0.99606015     20.593763      29.593874    
     47000   1.040121       20.341295      29.538244    
     48000   0.98313624     20.768829      29.670412    
     49000   1.049969       20.01321       29.591651    
     50000   1.0641006      20.276146      29.655762    
     51000   1.0265293      20.692188      29.675486    
     52000   1.0179038      20.547903      29.771622    
     53000   1.0134116      20.625398      29.634211    
     54000   1.022712       20.765526      29.279655    
     55000   1.0211337      20.252172      29.206776    
     56000   1.0051926      20.506928      28.894158    
     57000   0.95719222     20.78231       28.932079    
     58000   1.0037261      20.601868      28.5188      
     59000   1.0040753      20.668533      28.466829    
     60000   1.016365       20.541805      28.305307    
     61000   1.0780256      20.879205      28.185627    
     62000   0.99950207     20.616341      28.285928    
     63000   1.0179906      20.522785      28.391718    
     64000   0.98752508     20.666167      28.36972     
     65000   1.0219951      20.475356      28.359945    
     66000   0.95156013     20.087694      28.29702     
     67000   1.0301417      20.579471      28.634119    
     68000   1.0328857      20.934554      28.589926    
     69000   0.95322771     20.182723      28.269978    
     70000   0.97619308     20.187614      27.982379    
     71000   1.0259129      20.30332       27.990614    
     72000   0.96921871     20.420301      28.187404    
     73000   1.0003579      20.31819       27.982259    
     74000   0.95961252     20.787793      27.944703    
     75000   0.97934866     20.11882       27.71675     
     76000   1.0492267      20.404682      27.832812    
     77000   0.99249946     20.281699      27.780261    
     78000   1.0414278      20.652288      27.470549    
     79000   1.0251875      20.611318      27.39297     
     80000   1.0094505      19.779475      27.477838    
     81000   0.98881891     20.52187       27.601904    
     82000   1.0390106      21.549759      27.479542    
     83000   1.0381411      20.354412      27.34643     
     84000   0.95863691     20.63982       27.448398    
     85000   0.95044727     19.535128      27.174757    
     86000   0.97300077     20.575806      27.104492    
     87000   1.0632218      20.821527      27.368265    
     88000   1.0087856      20.611798      27.62511     
     89000   1.0047026      20.542347      27.216165    
     90000   0.95127399     20.952135      27.142871    
     91000   1.0339628      21.134719      26.800307    
     92000   1.0287189      21.052598      26.559927    
     93000   0.9850804      21.12472       26.112445    
     94000   0.95379509     20.703396      26.072944    
     95000   1.0730348      20.102385      25.717258    
     96000   0.99036892     20.446263      25.912717    
     97000   0.99718463     20.255396      25.800685    
     98000   1.0521674      20.400313      25.581668    
     99000   0.98835751     20.297153      25.178907    
    100000   0.99016064     21.454182      24.905331    
Loop time of 165.687 on 4 procs for 100000 steps with 497 atoms

Performance: 521464.734 tau/day, 603.547 timesteps/s
104.1% CPU use with 2 MPI tasks x 2 OpenMP threads

MPI task timing breakdown:
Section |  min time  |  avg time  |  max time  |%varavg| %total
---------------------------------------------------------------
Pair    | 0.078206   | 0.48481    | 0.89142    |  58.4 |  0.29
Bond    | 0.14981    | 0.63001    | 1.1102     |  60.5 |  0.38
Neigh   | 160.8      | 160.8      | 160.8      |   0.0 | 97.05
Comm    | 0.031225   | 0.031585   | 0.031945   |   0.2 |  0.02
Output  | 0.16441    | 0.16995    | 0.17549    |   1.3 |  0.10
Modify  | 0.22636    | 1.3388     | 2.4513     |  96.1 |  0.81
Other   |            | 2.232      |            |       |  1.35

Nlocal:          248.5 ave         497 max           0 min
Histogram: 1 0 0 0 0 0 0 0 0 1
Nghost:              0 ave           0 max           0 min
Histogram: 2 0 0 0 0 0 0 0 0 0
Neighs:         2963.5 ave        5927 max           0 min
Histogram: 1 0 0 0 0 0 0 0 0 1

Total # of neighbors = 5927
Ave neighs/atom = 11.925553
Ave special neighs/atom = 1.9959759
Neighbor list builds = 1130
Dangerous builds = 0

# Replace lj potential, now collapse
pair_style      lj/cut 3

# Cutoff simul when gyration under 10
# Variable created with equal requires v_ + 'name'
fix 3 all halt 1000 v_rog < 7

run 3000000
Generated 0 of 0 mixed pair_coeff terms from geometric mixing rule
Last active /omp style is angle_style cosine/omp
Per MPI rank memory allocation (min/avg/max) = 941.4 | 942 | 942.6 Mbytes
   Step          Temp         Enthalpy         c_1      
    100000   0.99016064     20.324883      24.905331    
    101000   1.0423098      19.772204      24.474778    
    102000   1.0741452      18.833201      24.029475    
    103000   0.97152251     18.671115      23.66885     
    104000   0.9735742      18.416174      23.390651    
    105000   1.0201938      18.333298      23.245216    
    106000   1.0158858      18.175975      23.187045    
    107000   0.99167964     17.860588      23.179848    
    108000   0.98279205     18.55449       23.068032    
    109000   1.0073723      18.163769      23.02492     
    110000   0.97933581     18.176941      22.568358    
    111000   1.0187374      18.686221      22.246903    
    112000   0.97928128     18.776952      22.274764    
    113000   1.0065735      18.123655      22.091693    
    114000   1.0017655      18.585264      21.974684    
    115000   1.003674       18.5041        21.818695    
    116000   0.99519734     17.86665       21.448823    
    117000   1.0135633      18.598567      21.138907    
    118000   1.0746043      17.894087      21.178981    
    119000   1.0454421      18.295412      21.169677    
    120000   1.0763622      17.764887      21.073544    
    121000   1.0070728      17.845711      20.701123    
    122000   0.96940444     18.077217      20.94864     
    123000   0.9845697      17.495048      20.427117    
    124000   1.0167615      18.744568      20.129955    
    125000   0.97619766     18.290555      19.957837    
    126000   0.97709354     17.435905      19.91015     
    127000   1.0104374      17.873251      19.702854    
    128000   0.97372301     17.799476      19.612917    
    129000   1.0226668      17.57667       19.390679    
    130000   0.96993103     17.481315      19.240979    
    131000   1.0189619      16.843367      19.142635    
    132000   0.98635071     18.293936      19.014393    
    133000   1.0131158      17.864017      19.036347    
    134000   1.046466       18.170879      19.089201    
    135000   0.92481536     17.609529      19.238172    
    136000   1.0455741      18.892002      19.206768    
    137000   1.0199459      17.531096      19.236346    
    138000   1.0216649      18.077128      19.165681    
    139000   0.98441505     17.739156      19.15359     
    140000   0.98988601     17.696011      18.899596    
    141000   0.99370894     17.722849      18.743898    
    142000   0.97509841     17.983272      18.487503    
    143000   1.0257882      18.03719       18.319564    
    144000   1.0466494      17.992058      18.648556    
    145000   1.0133068      17.4703        18.675857    
    146000   1.0129033      18.570683      18.343492    
    147000   1.0316067      17.833369      18.216473    
    148000   0.95632594     17.275808      18.18551     
    149000   1.0069897      18.68146       18.198897    
    150000   0.9218291      17.972772      18.186395    
    151000   1.0143492      18.312451      18.004231    
    152000   1.0193968      17.140643      17.87744     
    153000   0.99335578     17.792603      17.467414    
    154000   0.93667967     17.622417      17.447423    
    155000   0.96489609     17.204871      17.406063    
    156000   1.0100919      17.903274      17.206944    
    157000   0.91318662     17.505982      17.107763    
    158000   1.0010569      17.682278      17.151239    
    159000   1.003987       18.257121      17.099878    
    160000   1.0520977      17.670367      16.914989    
    161000   1.0415241      17.548162      16.578826    
    162000   1.0387805      17.408212      16.494506    
    163000   0.96646692     17.42941       16.410738    
    164000   1.0406156      17.51849       16.273666    
    165000   1.0253512      18.1484        16.182079    
    166000   0.97197449     18.369342      16.11582     
    167000   0.99958504     17.462179      15.877899    
    168000   0.94840504     17.8543        15.540834    
    169000   1.025868       17.200743      15.328317    
    170000   0.99296852     18.005987      15.066774    
    171000   1.017537       18.680066      14.976485    
    172000   1.0065916      17.74513       14.813157    
    173000   1.0103922      17.33968       14.496102    
    174000   0.9708034      17.774826      14.399072    
    175000   0.99014856     17.336565      13.988826    
    176000   0.96532477     17.702057      13.736537    
    177000   1.0935463      17.656643      13.562632    
    178000   0.95503978     18.099876      13.171576    
    179000   0.93887942     17.302864      12.613417    
    180000   0.98661631     18.040688      12.461589    
    181000   0.99092869     17.130172      12.19421     
    182000   1.0404246      17.577557      12.139809    
    183000   1.0139324      17.53089       11.926085    
    184000   1.0122595      17.489736      11.9796      
    185000   0.98771729     17.555646      12.337382    
    186000   1.0041371      17.604531      12.317486    
    187000   0.97012699     17.167005      12.073819    
    188000   1.0994288      18.678972      11.947129    
    189000   1.0196521      17.541207      11.934218    
    190000   0.93081167     17.062452      11.795918    
    191000   1.0165684      17.942124      11.447809    
    192000   1.0118303      18.070373      11.502723    
    193000   1.0011563      17.3307        11.488932    
    194000   0.9983236      16.868265      11.704476    
    195000   1.0255767      17.164445      11.56473     
    196000   0.96956463     17.90436       11.425091    
    197000   1.0116422      17.196198      11.088589    
    198000   1.0306356      17.579044      10.817163    
    199000   0.94831227     18.072119      10.862283    
    200000   0.98688037     18.364523      10.516521    
    201000   1.0147252      17.583609      9.7586613    
    202000   0.98361104     17.387379      9.3794362    
    203000   0.93768452     18.16067       9.0749655    
    204000   0.99214499     17.177129      8.8125151    
    205000   1.0388069      17.58465       8.456446     
    206000   0.99506031     18.122804      8.23765      
    207000   1.0107802      17.901648      7.9819417    
    208000   1.0083868      17.023212      7.9002825    
    209000   1.001061       17.021399      8.0796936    
    210000   1.0069726      17.627108      8.0079696    
    211000   1.0104919      17.910284      7.7019646    
    212000   0.97442549     17.971498      7.5001045    
    213000   0.99118522     17.385448      7.3438301    
    214000   1.0843771      18.498021      7.5224686    
    215000   0.95992148     17.748365      7.4400586    
    216000   0.97108864     16.69634       7.2728772    
    217000   0.97158683     17.282105      7.422007     
    218000   1.0099318      17.221765      7.3757017    
    219000   0.97101732     17.656031      7.2512212    
    220000   1.0165244      17.866625      7.2288781    
    221000   1.0444393      17.651268      7.0659919    
    222000   1.0655574      17.435166      7.0032711    
    223000   1.0310188      17.725588      7.0585286    
    224000   0.98047918     17.887738      7.0009989    
Fix halt condition for fix-id 3 met on step 225000 with value 6.783728055795262 (src/fix_halt.cpp:237)
    225000   0.93901339     17.789016      6.7837281    
Loop time of 84.4556 on 4 procs for 125000 steps with 497 atoms

Performance: 1278778.627 tau/day, 1480.068 timesteps/s
127.6% CPU use with 2 MPI tasks x 2 OpenMP threads

MPI task timing breakdown:
Section |  min time  |  avg time  |  max time  |%varavg| %total
---------------------------------------------------------------
Pair    | 0.12058    | 8.141      | 16.161     | 281.1 |  9.64
Bond    | 0.21147    | 0.89664    | 1.5818     |  72.4 |  1.06
Neigh   | 62.656     | 62.656     | 62.656     |   0.0 | 74.19
Comm    | 0.048197   | 0.049807   | 0.051417   |   0.7 |  0.06
Output  | 0.21934    | 0.22306    | 0.22677    |   0.8 |  0.26
Modify  | 0.39062    | 1.8545     | 3.3184     | 107.5 |  2.20
Other   |            | 10.63      |            |       | 12.59

Nlocal:          248.5 ave         497 max           0 min
Histogram: 1 0 0 0 0 0 0 0 0 1
Nghost:              0 ave           0 max           0 min
Histogram: 2 0 0 0 0 0 0 0 0 0
Neighs:        29715.5 ave       59431 max           0 min
Histogram: 1 0 0 0 0 0 0 0 0 1

Total # of neighbors = 59431
Ave neighs/atom = 119.57948
Ave special neighs/atom = 1.9959759
Neighbor list builds = 969
Dangerous builds = 0

# This simulation is done
# Move onto the next one
clear
  using 2 OpenMP thread(s) per MPI task
package omp 0
using multi-threaded neighbor list subroutines
next f
jump SELF

###
# Reference paper:
# K. Kremer and G. S. Grest
# Dynamics of entangled linear polymer melts: A molecular-dynamics simulation
# J Chem Phys 92, 5057 (1990)

##################################
# MIHIR: for branched polymers
# LJ minimum first to expand and explore, then collapse
###

###
# Looping through the various nuc5branch4 polymers to simulate,
# define variables to switch through
variable f index bb112nuc5bl18bn4d30tot300 bb150nuc5bl25bn4d30tot400 bb187nuc5bl31bn4d30tot500 bb225nuc5bl37bn4d30tot600 bb262nuc5bl43bn4d30tot700 bb300nuc5bl50bn4d30tot800 bb337nuc5bl56bn4d30tot900 bb375nuc5bl62bn4d30tot1000 bb412nuc5bl68bn4d30tot1100 bb450nuc5bl75bn4d30tot1200
# bb75nuc5bl12bn4d30tot200
###


###
# Box and units  (use LJ units and periodic boundaries)
###

units lj
log nuc5branch4/logs/$f.log
log nuc5branch4/logs/bb225nuc5bl37bn4d30tot600.log
