#atom_style bond #no stiffness
atom_style angle #with stiffness

boundary        p p p
###
# Pair interactions require lists of neighbours to be calculated
###

#neighbor 0.3 bin
neighbor 4 bin

neigh_modify every 1 delay 1 check yes
atom_modify sort 0 0
### Generate RESTART file, SPECIAL format, not a .txt file ###
### Useful if simulation crashes ###

restart 1000000 nuc5branch4/restarts/$f.restart
restart 1000000 nuc5branch4/restarts/bb225nuc5bl37bn4d30tot600.restart
#############################



### READ "start" data file ###

read_data nuc5branch4/$f.dat
read_data nuc5branch4/bb225nuc5bl37bn4d30tot600.dat
Reading data file ...
  orthogonal box = (-1000 -1000 -1000) to (1000 1000 1000)
  1 by 1 by 2 MPI processor grid
  reading atoms ...
  597 atoms
  scanning bonds ...
  3 = max bonds/atom
  scanning angles ...
  6 = max angles/atom
  reading bonds ...
  596 bonds
  reading angles ...
  610 angles
Finding 1-2 1-3 1-4 neighbors ...
  special bond factors lj:    0        0        0       
  special bond factors coul:  0        0        0       
     4 = max # of 1-2 neighbors
     4 = max # of 1-3 neighbors
     8 = max # of 1-4 neighbors
    12 = max # of special neighbors
  special bonds CPU = 0.001 seconds
  read_data CPU = 0.042 seconds

######################

### READ "REstart" data file ###

######################



###
# Define groups (atom type 1 is group 'all')
###
group all type 1
597 atoms in group all


###
# Dump configs - "simple dumpings"
###

###
# Dump configs + box coords
###

dump   1   all   custom   1000  nuc5branch4/trjs/$f.lammpstrj  id  x y z  ix iy iz
dump   1   all   custom   1000  nuc5branch4/trjs/bb225nuc5bl37bn4d30tot600.lammpstrj  id  x y z  ix iy iz
dump_modify   1   format line "%d %.5f %.5f %.5f %d %d %d"

########################################################################


###################################################################
# Stiffness term
#
# E = K * (1+cos(theta)), K>0
#
angle_style   cosine
#change this coefficient to change stiffness (e.g. 1,5,10)
angle_coeff   1 1.0
###################################################################

###################################################################
# Pair interaction between non-bonded atoms
#
#  Lennard-Jones 12-6 potential with cutoff:
#  potential E=4epsilon[ (sigma/r)^12 - (sigma/r)^6]  for r<r_cut
#
#  1.12246 = 2^(1/6) is the minimum of the potential


pair_style      lj/cut 1.12246152962189
#pair_style      lj/cut 3

#
#  pair_modify shift yes adds a constant to the potential such

#  that E(r_cut)=0. Forces remains unchanged.
#

pair_modify     shift yes

#
#  pair_coeff for lj/cut, specify 4:
#    * atom type interacting with
#    * atom type
#    * epsilon (energy units)
#    * sigma (distance units)
#

pair_coeff      1 1 1.0 1.0
###################################################################

###################################################################
# Pair interaction between non-bonded atoms
#
#  soft potential, for PUSHING apart overlapping atoms
#  potential E=A*(1 + cos(pi*r/r_c))
#
#  1.12246 = 2^(1/6) is the cut-off r_c

#pair_style     soft 1.12246152962189

#
#  pair_coeff for soft, specify 3:
#    * atom type interacting with
#    * atom type
#    * A
#
#

#pair_coeff      1 1 100.0
###################################################################

###################################################################
# Pair interaction between bonded atoms
#
# Fene potential + Lennard Jones 12-6:

#
#  E= - 0.5 K R0^2 ln[ 1- (r/R0)^2]
#     + 4epsilon[ (sigma/r)^12 - (sigma/r)^6] + epsilon
#

bond_style   fene


#
# For style fene, specify:
#   * bond type
#   * K (energy/distance^2)
#   * R0 (distance)
#   * epsilon (energy)  (LJ component)
#   * sigma (distance)  (LJ component)
#


special_bonds fene #<=== I M P O R T A N T (new command)
Finding 1-2 1-3 1-4 neighbors ...
  special bond factors lj:    0        1        1       
  special bond factors coul:  0        1        1       
     4 = max # of 1-2 neighbors
    12 = max # of special neighbors
  special bonds CPU = 0.000 seconds

bond_coeff   1   30   2   1.0   1.0


###################################################

###################################################################
# Pair interaction between bonded atoms
#
# Harmonic potential:
#
#  E= K * (R-R0)^2
#

#bond_style   harmonic

#
# For style harmonic, specify:
#   * bond type
#   * K (energy/distance^2)
#   * R0 (distance)
#

#bond_coeff   1   60.0   1.0
#bond_coeff   2   harmonic 0.1   1.0

###################################################
compute 1 all gyration
variable rog equal c_1
#compute 2 all coord/atom cutoff 1.1

#dump 2 all custom 10000 contact_number.dump id c_2


###
# Set up fixes
###
thermo_style   custom   step  temp enthalpy c_1
fix 1 all nve   ###NVE ensemble

fix 2 all   langevin   1.0 1.0 1.0  100103   ###Langevin integrator Tstart Tstop 1/friction rndseed


##### Sample thermodynamic info  (temperature, energy, pressure, etc.) #####
thermo 1000









############################################################################

###
# set timestep of integrator

timestep 0.01

###
# run integration for a number of steps
###
#run 0
#variable r equal c_1
#if "$r < 63.1" then "quit 1"

# lj potential minimum, cause molecule to explore
run 100000
Generated 0 of 0 mixed pair_coeff terms from geometric mixing rule
Last active /omp style is angle_style cosine/omp
Neighbor list info ...
  update: every = 1 steps, delay = 1 steps, check = yes
  max neighbors/atom: 2000, page size: 100000
  master list distance cutoff = 5.1224615
  ghost atom cutoff = 5.1224615
  binsize = 2.5612308, bins = 781 781 781
  1 neighbor lists, perpetual/occasional/extra = 1 0 0
  (1) pair lj/cut/omp, perpetual
      attributes: half, newton on, omp
      pair build: half/bin/newton/omp
      stencil: half/bin/3d
      bin: standard
WARNING: Communication cutoff 5.12246152962189 is shorter than a bond length based estimate of 5.455. This may lead to errors. (src/comm.cpp:723)
Per MPI rank memory allocation (min/avg/max) = 941.4 | 942 | 942.6 Mbytes
   Step          Temp         Enthalpy         c_1      
         0   0              13.233278      46.672122    
      1000   1.0428331      19.080163      45.832607    
      2000   0.99328763     19.471605      45.356088    
      3000   0.98911613     19.511409      44.667952    
      4000   1.0180498      19.363539      44.139106    
      5000   1.0263123      19.968561      43.941517    
      6000   0.98142336     19.610016      43.360901    
      7000   1.0191814      20.697763      43.140529    
      8000   0.96595463     20.243353      42.911198    
      9000   1.0516678      20.374799      42.528316    
     10000   0.94249968     20.469378      42.030657    
     11000   0.98719203     20.025567      41.776326    
     12000   1.0651286      19.419849      41.647833    
     13000   1.0899038      20.468335      41.615586    
     14000   1.0298171      20.415915      41.438493    
     15000   0.98257327     20.869807      41.27152     
     16000   0.99077777     20.018341      41.202181    
     17000   0.97261043     20.710232      41.140974    
     18000   1.0320776      19.584678      41.145128    
     19000   0.98419602     19.872637      40.861185    
     20000   0.9339522      20.330994      40.737201    
     21000   0.98124469     20.492459      40.617568    
     22000   1.0327309      20.515117      40.714628    
     23000   0.96994844     20.528168      40.686058    
     24000   1.0143923      20.015302      40.408799    
     25000   0.99842731     20.838733      40.294655    
     26000   0.97389306     20.415372      39.962023    
     27000   0.9932272      20.484348      40.007201    
     28000   1.0004338      20.494648      39.862725    
     29000   0.98578992     20.358224      39.83943     
     30000   0.97550532     19.561873      39.698992    
     31000   0.98364435     20.15878       39.412999    
     32000   1.00447        20.924473      39.207953    
     33000   0.92862802     20.189717      38.848994    
     34000   1.0410041      20.418998      38.817316    
     35000   1.0503916      20.623982      38.874252    
     36000   0.98763324     19.953292      39.039798    
     37000   1.0411639      20.157901      38.938753    
     38000   0.98659931     21.324008      38.794459    
     39000   1.018034       20.682064      38.427451    
     40000   0.98241481     20.49279       38.424917    
     41000   1.0406849      20.817083      38.07074     
     42000   0.99229281     20.216646      37.97289     
     43000   0.94740199     20.438119      37.807864    
     44000   1.0155682      20.61399       37.824226    
     45000   1.0344503      20.242652      37.715618    
     46000   0.99273495     19.872687      37.406614    
     47000   0.97592003     20.431471      36.959378    
     48000   0.99592489     20.449699      37.092667    
     49000   1.0394202      21.276021      37.258507    
     50000   0.99589303     20.222604      36.987993    
     51000   1.0222499      20.333497      36.820154    
     52000   1.0124414      20.641115      36.844118    
     53000   0.98176432     20.292186      36.638274    
     54000   0.98640607     20.632408      36.567335    
     55000   1.0162043      20.60463       36.61483     
     56000   1.0588954      20.775543      36.63143     
     57000   1.0487186      20.575978      36.110277    
     58000   0.9869158      19.31151       35.515404    
     59000   0.92005831     20.466927      35.372688    
     60000   1.0770697      20.396159      35.40479     
     61000   1.02225        20.854724      35.26299     
     62000   0.9797505      20.472257      35.11937     
     63000   0.95307866     20.413424      34.928002    
     64000   0.98400806     19.919097      34.800017    
     65000   1.0135009      20.679715      34.826473    
     66000   0.9714091      20.396863      34.740272    
     67000   0.9974768      21.273819      34.61753     
     68000   1.0240309      20.227961      34.463593    
     69000   0.99464585     20.740398      34.212227    
     70000   0.97173059     20.017666      34.15981     
     71000   1.0256451      20.130236      34.023699    
     72000   1.0113059      20.89505       33.94102     
     73000   0.99397953     20.255093      33.807451    
     74000   0.96397375     20.675568      33.82938     
     75000   0.94168892     20.462223      33.656889    
     76000   0.9940441      20.393162      33.891811    
     77000   1.0192311      21.17652       33.757918    
     78000   1.0159813      20.22879       33.639095    
     79000   0.98915569     20.640167      33.385972    
     80000   0.9908431      20.336803      33.27505     
     81000   0.97447143     21.008723      33.199727    
     82000   0.98940757     20.803731      33.274625    
     83000   1.0061364      20.732664      33.0468      
     84000   0.98599657     20.556167      33.074548    
     85000   0.96640694     21.09436       33.044265    
     86000   1.0358174      20.890731      32.97673     
     87000   0.94047648     20.62648       32.777751    
     88000   0.99927921     20.582798      32.412882    
     89000   0.99837874     21.223558      32.098288    
     90000   0.94699189     20.126236      32.00102     
     91000   0.98550624     20.429844      31.907869    
     92000   1.0128904      20.945954      31.944917    
     93000   0.98943605     20.32559       32.015094    
     94000   1.0658073      20.486574      31.649654    
     95000   0.99143369     20.751966      31.67046     
     96000   1.0102269      20.631935      31.503211    
     97000   0.99669444     20.029386      31.631989    
     98000   0.97021875     20.159936      31.581317    
     99000   1.0112234      20.272732      31.595206    
    100000   1.0356197      21.183826      31.374589    
Loop time of 184.289 on 4 procs for 100000 steps with 597 atoms

Performance: 468828.363 tau/day, 542.625 timesteps/s
104.1% CPU use with 2 MPI tasks x 2 OpenMP threads

MPI task timing breakdown:
Section |  min time  |  avg time  |  max time  |%varavg| %total
---------------------------------------------------------------
Pair    | 0.081646   | 0.54714    | 1.0126     |  62.9 |  0.30
Bond    | 0.15332    | 0.74188    | 1.3304     |  68.3 |  0.40
Neigh   | 178.65     | 178.65     | 178.65     |   0.0 | 96.94
Comm    | 0.035479   | 0.035925   | 0.036371   |   0.2 |  0.02
Output  | 0.17764    | 0.1837     | 0.18975    |   1.4 |  0.10
Modify  | 0.23677    | 1.5196     | 2.8024     | 104.1 |  0.82
Other   |            | 2.616      |            |       |  1.42

Nlocal:          298.5 ave         597 max           0 min
Histogram: 1 0 0 0 0 0 0 0 0 1
Nghost:              0 ave           0 max           0 min
Histogram: 2 0 0 0 0 0 0 0 0 0
Neighs:           3513 ave        7026 max           0 min
Histogram: 1 0 0 0 0 0 0 0 0 1

Total # of neighbors = 7026
Ave neighs/atom = 11.768844
Ave special neighs/atom = 1.9966499
Neighbor list builds = 1146
Dangerous builds = 0

# Replace lj potential, now collapse
pair_style      lj/cut 3

# Cutoff simul when gyration under 10
# Variable created with equal requires v_ + 'name'
fix 3 all halt 1000 v_rog < 7

run 3000000
Generated 0 of 0 mixed pair_coeff terms from geometric mixing rule
Last active /omp style is angle_style cosine/omp
Per MPI rank memory allocation (min/avg/max) = 941.4 | 942 | 942.6 Mbytes
   Step          Temp         Enthalpy         c_1      
    100000   1.0356197      20.177899      31.374589    
    101000   1.0027856      20.189393      30.869333    
    102000   1.0418631      19.286525      30.651229    
    103000   0.99047058     19.179545      30.5823      
    104000   1.0295774      18.268922      30.396805    
    105000   0.94119793     17.625149      30.344024    
    106000   1.0062734      18.859906      30.225968    
    107000   0.96955919     17.922375      30.148696    
    108000   0.99451927     17.507991      29.95151     
    109000   0.99911641     17.99845       29.680511    
    110000   0.96742182     17.669479      29.464085    
    111000   1.0153571      17.835638      29.269008    
    112000   1.0220175      17.694037      29.006017    
    113000   0.96660069     17.08175       29.064724    
    114000   1.079383       18.296398      28.738278    
    115000   0.98373955     18.085876      28.978937    
    116000   0.9441869      18.424152      28.8143      
    117000   0.98231297     18.629519      28.617547    
    118000   1.0155904      18.02518       28.825096    
    119000   1.027233       17.713037      28.681042    
    120000   1.0544612      19.198238      28.457908    
    121000   1.0388996      17.722949      28.445692    
    122000   1.0764446      17.952053      28.492392    
    123000   0.97071816     17.671993      28.327029    
    124000   1.0249271      17.582622      28.122172    
    125000   1.0116924      17.914902      28.151839    
    126000   1.0338427      17.691184      27.980425    
    127000   0.9703808      17.94363       27.43031     
    128000   0.95851095     18.417073      27.467244    
    129000   0.92444143     17.623369      27.323599    
    130000   1.0349619      17.762278      27.038169    
    131000   0.94870792     17.689357      27.049281    
    132000   1.0360151      18.045268      26.931053    
    133000   0.99747299     18.484979      26.9453      
    134000   0.99436613     17.828951      26.587248    
    135000   0.98524357     18.626011      26.524641    
    136000   0.97053057     17.450512      26.691753    
    137000   1.0727777      17.960479      26.797169    
    138000   1.0143236      18.222452      26.630381    
    139000   1.0788987      18.929497      26.78028     
    140000   1.0091891      17.966886      26.539448    
    141000   1.0064902      18.121419      26.418949    
    142000   0.94828369     17.549508      26.127032    
    143000   0.98436983     17.065925      25.903895    
    144000   0.98697729     18.153758      26.061655    
    145000   0.96620557     17.622879      25.878446    
    146000   0.99365939     16.804063      25.74862     
    147000   1.0136984      18.41923       25.735175    
    148000   1.0036815      17.855859      25.699928    
    149000   1.0204047      17.984347      25.529145    
    150000   1.0096326      17.810966      25.247786    
    151000   1.0258604      17.649204      25.136804    
    152000   1.0491613      17.633438      24.760577    
    153000   1.0670946      17.798553      24.322488    
    154000   1.0043874      17.540271      24.648556    
    155000   0.96762031     18.241385      24.468094    
    156000   0.99014511     17.420283      24.314781    
    157000   0.93989574     17.622767      24.183129    
    158000   1.029924       18.022634      24.117229    
    159000   1.0054185      17.282494      23.778827    
    160000   0.94779349     17.206707      23.568531    
    161000   0.97242035     17.398874      23.598047    
    162000   1.0015621      17.84132       23.619825    
    163000   0.99156854     18.239715      23.586667    
    164000   1.02875        17.904531      23.287542    
    165000   1.0374393      17.683782      23.199045    
    166000   0.99627449     18.105348      23.086351    
    167000   0.99550159     17.722037      22.951912    
    168000   0.99638161     18.259972      22.837201    
    169000   0.98252888     17.561435      22.68589     
    170000   1.0033125      17.811237      22.578345    
    171000   1.0262564      17.854056      22.534221    
    172000   1.0072761      17.262154      22.524556    
    173000   0.98918721     18.42823       22.575959    
    174000   1.0579488      18.458286      22.504827    
    175000   1.0224724      18.079302      22.279393    
    176000   1.0108738      17.94627       22.19823     
    177000   1.036065       18.358943      21.975069    
    178000   1.0341058      18.461166      22.070709    
    179000   0.97055644     17.45779       21.897175    
    180000   1.0092024      17.970366      21.83411     
    181000   1.0357252      17.846592      21.959157    
    182000   1.068117       17.615782      21.921094    
    183000   1.0054461      18.069377      21.719192    
    184000   0.99658834     17.490263      21.25117     
    185000   0.94743248     17.42313       21.153884    
    186000   1.126902       18.115876      21.187516    
    187000   1.0075788      17.378908      20.889601    
    188000   1.0251948      18.33178       20.74817     
    189000   0.98387979     17.543138      20.467284    
    190000   0.99865782     18.137579      20.183911    
    191000   1.0439636      17.330506      20.460038    
    192000   1.013525       17.218925      20.443084    
    193000   1.0123911      17.598853      20.249066    
    194000   1.0122405      17.506913      20.140738    
    195000   1.0234815      17.259002      19.917237    
    196000   1.0002584      17.397874      19.798039    
    197000   0.9766403      17.132021      19.7712      
    198000   0.97042361     16.859109      19.616996    
    199000   1.0622019      18.470748      19.580012    
    200000   1.0174864      18.75603       19.209584    
    201000   0.9401481      17.773726      19.172897    
    202000   1.0169687      17.776615      19.0657      
    203000   1.0024324      17.199289      18.756059    
    204000   1.0413618      17.842852      18.437607    
    205000   1.0376171      17.986358      18.244514    
    206000   1.0024973      18.264215      17.949327    
    207000   1.0014271      18.271152      17.72888     
    208000   0.97810432     17.909256      17.571111    
    209000   0.9749839      17.364358      17.43106     
    210000   1.0288316      17.349634      17.44966     
    211000   1.0626235      17.80618       17.200295    
    212000   0.92748496     18.295877      17.249877    
    213000   1.0490612      17.230903      17.22602     
    214000   1.0329253      17.329532      16.648242    
    215000   1.0078831      17.494868      16.487294    
    216000   1.0379696      17.362588      16.149555    
    217000   1.0075644      17.582776      15.861008    
    218000   1.0441375      17.737899      15.837102    
    219000   0.96313334     17.260659      15.588101    
    220000   1.0051269      16.925109      15.700291    
    221000   1.0361098      17.514283      15.876371    
    222000   1.03141        17.952445      15.856849    
    223000   0.96361892     16.984235      16.004916    
    224000   1.0339242      17.427516      15.845995    
    225000   1.0605287      18.165629      15.913968    
    226000   1.0037309      17.262847      15.566344    
    227000   0.93381017     18.25293       15.424297    
    228000   0.99380535     18.133321      15.186867    
    229000   1.0126901      17.979359      15.043658    
    230000   1.0173394      17.317585      15.161806    
    231000   1.0064653      17.573866      15.011248    
    232000   0.96776591     17.555148      14.933862    
    233000   1.0111046      17.316901      14.858451    
    234000   1.0356974      17.546526      14.546762    
    235000   1.0418754      17.5784        14.539393    
    236000   0.97838318     16.93853       14.515557    
    237000   1.019357       17.731303      14.532291    
    238000   0.99626864     17.712657      14.501969    
    239000   1.0088615      17.470874      14.300902    
    240000   1.02711        16.999274      14.079939    
    241000   0.92598679     17.513265      13.816474    
    242000   0.96616222     16.931454      13.879482    
    243000   0.99435471     17.562653      13.55518     
    244000   0.9939431      17.756721      13.637876    
    245000   1.0009913      17.620203      13.488604    
    246000   1.030681       18.316909      13.533988    
    247000   1.0292668      17.612038      13.609002    
    248000   0.99403145     17.458804      13.530633    
    249000   1.0363732      17.601323      13.144976    
    250000   0.96746707     17.480409      13.190892    
    251000   1.0269807      18.121174      13.115158    
    252000   0.99489033     18.57001       12.900992    
    253000   1.0623817      17.685095      12.536945    
    254000   0.96841006     16.95719       12.353474    
    255000   0.99334194     17.358258      12.000771    
    256000   0.98882705     17.361086      11.59938     
    257000   0.94666803     17.57697       11.578891    
    258000   0.98456307     17.140435      11.484523    
    259000   1.0020611      17.816958      11.127424    
    260000   1.0568476      17.71669       11.282349    
    261000   1.0396674      17.526085      11.327544    
    262000   1.0275265      17.2176        11.144241    
    263000   1.0109883      17.443611      10.938634    
    264000   1.015595       18.06404       10.780186    
    265000   1.00101        17.318435      10.605995    
    266000   1.0247375      17.571948      10.706097    
    267000   1.058251       17.007343      10.771335    
    268000   0.99776465     16.975623      11.067379    
    269000   0.97313617     16.988726      11.12201     
    270000   1.0542574      17.277824      11.269947    
    271000   0.98654675     17.454235      11.338317    
    272000   1.0461829      17.767676      11.348191    
    273000   0.95792614     17.472591      11.253607    
    274000   1.0165853      17.756255      11.040205    
    275000   1.0002602      17.120972      10.854243    
    276000   1.0242954      16.897693      10.884156    
    277000   1.0010236      17.204194      10.692929    
    278000   0.97012338     16.624642      10.58778     
    279000   1.0713262      17.388885      10.44517     
    280000   0.98988183     17.558445      10.217049    
    281000   1.0178031      17.851458      10.077178    
    282000   0.97593562     17.755421      9.8672091    
    283000   0.97883457     17.458586      9.8535759    
    284000   1.0223768      17.725891      9.6281278    
    285000   1.0636829      17.710104      9.3850341    
    286000   0.99458343     17.320617      9.1793801    
    287000   1.0427187      17.86572       8.9703193    
    288000   0.95099582     17.127895      8.7218086    
    289000   0.98282576     17.739595      8.5404273    
    290000   1.0209506      17.142042      8.4378053    
    291000   0.97988868     16.989959      8.0315752    
    292000   1.0539785      18.315057      8.014142     
    293000   1.0220718      17.731055      7.8837717    
    294000   1.0110559      17.069181      7.5567769    
    295000   0.99472451     16.923853      7.184189     
    296000   0.96377308     16.722105      7.0537608    
Fix halt condition for fix-id 3 met on step 297000 with value 6.697200926377448 (src/fix_halt.cpp:237)
    297000   1.0260382      18.135119      6.6972009    
Loop time of 142.929 on 4 procs for 197000 steps with 597 atoms

Performance: 1190857.769 tau/day, 1378.308 timesteps/s
132.8% CPU use with 2 MPI tasks x 2 OpenMP threads

MPI task timing breakdown:
Section |  min time  |  avg time  |  max time  |%varavg| %total
---------------------------------------------------------------
Pair    | 0.18869    | 17.341     | 34.493     | 411.9 | 12.13
Bond    | 0.32493    | 1.5876     | 2.8502     | 100.2 |  1.11
Neigh   | 98.582     | 98.583     | 98.583     |   0.0 | 68.97
Comm    | 0.078935   | 0.083387   | 0.087839   |   1.5 |  0.06
Output  | 0.37381    | 0.37948    | 0.38514    |   0.9 |  0.27
Modify  | 0.60113    | 3.1991     | 5.797      | 145.2 |  2.24
Other   |            | 21.76      |            |       | 15.22

Nlocal:          298.5 ave         597 max           0 min
Histogram: 1 0 0 0 0 0 0 0 0 1
Nghost:              0 ave           0 max           0 min
Histogram: 2 0 0 0 0 0 0 0 0 0
Neighs:          42265 ave       84530 max           0 min
Histogram: 1 0 0 0 0 0 0 0 0 1

Total # of neighbors = 84530
Ave neighs/atom = 141.59129
Ave special neighs/atom = 1.9966499
Neighbor list builds = 1572
Dangerous builds = 0

# This simulation is done
# Move onto the next one
clear
  using 2 OpenMP thread(s) per MPI task
package omp 0
using multi-threaded neighbor list subroutines
next f
jump SELF

###
# Reference paper:
# K. Kremer and G. S. Grest
# Dynamics of entangled linear polymer melts: A molecular-dynamics simulation
# J Chem Phys 92, 5057 (1990)

##################################
# MIHIR: for branched polymers
# LJ minimum first to expand and explore, then collapse
###

###
# Looping through the various nuc5branch4 polymers to simulate,
# define variables to switch through
variable f index bb112nuc5bl18bn4d30tot300 bb150nuc5bl25bn4d30tot400 bb187nuc5bl31bn4d30tot500 bb225nuc5bl37bn4d30tot600 bb262nuc5bl43bn4d30tot700 bb300nuc5bl50bn4d30tot800 bb337nuc5bl56bn4d30tot900 bb375nuc5bl62bn4d30tot1000 bb412nuc5bl68bn4d30tot1100 bb450nuc5bl75bn4d30tot1200
# bb75nuc5bl12bn4d30tot200
###


###
# Box and units  (use LJ units and periodic boundaries)
###

units lj
log nuc5branch4/logs/$f.log
log nuc5branch4/logs/bb262nuc5bl43bn4d30tot700.log
