#atom_style bond #no stiffness
atom_style angle #with stiffness

boundary        p p p
###
# Pair interactions require lists of neighbours to be calculated
###

#neighbor 0.3 bin
neighbor 4 bin

neigh_modify every 1 delay 1 check yes
atom_modify sort 0 0
### Generate RESTART file, SPECIAL format, not a .txt file ###
### Useful if simulation crashes ###

restart 1000000 nuc5branch4/restarts/$f.restart
restart 1000000 nuc5branch4/restarts/bb337nuc5bl56bn4d30tot900.restart
#############################



### READ "start" data file ###

read_data nuc5branch4/$f.dat
read_data nuc5branch4/bb337nuc5bl56bn4d30tot900.dat
Reading data file ...
  orthogonal box = (-1000 -1000 -1000) to (1000 1000 1000)
  1 by 1 by 2 MPI processor grid
  reading atoms ...
  897 atoms
  scanning bonds ...
  3 = max bonds/atom
  scanning angles ...
  6 = max angles/atom
  reading bonds ...
  896 bonds
  reading angles ...
  910 angles
Finding 1-2 1-3 1-4 neighbors ...
  special bond factors lj:    0        0        0       
  special bond factors coul:  0        0        0       
     4 = max # of 1-2 neighbors
     4 = max # of 1-3 neighbors
     8 = max # of 1-4 neighbors
    12 = max # of special neighbors
  special bonds CPU = 0.000 seconds
  read_data CPU = 0.051 seconds

######################

### READ "REstart" data file ###

######################



###
# Define groups (atom type 1 is group 'all')
###
group all type 1
897 atoms in group all


###
# Dump configs - "simple dumpings"
###

###
# Dump configs + box coords
###

dump   1   all   custom   1000  nuc5branch4/trjs/$f.lammpstrj  id  x y z  ix iy iz
dump   1   all   custom   1000  nuc5branch4/trjs/bb337nuc5bl56bn4d30tot900.lammpstrj  id  x y z  ix iy iz
dump_modify   1   format line "%d %.5f %.5f %.5f %d %d %d"

########################################################################


###################################################################
# Stiffness term
#
# E = K * (1+cos(theta)), K>0
#
angle_style   cosine
#change this coefficient to change stiffness (e.g. 1,5,10)
angle_coeff   1 1.0
###################################################################

###################################################################
# Pair interaction between non-bonded atoms
#
#  Lennard-Jones 12-6 potential with cutoff:
#  potential E=4epsilon[ (sigma/r)^12 - (sigma/r)^6]  for r<r_cut
#
#  1.12246 = 2^(1/6) is the minimum of the potential


pair_style      lj/cut 1.12246152962189
#pair_style      lj/cut 3

#
#  pair_modify shift yes adds a constant to the potential such

#  that E(r_cut)=0. Forces remains unchanged.
#

pair_modify     shift yes

#
#  pair_coeff for lj/cut, specify 4:
#    * atom type interacting with
#    * atom type
#    * epsilon (energy units)
#    * sigma (distance units)
#

pair_coeff      1 1 1.0 1.0
###################################################################

###################################################################
# Pair interaction between non-bonded atoms
#
#  soft potential, for PUSHING apart overlapping atoms
#  potential E=A*(1 + cos(pi*r/r_c))
#
#  1.12246 = 2^(1/6) is the cut-off r_c

#pair_style     soft 1.12246152962189

#
#  pair_coeff for soft, specify 3:
#    * atom type interacting with
#    * atom type
#    * A
#
#

#pair_coeff      1 1 100.0
###################################################################

###################################################################
# Pair interaction between bonded atoms
#
# Fene potential + Lennard Jones 12-6:

#
#  E= - 0.5 K R0^2 ln[ 1- (r/R0)^2]
#     + 4epsilon[ (sigma/r)^12 - (sigma/r)^6] + epsilon
#

bond_style   fene


#
# For style fene, specify:
#   * bond type
#   * K (energy/distance^2)
#   * R0 (distance)
#   * epsilon (energy)  (LJ component)
#   * sigma (distance)  (LJ component)
#


special_bonds fene #<=== I M P O R T A N T (new command)
Finding 1-2 1-3 1-4 neighbors ...
  special bond factors lj:    0        1        1       
  special bond factors coul:  0        1        1       
     4 = max # of 1-2 neighbors
    12 = max # of special neighbors
  special bonds CPU = 0.000 seconds

bond_coeff   1   30   2   1.0   1.0


###################################################

###################################################################
# Pair interaction between bonded atoms
#
# Harmonic potential:
#
#  E= K * (R-R0)^2
#

#bond_style   harmonic

#
# For style harmonic, specify:
#   * bond type
#   * K (energy/distance^2)
#   * R0 (distance)
#

#bond_coeff   1   60.0   1.0
#bond_coeff   2   harmonic 0.1   1.0

###################################################
compute 1 all gyration
variable rog equal c_1
#compute 2 all coord/atom cutoff 1.1

#dump 2 all custom 10000 contact_number.dump id c_2


###
# Set up fixes
###
thermo_style   custom   step  temp enthalpy c_1
fix 1 all nve   ###NVE ensemble

fix 2 all   langevin   1.0 1.0 1.0  100103   ###Langevin integrator Tstart Tstop 1/friction rndseed


##### Sample thermodynamic info  (temperature, energy, pressure, etc.) #####
thermo 1000









############################################################################

###
# set timestep of integrator

timestep 0.01

###
# run integration for a number of steps
###
#run 0
#variable r equal c_1
#if "$r < 63.1" then "quit 1"

# lj potential minimum, cause molecule to explore
run 100000
Generated 0 of 0 mixed pair_coeff terms from geometric mixing rule
Neighbor list info ...
  update: every = 1 steps, delay = 1 steps, check = yes
  max neighbors/atom: 2000, page size: 100000
  master list distance cutoff = 5.1224615
  ghost atom cutoff = 5.1224615
  binsize = 2.5612308, bins = 781 781 781
  1 neighbor lists, perpetual/occasional/extra = 1 0 0
  (1) pair lj/cut, perpetual
      attributes: half, newton on
      pair build: half/bin/newton
      stencil: half/bin/3d
      bin: standard
WARNING: Communication cutoff 5.12246152962189 is shorter than a bond length based estimate of 5.455. This may lead to errors. (src/comm.cpp:723)
Per MPI rank memory allocation (min/avg/max) = 940.5 | 941.2 | 941.8 Mbytes
   Step          Temp         Enthalpy         c_1      
         0   0              13.25608       66.792436    
      1000   0.97742227     18.352197      66.0391      
      2000   0.99073707     19.532202      65.390604    
      3000   1.0428623      19.335385      64.79944     
      4000   0.97142856     19.82653       64.398492    
      5000   0.98563553     19.288496      64.212127    
      6000   1.0712111      19.816327      64.06293     
      7000   0.99625935     19.610513      63.466554    
      8000   1.0544565      19.69137       62.941936    
      9000   0.96870038     20.032524      62.467971    
     10000   1.0039375      19.555906      62.360257    
     11000   1.0064647      19.79036       62.39428     
     12000   0.99756174     19.826363      62.108125    
     13000   0.99892105     19.855652      61.903349    
     14000   0.97370725     20.132773      61.609925    
     15000   1.0278213      20.05056       61.428308    
     16000   1.07427        19.88362       61.433562    
     17000   1.005325       20.32284       61.172523    
     18000   0.99186843     20.241785      61.153351    
     19000   0.96937253     20.561426      60.924323    
     20000   0.97312569     20.687857      60.770398    
     21000   0.9816655      19.329928      60.660888    
     22000   0.99057532     20.242305      60.478341    
     23000   0.978808       19.867083      60.235396    
     24000   1.0244397      20.145574      60.368241    
     25000   1.0466591      20.169212      60.273822    
     26000   1.0350904      20.650172      60.232113    
     27000   0.99532885     19.782702      60.150862    
     28000   0.97094225     20.304095      60.102204    
     29000   0.97837563     20.390074      60.092678    
     30000   1.0135641      20.524452      60.007878    
     31000   0.98889771     20.532882      59.78359     
     32000   1.0409087      20.467124      59.611362    
     33000   1.0012181      20.172721      59.362176    
     34000   1.0273451      20.179752      59.196807    
     35000   1.0127678      20.268672      59.023681    
     36000   1.0005458      19.998754      59.099968    
     37000   1.0203396      19.967319      59.068219    
     38000   1.0339214      19.327828      59.167509    
     39000   1.0049652      19.798283      58.748355    
     40000   0.99943684     20.467431      58.782675    
     41000   1.0028589      20.28619       58.525864    
     42000   1.0041145      20.031639      58.488033    
     43000   1.0080292      20.71028       58.080287    
     44000   1.0024996      20.363079      57.903551    
     45000   0.97801155     21.333375      57.797603    
     46000   0.99721146     20.030562      57.745358    
     47000   0.98201166     20.585395      57.584876    
     48000   0.97083048     20.018502      57.411991    
     49000   0.9733407      20.124161      57.188609    
     50000   1.0151225      20.368931      56.910771    
     51000   1.0344809      20.236649      56.920942    
     52000   1.0083875      20.136712      56.854728    
     53000   0.98991055     19.991556      56.800286    
     54000   0.98168438     20.041408      56.751208    
     55000   0.92092554     20.604866      56.751061    
     56000   1.0393614      20.115989      56.489803    
     57000   1.0048515      20.571866      56.208214    
     58000   1.0602615      20.323723      56.171422    
     59000   0.98660853     20.539523      56.309002    
     60000   1.0222982      20.508295      56.129983    
     61000   1.0008989      20.236388      56.100003    
     62000   1.0227631      20.790472      56.122478    
     63000   1.0366885      21.056033      55.987258    
     64000   0.99853931     19.859427      55.816965    
     65000   1.0215087      20.507178      55.732457    
     66000   0.98937787     20.549643      55.474979    
     67000   1.0051373      20.682438      55.354606    
     68000   0.98354106     20.029823      55.255149    
     69000   1.0117982      20.597956      55.047493    
     70000   0.94524569     19.857576      54.827823    
     71000   1.0066809      20.710532      54.548256    
     72000   1.0179027      20.461737      54.469188    
     73000   1.0403586      20.548068      54.394418    
     74000   0.9961157      20.031405      54.327907    
     75000   1.0230712      20.685057      54.131283    
     76000   0.97123298     20.530415      54.394589    
     77000   1.021706       20.633035      54.489182    
     78000   0.97530271     20.457057      54.591863    
     79000   1.0041764      20.726587      54.577124    
     80000   1.01439        20.40979       54.550914    
     81000   1.0098836      20.444052      54.456222    
     82000   0.94906854     20.528419      54.273341    
     83000   0.98301475     20.727688      54.274515    
     84000   1.0473891      20.914395      54.07948     
     85000   0.99537777     20.652275      53.999053    
     86000   0.99885267     20.387761      53.794822    
     87000   1.0138573      20.281242      54.018734    
     88000   1.0435254      20.0168        53.730986    
     89000   1.0407419      20.412334      53.737829    
     90000   1.0266552      20.751314      53.664269    
     91000   1.0214394      20.778931      53.598755    
     92000   1.0212228      20.572592      53.613554    
     93000   1.0267486      20.863236      53.346989    
     94000   1.0051853      19.845456      53.380332    
     95000   0.99966165     20.638361      53.427713    
     96000   0.9852109      20.484205      53.265229    
     97000   1.0623682      20.376037      53.406926    
     98000   1.0498938      21.022941      53.525203    
     99000   1.0475813      20.567112      53.521347    
    100000   0.97905775     20.245462      53.553716    
Loop time of 177.92 on 2 procs for 100000 steps with 897 atoms

Performance: 485612.116 tau/day, 562.051 timesteps/s
100.0% CPU use with 2 MPI tasks x 1 OpenMP threads

MPI task timing breakdown:
Section |  min time  |  avg time  |  max time  |%varavg| %total
---------------------------------------------------------------
Pair    | 0.0085926  | 1.0512     | 2.0939     | 101.7 |  0.59
Bond    | 0.0096029  | 1.8316     | 3.6535     | 134.6 |  1.03
Neigh   | 167.62     | 167.62     | 167.62     |   0.0 | 94.21
Comm    | 0.046315   | 0.047233   | 0.048151   |   0.4 |  0.03
Output  | 0.22241    | 0.23148    | 0.24055    |   1.9 |  0.13
Modify  | 0.024225   | 1.9548     | 3.8854     | 138.1 |  1.10
Other   |            | 5.187      |            |       |  2.92

Nlocal:          448.5 ave         897 max           0 min
Histogram: 1 0 0 0 0 0 0 0 0 1
Nghost:              0 ave           0 max           0 min
Histogram: 2 0 0 0 0 0 0 0 0 0
Neighs:           4090 ave        8180 max           0 min
Histogram: 1 0 0 0 0 0 0 0 0 1

Total # of neighbors = 8180
Ave neighs/atom = 9.1192865
Ave special neighs/atom = 1.9977703
Neighbor list builds = 1178
Dangerous builds = 0

# Replace lj potential, now collapse
pair_style      lj/cut 3

# Cutoff simul when gyration under 10
# Variable created with equal requires v_ + 'name'
fix 3 all halt 1000 v_rog < 7

run 3000000
Generated 0 of 0 mixed pair_coeff terms from geometric mixing rule
Per MPI rank memory allocation (min/avg/max) = 940.5 | 941.2 | 941.8 Mbytes
   Step          Temp         Enthalpy         c_1      
    100000   0.97905775     19.354154      53.553716    
    101000   1.0175182      19.423446      53.524494    
    102000   1.0235978      19.228751      53.762223    
    103000   1.0111287      19.403915      53.436704    
    104000   0.97790483     18.996363      53.221909    
    105000   0.97483577     19.228998      52.926883    
    106000   1.0255639      19.373264      52.603573    
    107000   1.0215797      18.904637      52.160184    
    108000   1.040214       18.876041      51.940951    
    109000   1.027671       18.814296      52.000931    
    110000   1.0215576      18.357851      52.111332    
    111000   1.0195995      18.415153      52.172296    
    112000   1.0109588      18.717525      52.119801    
    113000   1.0211973      18.512393      51.817942    
    114000   1.019009       17.996815      51.789865    
    115000   1.0091458      18.39704       51.845734    
    116000   1.0088925      18.003772      51.538572    
    117000   1.0446726      17.746077      51.655896    
    118000   0.99822314     18.272928      51.592415    
    119000   0.99104921     17.692059      51.4673      
    120000   0.96039843     18.197863      51.214902    
    121000   1.0198735      18.355967      50.882261    
    122000   1.0285559      18.497557      50.77374     
    123000   1.0021165      17.685875      50.418877    
    124000   0.984215       18.650548      50.263465    
    125000   0.98731437     18.017938      50.409819    
    126000   1.0095515      17.972692      50.234944    
    127000   0.99586707     18.252359      50.226959    
    128000   1.0232391      18.07248       50.120611    
    129000   1.0132245      18.2633        50.143916    
    130000   1.030096       18.153016      50.061943    
    131000   1.0276431      18.039416      50.097735    
    132000   0.9942167      18.482508      50.196773    
    133000   1.0286377      17.952338      49.899832    
    134000   1.0035377      18.036438      49.550417    
    135000   0.97312972     18.135364      49.44906     
    136000   1.0415268      18.215081      49.30813     
    137000   1.0149609      17.854446      49.139657    
    138000   0.98888873     18.372194      49.04826     
    139000   1.0219486      17.945557      48.618848    
    140000   0.97449888     17.676895      48.548512    
    141000   1.0089356      17.788748      48.273633    
    142000   0.98444655     17.723433      48.162081    
    143000   1.0223374      18.073578      48.064873    
    144000   0.99961761     18.083929      47.839629    
    145000   1.0216121      18.092666      47.930053    
    146000   1.0250787      17.838283      47.94851     
    147000   1.0298347      18.122474      47.563558    
    148000   1.0568468      17.761476      47.524981    
    149000   1.0363286      18.333466      47.452048    
    150000   0.96233756     17.919487      47.446165    
    151000   0.96489222     18.150855      47.270257    
    152000   1.0093807      17.695654      47.024957    
    153000   0.95119876     17.854383      46.868338    
    154000   0.9919879      18.220514      46.808007    
    155000   1.0021308      17.565484      46.709951    
    156000   1.0108851      18.043594      46.804529    
    157000   1.0183107      18.115851      47.023681    
    158000   0.967257       16.878551      46.77421     
    159000   0.95059282     17.951133      46.978067    
    160000   1.0252815      18.008009      46.723265    
    161000   1.005391       18.319232      46.562036    
    162000   1.0323408      18.052631      46.409746    
    163000   0.99621799     18.041748      46.316198    
    164000   0.97372138     18.579958      46.219455    
    165000   0.96585067     17.52435       46.247195    
    166000   0.99645583     18.820412      46.215459    
    167000   1.0141485      18.402532      46.014194    
    168000   1.0078952      17.433236      45.619673    
    169000   0.98428363     18.341647      45.468225    
    170000   1.0322744      18.258388      45.423555    
    171000   0.98187553     18.118616      45.501268    
    172000   1.0486546      17.826555      45.502632    
    173000   0.96758924     17.819736      45.445044    
    174000   1.0273271      18.410898      45.528651    
    175000   0.9721491      17.912575      45.407406    
    176000   1.0179804      18.103458      45.194003    
    177000   0.98526348     17.626981      45.153089    
    178000   1.0135364      17.755137      44.898654    
    179000   0.96537089     17.42381       44.745553    
    180000   0.98561507     18.017194      44.44577     
    181000   1.0138074      18.034751      44.599753    
    182000   1.0487279      18.237175      44.628122    
    183000   1.0007825      18.199838      44.546869    
    184000   1.016606       17.830656      44.402772    
    185000   0.99605319     17.945275      44.197755    
    186000   0.98166142     18.080208      44.392755    
    187000   0.98417297     17.938476      44.269517    
    188000   1.0210438      17.953047      44.202934    
    189000   1.01498        18.347788      43.991793    
    190000   1.000172       18.184236      43.533349    
    191000   0.99498159     18.173025      43.468992    
    192000   1.0083512      18.02867       43.424552    
    193000   1.014508       17.778629      43.497102    
    194000   0.98433823     17.636684      43.238643    
    195000   0.99278722     17.983215      43.095778    
    196000   1.0041105      18.087781      42.928697    
    197000   0.99500108     18.394924      42.781623    
    198000   1.0232915      17.877287      42.735381    
    199000   1.0138187      17.915614      42.563841    
    200000   0.95714075     18.255579      42.156993    
    201000   1.0287819      17.843936      42.066965    
    202000   0.96112531     18.062081      41.979798    
    203000   1.0184718      17.947587      41.612251    
    204000   0.97956229     17.895791      41.559528    
    205000   1.0031986      17.89488       41.402124    
    206000   0.98371914     17.676772      41.16313     
    207000   0.99607148     17.436985      41.213022    
    208000   0.98955357     17.669069      41.264865    
    209000   0.97131826     18.253961      41.274332    
    210000   0.98377811     17.924077      40.924944    
    211000   0.97954547     18.364019      40.742803    
    212000   1.015817       18.60548       40.688465    
    213000   0.97923292     18.171507      40.50569     
    214000   0.99854365     18.101482      40.48278     
    215000   0.9915172      17.795229      40.361723    
    216000   0.96981082     17.865375      40.2271      
    217000   1.0110024      18.113197      40.200517    
    218000   0.99490944     17.92475       39.847513    
    219000   1.0028651      17.698965      39.840004    
    220000   1.0420035      17.279974      39.825128    
    221000   0.95936401     17.707578      39.551004    
    222000   1.0044253      17.369962      39.307297    
    223000   0.99214581     17.342206      39.384012    
    224000   0.97745109     18.097422      39.177489    
    225000   0.99719217     17.867273      39.247392    
    226000   0.96874931     17.91579       39.168073    
    227000   1.0445633      17.967273      39.042443    
    228000   1.0446587      17.707525      38.762754    
    229000   1.0166878      18.448029      38.745405    
    230000   0.96886774     17.741882      38.563034    
    231000   0.99596309     17.620513      38.537839    
    232000   0.95166702     17.489604      38.457622    
    233000   0.94670423     17.562528      38.652771    
    234000   1.0182103      17.768514      38.642039    
    235000   0.99776047     17.789799      38.301129    
    236000   0.98419655     18.145138      38.21949     
    237000   1.0440485      17.954738      38.079786    
    238000   1.0084929      18.390144      38.129185    
    239000   0.96505801     17.616203      38.016445    
    240000   0.9907955      18.536435      37.881581    
    241000   0.9867819      18.123527      37.811458    
    242000   1.0368734      18.091963      37.446248    
    243000   1.012417       18.143011      37.302489    
    244000   1.0080243      18.161808      37.132633    
    245000   1.0125372      18.037577      36.993485    
    246000   0.95761803     17.522921      36.90342     
    247000   1.0029615      17.639161      37.188778    
    248000   0.9635791      18.072905      37.239172    
    249000   1.0059183      18.005581      37.28822     
    250000   1.0038654      17.908682      37.066368    
    251000   0.97896697     17.912177      37.100289    
    252000   1.0085624      17.565985      37.10037     
    253000   0.99421383     17.756254      36.975217    
    254000   1.0233701      17.855066      36.586157    
    255000   0.98969335     17.904746      36.452602    
    256000   0.96356052     18.32426       36.268012    
    257000   0.96768453     18.213468      36.046615    
    258000   1.0343698      18.39885       36.092577    
    259000   0.96999872     17.715353      36.107679    
    260000   1.0267178      18.280159      35.985778    
    261000   1.0114533      18.214867      35.926049    
    262000   0.97562183     17.382677      35.766771    
    263000   0.96502452     17.661846      35.609902    
    264000   0.98174432     18.025064      35.458215    
    265000   1.010284       18.286869      35.532635    
    266000   0.98372792     17.379896      35.383915    
    267000   1.0137033      18.167832      35.430902    
    268000   1.0465989      17.832184      35.352818    
    269000   0.98490668     17.815383      35.460606    
    270000   1.0171181      18.123066      35.124738    
    271000   0.9820797      17.683076      35.065183    
    272000   1.0170906      17.753721      34.974288    
    273000   1.000864       18.313396      34.811638    
    274000   1.0157948      17.377531      34.903037    
    275000   1.0311605      17.818998      34.675528    
    276000   0.97599919     17.589485      34.29288     
    277000   1.0123674      17.563598      34.011514    
    278000   1.0185546      17.601429      34.035962    
    279000   0.9966196      17.991884      33.931902    
    280000   0.98418048     17.577124      33.815117    
    281000   1.0163583      17.809361      34.024955    
    282000   1.0325709      18.043638      34.049822    
    283000   1.0065315      17.852116      34.006317    
    284000   1.0304954      17.610841      33.939658    
    285000   0.97420636     17.75243       33.741519    
    286000   1.0299513      17.345793      33.373641    
    287000   0.98078148     17.732008      33.177957    
    288000   1.0224519      17.750315      33.123908    
    289000   1.0219696      17.894464      32.980185    
    290000   1.0109015      17.95336       32.897769    
    291000   0.98256725     17.54019       32.778499    
    292000   1.0225876      17.712669      33.048261    
    293000   0.99309715     18.057061      32.858085    
    294000   1.0402776      17.654667      32.933226    
    295000   1.0507589      18.263006      32.614767    
    296000   1.0149434      18.016181      32.466801    
    297000   1.0369947      17.26552       32.596725    
    298000   0.99256778     18.231736      32.597994    
    299000   1.0406942      17.655214      32.554679    
    300000   1.019179       18.09232       32.606568    
    301000   0.98799663     18.063759      32.560604    
    302000   0.99846418     17.425069      32.798299    
    303000   1.0207752      18.145496      32.603053    
    304000   0.97694499     17.638009      32.468623    
    305000   0.98903848     17.654411      32.462683    
    306000   1.0627834      18.060539      32.460481    
    307000   1.0206391      18.265734      32.449313    
    308000   1.0100247      17.693303      32.307647    
    309000   0.9592611      16.939687      32.236031    
    310000   1.0521781      17.958703      32.504023    
    311000   1.0061429      17.461852      32.506881    
    312000   1.0106652      17.771519      32.520215    
    313000   0.99785693     17.7175        32.486061    
    314000   1.0234451      17.809023      32.398069    
    315000   1.016627       17.429732      32.48463     
    316000   1.0273468      18.302713      32.453778    
    317000   0.96872366     17.364494      32.554756    
    318000   1.0332486      17.931956      32.791583    
    319000   1.0402401      18.625797      32.548348    
    320000   0.95980953     17.586337      32.450491    
    321000   0.96271405     17.667406      32.35925     
    322000   1.0034361      18.011363      32.403453    
    323000   0.95420683     17.800795      32.318611    
    324000   0.9680328      17.53839       32.39603     
    325000   0.97197022     17.342796      32.341168    
    326000   1.0151474      17.449827      32.091402    
    327000   1.0138058      18.049955      32.065688    
    328000   1.0064376      17.664793      31.950824    
    329000   0.98762131     17.86003       31.614563    
    330000   0.98500791     17.970066      31.723119    
    331000   1.0149019      18.173772      31.677252    
    332000   0.99739954     17.936242      31.624481    
    333000   1.0047697      17.475817      31.691457    
    334000   1.0215259      17.838492      31.776903    
    335000   0.97076351     18.430227      31.544989    
    336000   0.97142629     17.506277      31.478204    
    337000   1.0468374      17.642204      31.481967    
    338000   1.0394607      18.043201      31.184003    
    339000   1.0016401      17.688225      31.01316     
    340000   1.0413113      18.199247      31.041671    
    341000   0.96247114     17.458702      31.011015    
    342000   1.0130264      17.930403      31.194827    
    343000   1.034311       18.037223      31.055458    
    344000   0.98027244     17.958617      31.000638    
    345000   1.0049376      17.203739      30.721871    
    346000   1.0067059      17.618011      30.59935     
    347000   1.0609979      18.204104      30.312191    
    348000   1.013357       18.066376      30.197793    
    349000   1.0060692      17.729261      29.991364    
    350000   1.0655014      17.515774      29.722203    
    351000   1.0177184      16.901619      29.811038    
    352000   0.99517618     17.953335      29.971864    
    353000   1.0367088      18.362975      29.6516      
    354000   0.9873069      17.474612      29.538037    
    355000   0.97947703     17.178056      29.093202    
    356000   0.98731892     17.858057      28.89711     
    357000   0.99729722     17.285754      28.867597    
    358000   0.99668333     16.636907      28.791159    
    359000   0.95873903     17.649699      28.691008    
    360000   1.0032783      17.852253      28.752275    
    361000   0.9372016      17.567246      28.367824    
    362000   1.0412226      17.767303      28.05363     
    363000   0.94555501     17.403522      27.924071    
    364000   1.0128251      17.310655      27.796715    
    365000   0.9992941      17.626582      27.725523    
    366000   1.0223372      17.483479      27.67632     
    367000   1.0193303      17.509059      27.703661    
    368000   1.0266619      17.184179      27.609293    
    369000   1.0329199      17.672625      27.49116     
    370000   0.98790453     17.370657      27.648971    
    371000   1.0355988      17.279325      27.68917     
    372000   1.0384413      17.727261      27.740699    
    373000   0.99870364     17.767985      27.724186    
    374000   1.0351234      16.699786      27.792077    
    375000   0.98355575     16.74839       27.709284    
    376000   1.0226545      17.536264      27.596711    
    377000   1.0325366      17.75826       27.406905    
    378000   1.0206701      17.5651        27.361023    
    379000   1.0020714      17.569795      27.324442    
    380000   0.99814615     17.131297      27.02797     
    381000   0.99908113     17.343941      26.76643     
    382000   1.0020599      18.215947      26.554597    
    383000   1.0518928      17.423077      26.524643    
    384000   0.95729349     17.842961      26.657048    
    385000   0.97853394     16.884444      26.625745    
    386000   0.96743151     17.314633      26.686451    
    387000   0.98497996     17.523285      26.5998      
    388000   0.99179496     17.831642      26.390072    
    389000   1.0494268      17.769045      26.146365    
    390000   0.98434267     17.246505      25.781688    
    391000   1.0025044      17.540119      25.874027    
    392000   1.0118146      17.483337      25.866538    
    393000   1.029225       17.41331       25.572529    
    394000   0.97507717     17.755972      25.483961    
    395000   0.96738229     17.361379      25.393014    
    396000   0.96079368     18.083396      25.584048    
    397000   0.97509565     17.731284      25.552718    
    398000   0.97792722     17.805923      25.425474    
    399000   1.0164953      17.863982      25.449658    
    400000   1.0484662      17.679069      25.232387    
    401000   1.00743        17.158246      24.967663    
    402000   1.0582027      18.046689      24.864991    
    403000   1.0304914      17.613605      24.747351    
    404000   1.0192274      17.381862      24.776116    
    405000   0.97417546     17.144414      24.554024    
    406000   0.97001302     17.263941      24.450022    
    407000   1.0175498      17.565143      24.266331    
    408000   1.0100596      17.337094      24.001761    
    409000   0.9897131      17.210493      23.751866    
    410000   0.97607399     17.178966      23.490901    
    411000   1.0320125      17.844691      23.461561    
    412000   1.0036045      17.576565      23.523601    
    413000   0.97332689     16.853467      23.46652     
    414000   1.0024716      17.139196      23.347438    
    415000   1.0370977      17.554873      23.339907    
    416000   0.97137759     17.439371      22.99656     
    417000   0.96635405     17.942091      23.019871    
    418000   1.0076096      17.107435      22.952489    
    419000   1.033733       17.774884      23.031001    
    420000   1.0124902      17.272877      22.914311    
    421000   0.98703429     16.920132      22.544285    
    422000   1.0126073      17.632063      22.419561    
    423000   1.0060745      17.526503      22.464681    
    424000   1.0600299      17.774633      22.254401    
    425000   0.988902       17.209307      22.351932    
    426000   0.99710828     17.690429      22.181677    
    427000   1.0262107      17.565988      21.867537    
    428000   1.0355799      17.976385      21.957434    
    429000   0.9886903      17.737292      21.730704    
    430000   1.0773491      17.713228      21.819163    
    431000   0.9852931      17.22891       21.754158    
    432000   0.98935538     17.361978      21.893439    
    433000   1.0218284      17.71789       21.561382    
    434000   1.0009287      17.172069      21.490934    
    435000   0.9810362      17.586048      21.245297    
    436000   0.96297063     17.21529       21.174798    
    437000   0.96202428     17.403983      20.949951    
    438000   0.9855077      17.020367      20.782518    
    439000   1.003337       16.867678      20.606311    
    440000   0.99786589     17.594498      20.497335    
    441000   1.0408578      17.060932      20.538387    
    442000   0.96984999     17.77537       20.446092    
    443000   0.95371749     16.818574      20.718947    
    444000   1.0203025      16.659302      20.602024    
    445000   1.0056144      16.86857       20.51721     
    446000   0.95146677     17.214095      20.441616    
    447000   1.014546       16.617751      20.355357    
    448000   1.0311002      17.138423      20.121981    
    449000   0.99377552     17.050097      19.79203     
    450000   0.98080681     16.269658      19.605503    
    451000   1.005403       17.54336       19.32327     
    452000   0.99868765     17.188505      19.329589    
    453000   1.0139113      17.036009      19.086997    
    454000   0.97904971     17.427443      19.188852    
    455000   1.0667944      17.71595       18.999081    
    456000   0.98452025     17.406356      19.074771    
    457000   1.0065401      16.715971      18.636877    
    458000   1.0181966      17.018491      18.684178    
    459000   0.97677754     17.49094       18.63624     
    460000   1.0202382      17.452227      18.744804    
    461000   1.0688804      17.663365      18.401685    
    462000   1.005974       17.66803       18.288715    
    463000   1.0067831      17.176305      18.283771    
    464000   0.98889081     17.541536      18.229181    
    465000   0.96163179     17.346586      18.298587    
    466000   1.0496649      17.079019      18.088407    
    467000   1.0011925      16.791019      18.011654    
    468000   1.0126272      17.490373      17.80282     
    469000   0.96446674     17.283074      17.644401    
    470000   1.0256478      17.478775      17.214276    
    471000   1.015834       17.916951      17.136299    
    472000   1.0051388      17.786644      17.156752    
    473000   1.0219246      16.974046      16.836913    
    474000   1.0034474      16.648188      16.747177    
    475000   0.98138738     16.826204      16.581834    
    476000   0.98557956     17.119167      16.189474    
    477000   0.9634568      17.501813      16.162584    
    478000   0.97353183     17.408385      16.007614    
    479000   1.0087138      17.260177      15.930809    
    480000   1.000843       17.517533      15.705082    
    481000   0.97742515     17.699588      15.572897    
    482000   1.0228781      17.331872      15.603029    
    483000   1.004961       17.279221      15.498538    
    484000   0.97477775     17.266793      15.494078    
    485000   0.97072488     17.711245      15.349578    
    486000   1.0162404      17.326999      15.349225    
    487000   1.0153749      16.658805      15.476244    
    488000   0.97510414     17.211349      15.327483    
    489000   1.016463       17.443453      15.398116    
    490000   0.97459763     17.222804      15.102001    
    491000   0.96968831     17.667503      14.926831    
    492000   1.0171644      17.076808      14.917346    
    493000   0.99240595     17.436789      14.785709    
    494000   0.99872703     16.956956      14.776726    
    495000   0.99429259     16.76385       14.707927    
    496000   0.99306875     17.134882      14.514863    
    497000   1.011367       17.642115      14.341758    
    498000   0.98741147     17.859623      14.342534    
    499000   1.0253986      17.199444      14.396535    
    500000   1.0791206      17.117681      14.307711    
    501000   0.9766678      16.735199      14.526269    
    502000   1.010934       17.070622      14.270703    
    503000   0.96210721     17.0191        14.044533    
    504000   0.9862148      17.617246      13.89588     
    505000   1.0212132      17.155194      13.872765    
    506000   1.0321937      17.31133       13.849581    
    507000   0.97691136     17.517925      13.746696    
    508000   0.97894436     16.978815      13.74343     
    509000   0.98012876     17.351466      13.886153    
    510000   0.98018634     16.391614      13.637716    
    511000   1.0080075      17.289561      13.54131     
    512000   1.0109326      17.315656      13.385823    
    513000   1.0475902      17.593657      13.293218    
    514000   0.99577526     17.23182       13.073978    
    515000   1.0094422      17.699514      12.894843    
    516000   1.0168202      17.210329      12.81234     
    517000   1.0171141      16.97434       12.612675    
    518000   1.0220046      17.077123      12.476995    
    519000   0.96883768     17.337311      12.277041    
    520000   1.0630108      16.760722      12.322614    
    521000   0.99554105     17.25407       12.353341    
    522000   1.0009358      17.263816      12.190798    
    523000   1.0502391      17.292781      12.112766    
    524000   0.99612932     17.153548      12.139042    
    525000   0.99559579     17.318976      12.183863    
    526000   0.98805163     17.326849      12.06449     
    527000   0.99718697     16.9709        11.87288     
    528000   0.99120444     17.672914      11.89567     
    529000   1.0107043      17.087968      11.776687    
    530000   0.97283477     16.816162      11.675943    
    531000   1.0215487      17.290116      11.486143    
    532000   0.99803692     17.721683      11.335309    
    533000   0.96873182     16.505256      11.561268    
    534000   0.99044297     17.70697       11.64837     
    535000   1.0060573      17.645759      11.519847    
    536000   0.98095366     17.612975      11.891183    
    537000   1.030349       17.53776       11.886564    
    538000   1.0285096      16.955432      11.621325    
    539000   0.95818544     16.602568      11.500116    
    540000   0.98915024     16.720309      11.31815     
    541000   0.99677501     16.929         11.018657    
    542000   1.046598       17.982743      10.950363    
    543000   1.0273152      17.421861      11.05962     
    544000   1.0187153      16.775154      10.993588    
    545000   0.95723826     16.663391      10.741936    
    546000   0.99482098     18.029363      10.769481    
    547000   0.98035591     16.704449      10.668595    
    548000   1.0077052      17.738422      10.698769    
    549000   0.99998169     17.351637      10.693202    
    550000   1.0078724      17.633119      10.686792    
    551000   0.99486753     17.164341      10.543631    
    552000   0.97959377     16.513795      10.390818    
    553000   0.95326345     17.385671      10.33813     
    554000   1.0161773      17.662639      10.285757    
    555000   1.0029214      17.216294      10.12687     
    556000   1.0134368      17.200301      10.134409    
    557000   1.0007735      17.364329      9.9933613    
    558000   1.0658281      17.119446      9.9940898    
    559000   0.9845334      16.921128      9.8536218    
    560000   0.92239368     16.49166       9.9756766    
    561000   1.0015513      17.033624      10.053329    
    562000   0.99025558     17.490587      10.05612     
    563000   0.97886515     17.122918      9.9231162    
    564000   0.99939989     17.472509      10.000902    
    565000   1.0544015      17.11037       10.050023    
    566000   0.9705385      17.053224      10.320718    
    567000   1.062925       17.06268       10.400727    
    568000   1.0056525      16.908012      10.091947    
    569000   0.99116934     16.953641      10.084654    
    570000   1.0208428      17.069275      10.096297    
    571000   0.98452519     16.898904      10.152496    
    572000   1.0051092      17.166051      10.088888    
    573000   0.94705738     17.025397      9.9651632    
    574000   1.021446       17.183215      9.9343402    
    575000   0.97892983     17.323818      9.8577977    
    576000   0.98194808     16.691074      9.6360211    
    577000   1.0028847      17.855347      9.6317092    
    578000   0.95261947     17.251295      9.392351     
    579000   1.0374793      17.584571      9.1897054    
    580000   1.0523215      17.967888      9.1492493    
    581000   1.0089819      16.925769      9.1930375    
    582000   1.0082479      17.217973      9.1080437    
    583000   0.95797045     17.524182      9.1007761    
    584000   0.96859351     17.32342       9.1734139    
    585000   1.0182927      16.795453      9.1192897    
    586000   1.0293926      17.265559      9.1548846    
    587000   0.97892422     16.980516      9.1996158    
    588000   0.98460321     17.36156       9.2047849    
    589000   0.99357373     17.006388      9.0343087    
    590000   1.0043036      16.888777      9.3572742    
    591000   1.0103748      16.927387      9.550604     
    592000   1.0048939      17.602809      9.4777649    
    593000   1.030398       17.210344      9.3450221    
    594000   1.040296       17.670069      9.5134524    
    595000   0.99075119     17.606781      9.3132659    
    596000   1.0077759      17.691066      9.5105231    
    597000   1.0038082      17.402882      9.5509394    
    598000   1.0650965      16.636704      9.3790339    
    599000   1.0391853      17.368997      9.4575035    
    600000   1.052541       17.328999      9.2474856    
    601000   0.98051784     17.05184       9.087219     
    602000   1.0171131      17.002853      9.0555065    
    603000   1.0186168      16.850385      9.0866442    
    604000   1.0091798      17.19256       8.8242687    
    605000   0.99546618     16.999602      8.7758686    
    606000   1.0207736      17.425865      8.6425068    
    607000   1.0127274      17.262004      8.6920341    
    608000   0.99339267     16.755629      8.8634293    
    609000   0.99829766     16.863141      8.8134713    
    610000   0.97184436     17.191531      8.480499     
    611000   1.0000241      17.014545      8.4864401    
    612000   0.99097678     17.173696      8.3506868    
    613000   0.99242315     16.857209      8.1280321    
    614000   0.96599665     17.220105      7.9210785    
    615000   0.98856805     16.785483      7.6788357    
    616000   1.0098508      17.074236      7.4221748    
    617000   1.0053364      16.756326      7.3120559    
    618000   0.98290641     17.726416      7.1788229    
    619000   0.97772181     16.983636      7.2360473    
    620000   1.018083       16.777614      7.1940336    
    621000   0.98858403     16.62289       7.1716366    
    622000   1.0167388      17.159271      7.0987931    
Fix halt condition for fix-id 3 met on step 623000 with value 6.880648659534762 (src/fix_halt.cpp:237)
    623000   1.0227974      17.106955      6.8806487    
Loop time of 659.985 on 2 procs for 523000 steps with 897 atoms

Performance: 684670.379 tau/day, 792.443 timesteps/s
99.9% CPU use with 2 MPI tasks x 1 OpenMP threads

MPI task timing breakdown:
Section |  min time  |  avg time  |  max time  |%varavg| %total
---------------------------------------------------------------
Pair    | 0.12033    | 153.31     | 306.5      |1237.2 | 23.23
Bond    | 0.14595    | 10.17      | 20.194     | 314.3 |  1.54
Neigh   | 305.99     | 305.99     | 305.99     |   0.0 | 46.36
Comm    | 0.40801    | 0.41524    | 0.42248    |   1.1 |  0.06
Output  | 1.2013     | 1.2159     | 1.2304     |   1.3 |  0.18
Modify  | 0.85202    | 11.195     | 21.539     | 309.1 |  1.70
Other   |            | 177.7      |            |       | 26.92

Nlocal:          448.5 ave         897 max           0 min
Histogram: 1 0 0 0 0 0 0 0 0 1
Nghost:              0 ave           0 max           0 min
Histogram: 2 0 0 0 0 0 0 0 0 0
Neighs:          87450 ave      174900 max           0 min
Histogram: 1 0 0 0 0 0 0 0 0 1

Total # of neighbors = 174900
Ave neighs/atom = 194.98328
Ave special neighs/atom = 1.9977703
Neighbor list builds = 4365
Dangerous builds = 0

# This simulation is done
# Move onto the next one
clear
OMP_NUM_THREADS environment is not set. Defaulting to 1 thread. (src/comm.cpp:98)
  using 1 OpenMP thread(s) per MPI task
next f
jump SELF

f
ERROR: Unknown command: f (src/input.cpp:303)
Last command: f
