#atom_style bond #no stiffness
atom_style angle #with stiffness

boundary        p p p
###
# Pair interactions require lists of neighbours to be calculated
###

#neighbor 0.3 bin
neighbor 4 bin

neigh_modify every 1 delay 1 check yes
atom_modify sort 0 0
### Generate RESTART file, SPECIAL format, not a .txt file ###
### Useful if simulation crashes ###

restart 1000000 nuc5branch4/restarts/$f.restart
restart 1000000 nuc5branch4/restarts/bb412nuc5bl68bn4d30tot1100.restart
#############################



### READ "start" data file ###

read_data nuc5branch4/$f.dat
read_data nuc5branch4/bb412nuc5bl68bn4d30tot1100.dat
Reading data file ...
  orthogonal box = (-1000 -1000 -1000) to (1000 1000 1000)
  1 by 1 by 2 MPI processor grid
  reading atoms ...
  1093 atoms
  scanning bonds ...
  3 = max bonds/atom
  scanning angles ...
  6 = max angles/atom
  reading bonds ...
  1092 bonds
  reading angles ...
  1106 angles
Finding 1-2 1-3 1-4 neighbors ...
  special bond factors lj:    0        0        0       
  special bond factors coul:  0        0        0       
     4 = max # of 1-2 neighbors
     4 = max # of 1-3 neighbors
     8 = max # of 1-4 neighbors
    12 = max # of special neighbors
  special bonds CPU = 0.001 seconds
  read_data CPU = 0.123 seconds

######################

### READ "REstart" data file ###

######################



###
# Define groups (atom type 1 is group 'all')
###
group all type 1
1093 atoms in group all


###
# Dump configs - "simple dumpings"
###

###
# Dump configs + box coords
###

dump   1   all   custom   1000  nuc5branch4/trjs/$f.lammpstrj  id  x y z  ix iy iz
dump   1   all   custom   1000  nuc5branch4/trjs/bb412nuc5bl68bn4d30tot1100.lammpstrj  id  x y z  ix iy iz
dump_modify   1   format line "%d %.5f %.5f %.5f %d %d %d"

########################################################################


###################################################################
# Stiffness term
#
# E = K * (1+cos(theta)), K>0
#
angle_style   cosine
#change this coefficient to change stiffness (e.g. 1,5,10)
angle_coeff   1 1.0
###################################################################

###################################################################
# Pair interaction between non-bonded atoms
#
#  Lennard-Jones 12-6 potential with cutoff:
#  potential E=4epsilon[ (sigma/r)^12 - (sigma/r)^6]  for r<r_cut
#
#  1.12246 = 2^(1/6) is the minimum of the potential


pair_style      lj/cut 1.12246152962189
#pair_style      lj/cut 3

#
#  pair_modify shift yes adds a constant to the potential such

#  that E(r_cut)=0. Forces remains unchanged.
#

pair_modify     shift yes

#
#  pair_coeff for lj/cut, specify 4:
#    * atom type interacting with
#    * atom type
#    * epsilon (energy units)
#    * sigma (distance units)
#

pair_coeff      1 1 1.0 1.0
###################################################################

###################################################################
# Pair interaction between non-bonded atoms
#
#  soft potential, for PUSHING apart overlapping atoms
#  potential E=A*(1 + cos(pi*r/r_c))
#
#  1.12246 = 2^(1/6) is the cut-off r_c

#pair_style     soft 1.12246152962189

#
#  pair_coeff for soft, specify 3:
#    * atom type interacting with
#    * atom type
#    * A
#
#

#pair_coeff      1 1 100.0
###################################################################

###################################################################
# Pair interaction between bonded atoms
#
# Fene potential + Lennard Jones 12-6:

#
#  E= - 0.5 K R0^2 ln[ 1- (r/R0)^2]
#     + 4epsilon[ (sigma/r)^12 - (sigma/r)^6] + epsilon
#

bond_style   fene


#
# For style fene, specify:
#   * bond type
#   * K (energy/distance^2)
#   * R0 (distance)
#   * epsilon (energy)  (LJ component)
#   * sigma (distance)  (LJ component)
#


special_bonds fene #<=== I M P O R T A N T (new command)
Finding 1-2 1-3 1-4 neighbors ...
  special bond factors lj:    0        1        1       
  special bond factors coul:  0        1        1       
     4 = max # of 1-2 neighbors
    12 = max # of special neighbors
  special bonds CPU = 0.000 seconds

bond_coeff   1   30   2   1.0   1.0


###################################################

###################################################################
# Pair interaction between bonded atoms
#
# Harmonic potential:
#
#  E= K * (R-R0)^2
#

#bond_style   harmonic

#
# For style harmonic, specify:
#   * bond type
#   * K (energy/distance^2)
#   * R0 (distance)
#

#bond_coeff   1   60.0   1.0
#bond_coeff   2   harmonic 0.1   1.0

###################################################
compute 1 all gyration
variable rog equal c_1
#compute 2 all coord/atom cutoff 1.1

#dump 2 all custom 10000 contact_number.dump id c_2


###
# Set up fixes
###
thermo_style   custom   step  temp enthalpy c_1
fix 1 all nve   ###NVE ensemble

fix 2 all   langevin   1.0 1.0 1.0  100103   ###Langevin integrator Tstart Tstop 1/friction rndseed


##### Sample thermodynamic info  (temperature, energy, pressure, etc.) #####
thermo 1000









############################################################################

###
# set timestep of integrator

timestep 0.01

###
# run integration for a number of steps
###
#run 0
#variable r equal c_1
#if "$r < 63.1" then "quit 1"

# lj potential minimum, cause molecule to explore
run 100000
Generated 0 of 0 mixed pair_coeff terms from geometric mixing rule
Last active /omp style is angle_style cosine/omp
Neighbor list info ...
  update: every = 1 steps, delay = 1 steps, check = yes
  max neighbors/atom: 2000, page size: 100000
  master list distance cutoff = 5.1224615
  ghost atom cutoff = 5.1224615
  binsize = 2.5612308, bins = 781 781 781
  1 neighbor lists, perpetual/occasional/extra = 1 0 0
  (1) pair lj/cut/omp, perpetual
      attributes: half, newton on, omp
      pair build: half/bin/newton/omp
      stencil: half/bin/3d
      bin: standard
WARNING: Communication cutoff 5.12246152962189 is shorter than a bond length based estimate of 5.455. This may lead to errors. (src/comm.cpp:723)
Per MPI rank memory allocation (min/avg/max) = 941.4 | 942.1 | 942.7 Mbytes
   Step          Temp         Enthalpy         c_1      
         0   0              13.268231      82.563339    
      1000   0.99959873     18.699722      81.854759    
      2000   0.99422797     19.125055      81.306572    
      3000   1.0049676      19.06113       81.047101    
      4000   0.99627572     19.053284      80.528845    
      5000   1.0195932      19.63433       80.007762    
      6000   1.0004149      19.535498      79.474476    
      7000   1.0136215      19.64369       79.179106    
      8000   0.97087763     19.248442      78.740074    
      9000   0.98833069     19.530824      78.358184    
     10000   0.99395615     19.858359      78.184151    
     11000   1.0042821      19.752656      77.784117    
     12000   1.0207376      19.978071      77.389664    
     13000   1.0345696      19.446118      77.189252    
     14000   1.0530606      20.008837      77.101167    
     15000   0.97720434     19.370461      76.757633    
     16000   0.99031264     19.425522      76.640568    
     17000   0.98725063     19.80087       76.334116    
     18000   0.98863859     20.067448      76.082589    
     19000   1.032004       20.004795      75.989519    
     20000   1.0120595      19.95687       75.826868    
     21000   0.98128367     19.966311      75.662577    
     22000   0.97909943     19.951568      75.761729    
     23000   0.9770974      20.390781      75.709607    
     24000   1.0178233      19.848002      75.557304    
     25000   1.0075491      19.546307      75.442833    
     26000   0.94371067     20.101027      75.086412    
     27000   1.0056487      20.209928      74.674269    
     28000   1.0212691      19.899452      74.506612    
     29000   0.99099033     20.213477      74.574921    
     30000   0.97302933     20.32934       74.57982     
     31000   0.9935799      20.23478       74.465668    
     32000   1.0401651      19.8565        74.415097    
     33000   1.0161077      20.062014      74.311887    
     34000   1.0166656      20.239281      73.945367    
     35000   1.0590693      20.590278      73.783074    
     36000   1.0450322      20.343633      73.333335    
     37000   1.0241197      20.476612      73.068678    
     38000   0.98912424     20.240191      73.085949    
     39000   0.9979884      20.350286      72.958007    
     40000   0.98081326     20.189307      72.937274    
     41000   0.97062979     19.957337      72.859728    
     42000   1.0012724      20.366495      72.840545    
     43000   1.0197796      20.734306      72.972982    
     44000   0.97307248     19.829009      72.817386    
     45000   1.0013353      20.053212      72.625309    
     46000   0.99941899     20.309484      72.633071    
     47000   0.97513319     20.433669      72.719238    
     48000   1.0296248      20.239643      72.709558    
     49000   0.98702576     20.178198      72.848896    
     50000   1.0107745      20.426414      72.543182    
     51000   1.0363982      20.493689      72.499947    
     52000   1.0517667      20.473312      72.365877    
     53000   1.0302147      20.437747      72.201691    
     54000   1.018536       19.992868      71.967718    
     55000   0.99028287     19.922493      71.78863     
     56000   1.003287       20.39142       71.735316    
     57000   0.97531181     20.376929      71.628065    
     58000   1.0183088      20.40624       71.692258    
     59000   0.96241069     19.817869      71.479368    
     60000   1.0269278      20.907292      71.468081    
     61000   1.0026273      20.627081      71.525801    
     62000   0.96994879     20.553667      71.52152     
     63000   1.0071278      20.303268      71.46529     
     64000   1.0034296      20.219205      71.447016    
     65000   0.9902382      20.291848      71.417648    
     66000   1.0259285      21.06776       71.348605    
     67000   1.0322177      20.652999      71.165449    
     68000   0.97483888     20.55456       71.127375    
     69000   1.0222651      20.37719       71.05823     
     70000   1.0128387      20.347829      70.938014    
     71000   0.94755924     20.203866      70.929456    
     72000   1.0004124      20.71574       71.056062    
     73000   0.99952096     20.672632      70.943363    
     74000   1.0106247      19.945111      70.651312    
     75000   0.99298355     19.805531      70.568625    
     76000   0.9767359      20.746806      70.389556    
     77000   0.9729772      20.473908      70.442113    
     78000   1.0289803      20.368265      70.347667    
     79000   1.0223303      19.958966      70.240875    
     80000   1.0006379      19.717893      70.243161    
     81000   1.0016987      20.434906      70.216062    
     82000   1.0132053      20.629887      70.397514    
     83000   0.98275264     20.739496      70.400941    
     84000   1.0143301      20.01453       70.539525    
     85000   1.0323368      20.51459       70.583564    
     86000   0.98447607     20.372004      70.370479    
     87000   0.94590535     20.271074      70.299721    
     88000   1.0076164      20.280728      70.26128     
     89000   0.98121625     20.600303      70.314577    
     90000   0.96923436     20.098054      70.351216    
     91000   0.98026635     20.026004      70.248545    
     92000   1.0122334      20.430439      70.078295    
     93000   1.0110557      20.237097      69.950285    
     94000   1.0164957      20.158095      69.963906    
     95000   0.99860306     20.445534      69.917943    
     96000   1.0152452      20.359481      69.749453    
     97000   1.0089762      20.460556      69.442822    
     98000   1.0259672      20.634128      69.354408    
     99000   0.97897695     20.573652      69.179196    
    100000   0.99512125     20.650098      69.116175    
Loop time of 207.856 on 4 procs for 100000 steps with 1093 atoms

Performance: 415671.614 tau/day, 481.101 timesteps/s
107.9% CPU use with 2 MPI tasks x 2 OpenMP threads

MPI task timing breakdown:
Section |  min time  |  avg time  |  max time  |%varavg| %total
---------------------------------------------------------------
Pair    | 0.1268     | 1.0596     | 1.9924     |  90.6 |  0.51
Bond    | 0.226      | 1.7327     | 3.2393     | 114.5 |  0.83
Neigh   | 194.35     | 194.35     | 194.35     |   0.0 | 93.50
Comm    | 0.065558   | 0.068423   | 0.071289   |   1.1 |  0.03
Output  | 0.33985    | 0.35107    | 0.3623     |   1.9 |  0.17
Modify  | 0.36518    | 3.7926     | 7.2201     | 176.0 |  1.82
Other   |            | 6.501      |            |       |  3.13

Nlocal:          546.5 ave        1093 max           0 min
Histogram: 1 0 0 0 0 0 0 0 0 1
Nghost:              0 ave           0 max           0 min
Histogram: 2 0 0 0 0 0 0 0 0 0
Neighs:           4507 ave        9014 max           0 min
Histogram: 1 0 0 0 0 0 0 0 0 1

Total # of neighbors = 9014
Ave neighs/atom = 8.2470265
Ave special neighs/atom = 1.9981702
Neighbor list builds = 1198
Dangerous builds = 0

# Replace lj potential, now collapse
pair_style      lj/cut 3

# Cutoff simul when gyration under 10
# Variable created with equal requires v_ + 'name'
fix 3 all halt 1000 v_rog < 7

run 3000000
Generated 0 of 0 mixed pair_coeff terms from geometric mixing rule
Last active /omp style is angle_style cosine/omp
Per MPI rank memory allocation (min/avg/max) = 941.4 | 942.1 | 942.7 Mbytes
   Step          Temp         Enthalpy         c_1      
    100000   0.99512125     19.769896      69.116175    
    101000   0.98628101     19.342367      68.940607    
    102000   1.0146115      19.355895      68.757407    
    103000   1.0061622      19.246561      68.684029    
    104000   1.0218829      19.454667      68.765495    
    105000   0.99275509     19.53354       68.578086    
    106000   0.96199378     19.564379      68.472257    
    107000   1.0714588      19.431737      68.262822    
    108000   0.97115648     19.169903      68.150778    
    109000   1.0238386      19.026373      68.04749     
    110000   1.0423268      18.854801      67.967201    
    111000   1.0344622      18.41605       67.719772    
    112000   1.0492513      19.033241      67.454389    
    113000   1.0139977      19.017737      67.483951    
    114000   0.9943101      18.930449      67.287255    
    115000   1.0684877      19.126478      67.099128    
    116000   1.0014575      18.721327      66.854258    
    117000   1.0089058      18.392715      66.612117    
    118000   1.0374535      18.538288      66.410061    
    119000   1.0082662      18.68908       66.221024    
    120000   0.99913676     18.616663      66.21208     
    121000   1.0108016      18.434465      66.116746    
    122000   1.0039447      17.939958      65.949353    
    123000   1.0118323      18.613213      65.626165    
    124000   0.99827342     18.777809      65.487568    
    125000   1.0031468      18.575876      65.359694    
    126000   0.99958751     18.708155      65.411602    
    127000   1.0078742      18.715527      65.184938    
    128000   0.99553156     18.120611      65.081592    
    129000   1.004113       18.264706      64.98274     
    130000   0.99801913     18.304484      65.020236    
    131000   1.0186023      18.501104      64.936943    
    132000   0.96823534     17.935376      64.803456    
    133000   0.99970838     18.206391      64.735562    
    134000   1.0459845      17.735958      64.477905    
    135000   1.034186       17.853075      64.235301    
    136000   0.98742928     17.883147      64.055375    
    137000   1.0212911      18.178174      63.89001     
    138000   0.98421649     17.637894      63.824931    
    139000   0.98678216     18.248557      63.746111    
    140000   0.98722454     17.803753      63.412804    
    141000   1.0050369      17.919805      63.005548    
    142000   0.93353535     18.082352      63.03251     
    143000   1.0584613      18.059662      63.097201    
    144000   1.0564757      18.567407      63.104752    
    145000   0.99324634     18.099408      63.112839    
    146000   1.0438929      18.349045      62.904893    
    147000   1.0180852      18.093727      62.908715    
    148000   1.0200994      18.101393      62.455218    
    149000   1.0052092      18.258509      62.519795    
    150000   0.99469447     18.115657      62.665512    
    151000   0.95268303     18.015724      62.530504    
    152000   1.0493192      18.447439      62.403428    
    153000   1.0280168      18.468733      62.325703    
    154000   0.98062362     17.933117      62.129313    
    155000   0.9862376      18.010137      61.991202    
    156000   0.99794963     17.872161      61.642132    
    157000   1.0385305      17.764015      61.537147    
    158000   1.0069909      18.204952      61.429786    
    159000   0.99342772     17.921771      61.603045    
    160000   0.96196089     18.261918      61.315482    
    161000   0.97925418     17.72605       61.167017    
    162000   1.0373434      17.453043      61.05183     
    163000   0.95642492     17.953874      60.986514    
    164000   0.99897068     17.927822      61.097852    
    165000   1.0027434      17.852538      60.871777    
    166000   1.0348306      17.648516      60.669308    
    167000   0.97097127     17.753276      60.525844    
    168000   1.0173166      17.544465      60.141359    
    169000   1.0344802      17.878615      59.970165    
    170000   1.0032316      17.727704      60.023272    
    171000   1.0178809      17.772384      59.94683     
    172000   1.023618       18.126541      59.777103    
    173000   0.99780497     17.634043      59.455549    
    174000   0.99678054     18.362751      59.291495    
    175000   1.0041333      18.271839      59.124939    
    176000   0.98644941     18.296839      59.004905    
    177000   1.0185921      17.98839       58.80767     
    178000   1.005117       18.243555      58.56394     
    179000   0.9561781      17.711562      58.240855    
    180000   1.0166604      18.014249      58.158017    
    181000   0.9870452      17.789668      58.082717    
    182000   1.0138553      17.810511      57.909098    
    183000   1.0009896      18.273578      57.845198    
    184000   0.95566973     18.089074      57.546482    
    185000   0.98869007     18.112491      57.478982    
    186000   0.96570797     17.774262      57.417887    
    187000   0.98876565     18.510482      57.197863    
    188000   0.93958077     17.902196      57.324437    
    189000   1.0038334      17.904089      57.368903    
    190000   0.98614756     18.094926      57.169723    
    191000   1.001721       18.041738      57.116902    
    192000   1.000363       17.77319       57.107542    
    193000   1.0318935      18.195546      57.03036     
    194000   0.97806355     18.564487      56.693891    
    195000   1.0317462      18.361152      56.590367    
    196000   0.99664669     17.854953      56.290236    
    197000   0.98965172     18.408913      56.387414    
    198000   0.99491928     18.129971      56.298568    
    199000   0.98964014     18.127176      56.099309    
    200000   0.98211822     17.647673      56.141614    
    201000   1.0132114      18.127516      55.931375    
    202000   1.0233202      18.334226      55.792242    
    203000   1.0071665      18.009437      55.76277     
    204000   1.0140054      17.723787      55.534496    
    205000   1.0416923      18.003723      55.250213    
    206000   1.0104809      17.82645       55.295281    
    207000   0.99272043     18.402299      55.243338    
    208000   1.0339424      17.826383      55.127193    
    209000   1.0139867      17.618057      55.067118    
    210000   0.99225692     17.94299       55.136096    
    211000   1.0058823      18.186908      54.907497    
    212000   0.99082108     17.743582      54.795441    
    213000   0.99669828     18.034847      54.567063    
    214000   0.99876587     17.962021      54.742628    
    215000   0.98753306     17.755281      54.680649    
    216000   1.0037489      17.829904      54.577635    
    217000   0.99733514     17.666773      54.569827    
    218000   0.96998045     17.10666       54.454998    
    219000   0.96583984     17.872473      54.38023     
    220000   1.0118794      17.417262      54.226407    
    221000   1.0118033      17.416102      54.094986    
    222000   1.0174554      18.162032      53.894431    
    223000   0.99716063     17.801897      53.672371    
    224000   0.99800785     18.058497      53.571024    
    225000   1.0061826      17.51559       53.588275    
    226000   0.97507799     17.711552      53.452996    
    227000   1.0210447      17.385759      53.272213    
    228000   1.033653       18.019395      53.184215    
    229000   1.0108346      17.676403      53.067561    
    230000   1.0360484      18.285848      53.078792    
    231000   0.96643959     17.896526      53.140144    
    232000   0.98669477     18.049497      52.895642    
    233000   1.0242912      17.783911      52.658301    
    234000   1.0374047      17.760685      52.693883    
    235000   0.98571618     17.875148      52.653266    
    236000   0.98249989     17.615258      52.656552    
    237000   1.0130772      17.953144      52.627012    
    238000   1.0489343      18.314072      52.468877    
    239000   1.0154184      17.267127      52.758181    
    240000   1.0002928      17.861982      52.529427    
    241000   0.95666908     17.550531      52.334684    
    242000   1.0240004      17.884071      52.293784    
    243000   0.98981376     17.317101      52.2334      
    244000   1.0224462      17.875293      52.151601    
    245000   0.97422356     17.195012      51.90959     
    246000   1.0601696      18.504169      51.865531    
    247000   1.0004949      17.84198       51.795926    
    248000   0.99342351     17.913159      51.617999    
    249000   1.0137628      18.195765      51.315578    
    250000   1.0554157      17.800385      51.191795    
    251000   1.0514556      17.932978      51.059413    
    252000   1.0114052      17.784229      51.171939    
    253000   1.0001302      18.041547      51.102112    
    254000   1.0090335      17.633971      50.872653    
    255000   0.94730405     17.661783      50.752547    
    256000   0.99953326     18.268755      50.554894    
    257000   0.99697999     18.21343       50.541587    
    258000   1.0409586      17.420915      50.402289    
    259000   1.0155171      18.4147        50.435472    
    260000   0.97529829     17.660283      50.567456    
    261000   1.0068634      17.892189      50.441979    
    262000   0.98886525     17.797507      50.36829     
    263000   0.98424114     17.786345      50.346471    
    264000   0.97947385     18.082988      50.318462    
    265000   1.0278722      18.037264      50.347135    
    266000   1.017815       18.168705      50.171095    
    267000   0.98163008     17.744744      49.913127    
    268000   1.0314668      17.861887      49.787041    
    269000   1.0197333      18.056022      49.469766    
    270000   1.0005554      18.249346      49.338194    
    271000   0.98550705     17.335608      49.349898    
    272000   0.98034689     17.313156      49.193183    
    273000   0.95845197     17.458342      48.976162    
    274000   1.0208159      17.702446      49.031438    
    275000   0.99582646     17.489262      49.106488    
    276000   0.95582443     17.96214       48.952041    
    277000   0.99759754     17.880374      48.69263     
    278000   0.99500925     18.347657      48.654643    
    279000   0.98705721     17.453841      48.765211    
    280000   1.0181425      17.627664      48.954026    
    281000   1.0022345      17.821734      49.080584    
    282000   1.046619       18.007408      48.996823    
    283000   0.99201389     17.75543       48.896797    
    284000   1.0246634      17.496893      48.939093    
    285000   0.96263088     17.788472      48.912617    
    286000   1.0307254      17.921635      48.869604    
    287000   1.0475753      17.869705      48.827701    
    288000   0.99191442     18.103868      48.808344    
    289000   0.96917138     17.658557      49.020502    
    290000   1.0254962      17.966857      48.924152    
    291000   1.0044112      17.754298      48.596009    
    292000   1.0162838      17.888893      48.609429    
    293000   1.009602       18.19542       48.47049     
    294000   0.95856348     16.999054      48.479733    
    295000   0.97930494     17.809132      48.514605    
    296000   1.0157729      17.805482      48.245932    
    297000   0.94706937     17.639391      48.221769    
    298000   0.98512017     16.945969      48.159382    
    299000   0.98774866     17.770045      47.912284    
    300000   0.99279221     17.984835      47.902294    
    301000   0.99105714     17.766084      47.745139    
    302000   0.99012756     17.346413      47.963092    
    303000   1.0104973      18.015872      48.081838    
    304000   0.99880178     17.94606       47.81279     
    305000   1.0124553      17.749306      47.582187    
    306000   0.95484292     17.323863      47.356821    
    307000   1.0187193      18.147363      47.446039    
    308000   1.0256024      16.922779      47.575592    
    309000   0.97880484     17.515685      47.453122    
    310000   1.0062972      17.328899      47.389218    
    311000   0.98843319     17.950326      47.193446    
    312000   1.0336599      18.075546      47.083866    
    313000   0.97790168     17.697823      47.092024    
    314000   1.0048279      18.265405      46.874521    
    315000   0.98666087     18.073003      46.575205    
    316000   0.96547519     17.434431      46.433535    
    317000   1.03826        18.155841      46.423543    
    318000   1.0623007      17.570051      46.672016    
    319000   1.0190397      17.496061      46.623736    
    320000   0.98637946     18.274399      46.231612    
    321000   1.0201788      18.038965      46.089388    
    322000   1.0244335      17.388336      46.184949    
    323000   0.98074487     17.784502      46.163669    
    324000   1.0331229      17.841555      46.148996    
    325000   1.0361327      18.313492      46.095766    
    326000   1.008222       17.820033      45.983645    
    327000   0.96632201     17.955253      45.976759    
    328000   1.0366479      17.259507      45.960424    
    329000   1.0102002      18.129957      46.022314    
    330000   1.0438488      17.42495       45.925151    
    331000   1.0202253      17.759094      45.85945     
    332000   0.97341977     18.258688      45.667657    
    333000   1.0454106      17.969889      45.470141    
    334000   1.0322307      17.748627      45.224049    
    335000   0.99148146     17.751238      44.815251    
    336000   1.0137271      18.20842       44.694405    
    337000   0.98747182     17.821809      44.527306    
    338000   0.94459981     17.100021      44.262599    
    339000   0.97045894     17.909563      44.206468    
    340000   0.95755144     18.467206      44.192162    
    341000   1.0318723      17.42122       44.064898    
    342000   1.0045429      17.946435      43.880737    
    343000   1.0540127      17.400478      43.659881    
    344000   1.0087862      17.79052       43.580717    
    345000   1.0273389      17.73195       43.468586    
    346000   0.99585246     17.820478      43.093679    
    347000   0.99158667     17.21004       42.93794     
    348000   0.99734159     17.893643      43.004599    
    349000   0.98374515     17.482753      42.906494    
    350000   0.93969832     17.698291      42.781266    
    351000   0.98981336     17.953189      42.592532    
    352000   1.0285246      17.839621      42.47281     
    353000   1.0012502      17.888253      42.524635    
    354000   0.9829344      17.76593       42.533841    
    355000   0.99259747     17.508517      42.281236    
    356000   0.9855312      17.963344      42.21062     
    357000   1.0167181      17.818934      42.150386    
    358000   1.0336497      17.95419       42.236729    
    359000   1.0294806      17.430944      42.012597    
    360000   0.98850233     17.626932      41.696562    
    361000   1.0016283      17.560662      41.424608    
    362000   0.99579983     17.436687      41.628407    
    363000   1.0024782      17.13461       41.581548    
    364000   1.0155585      17.927687      41.471174    
    365000   1.0079376      17.54856       41.420576    
    366000   0.9690908      17.549594      41.359868    
    367000   1.0432606      18.126387      41.308418    
    368000   0.98679588     17.718591      41.301334    
    369000   0.9878318      18.056647      41.54063     
    370000   1.0501694      17.989657      41.517535    
    371000   1.0427004      18.316667      41.411969    
    372000   1.0012201      18.11459       41.309484    
    373000   1.0360763      18.107813      41.300611    
    374000   0.97715874     17.313507      41.427059    
    375000   1.0164037      17.606541      41.753523    
    376000   1.017669       17.765124      41.796084    
    377000   1.049954       17.612839      41.6688      
    378000   1.0265808      17.477833      41.802196    
    379000   0.99141011     18.069721      41.797914    
    380000   0.99590473     18.030996      41.572234    
    381000   0.99698076     17.821286      41.633338    
    382000   0.98368355     17.995829      41.70045     
    383000   1.029256       17.584071      41.606852    
    384000   0.97766071     17.70928       41.573807    
    385000   1.0092679      17.722606      41.366788    
    386000   0.96731998     17.532874      41.422638    
    387000   0.9889979      17.623393      41.291297    
    388000   0.99278338     17.802548      41.27695     
    389000   0.99599093     17.955819      41.120309    
    390000   0.98615917     17.183221      40.975235    
    391000   0.97561884     17.821911      40.907893    
    392000   1.0416956      18.092883      40.847349    
    393000   0.98367264     17.345517      40.800976    
    394000   1.0170643      17.557322      40.881276    
    395000   1.0173418      17.366663      40.726067    
    396000   0.95882595     17.339814      40.529402    
    397000   1.012131       17.510604      40.467302    
    398000   0.98395614     17.724948      40.328347    
    399000   1.0204174      17.689194      40.457953    
    400000   0.98311119     17.564352      40.231237    
    401000   1.0380502      18.003556      40.12924     
    402000   0.9951182      17.689841      40.215493    
    403000   0.97566266     17.55785       40.255319    
    404000   1.002084       17.502042      40.188513    
    405000   0.97015223     18.052481      40.089054    
    406000   1.0308484      17.582554      40.175555    
    407000   0.97329305     17.43928       39.841177    
    408000   1.0074616      17.634477      39.496635    
    409000   0.99630015     17.477228      39.389852    
    410000   1.0192306      17.471101      39.507762    
    411000   1.0180868      17.549554      39.226605    
    412000   0.9765333      17.590292      38.863583    
    413000   0.97231648     17.0521        38.874698    
    414000   1.0662884      17.627374      38.751883    
    415000   1.0001157      17.853616      38.638181    
    416000   1.0171405      17.646121      38.505972    
    417000   0.97544919     17.489371      38.129765    
    418000   1.0059593      17.666796      38.052324    
    419000   1.0211782      17.728781      38.208101    
    420000   1.0239359      18.098046      37.983497    
    421000   1.023236       17.353705      37.849479    
    422000   1.0211227      17.912928      37.587314    
    423000   1.0657787      18.030915      37.44593     
    424000   1.0656155      17.547325      37.407096    
    425000   0.9902633      17.921292      37.33421     
    426000   0.98151723     17.694281      37.284388    
    427000   0.97824287     17.633051      37.101392    
    428000   0.99143908     17.887372      36.902306    
    429000   0.97945928     17.395933      36.771164    
    430000   0.98855846     17.404001      36.759756    
    431000   1.0173786      17.834902      36.699712    
    432000   1.0411054      17.047306      36.672302    
    433000   1.0410296      18.069428      36.568289    
    434000   0.99466278     17.235065      36.42839     
    435000   0.97232628     17.330958      36.502208    
    436000   1.0245072      17.812917      36.53244     
    437000   1.0210997      17.614846      36.503273    
    438000   1.0330997      18.17537       36.456577    
    439000   0.96002567     17.844337      36.221506    
    440000   0.9803693      17.44645       36.078696    
    441000   0.99628792     17.3986        35.958663    
    442000   0.98388027     17.816258      35.781012    
    443000   0.98062605     17.396721      35.688549    
    444000   1.0129466      17.213992      35.49079     
    445000   1.0074928      17.602921      35.616523    
    446000   1.0275376      17.822551      35.259265    
    447000   0.98632326     17.927536      35.346151    
    448000   0.97153475     17.572998      35.132988    
    449000   1.0159744      17.823857      35.026343    
    450000   0.99324958     17.554802      34.979407    
    451000   0.98661937     16.710467      34.789797    
    452000   1.0161216      17.957286      34.680733    
    453000   0.97797773     17.505724      34.445645    
    454000   0.96807801     17.451743      34.365472    
    455000   1.002454       18.19883       34.446323    
    456000   1.0247864      17.627952      34.441573    
    457000   1.0110473      17.460362      34.362454    
    458000   1.0159373      17.416055      34.242904    
    459000   0.97942774     17.615272      34.106675    
    460000   0.97939414     16.957377      34.220049    
    461000   1.0054536      17.249777      34.100503    
    462000   1.0359546      17.72014       33.976212    
    463000   0.95182911     17.699538      33.748169    
    464000   0.98648893     17.303456      33.872446    
    465000   0.96631287     17.418331      33.887505    
    466000   1.0248201      17.441114      33.825297    
    467000   0.95345509     17.959538      33.81631     
    468000   1.009582       17.089431      33.798548    
    469000   0.98392485     17.60761       33.553246    
    470000   0.99711178     17.828406      33.346046    
    471000   1.0191715      17.749199      33.353807    
    472000   1.0497556      18.175844      33.39044     
    473000   1.0374923      17.802866      33.286486    
    474000   1.0181631      17.312713      33.32056     
    475000   0.97327606     18.206683      33.068433    
    476000   1.0106036      17.978712      33.022592    
    477000   1.0018524      17.514577      33.077477    
    478000   0.9922829      17.687529      33.030965    
    479000   0.99898641     16.986235      32.948797    
    480000   1.0246228      17.211432      32.904361    
    481000   0.99577703     17.590682      32.911558    
    482000   1.0052064      17.295433      32.984077    
    483000   1.0277571      17.381803      32.79019     
    484000   0.97026677     17.348369      32.832365    
    485000   1.0005649      17.131068      32.731134    
    486000   1.019097       17.712102      32.848487    
    487000   1.0035856      17.482427      32.702491    
    488000   0.97700523     17.576509      32.452625    
    489000   0.9973755      18.209691      32.324376    
    490000   0.97070526     17.593791      32.141013    
    491000   0.98768417     17.239573      32.060342    
    492000   1.0005489      17.634735      31.929466    
    493000   1.0118681      17.721607      31.951131    
    494000   0.98637588     17.724504      31.79689     
    495000   1.0314214      17.438553      31.838056    
    496000   1.0276326      17.18303       31.564959    
    497000   0.98463306     17.591263      31.302492    
    498000   1.0086666      17.6042        31.223746    
    499000   0.96495847     17.29374       30.994303    
    500000   1.0176284      17.683364      31.185211    
    501000   1.0127967      18.016695      31.123843    
    502000   1.0290557      17.76793       30.979567    
    503000   0.99517357     17.067524      31.004936    
    504000   1.0146011      17.304194      30.915025    
    505000   0.97013602     17.059004      30.839781    
    506000   1.02062        17.756442      30.662252    
    507000   1.0068587      18.360931      30.459558    
    508000   1.0090886      17.630931      30.43034     
    509000   0.9769728      17.65866       30.154313    
    510000   0.98013006     17.501312      30.003396    
    511000   0.95689745     17.262462      29.903481    
    512000   1.0028719      16.857924      29.902597    
    513000   1.0046589      16.936657      29.632164    
    514000   1.024989       17.680374      29.398969    
    515000   1.0234888      17.694776      29.292309    
    516000   1.0116553      17.270204      29.223128    
    517000   1.0596987      17.237023      29.111006    
    518000   1.0308306      17.620925      29.031994    
    519000   1.030007       17.278978      29.012299    
    520000   0.99532439     17.492553      29.040317    
    521000   0.9851356      17.87925       28.763762    
    522000   0.99223448     17.405483      28.780931    
    523000   1.0429544      17.432689      28.633451    
    524000   0.95982048     17.306387      28.581772    
    525000   0.99087043     17.805035      28.348816    
    526000   0.99137314     17.943601      28.249631    
    527000   1.0235697      17.559802      28.206351    
    528000   1.044706       17.072102      28.286174    
    529000   1.0119252      17.295891      28.381516    
    530000   0.99418847     17.67417       28.374834    
    531000   1.0148051      17.712018      28.315212    
    532000   1.0305765      18.0646        28.022816    
    533000   0.98729047     17.983827      27.887683    
    534000   1.0245648      17.030797      27.640041    
    535000   1.0292188      17.567469      27.749837    
    536000   1.0156181      17.543484      27.577069    
    537000   1.0088046      17.780989      27.447436    
    538000   1.0324758      17.33205       27.578961    
    539000   1.0156131      17.027691      27.629607    
    540000   0.99577637     17.591969      27.205221    
    541000   0.99753964     17.438344      27.065537    
    542000   1.0155649      17.667637      27.185735    
    543000   1.0123595      17.41955       27.140628    
    544000   0.95855518     17.571507      27.103218    
    545000   0.99964517     17.17931       26.701069    
    546000   0.97644266     16.83573       26.739377    
    547000   0.95715982     17.074538      26.618069    
    548000   1.0157235      17.350911      26.641804    
    549000   0.99656774     17.358509      26.615658    
    550000   1.0554473      17.545378      26.59786     
    551000   0.99830983     17.03168       26.525603    
    552000   1.0344554      17.307472      26.538002    
    553000   0.97894119     17.15148       26.52799     
    554000   1.0059481      17.268566      26.286067    
    555000   0.98709582     17.81828       26.220611    
    556000   1.0323961      17.265855      25.979271    
    557000   1.026945       17.961535      25.795091    
    558000   1.0455483      17.519214      25.519623    
    559000   0.9677939      17.796563      25.363184    
    560000   0.99412591     17.065982      25.331275    
    561000   1.0202141      17.331149      25.197733    
    562000   0.98044624     17.367119      25.25603     
    563000   0.9717787      17.135165      25.295538    
    564000   1.0012305      17.626419      25.155365    
    565000   1.0091764      17.301325      25.135036    
    566000   1.0283204      17.622687      25.077213    
    567000   1.0180037      17.566413      25.031996    
    568000   1.0051418      16.899589      24.763307    
    569000   1.0177511      17.74478       24.423966    
    570000   0.99333531     17.571879      24.583765    
    571000   1.0332225      16.850455      24.535251    
    572000   1.0515719      17.30518       24.306066    
    573000   0.98649786     17.907814      24.320085    
    574000   1.0149251      17.312444      24.280904    
    575000   0.99465242     17.669941      24.196227    
    576000   1.028599       17.258667      24.266419    
    577000   1.0026313      17.249775      24.416996    
    578000   1.0020102      17.450996      24.54888     
    579000   1.03376        17.478393      24.695585    
    580000   1.0283984      16.763827      24.992213    
    581000   0.96648989     17.091122      24.911374    
    582000   0.98537928     17.196572      24.89328     
    583000   1.0272769      17.251831      24.753865    
    584000   0.9928691      17.434357      24.68996     
    585000   0.98810572     16.949853      24.625759    
    586000   0.97391616     17.35494       24.679452    
    587000   1.0398845      17.468128      24.666893    
    588000   1.0324128      17.211605      24.550311    
    589000   1.0234373      17.428234      24.326365    
    590000   0.99383485     17.621818      24.365245    
    591000   0.99679053     17.137449      24.378208    
    592000   1.0219173      17.748598      24.37607     
    593000   1.0026849      17.336785      24.206369    
    594000   0.98326835     17.226839      24.319103    
    595000   0.99162284     17.365002      24.106897    
    596000   1.035276       17.508226      23.940824    
    597000   1.0555871      17.611119      23.759728    
    598000   0.96148853     17.713205      23.859314    
    599000   0.96850121     16.937453      23.719662    
    600000   1.0117261      17.657107      23.734035    
    601000   1.0148856      17.500945      23.774742    
    602000   1.0377955      17.549826      23.788206    
    603000   1.0096954      17.268826      23.898461    
    604000   0.9319364      17.215654      24.078475    
    605000   0.99019875     16.82599       24.098508    
    606000   1.010119       17.254464      24.093757    
    607000   1.0081657      17.050694      24.132413    
    608000   0.99255233     17.386245      24.049017    
    609000   0.97945705     17.449882      23.936406    
    610000   0.98301446     17.34146       23.837384    
    611000   0.99870138     16.882881      23.519781    
    612000   0.96832896     17.126706      23.401085    
    613000   0.9987823      17.149175      23.161381    
    614000   1.0293866      17.712104      23.271834    
    615000   0.98487452     17.599932      23.093709    
    616000   1.0277984      17.399567      23.122677    
    617000   0.96829299     17.207678      22.968821    
    618000   1.0115402      17.02431       22.829735    
    619000   1.0024944      17.863968      22.706522    
    620000   0.98200668     17.186483      22.528077    
    621000   1.0190139      17.573994      22.407742    
    622000   1.0320131      17.543378      22.46378     
    623000   0.99835297     17.312901      22.439699    
    624000   1.0167945      17.25723       22.264272    
    625000   1.0250292      17.502578      22.163502    
    626000   0.99757829     16.692591      22.023186    
    627000   1.0353678      17.52504       22.275126    
    628000   1.0241486      17.526538      22.184325    
    629000   0.99391715     17.108008      22.074909    
    630000   1.0075147      17.217861      22.186831    
    631000   1.0088149      17.008122      22.354254    
    632000   0.98705005     17.261998      22.181533    
    633000   0.96282142     17.295163      22.237087    
    634000   0.99375897     17.315032      21.949489    
    635000   1.0382774      17.085579      21.860134    
    636000   0.99992874     17.394556      21.752412    
    637000   1.0056523      17.652609      21.691287    
    638000   1.043285       17.173502      21.511212    
    639000   0.96205166     16.802769      21.388067    
    640000   1.0401516      17.483987      21.419263    
    641000   1.0226835      17.138731      21.264858    
    642000   0.98405129     17.21306       21.354523    
    643000   1.035353       17.85155       21.121786    
    644000   0.9948586      17.043211      21.012754    
    645000   0.98708018     17.255366      20.872406    
    646000   1.0104546      17.280582      20.842732    
    647000   1.0171914      17.541704      20.830667    
    648000   1.0018315      17.248113      20.957129    
    649000   1.0415221      17.039668      20.952886    
    650000   0.96612689     17.072033      21.21849     
    651000   0.99013922     17.778158      21.410218    
    652000   1.0078127      17.846599      21.24213     
    653000   0.98643149     16.878508      21.254239    
    654000   0.99358406     16.888245      21.264875    
    655000   1.0254309      17.728604      21.423279    
    656000   1.0051287      16.956934      21.290579    
    657000   1.0178194      16.965539      20.741464    
    658000   0.99443069     17.604793      20.733048    
    659000   0.98848685     18.187717      20.424339    
    660000   1.0061037      16.593532      20.470686    
    661000   0.98972044     17.361264      20.514961    
    662000   0.98009385     17.152524      20.46841     
    663000   1.0519795      17.392226      20.543173    
    664000   0.99906111     17.654465      20.541277    
    665000   0.99465812     17.339313      20.617089    
    666000   1.0250481      17.331346      20.491311    
    667000   0.9951866      17.506001      20.130103    
    668000   1.0137193      17.174709      19.963852    
    669000   1.0196692      17.095374      19.836818    
    670000   1.0076529      17.348193      19.730823    
    671000   1.0026325      17.421892      19.577371    
    672000   1.0338038      17.106776      19.432239    
    673000   1.0046668      17.381843      19.480266    
    674000   1.0283544      17.264797      19.224845    
    675000   0.97623818     16.99757       19.168121    
    676000   1.0127854      17.238531      19.195951    
    677000   1.0069047      17.12697       18.915963    
    678000   0.99052757     17.221         18.802218    
    679000   1.0439379      16.896934      18.710549    
    680000   0.97263768     16.98528       18.58272     
    681000   1.0060107      16.917674      18.602617    
    682000   1.0257364      17.713322      18.570203    
    683000   1.02317        16.836786      18.716437    
    684000   0.98296982     18.05711       18.823804    
    685000   0.99683716     17.361688      18.760158    
    686000   1.0214254      17.110754      18.594747    
    687000   1.0222562      17.187652      18.554411    
    688000   1.0155827      17.385058      18.465835    
    689000   1.017952       16.51309       18.185632    
    690000   0.96763069     17.251319      17.863059    
    691000   1.0012823      17.475554      17.916885    
    692000   0.98626087     17.397054      17.625784    
    693000   0.99615768     17.526548      17.671397    
    694000   0.99559143     17.535769      17.667274    
    695000   1.0004095      17.220334      17.477433    
    696000   1.0254094      17.308796      17.501091    
    697000   0.95227782     16.444754      17.5414      
    698000   0.98102596     17.452572      17.414627    
    699000   1.0343764      17.839593      17.282924    
    700000   0.99115826     18.080454      17.262823    
    701000   1.0062861      16.780925      17.111052    
    702000   0.96368072     17.455168      16.99158     
    703000   0.9829323      17.703398      16.960301    
    704000   1.0229088      17.769824      17.097781    
    705000   1.0049687      17.266426      17.103845    
    706000   1.02352        17.835968      17.067123    
    707000   1.0291856      16.91497       16.965555    
    708000   0.98623728     17.448299      16.948298    
    709000   1.0483308      17.994778      16.818468    
    710000   0.98947763     16.788876      16.937079    
    711000   1.0043482      16.99212       16.895175    
    712000   0.97503993     17.298163      16.816395    
    713000   1.0219942      17.572988      16.704736    
    714000   0.96019982     17.435278      16.801595    
    715000   0.9917022      17.78497       16.686269    
    716000   0.98565454     16.99416       16.417893    
    717000   1.0109936      17.341884      16.345875    
    718000   0.97314937     17.471413      16.506321    
    719000   0.97701495     17.208432      16.41466     
    720000   1.0185699      16.885014      16.14698     
    721000   1.0286296      17.198934      15.855507    
    722000   0.97660115     17.528857      15.896152    
    723000   1.0019532      17.712774      15.872136    
    724000   1.0091948      17.294916      15.826804    
    725000   1.0459929      17.369506      15.901372    
    726000   0.97155077     17.270137      15.923724    
    727000   1.0214372      17.22876       15.864331    
    728000   0.99721572     17.372148      15.771699    
    729000   1.0100757      17.78068       15.599748    
    730000   0.98831654     17.52101       15.418129    
    731000   0.99625707     16.724234      15.564049    
    732000   1.0126985      17.287702      15.51148     
    733000   1.0138909      17.41206       15.42824     
    734000   1.0330751      17.4467        15.313424    
    735000   1.0187211      17.544042      15.407563    
    736000   1.0006837      17.176368      15.314246    
    737000   1.0071069      17.39887       15.187482    
    738000   0.95641123     17.379255      15.208137    
    739000   1.0262136      17.550459      15.342017    
    740000   0.99889724     17.164787      15.278369    
    741000   1.0033989      17.571421      15.279905    
    742000   0.97905931     17.004842      15.162888    
    743000   1.0112448      17.418396      15.058736    
    744000   1.0439125      17.301666      15.197622    
    745000   1.0038113      17.151517      15.065246    
    746000   1.0115086      17.109358      15.046803    
    747000   0.96987538     17.475995      14.988597    
    748000   0.98548474     17.805026      14.905946    
    749000   0.9921567      16.513044      14.62979     
    750000   0.98240155     17.500146      14.418701    
    751000   1.0144502      17.921434      14.420624    
    752000   0.98674824     16.593305      14.526288    
    753000   0.99621688     16.515106      14.601537    
    754000   0.99939936     17.548699      14.684126    
    755000   1.0192124      16.866995      14.732095    
    756000   1.0123144      17.437925      14.563464    
    757000   1.0118035      17.675567      14.449145    
    758000   1.0061333      17.162665      14.422558    
    759000   1.0006353      17.016551      14.49839     
    760000   1.0131767      17.272972      14.554513    
    761000   1.0186225      16.963277      14.387723    
    762000   0.9734597      17.796024      14.483727    
    763000   0.98651857     17.475246      14.503119    
    764000   1.013206       16.856942      14.638637    
    765000   1.0350154      17.289705      14.670217    
    766000   1.0164124      17.317154      14.746636    
    767000   0.97846159     16.786659      14.716       
    768000   0.98166528     17.041237      14.642864    
    769000   0.99437451     17.006256      14.528877    
    770000   1.0357459      17.448116      14.542629    
    771000   0.99420801     17.533993      14.349638    
    772000   1.0111949      17.653732      14.426194    
    773000   0.95979271     16.903621      14.529862    
    774000   0.99169132     17.498305      14.567272    
    775000   1.0477431      17.57111       14.527916    
    776000   0.9814538      17.375872      14.418604    
    777000   0.98919142     17.25499       14.31124     
    778000   0.98802694     17.090659      14.365481    
    779000   1.0262259      17.663644      14.430266    
    780000   1.0175157      16.929166      14.45385     
    781000   0.98360122     16.830952      14.305433    
    782000   1.0103719      17.318571      14.0663      
    783000   1.0099469      17.689766      13.993642    
    784000   1.0227255      17.428074      14.089638    
    785000   1.0035938      16.818707      13.958345    
    786000   1.0287945      17.971327      13.857664    
    787000   1.0010401      17.264004      13.763485    
    788000   0.97046858     18.008887      13.876174    
    789000   1.0048442      17.729357      13.915677    
    790000   0.95293294     17.258663      13.976021    
    791000   0.99983583     17.194101      13.838311    
    792000   1.0073919      17.209139      13.782721    
    793000   0.962529       16.994222      13.648891    
    794000   0.99157772     17.464554      13.391724    
    795000   0.96521249     17.152111      13.497444    
    796000   1.0136358      17.485059      13.533682    
    797000   1.0223773      16.881252      13.410824    
    798000   0.97563383     16.684381      13.444685    
    799000   0.99374929     17.757762      13.344057    
    800000   0.99032628     17.135597      13.134872    
    801000   0.98449842     17.138245      13.178905    
    802000   1.0046503      17.249221      13.137528    
    803000   1.0022472      17.2174        13.21411     
    804000   0.99015589     17.056834      13.216285    
    805000   1.0374523      17.903913      12.959027    
    806000   0.9663199      17.166144      12.866437    
    807000   0.99572282     16.97873       12.771481    
    808000   0.97701422     17.165555      12.716176    
    809000   1.0050077      17.212865      12.700225    
    810000   1.0024557      17.418237      12.367749    
    811000   0.98887809     17.754684      12.325199    
    812000   1.0518528      17.519344      12.241894    
    813000   1.0137224      16.675462      12.16274     
    814000   0.97998134     17.290778      12.180975    
    815000   0.98468928     17.051519      11.872912    
    816000   1.0238825      17.378378      11.774191    
    817000   1.0221627      17.192728      11.755478    
    818000   0.98065161     17.432025      11.720817    
    819000   0.98119142     17.302128      11.609212    
    820000   0.94952983     17.216085      11.541107    
    821000   0.97661569     17.571344      11.40496     
    822000   1.0015667      16.971996      11.326589    
    823000   1.0519066      17.493089      11.001909    
    824000   0.98814161     17.044222      10.931873    
    825000   0.99120484     17.395338      10.849121    
    826000   1.036504       17.145108      10.702669    
    827000   0.99237084     17.503736      10.629744    
    828000   0.99323495     17.392779      10.748825    
    829000   0.97938354     16.854665      10.672398    
    830000   1.0510527      16.983917      10.581489    
    831000   0.98848757     17.140479      10.334909    
    832000   1.030371       17.238166      10.417163    
    833000   1.006453       17.183201      10.292961    
    834000   1.0419864      17.227839      10.297158    
    835000   1.0000731      17.661788      10.196911    
    836000   1.0624633      17.13495       10.105879    
    837000   1.0127053      16.780284      10.106025    
    838000   1.0023139      16.900941      10.036555    
    839000   1.0089369      17.71181       10.030908    
    840000   0.97213275     16.940374      9.9131468    
    841000   0.99617471     17.225237      9.9424296    
    842000   1.0239225      17.001881      9.9466214    
    843000   0.97256583     16.68279       10.122776    
    844000   1.0216707      17.599346      10.215299    
    845000   1.0279825      16.690956      10.422412    
    846000   1.01826        16.985362      10.361927    
    847000   1.0148176      17.00278       10.300991    
    848000   0.98617265     17.167685      10.326488    
    849000   1.0153694      16.711248      10.196498    
    850000   1.0263831      16.994169      10.200118    
    851000   0.97498472     17.101104      10.053881    
    852000   0.9964196      17.05386       9.9625393    
    853000   0.98870926     17.19512       9.9867659    
    854000   1.0042241      16.951872      9.8871245    
    855000   1.0020893      17.274744      9.9536772    
    856000   0.97863291     16.922745      9.7153422    
    857000   0.97317434     16.80721       9.596469     
    858000   1.0003092      16.938777      9.4585181    
    859000   1.0067728      17.246745      9.2746922    
    860000   1.020437       17.020435      9.0079968    
    861000   1.0307746      17.087004      8.9593364    
    862000   1.0160621      16.73319       8.7260285    
    863000   1.021819       16.908409      8.6836672    
    864000   0.99605763     17.128995      8.4580401    
    865000   0.99081273     17.008459      8.5800907    
    866000   1.005875       16.878375      8.5267734    
    867000   1.0115261      17.163655      8.4328557    
    868000   1.0042781      16.772072      8.3148017    
    869000   0.96599136     17.030016      8.203802     
    870000   1.0006041      16.895107      8.1828351    
    871000   0.99358543     16.827343      8.1753612    
    872000   0.98881017     16.829556      8.0603186    
    873000   1.0268665      17.922534      8.0217493    
    874000   1.0278093      16.78114       7.8487488    
    875000   1.0079188      16.739981      7.5677754    
    876000   0.98994417     16.578316      7.3809509    
    877000   1.0130837      17.126912      7.252155     
Fix halt condition for fix-id 3 met on step 878000 with value 6.991467382388993 (src/fix_halt.cpp:237)
    878000   1.0304976      17.364536      6.9914674    
Loop time of 944.669 on 4 procs for 778000 steps with 1093 atoms

Performance: 711563.754 tau/day, 823.569 timesteps/s
155.4% CPU use with 2 MPI tasks x 2 OpenMP threads

MPI task timing breakdown:
Section |  min time  |  avg time  |  max time  |%varavg| %total
---------------------------------------------------------------
Pair    | 1.2748     | 208.1      | 414.93     |1433.7 | 22.03
Bond    | 1.9441     | 14.621     | 27.298     | 331.5 |  1.55
Neigh   | 434.59     | 434.59     | 434.59     |   0.0 | 46.00
Comm    | 0.65151    | 0.68148    | 0.71144    |   3.6 |  0.07
Output  | 2.6261     | 2.6533     | 2.6804     |   1.7 |  0.28
Modify  | 4.7457     | 31.174     | 57.602     | 473.3 |  3.30
Other   |            | 252.9      |            |       | 26.77

Nlocal:          546.5 ave        1093 max           0 min
Histogram: 1 0 0 0 0 0 0 0 0 1
Nghost:              0 ave           0 max           0 min
Histogram: 2 0 0 0 0 0 0 0 0 0
Neighs:         122886 ave      245771 max           0 min
Histogram: 1 0 0 0 0 0 0 0 0 1

Total # of neighbors = 245771
Ave neighs/atom = 224.8591
Ave special neighs/atom = 1.9981702
Neighbor list builds = 6693
Dangerous builds = 0

# This simulation is done
# Move onto the next one
clear
  using 2 OpenMP thread(s) per MPI task
package omp 0
using multi-threaded neighbor list subroutines
next f
jump SELF

###
# Reference paper:
# K. Kremer and G. S. Grest
# Dynamics of entangled linear polymer melts: A molecular-dynamics simulation
# J Chem Phys 92, 5057 (1990)

##################################
# MIHIR: for branched polymers
# LJ minimum first to expand and explore, then collapse
###

###
# Looping through the various nuc5branch4 polymers to simulate,
# define variables to switch through
variable f index bb112nuc5bl18bn4d30tot300 bb150nuc5bl25bn4d30tot400 bb187nuc5bl31bn4d30tot500 bb225nuc5bl37bn4d30tot600 bb262nuc5bl43bn4d30tot700 bb300nuc5bl50bn4d30tot800 bb337nuc5bl56bn4d30tot900 bb375nuc5bl62bn4d30tot1000 bb412nuc5bl68bn4d30tot1100 bb450nuc5bl75bn4d30tot1200
# bb75nuc5bl12bn4d30tot200
###


###
# Box and units  (use LJ units and periodic boundaries)
###

units lj
log nuc5branch4/logs/$f.log
log nuc5branch4/logs/bb450nuc5bl75bn4d30tot1200.log
