#atom_style bond #no stiffness
atom_style angle #with stiffness

boundary        p p p
###
# Pair interactions require lists of neighbours to be calculated
###

#neighbor 0.3 bin
neighbor 4 bin

neigh_modify every 1 delay 1 check yes
atom_modify sort 0 0
### Generate RESTART file, SPECIAL format, not a .txt file ###
### Useful if simulation crashes ###

restart 1000000 nuc5branch4/restarts/$f.restart
restart 1000000 nuc5branch4/restarts/bb450nuc5bl75bn4d30tot1200.restart
#############################



### READ "start" data file ###

read_data nuc5branch4/$f.dat
read_data nuc5branch4/bb450nuc5bl75bn4d30tot1200.dat
Reading data file ...
  orthogonal box = (-1000 -1000 -1000) to (1000 1000 1000)
  1 by 1 by 2 MPI processor grid
  reading atoms ...
  1201 atoms
  scanning bonds ...
  3 = max bonds/atom
  scanning angles ...
  6 = max angles/atom
  reading bonds ...
  1200 bonds
  reading angles ...
  1214 angles
Finding 1-2 1-3 1-4 neighbors ...
  special bond factors lj:    0        0        0       
  special bond factors coul:  0        0        0       
     4 = max # of 1-2 neighbors
     4 = max # of 1-3 neighbors
     8 = max # of 1-4 neighbors
    12 = max # of special neighbors
  special bonds CPU = 0.001 seconds
  read_data CPU = 0.132 seconds

######################

### READ "REstart" data file ###

######################



###
# Define groups (atom type 1 is group 'all')
###
group all type 1
1201 atoms in group all


###
# Dump configs - "simple dumpings"
###

###
# Dump configs + box coords
###

dump   1   all   custom   1000  nuc5branch4/trjs/$f.lammpstrj  id  x y z  ix iy iz
dump   1   all   custom   1000  nuc5branch4/trjs/bb450nuc5bl75bn4d30tot1200.lammpstrj  id  x y z  ix iy iz
dump_modify   1   format line "%d %.5f %.5f %.5f %d %d %d"

########################################################################


###################################################################
# Stiffness term
#
# E = K * (1+cos(theta)), K>0
#
angle_style   cosine
#change this coefficient to change stiffness (e.g. 1,5,10)
angle_coeff   1 1.0
###################################################################

###################################################################
# Pair interaction between non-bonded atoms
#
#  Lennard-Jones 12-6 potential with cutoff:
#  potential E=4epsilon[ (sigma/r)^12 - (sigma/r)^6]  for r<r_cut
#
#  1.12246 = 2^(1/6) is the minimum of the potential


pair_style      lj/cut 1.12246152962189
#pair_style      lj/cut 3

#
#  pair_modify shift yes adds a constant to the potential such

#  that E(r_cut)=0. Forces remains unchanged.
#

pair_modify     shift yes

#
#  pair_coeff for lj/cut, specify 4:
#    * atom type interacting with
#    * atom type
#    * epsilon (energy units)
#    * sigma (distance units)
#

pair_coeff      1 1 1.0 1.0
###################################################################

###################################################################
# Pair interaction between non-bonded atoms
#
#  soft potential, for PUSHING apart overlapping atoms
#  potential E=A*(1 + cos(pi*r/r_c))
#
#  1.12246 = 2^(1/6) is the cut-off r_c

#pair_style     soft 1.12246152962189

#
#  pair_coeff for soft, specify 3:
#    * atom type interacting with
#    * atom type
#    * A
#
#

#pair_coeff      1 1 100.0
###################################################################

###################################################################
# Pair interaction between bonded atoms
#
# Fene potential + Lennard Jones 12-6:

#
#  E= - 0.5 K R0^2 ln[ 1- (r/R0)^2]
#     + 4epsilon[ (sigma/r)^12 - (sigma/r)^6] + epsilon
#

bond_style   fene


#
# For style fene, specify:
#   * bond type
#   * K (energy/distance^2)
#   * R0 (distance)
#   * epsilon (energy)  (LJ component)
#   * sigma (distance)  (LJ component)
#


special_bonds fene #<=== I M P O R T A N T (new command)
Finding 1-2 1-3 1-4 neighbors ...
  special bond factors lj:    0        1        1       
  special bond factors coul:  0        1        1       
     4 = max # of 1-2 neighbors
    12 = max # of special neighbors
  special bonds CPU = 0.000 seconds

bond_coeff   1   30   2   1.0   1.0


###################################################

###################################################################
# Pair interaction between bonded atoms
#
# Harmonic potential:
#
#  E= K * (R-R0)^2
#

#bond_style   harmonic

#
# For style harmonic, specify:
#   * bond type
#   * K (energy/distance^2)
#   * R0 (distance)
#

#bond_coeff   1   60.0   1.0
#bond_coeff   2   harmonic 0.1   1.0

###################################################
compute 1 all gyration
variable rog equal c_1
#compute 2 all coord/atom cutoff 1.1

#dump 2 all custom 10000 contact_number.dump id c_2


###
# Set up fixes
###
thermo_style   custom   step  temp enthalpy c_1
fix 1 all nve   ###NVE ensemble

fix 2 all   langevin   1.0 1.0 1.0  100103   ###Langevin integrator Tstart Tstop 1/friction rndseed


##### Sample thermodynamic info  (temperature, energy, pressure, etc.) #####
thermo 1000









############################################################################

###
# set timestep of integrator

timestep 0.01

###
# run integration for a number of steps
###
#run 0
#variable r equal c_1
#if "$r < 63.1" then "quit 1"

# lj potential minimum, cause molecule to explore
run 100000
Generated 0 of 0 mixed pair_coeff terms from geometric mixing rule
Last active /omp style is angle_style cosine/omp
Neighbor list info ...
  update: every = 1 steps, delay = 1 steps, check = yes
  max neighbors/atom: 2000, page size: 100000
  master list distance cutoff = 5.1224615
  ghost atom cutoff = 5.1224615
  binsize = 2.5612308, bins = 781 781 781
  1 neighbor lists, perpetual/occasional/extra = 1 0 0
  (1) pair lj/cut/omp, perpetual
      attributes: half, newton on, omp
      pair build: half/bin/newton/omp
      stencil: half/bin/3d
      bin: standard
WARNING: Communication cutoff 5.12246152962189 is shorter than a bond length based estimate of 5.455. This may lead to errors. (src/comm.cpp:723)
Per MPI rank memory allocation (min/avg/max) = 941.5 | 942.1 | 942.7 Mbytes
   Step          Temp         Enthalpy         c_1      
         0   0              13.248526      91.380758    
      1000   1.0019492      18.557508      90.703429    
      2000   1.0481189      18.457572      90.196793    
      3000   1.0221039      18.849607      89.665542    
      4000   1.0232171      19.233682      89.230146    
      5000   0.99368134     19.448358      88.690079    
      6000   1.030203       18.886331      88.413889    
      7000   0.95181468     18.986901      88.154553    
      8000   0.99251893     19.361549      87.837344    
      9000   0.98732846     19.591314      87.332524    
     10000   1.004094       19.6408        87.016318    
     11000   1.0479148      19.47969       86.772976    
     12000   0.9717583      19.43688       86.724356    
     13000   1.0133248      19.885918      86.587552    
     14000   0.99604708     19.782353      86.407951    
     15000   0.97940303     20.10587       86.260302    
     16000   1.0147922      20.130216      86.092131    
     17000   0.97202159     19.712289      85.93017     
     18000   1.0337054      20.131836      85.779686    
     19000   0.99344885     20.199385      85.324338    
     20000   0.93606217     19.504613      85.37718     
     21000   1.0261572      20.145602      85.270505    
     22000   0.99072111     19.871618      85.293656    
     23000   1.044547       20.43223       85.144911    
     24000   1.014644       20.095808      84.946145    
     25000   1.0040518      19.834007      84.617266    
     26000   0.96047845     20.020721      84.534074    
     27000   0.9832451      20.500168      84.380105    
     28000   0.97691781     20.509964      84.223599    
     29000   0.99775336     19.699479      83.954684    
     30000   1.011428       20.294401      83.693918    
     31000   0.99505224     20.127601      83.782087    
     32000   1.0397834      20.400334      83.518658    
     33000   1.0150537      20.14644       83.355925    
     34000   0.9946554      20.139745      83.262315    
     35000   1.0119746      19.89124       83.086091    
     36000   0.9920744      20.050693      82.941993    
     37000   1.0034558      19.839578      82.853454    
     38000   0.98582693     19.988747      82.597623    
     39000   1.0042601      20.235149      82.498641    
     40000   1.0045956      19.762509      82.333464    
     41000   0.99032027     20.243414      82.238432    
     42000   0.96013289     20.021642      82.065115    
     43000   1.0023251      20.017149      81.882605    
     44000   0.99257419     19.843311      81.608263    
     45000   0.97840779     20.302494      81.538588    
     46000   0.96172087     19.798446      81.782972    
     47000   1.0283402      20.217574      81.710421    
     48000   0.93590579     19.683996      81.708597    
     49000   0.99619653     20.456863      81.607613    
     50000   1.01592        20.220215      81.394503    
     51000   1.0457737      20.669427      81.273878    
     52000   0.99058524     20.534451      81.201948    
     53000   1.026586       20.261511      80.986386    
     54000   1.0229867      20.136102      80.887935    
     55000   0.9804372      20.384324      80.628631    
     56000   1.0149677      20.202727      80.534567    
     57000   0.99760658     20.877633      80.586084    
     58000   1.0428618      20.815755      80.513093    
     59000   1.041188       20.117775      80.425017    
     60000   1.0143022      20.459776      80.348406    
     61000   0.99242282     20.039791      80.287837    
     62000   0.98572958     20.243035      79.951515    
     63000   0.99224555     20.495991      79.765813    
     64000   1.0263588      20.379129      79.484603    
     65000   1.0158924      20.372184      79.517054    
     66000   1.0373115      21.18587       79.703258    
     67000   0.98682302     19.963044      79.734632    
     68000   0.9980685      20.34717       79.614517    
     69000   0.99360422     20.402656      79.599362    
     70000   1.0211478      20.308411      79.72256     
     71000   0.99682065     20.491918      79.738529    
     72000   0.98773834     20.418004      79.475403    
     73000   1.0086904      20.453486      79.397841    
     74000   1.0016224      20.568139      79.19041     
     75000   1.0030216      20.507823      79.243782    
     76000   1.0192879      20.379951      79.411627    
     77000   0.96482987     20.225011      79.342744    
     78000   1.0076406      20.237422      79.381661    
     79000   0.99535942     20.60248       79.514274    
     80000   1.0359226      20.57153       79.429863    
     81000   1.0166412      20.050455      79.612397    
     82000   1.0091946      20.451912      79.657033    
     83000   0.98225319     20.05867       79.47334     
     84000   0.9812636      20.711658      79.447962    
     85000   0.98701938     20.431854      79.538489    
     86000   0.99807567     20.339378      79.469241    
     87000   1.014081       20.52976       79.413224    
     88000   0.9572344      20.070354      79.523411    
     89000   0.9752037      19.60384       79.510043    
     90000   0.99113444     20.749523      79.30395     
     91000   1.0009705      20.39923       79.250938    
     92000   1.0063382      20.022662      79.208889    
     93000   0.96812468     20.43104       79.060858    
     94000   1.012401       20.831492      79.008382    
     95000   1.0076036      20.56236       78.934821    
     96000   0.97061189     19.824543      79.042067    
     97000   1.0030899      20.455498      78.963174    
     98000   0.98134326     20.489408      78.843384    
     99000   1.0172908      20.211216      78.58167     
    100000   0.96702642     20.625484      78.520246    
Loop time of 207.419 on 4 procs for 100000 steps with 1201 atoms

Performance: 416547.661 tau/day, 482.115 timesteps/s
108.5% CPU use with 2 MPI tasks x 2 OpenMP threads

MPI task timing breakdown:
Section |  min time  |  avg time  |  max time  |%varavg| %total
---------------------------------------------------------------
Pair    | 0.13517    | 1.1763     | 2.2174     |  96.0 |  0.57
Bond    | 0.2327     | 1.9465     | 3.6603     | 122.8 |  0.94
Neigh   | 192.65     | 192.65     | 192.65     |   0.0 | 92.88
Comm    | 0.070535   | 0.073472   | 0.076408   |   1.1 |  0.04
Output  | 0.38103    | 0.3935     | 0.40598    |   2.0 |  0.19
Modify  | 0.39593    | 4.0573     | 7.7187     | 181.8 |  1.96
Other   |            | 7.125      |            |       |  3.44

Nlocal:          600.5 ave        1201 max           0 min
Histogram: 1 0 0 0 0 0 0 0 0 1
Nghost:              0 ave           0 max           0 min
Histogram: 2 0 0 0 0 0 0 0 0 0
Neighs:         4710.5 ave        9421 max           0 min
Histogram: 1 0 0 0 0 0 0 0 0 1

Total # of neighbors = 9421
Ave neighs/atom = 7.8442964
Ave special neighs/atom = 1.9983347
Neighbor list builds = 1202
Dangerous builds = 0

# Replace lj potential, now collapse
pair_style      lj/cut 3

# Cutoff simul when gyration under 10
# Variable created with equal requires v_ + 'name'
fix 3 all halt 1000 v_rog < 7

run 3000000
Generated 0 of 0 mixed pair_coeff terms from geometric mixing rule
Last active /omp style is angle_style cosine/omp
Per MPI rank memory allocation (min/avg/max) = 941.5 | 942.1 | 942.7 Mbytes
   Step          Temp         Enthalpy         c_1      
    100000   0.96702642     19.825749      78.520246    
    101000   1.0550089      19.525514      78.256364    
    102000   0.97390514     18.959301      78.096322    
    103000   1.0362456      19.200232      78.016677    
    104000   0.99365298     19.564784      77.984564    
    105000   1.0044004      19.397419      77.704905    
    106000   1.0306746      18.895209      77.714005    
    107000   0.95993058     18.659763      77.633147    
    108000   1.0139097      18.911989      77.447628    
    109000   1.0287646      19.109987      77.345225    
    110000   0.97769428     19.085823      77.036349    
    111000   0.99224785     18.725715      76.796326    
    112000   1.02194        19.119631      76.619889    
    113000   0.95826179     18.24855       76.483758    
    114000   0.98583691     19.10922       76.612606    
    115000   1.0029294      18.840891      76.453214    
    116000   0.95832554     18.750826      76.240052    
    117000   0.97299201     18.71058       76.240599    
    118000   1.0261731      18.794431      75.992714    
    119000   0.98812911     18.460443      75.832176    
    120000   1.0229403      18.564349      75.751946    
    121000   1.0165899      18.460699      75.620115    
    122000   1.0213643      18.636755      75.614273    
    123000   1.0507313      18.915998      75.429342    
    124000   1.0019086      18.762178      75.288905    
    125000   1.0132979      18.391764      75.121675    
    126000   1.0272896      18.583764      75.183736    
    127000   1.0098419      18.268846      75.010628    
    128000   0.99339795     18.340313      74.856391    
    129000   0.97671852     18.199733      74.612661    
    130000   1.0133057      18.506314      74.424072    
    131000   0.99788275     18.422618      74.079013    
    132000   1.0246784      18.593265      74.207087    
    133000   0.99091647     18.198415      74.174753    
    134000   1.0189465      17.931037      73.939469    
    135000   0.97394943     18.116367      73.741417    
    136000   0.98039128     18.69093       73.495936    
    137000   1.0013162      18.230778      73.306364    
    138000   1.0178078      18.269016      73.320063    
    139000   0.97667295     17.639094      73.32424     
    140000   0.98807444     18.473275      73.219268    
    141000   0.98829109     18.760504      73.106828    
    142000   0.99692902     18.125234      73.180702    
    143000   1.0133782      17.770758      73.013709    
    144000   1.0022605      18.337636      72.800668    
    145000   1.0037732      17.86669       72.680019    
    146000   1.005658       18.033536      72.553258    
    147000   0.97085311     18.294643      72.35819     
    148000   0.98215264     18.334387      72.33221     
    149000   1.005122       18.085793      72.138584    
    150000   0.99611816     18.5471        72.018549    
    151000   0.98566982     18.248196      71.839429    
    152000   1.012312       17.827989      71.464077    
    153000   1.0469191      18.002066      71.258035    
    154000   0.9908126      18.288935      71.250447    
    155000   1.0021658      17.519279      71.116828    
    156000   0.98859371     17.908584      70.807004    
    157000   0.99750463     17.827367      70.745489    
    158000   1.0039965      17.827241      70.69719     
    159000   1.0538762      18.724381      70.703638    
    160000   0.98656124     17.639386      70.5582      
    161000   0.99147104     17.450366      70.490029    
    162000   0.96373532     17.647723      70.189975    
    163000   0.96769308     17.56748       70.328269    
    164000   0.98116421     18.210635      70.286829    
    165000   1.0294192      18.514177      70.25103     
    166000   0.98873718     18.049966      70.261034    
    167000   1.0067971      18.244478      70.353969    
    168000   1.0043787      18.019291      70.203473    
    169000   0.95754544     17.507264      70.059877    
    170000   1.029741       17.330614      70.12469     
    171000   0.97469926     17.694647      70.090276    
    172000   0.99723044     18.147482      70.130368    
    173000   0.97731357     17.648411      69.794602    
    174000   0.97154666     17.485591      69.46703     
    175000   1.026525       17.985333      69.341458    
    176000   1.0366446      18.084745      69.422122    
    177000   1.0352189      17.765812      69.566955    
    178000   1.0161156      18.141455      69.551026    
    179000   1.0135223      18.123503      69.517765    
    180000   1.0333703      18.046849      69.213093    
    181000   0.99083116     17.968181      69.141138    
    182000   0.99655489     17.763886      69.119282    
    183000   0.99130877     17.917116      69.170391    
    184000   1.0037058      18.532961      68.820057    
    185000   0.99512732     18.016943      68.558568    
    186000   0.99071095     18.066531      68.499128    
    187000   0.99609389     18.099184      68.206897    
    188000   1.007966       17.856579      67.833317    
    189000   1.0080061      18.118283      67.705688    
    190000   1.0171076      17.340529      67.710028    
    191000   0.9637923      17.927657      67.6137      
    192000   0.95483459     17.71855       67.503493    
    193000   1.0158974      18.039013      67.42659     
    194000   1.0023255      17.536551      67.262692    
    195000   0.99401599     17.788918      67.122155    
    196000   1.0076938      17.988289      67.082328    
    197000   1.0200172      18.155457      67.036621    
    198000   1.0081298      17.862185      66.864253    
    199000   0.99330553     18.061005      66.805758    
    200000   0.99426923     18.05979       66.779952    
    201000   0.96969892     17.916668      66.710909    
    202000   1.0119246      18.050844      66.408737    
    203000   0.97865503     17.368323      66.444326    
    204000   0.99465016     17.598477      66.28632     
    205000   1.0377944      17.631815      66.338311    
    206000   1.0262551      17.722013      66.182052    
    207000   1.026715       18.092192      66.251844    
    208000   1.0087217      18.117138      66.45508     
    209000   1.0257253      17.817803      66.361174    
    210000   0.9985758      17.651956      66.290077    
    211000   1.0090344      18.012219      66.317385    
    212000   0.93611968     18.300081      66.346491    
    213000   0.96491322     17.617868      66.22719     
    214000   1.0237505      18.180305      66.012049    
    215000   0.97376819     18.050295      65.737801    
    216000   0.99745171     18.195819      65.730412    
    217000   0.99677108     17.78266       65.525462    
    218000   0.9866677      17.953636      65.365132    
    219000   1.0248055      18.197113      65.275976    
    220000   1.0094939      18.514903      65.517847    
    221000   1.0101593      17.078921      65.414978    
    222000   1.0194303      17.755708      65.359062    
    223000   0.9808743      18.148154      65.436518    
    224000   1.0056348      18.046091      65.455187    
    225000   1.0297846      17.86365       65.339844    
    226000   0.96472341     17.683586      65.048455    
    227000   1.0022221      17.924523      64.897264    
    228000   0.98190462     18.138499      64.990898    
    229000   0.99557342     18.908348      64.955961    
    230000   0.99717032     17.575018      64.851099    
    231000   1.0368191      17.999547      64.962417    
    232000   1.0000262      17.657822      64.875961    
    233000   0.97905075     17.694021      64.629558    
    234000   0.9916148      18.204615      64.37247     
    235000   1.0010604      17.398494      64.387046    
    236000   0.97067285     17.824511      64.257223    
    237000   0.99970883     17.920894      64.197172    
    238000   0.98131198     17.541224      64.310689    
    239000   0.9914945      17.892811      64.406739    
    240000   1.0334092      18.341248      64.319806    
    241000   1.0010407      17.581138      64.109459    
    242000   1.0039644      17.830602      64.002126    
    243000   0.98831745     17.76806       63.78079     
    244000   1.012659       18.074445      63.657736    
    245000   0.99106787     17.844618      63.487238    
    246000   1.0138915      18.129164      63.535806    
    247000   0.99611151     17.777555      63.41133     
    248000   0.96313632     17.65759       63.314465    
    249000   0.99019877     17.693627      63.120377    
    250000   0.99280772     17.832028      63.008731    
    251000   1.0245448      18.094987      63.080796    
    252000   0.97739997     17.647365      62.980703    
    253000   0.96718421     18.032665      63.030011    
    254000   0.98050464     17.875578      63.082819    
    255000   0.9551908      17.962681      63.164772    
    256000   0.98343287     17.72483       63.084185    
    257000   0.9682257      17.494059      62.845284    
    258000   1.0248979      17.547334      62.705019    
    259000   0.96934496     17.742194      62.656014    
    260000   1.0327025      17.912308      62.497046    
    261000   0.97340437     17.830253      62.698222    
    262000   1.0147232      17.939002      62.508163    
    263000   1.0214819      18.094835      62.454566    
    264000   0.98160387     17.826449      62.576726    
    265000   0.99638464     18.108574      62.778726    
    266000   0.98143052     17.693487      62.876833    
    267000   0.98173132     17.624701      63.069199    
    268000   1.0159456      17.871389      63.032153    
    269000   0.98477941     17.637905      63.001156    
    270000   1.0233346      17.805697      62.971753    
    271000   1.0095081      17.98757       62.791546    
    272000   1.0133984      18.202947      62.763993    
    273000   0.99290268     17.648767      62.711137    
    274000   0.99166909     17.607802      62.33425     
    275000   1.0301438      17.714574      62.291762    
    276000   1.0174364      17.84519       62.192595    
    277000   1.0316495      17.723234      61.942852    
    278000   1.0021367      17.679659      61.792802    
    279000   0.98966058     17.913904      61.617922    
    280000   0.99539682     18.080107      61.602991    
    281000   1.0190084      18.072144      61.550279    
    282000   0.96797702     17.992387      61.690011    
    283000   1.0638444      18.106796      61.463268    
    284000   1.0067425      17.787218      61.347313    
    285000   1.0010953      17.912451      61.259771    
    286000   1.0226794      18.520959      60.897156    
    287000   1.015367       17.124898      60.995883    
    288000   0.9863938      17.946938      60.809506    
    289000   1.0195151      18.298301      60.688132    
    290000   1.0162592      17.912308      60.622156    
    291000   1.0119536      17.233751      60.674344    
    292000   0.98576657     17.341292      60.743311    
    293000   0.96426947     18.164271      60.613306    
    294000   0.99529452     18.212991      60.477155    
    295000   0.99580703     18.053148      60.447834    
    296000   0.96356557     18.141098      60.374892    
    297000   0.99635623     17.584149      60.352881    
    298000   0.95616411     17.726603      60.496362    
    299000   0.98086271     17.692744      60.167073    
    300000   1.0414268      17.635339      60.262457    
    301000   0.97954653     17.877112      60.053688    
    302000   0.99052295     17.779778      60.002553    
    303000   0.99069162     17.462838      59.887974    
    304000   1.0220784      18.668314      59.936596    
    305000   1.010642       17.548534      59.905608    
    306000   1.0338661      17.733526      60.06013     
    307000   0.99063126     17.685177      60.246802    
    308000   0.97683826     17.920291      60.159284    
    309000   1.0071101      17.851218      60.123324    
    310000   1.0334696      17.915725      60.05414     
    311000   0.99766973     17.820703      59.971791    
    312000   0.9846574      18.136044      59.715517    
    313000   0.96022816     17.59492       59.714458    
    314000   1.036775       17.993041      59.817215    
    315000   1.0022434      17.704428      59.612743    
    316000   0.99167551     17.762335      59.445055    
    317000   0.99537327     17.719456      59.425228    
    318000   0.98738459     18.119624      59.399378    
    319000   1.0175477      17.564422      59.40281     
    320000   1.0028987      17.939085      59.447818    
    321000   1.0053909      17.779517      59.358183    
    322000   0.98323252     17.607705      59.442801    
    323000   1.0307183      17.477094      59.360509    
    324000   1.0226847      17.584833      59.456808    
    325000   1.0241024      17.429756      59.236895    
    326000   0.99216751     17.757601      58.994266    
    327000   0.97729469     17.512189      58.826291    
    328000   1.0051308      17.819329      58.811517    
    329000   0.98060631     17.679613      58.843004    
    330000   0.97706068     17.75308       58.800645    
    331000   1.0020764      17.572901      58.935465    
    332000   1.015177       18.03174       58.970027    
    333000   0.98491213     17.872831      58.89301     
    334000   0.97410516     17.462296      58.709378    
    335000   0.98456778     17.498503      58.721239    
    336000   1.0254847      18.196854      58.71542     
    337000   1.0078613      18.084787      58.256073    
    338000   0.97402266     18.086199      57.929272    
    339000   0.97859324     17.684135      57.676433    
    340000   0.97273354     17.890961      57.584961    
    341000   0.98941114     17.807234      57.616987    
    342000   0.95677438     17.365468      57.427055    
    343000   1.0575689      17.8736        57.335776    
    344000   1.0293935      17.781209      57.445422    
    345000   0.99407273     18.396023      57.364101    
    346000   0.9979419      17.714499      57.103013    
    347000   1.0293356      17.966023      57.053232    
    348000   1.0082375      18.212886      57.165399    
    349000   0.96178924     17.408464      57.074505    
    350000   1.0301548      18.142926      57.126419    
    351000   0.96080155     17.451274      57.080294    
    352000   0.96265634     17.986122      57.176942    
    353000   0.99072293     18.164638      56.946457    
    354000   1.009435       17.790533      56.88882     
    355000   0.99414223     17.552437      56.802831    
    356000   1.0349979      17.521303      56.788216    
    357000   0.98471383     17.301023      56.613836    
    358000   0.99627792     18.502123      56.629721    
    359000   1.0220214      17.147575      56.54215     
    360000   0.96533439     17.88548       56.508161    
    361000   0.95614491     17.755906      56.333024    
    362000   0.98410898     17.828143      56.335231    
    363000   1.0140787      16.993096      56.528265    
    364000   1.0389489      17.785213      56.675947    
    365000   0.99443035     17.701244      56.481259    
    366000   1.0239548      17.659437      56.486305    
    367000   1.0134429      17.835156      56.257218    
    368000   0.98353886     17.752441      56.21012     
    369000   0.99136289     17.932353      56.172959    
    370000   0.99952392     17.425958      56.293458    
    371000   0.95890564     17.429665      56.13483     
    372000   0.97324782     17.93509       55.964003    
    373000   0.90246446     17.867786      55.891495    
    374000   1.009744       18.281038      55.982398    
    375000   1.0202786      18.102646      55.976937    
    376000   1.0082006      18.229135      55.828482    
    377000   1.0074004      17.40315       55.869795    
    378000   0.99633928     17.837526      55.767214    
    379000   0.96524629     17.276803      55.673185    
    380000   0.99099451     17.604574      55.746982    
    381000   1.0287611      17.059332      55.686344    
    382000   0.97140433     17.560086      55.768015    
    383000   1.0098612      17.600801      55.773628    
    384000   1.0031748      17.718071      55.924845    
    385000   1.0090359      17.943441      55.847723    
    386000   1.008933       17.582776      55.963711    
    387000   0.96744156     18.023728      56.057739    
    388000   1.0215763      18.568024      55.970278    
    389000   1.016122       18.451779      56.006926    
    390000   1.0153709      17.77661       55.886631    
    391000   0.99653749     17.500217      55.784507    
    392000   1.0491158      17.419402      55.663313    
    393000   1.0206177      17.817161      55.597275    
    394000   1.0420545      17.869996      55.532911    
    395000   1.0072915      17.783774      55.49747     
    396000   1.0219898      17.909732      55.46433     
    397000   1.0539336      17.947021      55.213231    
    398000   0.97153074     17.830842      54.977555    
    399000   1.0293312      17.317816      54.937211    
    400000   1.0177753      17.856853      54.879222    
    401000   0.95655313     17.693027      54.773309    
    402000   0.96418368     17.835604      54.759692    
    403000   0.99959353     18.171667      54.729857    
    404000   1.0092408      17.788609      54.65926     
    405000   1.0256906      17.84628       54.489292    
    406000   1.0309942      18.088681      54.53468     
    407000   1.0180987      18.097355      54.506337    
    408000   1.0250914      17.789716      54.389934    
    409000   0.99861379     18.422395      54.194484    
    410000   0.95538978     17.657794      54.25679     
    411000   1.0340204      17.742309      54.257824    
    412000   1.019697       17.494801      54.213224    
    413000   0.99500053     17.842933      54.104758    
    414000   0.96918008     17.442012      53.747282    
    415000   1.0273588      18.175004      53.548361    
    416000   1.0018811      17.468098      53.477045    
    417000   0.9972821      17.561127      53.296065    
    418000   1.0288369      18.188258      53.116901    
    419000   1.0085664      17.499489      52.84242     
    420000   1.0130927      17.576511      52.797969    
    421000   1.0040184      17.978169      52.818992    
    422000   1.0143638      18.081043      52.881933    
    423000   1.0153928      17.391789      52.907469    
    424000   0.99462414     18.134086      52.568908    
    425000   0.98715705     17.397831      52.468359    
    426000   1.0051576      18.344583      52.581805    
    427000   1.002336       17.904102      52.519359    
    428000   1.0171442      17.292024      52.334948    
    429000   1.0274051      18.159819      52.117379    
    430000   1.0195442      17.85714       51.999077    
    431000   1.0124391      17.611048      51.823069    
    432000   0.99373976     17.74216       51.622801    
    433000   1.0157316      17.526413      51.617312    
    434000   1.0436843      18.232868      51.641188    
    435000   0.97904109     17.881075      51.625189    
    436000   0.963042       17.850604      51.664145    
    437000   1.028391       17.634259      51.593297    
    438000   1.0084185      17.607067      51.319134    
    439000   0.96343901     17.28582       51.421398    
    440000   0.99795477     17.490684      51.482834    
    441000   0.97477796     17.705071      51.45989     
    442000   1.0084863      17.418957      51.681179    
    443000   0.99131209     17.360755      51.537344    
    444000   0.99661079     17.561798      51.365802    
    445000   0.99431091     17.693975      51.403469    
    446000   1.0041105      17.703485      51.217078    
    447000   1.0230141      17.622594      51.009968    
    448000   1.0201721      17.539601      50.763772    
    449000   1.015839       17.548371      50.685854    
    450000   0.98624993     17.830237      50.59634     
    451000   0.99368521     17.503183      50.504524    
    452000   0.98350593     17.554627      50.459689    
    453000   0.96636643     17.635673      50.331839    
    454000   1.0397965      17.726407      50.313282    
    455000   0.96405171     17.512853      50.33196     
    456000   1.0237189      17.733039      50.161278    
    457000   0.98715362     17.729872      50.059375    
    458000   1.012059       17.911403      50.118538    
    459000   0.99703026     17.548476      50.027428    
    460000   0.97940036     17.759952      49.985907    
    461000   1.0032363      17.820015      49.904194    
    462000   0.96141599     17.485846      50.001304    
    463000   0.96805675     17.750608      49.819367    
    464000   1.042214       18.182183      49.909717    
    465000   1.0000175      17.628292      49.69248     
    466000   1.0151912      18.074568      49.671297    
    467000   0.94150177     17.768625      49.584235    
    468000   0.986071       18.060775      49.439128    
    469000   1.0562321      18.115292      49.156172    
    470000   1.0012142      17.817996      49.119155    
    471000   1.0041902      17.310439      48.715037    
    472000   1.0514497      17.779817      48.701251    
    473000   0.99947749     17.265713      48.860421    
    474000   0.9884376      17.738574      48.886591    
    475000   0.97125739     17.812059      48.922333    
    476000   1.0146253      17.831925      48.879191    
    477000   1.0025509      17.601845      48.587581    
    478000   1.0063964      17.713888      48.480641    
    479000   1.0099317      17.393194      48.397864    
    480000   0.99679731     17.141955      48.333591    
    481000   0.99742685     17.854179      48.324896    
    482000   1.0058356      17.74863       47.984234    
    483000   1.0041983      17.571943      47.860245    
    484000   0.95898856     17.369162      47.727797    
    485000   0.98574459     17.771078      47.678945    
    486000   1.0072115      17.978852      47.523019    
    487000   1.0146873      17.91099       47.497761    
    488000   1.0393341      17.502224      47.390473    
    489000   0.98811272     17.891976      47.231141    
    490000   1.0011522      17.684918      47.19165     
    491000   1.0113059      17.58125       47.164322    
    492000   1.0021174      17.986371      47.081499    
    493000   1.0230172      18.088833      47.092732    
    494000   0.99466611     17.533314      47.354341    
    495000   1.0352297      17.551252      47.419505    
    496000   1.0137443      18.114268      47.453831    
    497000   0.97027438     16.975601      47.301766    
    498000   0.96151783     17.324087      47.083935    
    499000   0.98227594     17.115178      46.834472    
    500000   1.0095535      17.592466      46.897274    
    501000   1.0410868      18.015907      46.790421    
    502000   1.0349669      17.590778      46.738652    
    503000   0.95114882     17.461802      46.717495    
    504000   0.97469912     17.802251      46.802545    
    505000   0.97823431     17.312512      46.565882    
    506000   1.015686       17.320403      46.38212     
    507000   1.0285566      17.588035      46.528862    
    508000   1.0061136      17.276391      46.543116    
    509000   0.94384476     17.508575      46.420074    
    510000   1.0112938      18.007196      46.251197    
    511000   0.99378188     17.658082      45.990046    
    512000   0.93640467     17.489477      45.761011    
    513000   0.97686626     17.527553      45.576655    
    514000   1.0302741      17.57839       45.34869     
    515000   0.98741538     18.071689      45.204211    
    516000   1.0314055      17.498464      45.255485    
    517000   1.0186934      17.465501      45.160024    
    518000   1.0397174      17.565836      45.130981    
    519000   0.9942782      17.514559      44.949783    
    520000   0.9953058      17.621442      45.167766    
    521000   0.98898328     17.628186      45.376428    
    522000   0.97199609     17.380381      45.688133    
    523000   0.98518983     17.335279      45.666356    
    524000   0.98438637     17.896593      45.503295    
    525000   1.0477436      17.631087      45.624774    
    526000   0.99322528     18.184945      45.514635    
    527000   1.0002878      17.372379      45.27634     
    528000   1.0013731      17.239831      45.158222    
    529000   1.0235381      17.604722      44.98588     
    530000   0.99219255     17.855003      44.916228    
    531000   0.97739339     17.387818      44.967025    
    532000   0.99770086     17.839771      45.091063    
    533000   0.99168582     17.191552      45.018816    
    534000   0.97316435     17.368483      44.859       
    535000   0.98635571     17.230335      44.795393    
    536000   1.0302873      17.677186      44.544628    
    537000   0.96895266     17.367762      44.340155    
    538000   1.0018993      17.501531      44.163256    
    539000   0.99431014     17.413815      44.307687    
    540000   1.04459        17.823023      44.285309    
    541000   1.0233759      17.674257      44.322836    
    542000   1.0487948      17.491151      44.259279    
    543000   1.024242       18.023143      44.379775    
    544000   1.0557121      17.755604      44.215956    
    545000   1.0229207      17.767437      43.987331    
    546000   0.98209335     17.426625      44.007659    
    547000   1.004904       17.811406      43.915748    
    548000   1.0030449      17.545551      43.833331    
    549000   0.98024601     18.097832      43.774471    
    550000   1.0410714      17.373104      43.747537    
    551000   0.98862419     17.888005      43.672963    
    552000   0.99128264     17.962597      43.461685    
    553000   0.99197128     18.149725      43.259433    
    554000   0.9579107      17.605379      43.133824    
    555000   0.9910613      17.540704      43.024135    
    556000   1.0096616      17.233346      42.914348    
    557000   1.0051798      17.40649       42.791511    
    558000   0.99292389     17.423403      42.616971    
    559000   0.94817695     17.441227      42.67689     
    560000   1.0564577      17.133706      42.506641    
    561000   1.020017       16.986366      42.380719    
    562000   1.0052836      17.555806      42.610179    
    563000   1.0099267      17.467958      42.647486    
    564000   0.97454939     17.469925      42.607317    
    565000   0.99180077     17.135761      42.703248    
    566000   0.9661222      17.265923      42.530622    
    567000   0.99590225     17.151591      42.44342     
    568000   0.99294028     17.257066      42.287355    
    569000   1.0004612      17.654461      42.306148    
    570000   0.96605443     17.524873      42.312604    
    571000   1.0004251      17.594959      42.203298    
    572000   0.96318988     17.419049      42.114413    
    573000   0.97203286     17.702888      42.277029    
    574000   1.0095608      17.22275       42.281528    
    575000   1.0109443      18.020422      42.415943    
    576000   1.029229       17.146984      42.333355    
    577000   1.0339235      17.693495      42.27836     
    578000   0.97222238     17.115174      42.104651    
    579000   0.99825975     17.354358      42.12327     
    580000   1.0041992      17.56232       41.944397    
    581000   0.98061413     17.047746      41.725017    
    582000   0.99715984     17.712973      41.766461    
    583000   0.99049464     17.081763      41.630135    
    584000   0.99906655     17.416806      41.462912    
    585000   0.98729418     17.742168      41.389251    
    586000   0.96305358     17.564003      41.075897    
    587000   1.0140792      17.12546       41.126336    
    588000   0.97268247     17.498631      40.977974    
    589000   1.0217424      17.951983      40.874842    
    590000   1.008292       17.573321      40.914286    
    591000   0.97321632     17.264009      40.86716     
    592000   1.0041806      17.456267      40.906919    
    593000   1.0289306      17.545969      40.860781    
    594000   1.0168467      17.486513      40.644661    
    595000   0.95577463     17.054832      40.347909    
    596000   0.98812621     17.013195      40.245915    
    597000   1.0401862      17.523294      40.271575    
    598000   1.0208743      17.377481      40.414212    
    599000   0.9994236      17.281726      40.124511    
    600000   0.97683052     17.427603      40.16061     
    601000   0.99147042     17.455353      40.250941    
    602000   0.98466782     17.379236      40.237176    
    603000   1.0358676      17.807399      40.052785    
    604000   1.0317936      17.969876      39.961112    
    605000   1.0033881      17.599684      40.180071    
    606000   0.99149031     16.898655      40.091379    
    607000   0.97068753     17.543394      39.945185    
    608000   0.98317171     17.348793      39.897598    
    609000   0.99122384     17.37402       39.630285    
    610000   0.97664501     17.388931      39.524263    
    611000   0.99990288     17.507062      39.406346    
    612000   0.99207197     17.781441      39.463762    
    613000   0.96243793     16.716884      39.417996    
    614000   1.0112802      17.471989      39.367892    
    615000   0.98563833     17.37729       39.528721    
    616000   1.003376       17.389619      39.541608    
    617000   1.0607941      17.257182      39.631499    
    618000   1.0575462      17.571162      39.537908    
    619000   0.99426983     17.675631      39.520653    
    620000   1.0244543      17.559445      39.662532    
    621000   1.0181775      17.69325       39.601953    
    622000   0.99329376     17.667491      39.358514    
    623000   1.0160301      17.860279      39.271475    
    624000   1.0192344      17.493664      39.589525    
    625000   1.0303946      17.747948      39.472387    
    626000   0.99212043     17.906003      39.469072    
    627000   0.99165321     17.363777      39.298315    
    628000   0.97124247     16.724131      39.252428    
    629000   1.0639523      17.215798      39.238055    
    630000   1.0182368      17.417955      39.145428    
    631000   1.0096991      17.347627      39.068855    
    632000   0.99998947     17.483257      38.887737    
    633000   1.012791       17.577725      38.830663    
    634000   1.019369       17.328972      38.765147    
    635000   1.0115499      17.689488      38.727055    
    636000   1.0227168      17.616217      38.708827    
    637000   1.0176673      17.79436       38.857118    
    638000   1.0167788      17.619931      38.778447    
    639000   1.016179       17.090627      38.401129    
    640000   0.99730608     17.124929      38.23916     
    641000   0.98373641     17.004361      38.026929    
    642000   0.98776537     17.456824      38.119858    
    643000   0.98734921     17.297806      38.076732    
    644000   1.0215813      16.895558      37.945047    
    645000   0.9931838      17.060216      37.936453    
    646000   1.0196197      17.233885      38.199505    
    647000   0.98672716     17.396178      37.973297    
    648000   0.98344221     17.639319      37.942913    
    649000   0.98211599     17.457702      37.869407    
    650000   1.0173181      17.391293      38.082886    
    651000   0.99331136     17.39606       38.055134    
    652000   1.0334829      17.286799      37.974361    
    653000   1.0315398      17.237052      37.840948    
    654000   1.0206226      17.229605      37.651795    
    655000   1.0118867      17.674982      37.303515    
    656000   0.99267773     17.22421       37.229348    
    657000   1.0097151      17.664264      37.174406    
    658000   1.0255027      17.764165      37.086321    
    659000   1.0039131      17.434898      37.137154    
    660000   0.94145906     17.100293      37.118224    
    661000   0.99919359     17.265618      37.040904    
    662000   1.0322407      17.404016      37.071748    
    663000   1.0243062      17.790743      36.848472    
    664000   0.96768463     17.517138      36.82769     
    665000   0.99621015     17.282425      36.743958    
    666000   0.98414906     17.396934      36.788536    
    667000   1.0161492      17.329652      36.707249    
    668000   0.9827178      17.406337      36.652369    
    669000   0.99569229     17.078176      36.43779     
    670000   1.0516323      16.883761      36.406497    
    671000   1.0077721      16.809347      36.327382    
    672000   0.99176101     17.22221       36.383561    
    673000   1.0230935      18.245543      36.302986    
    674000   1.0059495      17.481873      36.543487    
    675000   1.0181886      16.866978      36.415949    
    676000   0.99613226     17.279983      36.427816    
    677000   1.0445481      17.820076      36.612102    
    678000   1.0167592      17.630046      36.598167    
    679000   0.95555433     16.776712      36.600547    
    680000   1.0342928      17.582392      36.395498    
    681000   1.0006264      17.568786      36.407892    
    682000   0.97496996     17.081746      36.241614    
    683000   0.99400256     17.483006      36.282796    
    684000   1.0166652      16.930591      36.198645    
    685000   1.0159795      16.691143      36.160291    
    686000   1.0216928      17.671093      36.165352    
    687000   1.0047915      17.486932      36.10884     
    688000   0.9941841      17.308836      35.784894    
    689000   0.99226345     17.64287       35.79775     
    690000   1.0090837      17.416727      35.676899    
    691000   0.97285706     17.169035      35.685151    
    692000   1.0838295      17.539368      35.682341    
    693000   0.94628914     17.520864      35.56585     
    694000   1.0057091      16.482403      35.482084    
    695000   1.0184516      17.80283       35.302206    
    696000   0.9888454      17.194652      35.278413    
    697000   1.0263796      17.211379      35.325629    
    698000   0.98527179     17.242352      35.377754    
    699000   0.97689072     17.513485      35.286349    
    700000   0.98802982     17.002231      35.14556     
    701000   1.0194228      17.664575      34.976758    
    702000   1.0051607      17.83662       34.762407    
    703000   0.97636639     17.325107      34.69557     
    704000   0.97677935     17.069785      34.535631    
    705000   0.99579062     17.055729      34.478626    
    706000   1.0050149      17.500524      34.311466    
    707000   0.99222977     17.49543       34.36864     
    708000   0.99081287     17.616417      34.175497    
    709000   1.0543747      17.514109      34.067725    
    710000   1.0036632      17.50198       34.20726     
    711000   1.0077231      17.593491      33.893877    
    712000   0.99647114     16.843058      33.695156    
    713000   0.96934773     17.328493      33.786354    
    714000   0.98129348     17.438105      33.776078    
    715000   1.0068154      17.912392      33.604275    
    716000   1.0379053      17.97772       33.479967    
    717000   0.99640155     17.364662      33.53007     
    718000   0.96188968     17.124173      33.375866    
    719000   1.001386       17.044282      33.195569    
    720000   0.9576604      16.980812      33.054134    
    721000   1.0338091      17.910966      33.107833    
    722000   0.9659216      17.368639      33.127618    
    723000   1.0396438      17.692258      32.921287    
    724000   0.99527933     17.037053      32.59601     
    725000   1.0016173      17.467018      32.385286    
    726000   0.97030097     16.575842      32.317473    
    727000   0.97708959     17.72389       32.249815    
    728000   1.0134447      17.312074      32.243065    
    729000   0.99255033     17.535733      32.150284    
    730000   0.99570097     17.480536      32.006127    
    731000   1.0354428      17.589658      31.921739    
    732000   0.99505574     17.093645      31.928091    
    733000   1.0259049      17.56821       31.914221    
    734000   0.99133816     17.407373      31.976546    
    735000   1.0036343      17.263652      31.956341    
    736000   1.0134282      17.058198      31.875139    
    737000   1.0500969      18.21596       31.406286    
    738000   1.0006547      17.340518      31.386054    
    739000   1.0126685      17.72558       31.319828    
    740000   0.98804879     17.412779      31.292362    
    741000   1.0361606      17.495828      31.198363    
    742000   1.0209467      16.780322      31.230458    
    743000   1.0094573      18.096139      31.323379    
    744000   1.044839       17.077616      31.365       
    745000   0.98161231     17.352546      31.371731    
    746000   1.0339721      17.220867      31.256113    
    747000   1.0162268      17.639202      31.324498    
    748000   1.005268       17.316122      31.373771    
    749000   0.96710418     16.922651      31.264937    
    750000   0.98834368     17.352936      31.27328     
    751000   0.99220837     17.543263      31.124724    
    752000   0.9887769      17.705759      31.065884    
    753000   0.99316808     17.09766       31.038974    
    754000   0.99637079     17.055499      30.981222    
    755000   0.97460333     16.87899       31.190065    
    756000   1.0156436      17.583943      31.044658    
    757000   0.97145051     16.979274      30.741994    
    758000   0.97412564     17.722916      30.663969    
    759000   0.99597303     17.137836      30.608299    
    760000   0.96730908     17.535342      30.464568    
    761000   1.0073136      17.745582      30.344668    
    762000   0.97322149     17.770021      30.398122    
    763000   0.99644528     17.505366      30.303681    
    764000   1.0078372      17.061125      30.054899    
    765000   1.0013967      16.755362      29.764347    
    766000   1.0118377      17.326929      29.49023     
    767000   1.009943       17.799177      29.677582    
    768000   1.0238543      17.308327      29.472953    
    769000   0.99407249     17.303688      29.427444    
    770000   0.99614844     17.943266      29.329136    
    771000   1.0079106      17.43897       29.260345    
    772000   0.9865178      17.630079      29.311735    
    773000   0.95752749     17.12824       29.216008    
    774000   1.0095511      17.707825      29.198395    
    775000   1.0321271      17.238987      28.97986     
    776000   0.99156786     16.981932      28.950195    
    777000   0.95210431     17.272287      28.639516    
    778000   0.97611216     16.9149        28.355511    
    779000   1.0055756      17.397476      28.400551    
    780000   0.99195509     16.975669      28.351329    
    781000   0.98780465     16.887528      28.334873    
    782000   0.9775616      17.535962      28.270941    
    783000   1.0530912      17.492401      28.110803    
    784000   1.0324472      17.290825      28.246166    
    785000   0.98034328     17.797672      28.217333    
    786000   1.0141349      17.26519       28.026684    
    787000   1.0166945      17.333584      27.883871    
    788000   0.98342719     17.488156      27.78608     
    789000   1.0095551      17.973366      27.698182    
    790000   1.0031859      17.919326      27.754755    
    791000   1.0111339      17.997044      27.66101     
    792000   1.0325334      17.302241      27.666123    
    793000   0.9685832      17.034606      27.601145    
    794000   1.0244509      16.758394      27.753963    
    795000   0.99568607     17.293983      27.626443    
    796000   1.0055525      17.016622      27.450534    
    797000   0.98846071     17.338872      27.357132    
    798000   0.9896866      16.975733      27.374089    
    799000   0.99843834     17.208434      27.225579    
    800000   0.95845755     17.036614      26.974072    
    801000   0.96260524     17.671061      26.688326    
    802000   1.0024838      17.380272      26.621575    
    803000   0.98538557     17.075677      26.66594     
    804000   1.0420219      17.875962      26.776347    
    805000   1.0230642      17.821135      26.843705    
    806000   0.93638418     17.099355      26.814612    
    807000   0.97813211     16.965723      26.707886    
    808000   0.9638724      17.627072      26.562355    
    809000   1.0029147      17.222196      26.781462    
    810000   0.9774093      17.150444      26.611045    
    811000   1.000046       17.210709      26.856845    
    812000   1.0083226      17.34616       26.736195    
    813000   0.98974852     17.618403      26.567883    
    814000   1.0114991      17.426662      26.369902    
    815000   1.0243898      17.715419      26.281856    
    816000   0.97615509     17.134048      26.185972    
    817000   0.97212809     17.555651      26.362497    
    818000   0.99110851     17.122103      26.209093    
    819000   0.98350484     17.492324      26.115265    
    820000   1.0084169      17.556585      26.126739    
    821000   0.96630188     17.357398      26.200026    
    822000   1.0039486      17.634366      26.031062    
    823000   0.98079696     17.217902      25.924466    
    824000   1.0159525      17.253102      25.800807    
    825000   0.9866101      17.075056      25.843027    
    826000   1.0586897      17.311569      25.710918    
    827000   1.039972       17.143102      25.594344    
    828000   1.0008498      16.965314      25.593217    
    829000   1.0200481      16.954496      25.523813    
    830000   1.0384223      17.856026      25.67506     
    831000   0.98828006     17.177549      25.63382     
    832000   1.0190074      17.164637      25.429687    
    833000   1.0065032      17.43817       25.6018      
    834000   0.97694682     17.727215      25.577758    
    835000   0.98244291     17.854713      25.550669    
    836000   0.96789739     16.879423      25.628277    
    837000   1.002929       17.766995      25.696177    
    838000   0.99581536     17.195003      25.788419    
    839000   1.0153063      17.695293      25.766234    
    840000   0.98087099     17.231217      25.84303     
    841000   0.97023127     16.955538      25.939767    
    842000   1.0104352      17.538618      25.820067    
    843000   1.0379796      16.812457      25.67139     
    844000   1.00187        17.687308      25.921892    
    845000   1.0230658      17.364345      25.721301    
    846000   1.0306455      18.004549      25.845416    
    847000   1.0309082      17.484761      25.803991    
    848000   1.0178545      17.170763      25.802833    
    849000   0.96544071     16.660038      25.787338    
    850000   1.0062967      17.443276      25.716642    
    851000   1.0192536      17.409798      25.754933    
    852000   1.0150488      17.727504      25.647497    
    853000   0.98945881     16.928828      25.74783     
    854000   0.96970519     17.269026      25.608682    
    855000   0.9935995      17.15385       25.654499    
    856000   0.99497275     17.620321      25.61164     
    857000   1.0322994      17.184536      25.461006    
    858000   0.99335701     17.443568      25.274122    
    859000   0.97756895     17.279938      25.44469     
    860000   1.0011315      17.242286      25.400646    
    861000   1.0206438      17.363884      25.248713    
    862000   1.0310053      16.920125      25.384485    
    863000   0.96543289     17.407912      25.373862    
    864000   1.0361333      17.386207      25.24061     
    865000   0.9930013      16.897183      25.124249    
    866000   1.0119042      17.732585      25.163112    
    867000   0.95905935     16.619103      24.764732    
    868000   1.013232       17.396975      24.681234    
    869000   0.95106992     16.914212      24.752031    
    870000   1.0173317      17.077232      24.521314    
    871000   1.0372608      17.567529      24.548734    
    872000   1.0702311      16.951198      24.466802    
    873000   0.95421676     17.142553      24.478926    
    874000   1.0097366      17.060297      24.547645    
    875000   1.0210146      17.299604      24.38649     
    876000   0.99449256     17.196515      24.351368    
    877000   1.0124223      16.947364      24.404063    
    878000   0.99526398     17.343119      24.2015      
    879000   1.0291914      17.489857      24.217156    
    880000   1.0598663      17.394767      23.940367    
    881000   0.95142875     17.169576      24.019237    
    882000   1.0029344      17.035849      23.803646    
    883000   1.0106969      16.721044      23.694922    
    884000   1.011534       17.530841      23.559039    
    885000   1.0191181      17.504833      23.448231    
    886000   1.0173397      16.639582      23.368324    
    887000   0.98494851     17.426029      23.303905    
    888000   0.97960123     17.467218      23.375066    
    889000   1.0041379      17.125402      23.336013    
    890000   1.0033218      16.974785      23.205972    
    891000   0.98779832     17.26451       23.115488    
    892000   1.0074136      17.527843      23.007043    
    893000   1.0169003      17.543486      22.882248    
    894000   0.98034227     17.58048       22.875919    
    895000   0.9987286      17.065575      22.883085    
    896000   0.97838038     17.380716      22.937421    
    897000   0.95776658     17.45267       22.867138    
    898000   1.0001294      17.107969      22.894406    
    899000   0.9926059      17.19433       22.845879    
    900000   0.9935947      17.233436      23.05997     
    901000   1.0075263      17.851693      22.929358    
    902000   0.99665383     17.088033      22.966043    
    903000   0.99051473     16.743849      22.579147    
    904000   1.0203109      16.937856      22.682051    
    905000   0.95653152     16.936901      22.472628    
    906000   1.020328       17.119926      22.600998    
    907000   1.0064206      17.44594       22.48901     
    908000   0.99506129     17.109308      22.452526    
    909000   0.99173704     17.242064      22.521666    
    910000   1.0094808      17.066068      22.34752     
    911000   0.99108415     17.1909        22.350341    
    912000   1.0432327      17.624385      22.410809    
    913000   1.0181017      18.195882      22.295414    
    914000   0.9848226      16.836609      22.346487    
    915000   1.0053518      17.266862      22.280971    
    916000   1.024849       17.601899      22.125575    
    917000   1.0278123      17.238514      21.915552    
    918000   0.99390016     17.237443      21.715908    
    919000   0.99185636     17.63383       21.705246    
    920000   0.98887733     17.051325      21.496352    
    921000   1.0038236      17.361392      21.624845    
    922000   1.0138682      17.724765      21.44683     
    923000   0.97588946     17.0337        21.471378    
    924000   1.0021941      17.679697      21.612723    
    925000   0.98816087     16.919516      21.784486    
    926000   0.97652186     17.357554      21.890678    
    927000   1.00337        17.134257      21.919914    
    928000   0.97987262     17.247346      21.706113    
    929000   0.9970346      17.143676      21.661152    
    930000   0.96845794     17.113737      21.614917    
    931000   0.94558281     16.964771      21.556307    
    932000   0.98069444     17.316224      21.529203    
    933000   0.98993585     17.224552      21.499981    
    934000   0.98897569     17.602222      21.51804     
    935000   1.0085846      17.689931      21.424599    
    936000   0.9697836      17.39415       21.231664    
    937000   1.0336897      17.062741      21.297965    
    938000   0.99191438     17.440603      21.351455    
    939000   1.00853        17.278817      21.297906    
    940000   1.0107561      17.192558      21.090719    
    941000   1.0254041      17.178586      20.907362    
    942000   1.0194511      17.462531      20.816387    
    943000   1.0265215      17.610288      20.660861    
    944000   1.0148288      17.620358      20.582171    
    945000   1.0217252      17.654826      20.471554    
    946000   1.0131481      17.574598      20.388841    
    947000   0.98149406     17.49146       20.31141     
    948000   0.96331592     17.771883      20.093047    
    949000   0.99243906     16.733506      20.090585    
    950000   0.99938485     17.30439       20.267299    
    951000   0.99582343     17.02727       20.089831    
    952000   0.99519509     16.939872      20.010458    
    953000   1.0241582      17.381611      20.19154     
    954000   1.017866       17.157485      20.080115    
    955000   1.0265106      17.417024      20.166942    
    956000   1.0260275      17.332353      20.233696    
    957000   1.0109646      17.164192      20.106918    
    958000   1.0031632      17.165084      19.994963    
    959000   1.063863       17.277335      20.101669    
    960000   1.0154947      16.75661       19.908034    
    961000   0.97496175     17.191582      19.815171    
    962000   1.0034002      17.117643      19.499465    
    963000   1.00839        17.213763      19.264123    
    964000   0.99760014     17.256935      19.133491    
    965000   0.97968973     17.630544      18.865602    
    966000   0.97613432     17.556252      18.898375    
    967000   0.99395608     17.101275      18.822426    
    968000   1.0057088      17.539044      18.715921    
    969000   1.0305848      17.632044      18.367971    
    970000   0.96381952     16.659876      18.248367    
    971000   0.98378638     16.54831       18.11771     
    972000   1.052228       16.926449      18.158637    
    973000   0.96000556     16.850122      18.113032    
    974000   0.97067782     16.665673      18.090901    
    975000   1.0071891      17.040939      18.140601    
    976000   1.0221876      17.492675      18.093381    
    977000   0.99136183     17.327612      17.985678    
    978000   0.96589415     16.927731      18.015692    
    979000   1.0165068      17.191814      17.902303    
    980000   0.97468278     17.274148      17.642155    
    981000   0.98415898     17.535446      17.452134    
    982000   1.0036804      16.762165      17.240472    
    983000   1.0177503      16.769673      16.971913    
    984000   1.0024094      17.261071      16.707677    
    985000   0.972465       16.620701      16.760814    
    986000   1.0082773      17.391301      16.582675    
    987000   1.0053069      17.007945      16.599268    
    988000   1.0170223      17.310654      16.649543    
    989000   1.0095049      16.990739      16.765579    
    990000   1.0016438      17.22678       16.755698    
    991000   0.9914231      17.181485      16.776112    
    992000   1.0106354      17.20978       16.749922    
    993000   0.9910767      17.001346      16.671724    
    994000   0.97720682     16.631664      16.626447    
    995000   0.97742922     17.334387      16.621305    
    996000   1.0171306      17.488473      16.732276    
    997000   1.0053317      16.860396      16.609371    
    998000   1.0005292      16.815343      16.727932    
    999000   1.0162734      17.318388      16.780835    
   1000000   0.99420504     16.784391      16.941036    
   1001000   1.0037096      17.173982      16.951691    
   1002000   0.96354209     17.098982      16.710719    
   1003000   1.0177751      17.574181      16.763466    
   1004000   0.99176254     17.174607      16.761438    
   1005000   0.94873778     16.69546       16.566349    
   1006000   1.0194423      16.452538      16.47435     
   1007000   0.9576228      16.760431      16.343909    
   1008000   0.97950892     16.854588      16.308612    
   1009000   0.99417249     16.858023      16.171828    
   1010000   1.0300098      17.447236      16.031672    
   1011000   1.0383125      17.515182      16.19495     
   1012000   0.98215722     17.082362      16.176625    
   1013000   1.0052151      16.777016      16.073985    
   1014000   0.99562213     16.738847      16.079095    
   1015000   0.99125619     17.616204      15.976276    
   1016000   1.000221       16.833899      15.820724    
   1017000   1.0087207      17.449799      15.858827    
   1018000   0.97883254     17.21023       15.758157    
   1019000   1.028776       17.433176      15.699925    
   1020000   0.97867164     16.771376      15.598148    
   1021000   1.0187625      17.126472      15.564533    
   1022000   1.002125       17.336997      15.742528    
   1023000   0.99203537     17.026049      15.608667    
   1024000   0.99822899     17.44556       15.414174    
   1025000   1.040473       16.923713      15.367373    
   1026000   0.9616707      16.427887      15.277081    
   1027000   1.0140587      16.931903      15.43092     
   1028000   1.0111946      16.87369       15.370275    
   1029000   1.0090935      16.969539      15.328005    
   1030000   0.9768616      17.345421      15.311791    
   1031000   0.98438867     17.446889      15.23956     
   1032000   0.99856539     17.988487      15.206202    
   1033000   1.034697       16.672621      15.351429    
   1034000   0.98816588     17.116451      15.231277    
   1035000   0.98744486     16.894507      15.325274    
   1036000   0.99865575     17.107903      15.296827    
   1037000   1.0394489      16.937563      15.33272     
   1038000   0.97688002     17.148165      15.479526    
   1039000   1.0045542      16.798225      15.532922    
   1040000   0.99176272     17.819052      15.48557     
   1041000   1.0295741      17.281301      15.245343    
   1042000   1.0089642      16.917137      15.177077    
   1043000   0.97375173     17.137245      15.15592     
   1044000   1.0065717      17.058501      15.021619    
   1045000   0.96262422     16.663074      15.049525    
   1046000   1.0332988      16.615177      14.91487     
   1047000   0.93749622     17.023833      14.928626    
   1048000   1.0114354      17.077022      14.907645    
   1049000   1.0037737      16.736759      14.931204    
   1050000   0.98510851     17.144954      14.816965    
   1051000   0.99994028     17.074767      14.797291    
   1052000   0.94936837     17.002779      14.83356     
   1053000   0.98059994     17.210218      15.010913    
   1054000   0.96153192     16.334527      14.891333    
   1055000   0.96871801     16.959209      14.818285    
   1056000   0.95796349     16.995145      14.678541    
   1057000   0.9923252      16.728438      14.623042    
   1058000   1.0243585      17.274495      14.650423    
   1059000   1.0474133      17.311093      14.574858    
   1060000   0.98836259     17.000663      14.516       
   1061000   0.98296341     17.218585      14.510905    
   1062000   0.97002795     17.034524      14.158638    
   1063000   1.0279558      17.231756      14.203286    
   1064000   1.0315517      16.825361      14.225914    
   1065000   1.0122028      17.342035      14.236009    
   1066000   1.0150531      17.105957      14.220262    
   1067000   1.0431665      16.770657      14.126385    
   1068000   1.0198136      17.43522       14.166073    
   1069000   0.98220561     16.738369      14.215583    
   1070000   1.0215571      17.417449      14.205818    
   1071000   0.99605233     17.825068      14.053287    
   1072000   0.98534769     17.121089      13.648401    
   1073000   1.0710428      17.480901      13.482261    
   1074000   0.97618251     16.905108      13.425181    
   1075000   0.98407475     17.247563      13.593396    
   1076000   1.0400809      17.716302      13.551191    
   1077000   0.97515422     16.825916      13.525583    
   1078000   0.99341306     17.004549      13.330572    
   1079000   0.99355809     16.935369      13.202989    
   1080000   1.0117198      17.207977      13.174369    
   1081000   0.98267845     17.195724      13.113823    
   1082000   1.0484071      17.011929      13.052181    
   1083000   1.0039543      16.950484      12.80115     
   1084000   0.99780476     17.088986      12.677376    
   1085000   0.99438058     17.17382       12.515924    
   1086000   0.96466114     16.73783       12.456355    
   1087000   0.99223255     16.892783      12.491642    
   1088000   1.0250254      17.128111      12.507617    
   1089000   0.96482386     17.061032      12.561456    
   1090000   0.98137702     17.048194      12.63955     
   1091000   1.016369       17.393309      12.558731    
   1092000   0.99939868     17.196973      12.35928     
   1093000   0.98108467     16.7442        12.580921    
   1094000   0.97061316     16.922823      12.495441    
   1095000   1.0358393      17.579125      12.468426    
   1096000   1.0006212      17.024768      12.597074    
   1097000   0.99768594     16.871149      12.669714    
   1098000   0.99105488     17.375174      12.548932    
   1099000   1.0476069      17.916835      12.633294    
   1100000   1.0282964      16.745905      12.726951    
   1101000   1.0088122      16.836563      12.498596    
   1102000   1.023639       16.857862      12.505066    
   1103000   0.9760538      17.258621      12.437888    
   1104000   1.0019848      17.175859      12.332489    
   1105000   0.97919408     17.6183        12.426642    
   1106000   0.95049375     17.15885       12.323428    
   1107000   0.99250336     17.091038      11.968757    
   1108000   0.9802472      17.333673      11.877508    
   1109000   1.0026693      17.075298      11.700843    
   1110000   1.0005388      16.878473      11.692548    
   1111000   0.98478889     17.018388      11.684582    
   1112000   0.98684225     17.258007      11.462475    
   1113000   0.97363686     17.16719       11.361395    
   1114000   0.97289166     17.17413       11.232118    
   1115000   0.96741147     17.21832       11.127382    
   1116000   1.0059143      17.378781      11.016985    
   1117000   1.0120949      17.114399      11.031247    
   1118000   0.9840889      17.329614      10.957519    
   1119000   1.0370955      17.821479      10.699001    
   1120000   1.0033944      17.291515      10.824209    
   1121000   1.0022737      17.219778      10.794811    
   1122000   1.0076658      16.932747      10.606752    
   1123000   1.0152878      16.963146      10.614133    
   1124000   1.0094465      17.005397      10.586226    
   1125000   1.0119114      17.03461       10.498763    
   1126000   0.9886043      16.931107      10.410389    
   1127000   1.0137757      17.136545      10.310744    
   1128000   1.0320102      17.696744      10.291172    
   1129000   0.97107204     17.367079      10.319487    
   1130000   0.97988195     17.169724      10.150538    
   1131000   1.0132561      17.244527      10.174056    
   1132000   1.023053       17.404171      10.197767    
   1133000   0.99816336     17.041963      10.269063    
   1134000   0.97312821     16.899309      10.062494    
   1135000   1.00651        17.073312      9.8197207    
   1136000   0.98556433     16.598397      9.664101     
   1137000   0.98042514     17.037276      9.7186551    
   1138000   0.97987974     16.749915      9.6579756    
   1139000   0.9742736      16.911147      9.5732243    
   1140000   1.0386398      17.256778      9.515198     
   1141000   1.0081808      16.878761      9.662713     
   1142000   1.0090896      16.741691      9.5670545    
   1143000   0.99882961     16.927431      9.4072726    
   1144000   1.0245898      17.276721      9.1668426    
   1145000   0.97733686     17.075264      8.9413484    
   1146000   1.0196564      17.211417      8.9391831    
   1147000   1.0132966      16.619344      8.9341307    
   1148000   1.0446248      17.592247      9.1115116    
   1149000   1.0047472      17.863727      8.9764891    
   1150000   1.0091346      17.277207      8.9163593    
   1151000   0.97063521     16.982441      8.8363391    
   1152000   0.96243405     17.107655      8.8536689    
   1153000   0.96178379     16.688299      8.7348035    
   1154000   0.99109978     17.492812      8.7920201    
   1155000   1.0298155      17.023904      8.7371247    
   1156000   0.98330122     16.831064      8.665448     
   1157000   0.97227477     17.179436      8.5047646    
   1158000   1.0121789      16.681739      8.4938074    
   1159000   1.0419934      17.257285      8.6226308    
   1160000   0.98492117     17.182954      8.6909527    
   1161000   1.019174       17.300205      8.7574339    
   1162000   1.0071755      16.923871      8.7712989    
   1163000   0.9997886      17.083181      8.7535891    
   1164000   0.9863712      17.096478      8.7226942    
   1165000   1.0125016      17.22467       8.6553962    
   1166000   1.0031132      17.275047      8.6914522    
   1167000   0.98931364     16.890781      8.9563262    
   1168000   1.0315231      17.320921      8.8791295    
   1169000   0.97652021     16.966786      8.8029103    
   1170000   0.94475603     16.593868      8.7581598    
   1171000   1.025833       17.543314      8.7693594    
   1172000   1.0376987      16.560213      8.7755864    
   1173000   0.99570585     16.833835      8.750763     
   1174000   0.98015925     17.039495      8.4627736    
   1175000   0.96722769     17.685336      8.3814114    
   1176000   1.0817561      17.588856      8.0438642    
   1177000   1.0123728      16.99462       7.8478395    
   1178000   0.99863745     17.161628      7.7801188    
   1179000   1.0437294      16.640116      7.6300204    
   1180000   0.99343205     16.789211      7.4224636    
   1181000   1.0205969      16.951477      7.288991     
   1182000   1.0131053      17.71423       7.1637427    
   1183000   0.95617627     16.936041      7.0612937    
Fix halt condition for fix-id 3 met on step 1184000 with value 6.838918762911566 (src/fix_halt.cpp:237)
   1184000   0.97635635     17.152523      6.8389188    
Loop time of 1339.68 on 4 procs for 1084000 steps with 1201 atoms

Performance: 699103.114 tau/day, 809.147 timesteps/s
154.4% CPU use with 2 MPI tasks x 2 OpenMP threads

MPI task timing breakdown:
Section |  min time  |  avg time  |  max time  |%varavg| %total
---------------------------------------------------------------
Pair    | 1.6216     | 293.36     | 585.1      |1703.3 | 21.90
Bond    | 2.4379     | 19.89      | 37.343     | 391.3 |  1.48
Neigh   | 627.81     | 627.81     | 627.81     |   0.0 | 46.86
Comm    | 0.86671    | 0.91137    | 0.95603    |   4.7 |  0.07
Output  | 3.7738     | 3.8093     | 3.8449     |   1.8 |  0.28
Modify  | 6.2838     | 40.745     | 75.206     | 539.9 |  3.04
Other   |            | 353.2      |            |       | 26.36

Nlocal:          600.5 ave        1201 max           0 min
Histogram: 1 0 0 0 0 0 0 0 0 1
Nghost:              0 ave           0 max           0 min
Histogram: 2 0 0 0 0 0 0 0 0 0
Neighs:         144566 ave      289133 max           0 min
Histogram: 1 0 0 0 0 0 0 0 0 1

Total # of neighbors = 289133
Ave neighs/atom = 240.74355
Ave special neighs/atom = 1.9983347
Neighbor list builds = 9355
Dangerous builds = 0

# This simulation is done
# Move onto the next one
clear
  using 2 OpenMP thread(s) per MPI task
package omp 0
using multi-threaded neighbor list subroutines
next f
jump SELF

Total wall time: 1:47:26
