#atom_style bond #no stiffness
atom_style angle #with stiffness

boundary        p p p
###
# Pair interactions require lists of neighbours to be calculated
###

#neighbor 0.3 bin
neighbor 4 bin

neigh_modify every 1 delay 1 check yes
atom_modify sort 0 0
### Generate RESTART file, SPECIAL format, not a .txt file ###
### Useful if simulation crashes ###

restart 1000000 plusshaped/restarts3/$f.restart
restart 1000000 plusshaped/restarts3/bb401nuc1bl200bn4d30tot800.restart
#############################



### READ "start" data file ###

read_data plusshaped/$f.dat
read_data plusshaped/bb401nuc1bl200bn4d30tot800.dat
Reading data file ...
  orthogonal box = (-1000 -1000 -1000) to (1000 1000 1000)
  1 by 1 by 1 MPI processor grid
  reading atoms ...
  801 atoms
  scanning bonds ...
  3 = max bonds/atom
  scanning angles ...
  6 = max angles/atom
  reading bonds ...
  800 bonds
  reading angles ...
  802 angles
Finding 1-2 1-3 1-4 neighbors ...
  special bond factors lj:    0        0        0       
  special bond factors coul:  0        0        0       
     4 = max # of 1-2 neighbors
     4 = max # of 1-3 neighbors
     8 = max # of 1-4 neighbors
    12 = max # of special neighbors
  special bonds CPU = 0.001 seconds
  read_data CPU = 0.147 seconds

######################

### READ "REstart" data file ###

######################



###
# Define groups (atom type 1 is group 'all')
###
group all type 1
801 atoms in group all


###
# Dump configs - "simple dumpings"
###

###
# Dump configs + box coords
###

dump   1   all   custom   1000  plusshaped/trjs3/$f.lammpstrj  id  x y z  ix iy iz
dump   1   all   custom   1000  plusshaped/trjs3/bb401nuc1bl200bn4d30tot800.lammpstrj  id  x y z  ix iy iz
dump_modify   1   format line "%d %.5f %.5f %.5f %d %d %d"

########################################################################


###################################################################
# Stiffness term
#
# E = K * (1+cos(theta)), K>0
#
angle_style   cosine
#change this coefficient to change stiffness (e.g. 1,5,10)
angle_coeff   1 1.0
###################################################################

###################################################################
# Pair interaction between non-bonded atoms
#
#  Lennard-Jones 12-6 potential with cutoff:
#  potential E=4epsilon[ (sigma/r)^12 - (sigma/r)^6]  for r<r_cut
#
#  1.12246 = 2^(1/6) is the minimum of the potential


pair_style      lj/cut 1.12246152962189
#pair_style      lj/cut 3

#
#  pair_modify shift yes adds a constant to the potential such

#  that E(r_cut)=0. Forces remains unchanged.
#

pair_modify     shift yes

#
#  pair_coeff for lj/cut, specify 4:
#    * atom type interacting with
#    * atom type
#    * epsilon (energy units)
#    * sigma (distance units)
#

pair_coeff      1 1 1.0 1.0
###################################################################

###################################################################
# Pair interaction between non-bonded atoms
#
#  soft potential, for PUSHING apart overlapping atoms
#  potential E=A*(1 + cos(pi*r/r_c))
#
#  1.12246 = 2^(1/6) is the cut-off r_c

#pair_style     soft 1.12246152962189

#
#  pair_coeff for soft, specify 3:
#    * atom type interacting with
#    * atom type
#    * A
#
#

#pair_coeff      1 1 100.0
###################################################################

###################################################################
# Pair interaction between bonded atoms
#
# Fene potential + Lennard Jones 12-6:

#
#  E= - 0.5 K R0^2 ln[ 1- (r/R0)^2]
#     + 4epsilon[ (sigma/r)^12 - (sigma/r)^6] + epsilon
#

bond_style   fene


#
# For style fene, specify:
#   * bond type
#   * K (energy/distance^2)
#   * R0 (distance)
#   * epsilon (energy)  (LJ component)
#   * sigma (distance)  (LJ component)
#


special_bonds fene #<=== I M P O R T A N T (new command)
Finding 1-2 1-3 1-4 neighbors ...
  special bond factors lj:    0        1        1       
  special bond factors coul:  0        1        1       
     4 = max # of 1-2 neighbors
    12 = max # of special neighbors
  special bonds CPU = 0.000 seconds

bond_coeff   1   30   2   1.0   1.0


###################################################

###################################################################
# Pair interaction between bonded atoms
#
# Harmonic potential:
#
#  E= K * (R-R0)^2
#

#bond_style   harmonic

#
# For style harmonic, specify:
#   * bond type
#   * K (energy/distance^2)
#   * R0 (distance)
#

#bond_coeff   1   60.0   1.0
#bond_coeff   2   harmonic 0.1   1.0

###################################################
compute 1 all gyration
variable rog equal c_1
#compute 2 all coord/atom cutoff 1.1

#dump 2 all custom 10000 contact_number.dump id c_2


###
# Set up fixes
###
thermo_style   custom   step  temp enthalpy c_1
fix 1 all nve   ###NVE ensemble

fix 2 all   langevin   1.0 1.0 1.0  158102   ###Langevin integrator Tstart Tstop 1/friction rndseed


##### Sample thermodynamic info  (temperature, energy, pressure, etc.) #####
thermo 1000









############################################################################

###
# set timestep of integrator

timestep 0.01

###
# run integration for a number of steps
###
#run 0
#variable r equal c_1
#if "$r < 63.1" then "quit 1"

# lj potential minimum, cause molecule to explore
run 100000
Generated 0 of 0 mixed pair_coeff terms from geometric mixing rule
Last active /omp style is angle_style cosine/omp
Neighbor list info ...
  update: every = 1 steps, delay = 1 steps, check = yes
  max neighbors/atom: 2000, page size: 100000
  master list distance cutoff = 5.1224615
  ghost atom cutoff = 5.1224615
  binsize = 2.5612308, bins = 781 781 781
  1 neighbor lists, perpetual/occasional/extra = 1 0 0
  (1) pair lj/cut/omp, perpetual
      attributes: half, newton on, omp
      pair build: half/bin/newton/omp
      stencil: half/bin/3d
      bin: standard
WARNING: Communication cutoff 5.12246152962189 is shorter than a bond length based estimate of 5.455. This may lead to errors. (src/comm.cpp:723)
Per MPI rank memory allocation (min/avg/max) = 1862 | 1862 | 1862 Mbytes
   Step          Temp         Enthalpy         c_1      
         0   0              13.182906      105.18155    
      1000   0.9921941      17.416968      104.45949    
      2000   1.0597879      17.708713      103.70373    
      3000   0.98250865     18.221986      102.86255    
      4000   1.0422889      18.225457      102.07896    
      5000   1.0242662      18.544203      101.29748    
      6000   1.0184759      18.573254      100.533      
      7000   1.0216         18.373353      99.930325    
      8000   1.0273745      18.435289      99.590261    
      9000   0.99642378     19.26619       99.10456     
     10000   0.97137627     18.558391      98.690683    
     11000   0.98584107     19.22568       98.337309    
     12000   1.0361923      19.302809      97.712134    
     13000   0.98745763     19.158254      97.153487    
     14000   1.0118854      19.084362      96.573625    
     15000   1.0088729      19.31836       96.176295    
     16000   1.018468       19.175618      95.794793    
     17000   0.99962887     19.892847      95.143889    
     18000   0.97708864     19.139955      95.058202    
     19000   1.0161169      19.499105      94.839728    
     20000   0.98739418     19.184417      94.584868    
     21000   1.0162918      19.121446      94.412787    
     22000   0.97666155     19.631263      94.153548    
     23000   0.97846528     19.140118      93.828399    
     24000   0.97264976     19.484601      93.525443    
     25000   1.0346655      19.528461      93.472955    
     26000   0.98919083     19.378499      93.009508    
     27000   1.0374605      19.077529      92.913793    
     28000   1.0289251      19.658654      92.931542    
     29000   0.9613298      20.184408      92.538479    
     30000   0.97403713     19.545259      92.269114    
     31000   0.96493579     19.733448      91.975332    
     32000   0.96535189     19.137021      91.486634    
     33000   1.0192407      19.852755      91.171177    
     34000   1.0551551      19.596115      90.785215    
     35000   0.96308555     19.341495      90.765379    
     36000   1.0416009      20.167094      90.544242    
     37000   1.0011292      19.660259      90.224101    
     38000   1.0233151      19.787895      89.755608    
     39000   1.0318653      19.72159       89.586831    
     40000   0.96026209     19.900083      89.415504    
     41000   1.0126951      19.494099      89.029557    
     42000   0.98943099     19.595887      89.020931    
     43000   0.99499057     19.75137       88.916605    
     44000   1.0036371      19.62491       88.788547    
     45000   0.96262662     19.81444       88.456866    
     46000   1.0386867      19.996676      88.188623    
     47000   0.98904652     19.494561      88.025023    
     48000   1.0238121      19.659079      87.822677    
     49000   1.0288704      19.61603       87.39433     
     50000   0.99041025     19.593118      87.125419    
     51000   1.0317792      19.779684      86.998478    
     52000   0.96998201     19.633395      86.72989     
     53000   0.97257807     19.777826      86.600871    
     54000   1.0082012      19.731987      86.384262    
     55000   1.0553492      20.025366      86.121813    
     56000   1.0191183      20.0637        85.879384    
     57000   0.99112118     20.485168      85.806341    
     58000   0.98137673     19.80107       85.535331    
     59000   1.0129225      19.70081       85.522346    
     60000   0.9517482      20.660398      85.112269    
     61000   0.99961887     19.764141      84.836621    
     62000   1.0244749      19.560701      84.406798    
     63000   0.99721173     19.596057      84.292939    
     64000   1.0205285      19.847454      84.300687    
     65000   0.97821062     19.688842      84.22734     
     66000   0.99413178     19.747131      84.297283    
     67000   0.95555468     19.939027      84.133587    
     68000   0.99983617     20.211258      83.734677    
     69000   1.0172969      19.695752      83.328089    
     70000   1.0077174      19.779076      83.236426    
     71000   1.0194008      19.584558      83.22806     
     72000   0.91373743     19.845419      83.249064    
     73000   0.99041621     20.264806      83.210012    
     74000   0.99390752     19.98134       83.040919    
     75000   0.96129282     19.809961      82.815613    
     76000   1.022748       19.370436      82.204276    
     77000   0.95515886     19.573742      82.561341    
     78000   0.97745085     20.02225       82.484846    
     79000   1.0003977      19.96618       82.060514    
     80000   0.97783303     19.89785       82.000474    
     81000   0.9881424      20.285161      81.63331     
     82000   1.0147236      20.212994      81.679672    
     83000   0.99068245     19.758858      81.371802    
     84000   0.97253389     20.681848      81.171165    
     85000   1.0007755      20.189797      80.829214    
     86000   0.97862985     19.965874      80.730038    
     87000   1.026503       20.079525      80.691282    
     88000   1.0173538      20.208534      80.515039    
     89000   0.99024764     19.732099      80.204268    
     90000   0.99211055     20.205729      79.98681     
     91000   1.0186578      19.634592      80.055601    
     92000   1.0259145      19.511129      79.988781    
     93000   0.9828076      20.310534      79.711734    
     94000   1.0063978      19.985468      79.50989     
     95000   1.0041242      19.949681      79.416446    
     96000   1.0281733      19.799724      79.315268    
     97000   0.99152507     19.990323      79.070323    
     98000   0.99564753     20.282255      79.051365    
     99000   0.99371172     19.962203      78.817677    
    100000   1.0300155      20.265705      78.670578    
Loop time of 670.026 on 2 procs for 100000 steps with 801 atoms

Performance: 128950.133 tau/day, 149.248 timesteps/s
102.0% CPU use with 1 MPI tasks x 2 OpenMP threads

MPI task timing breakdown:
Section |  min time  |  avg time  |  max time  |%varavg| %total
---------------------------------------------------------------
Pair    | 1.5229     | 1.5229     | 1.5229     |   0.0 |  0.23
Bond    | 3.0178     | 3.0178     | 3.0178     |   0.0 |  0.45
Neigh   | 658.86     | 658.86     | 658.86     |   0.0 | 98.33
Comm    | 0.05549    | 0.05549    | 0.05549    |   0.0 |  0.01
Output  | 0.33923    | 0.33923    | 0.33923    |   0.0 |  0.05
Modify  | 5.7114     | 5.7114     | 5.7114     |   0.0 |  0.85
Other   |            | 0.5154     |            |       |  0.08

Nlocal:            801 ave         801 max         801 min
Histogram: 1 0 0 0 0 0 0 0 0 0
Nghost:              0 ave           0 max           0 min
Histogram: 1 0 0 0 0 0 0 0 0 0
Neighs:           4797 ave        4797 max        4797 min
Histogram: 1 0 0 0 0 0 0 0 0 0

Total # of neighbors = 4797
Ave neighs/atom = 5.988764
Ave special neighs/atom = 1.9975031
Neighbor list builds = 1089
Dangerous builds = 0

# Replace lj potential, now collapse
pair_style      lj/cut 3

# Cutoff simul when gyration under 5
# Variable created with equal requires v_ + 'name'
fix 3 all halt 1000 v_rog < 7

run 5000000
Generated 0 of 0 mixed pair_coeff terms from geometric mixing rule
Last active /omp style is angle_style cosine/omp
Per MPI rank memory allocation (min/avg/max) = 1862 | 1862 | 1862 Mbytes
   Step          Temp         Enthalpy         c_1      
    100000   1.0300155      19.614583      78.670578    
    101000   1.0079698      19.469093      78.388495    
    102000   1.0054771      19.18625       78.101938    
    103000   1.022313       19.381479      78.053692    
    104000   1.022465       19.246349      77.701802    
    105000   1.005692       19.441232      77.528966    
    106000   0.99367159     19.446325      77.396868    
    107000   0.99451131     19.359791      77.231505    
    108000   0.96810044     19.528003      76.878841    
    109000   1.0273877      19.790621      76.621882    
    110000   1.0254234      19.604765      76.393033    
    111000   1.015496       20.028091      76.108608    
    112000   1.0240519      19.519862      76.07833     
    113000   1.053101       18.904055      75.745328    
    114000   1.0789192      19.173654      75.469539    
    115000   1.0167252      19.834527      75.274557    
    116000   1.0069347      19.366404      74.99253     
    117000   0.98291878     18.888679      74.75309     
    118000   1.0144361      19.301463      74.453274    
    119000   0.96595755     19.494484      74.144397    
    120000   0.97024473     19.324331      73.941563    
    121000   0.93604946     19.210549      73.676147    
    122000   0.99791641     18.529761      73.679941    
    123000   1.0335281      19.425886      73.472311    
    124000   0.99135653     18.973332      73.477729    
    125000   0.99947189     19.492083      73.085929    
    126000   1.0195891      19.191077      72.887994    
    127000   1.0355364      18.866138      72.692064    
    128000   1.0194962      19.202452      72.792231    
    129000   0.97981801     18.863893      72.57356     
    130000   1.0124635      19.034131      72.307394    
    131000   0.97532727     18.886986      72.075867    
    132000   0.96488018     19.043367      71.96617     
    133000   1.0242338      19.500571      71.67039     
    134000   1.0329225      19.394341      71.50335     
    135000   0.97140253     20.05831       71.319693    
    136000   0.99385516     19.558698      71.100209    
    137000   1.0213719      19.220687      70.719747    
    138000   0.97431632     19.104845      70.565679    
    139000   0.97666525     18.796014      70.109838    
    140000   0.99664206     19.295685      69.871259    
    141000   1.0367468      19.207219      69.513931    
    142000   0.98611916     19.301552      69.203224    
    143000   0.97568227     19.149204      69.080407    
    144000   0.99665632     19.396466      69.020134    
    145000   0.97779258     19.168651      68.885399    
    146000   0.97914171     19.810556      68.548064    
    147000   1.0040682      19.192642      68.510034    
    148000   0.98908157     18.81634       68.184546    
    149000   0.99137608     19.078392      67.953325    
    150000   1.0237143      19.806895      67.900041    
    151000   1.0283715      19.11536       67.468463    
    152000   1.0001234      18.978912      67.10605     
    153000   1.0752111      19.020203      66.782939    
    154000   0.96572193     18.543251      66.665266    
    155000   1.0451065      18.709159      66.576911    
    156000   1.0329967      19.060036      66.260034    
    157000   0.95157029     18.555793      66.296841    
    158000   0.9739107      18.831574      66.121511    
    159000   1.0060123      18.492401      66.176499    
    160000   0.99858665     18.922446      65.852256    
    161000   1.0189824      18.874397      65.75648     
    162000   0.97898139     18.573202      65.735189    
    163000   0.99199346     18.701298      65.359436    
    164000   1.0313634      19.051999      64.980839    
    165000   1.0342991      19.018209      64.777299    
    166000   0.98956377     18.873142      64.695148    
    167000   1.0370633      18.774234      64.093824    
    168000   0.973053       18.574277      63.950603    
    169000   1.0337977      18.815169      63.686824    
    170000   1.0482488      19.365019      63.505147    
    171000   0.97924622     18.7837        63.378351    
    172000   0.98550908     18.85212       63.180331    
    173000   1.0205031      18.831355      63.128316    
    174000   0.99346176     18.255103      63.0905      
    175000   0.97916677     18.690522      62.796764    
    176000   1.012228       18.250109      62.85101     
    177000   1.0185773      18.912057      62.693708    
    178000   0.95284906     18.427529      62.46389     
    179000   1.0366078      18.942667      62.518416    
    180000   1.0602862      19.182191      62.393146    
    181000   1.0329901      18.511698      61.93469     
    182000   1.0041294      18.804626      61.637039    
    183000   1.0277761      19.12955       61.442272    
    184000   1.0128353      18.802865      61.079246    
    185000   1.0008065      18.584608      60.869688    
    186000   1.0118663      18.899835      60.856091    
    187000   0.98981879     18.640926      60.844732    
    188000   0.98197827     18.869115      60.78377     
    189000   0.98423183     18.015562      60.712562    
    190000   1.0180392      18.695815      60.57781     
    191000   1.0004386      18.87447       60.393348    
    192000   0.96855622     18.787664      60.111887    
    193000   1.0378242      19.130814      60.146647    
    194000   1.0379026      18.598901      59.574581    
    195000   1.0496286      18.605755      59.231578    
    196000   0.99495665     18.632655      59.258018    
    197000   0.98393795     18.270581      59.067557    
    198000   1.0483814      19.248067      58.828904    
    199000   1.0054181      18.260171      58.771081    
    200000   0.95946261     17.933628      58.38624     
    201000   1.0047624      18.887775      58.205078    
    202000   1.0169234      18.91455       58.161094    
    203000   1.0024046      17.973         57.719551    
    204000   1.0084372      19.009485      57.387856    
    205000   1.0210312      19.474342      57.197557    
    206000   0.99163123     18.805338      57.14835     
    207000   0.99029672     18.598265      57.021481    
    208000   0.98941222     18.686414      56.881195    
    209000   0.95580367     18.355709      56.639042    
    210000   1.0166351      19.005992      56.555779    
    211000   0.97138318     18.666284      56.523299    
    212000   0.95247165     18.449149      56.460178    
    213000   1.0498854      18.892093      56.481643    
    214000   1.0615566      19.306386      56.303419    
    215000   0.95577916     18.970551      56.202149    
    216000   0.99641362     18.287744      56.28279     
    217000   1.1060129      18.460228      56.449213    
    218000   1.0276458      18.893901      56.230811    
    219000   1.033888       18.914924      55.925443    
    220000   0.99594359     18.365269      55.914513    
    221000   1.0336771      18.682441      55.678755    
    222000   0.97613126     18.623315      55.327231    
    223000   1.0153851      19.208783      55.112245    
    224000   1.0128607      17.888917      54.557195    
    225000   0.9798128      18.973859      54.343624    
    226000   1.0145468      18.832623      54.062938    
    227000   1.0037355      18.917682      53.9304      
    228000   0.95806186     18.662076      53.880342    
    229000   0.97663866     18.463054      53.870017    
    230000   0.9690979      18.79656       53.814091    
    231000   1.0124752      18.809239      53.720096    
    232000   0.98743914     18.606793      53.296583    
    233000   1.0231732      18.84767       53.176662    
    234000   0.98457263     19.526402      52.918583    
    235000   0.98416508     18.673101      52.695186    
    236000   1.0053408      18.848126      52.4301      
    237000   0.96515298     18.902931      51.881591    
    238000   1.0276065      18.708658      51.566746    
    239000   1.0111428      18.673319      51.405661    
    240000   0.98531463     18.784025      51.089902    
    241000   1.0124783      18.291279      51.060268    
    242000   0.99483811     18.218418      50.759314    
    243000   1.0665184      18.907145      50.509317    
    244000   0.98515132     18.484779      50.49065     
    245000   1.0175786      17.848906      50.358118    
    246000   0.94512957     18.87356       50.44241     
    247000   0.98937661     17.941071      50.230883    
    248000   1.030811       18.53796       50.092459    
    249000   1.0473253      19.111404      49.881881    
    250000   0.98766106     18.172735      49.47964     
    251000   1.0507923      18.628691      49.47692     
    252000   0.93049307     18.576391      49.252244    
    253000   0.98750012     18.222809      49.014977    
    254000   0.99508919     18.407197      49.144206    
    255000   1.0070613      18.879905      48.954087    
    256000   0.99503861     18.169729      48.872186    
    257000   1.0088368      18.490476      48.967806    
    258000   1.0175544      18.262931      48.816422    
    259000   1.0259523      18.438007      48.629422    
    260000   0.98677602     18.750333      48.462817    
    261000   0.9883262      19.161707      48.219288    
    262000   1.0064045      18.313187      47.996365    
    263000   1.0218449      18.66531       47.989829    
    264000   1.0367562      18.848636      47.897052    
    265000   0.99524946     18.450231      47.697418    
    266000   1.0069175      18.481789      47.327956    
    267000   0.99471109     18.303407      47.137173    
    268000   0.97137207     18.57804       46.881651    
    269000   1.0326704      18.125559      46.820854    
    270000   1.0506872      18.340347      46.936248    
    271000   1.0208768      18.615775      46.908401    
    272000   1.0499392      18.811347      46.809327    
    273000   0.95830613     18.433264      46.904017    
    274000   0.94276617     18.320816      46.714422    
    275000   0.95208027     17.921869      46.658551    
    276000   1.018976       18.955921      46.376455    
    277000   0.93161563     18.420394      46.394952    
    278000   1.0045413      18.558247      46.323932    
    279000   0.97060808     18.845338      46.086299    
    280000   1.005235       18.241671      45.848153    
    281000   0.9943458      18.522371      45.883023    
    282000   1.0111123      18.116894      45.647119    
    283000   1.0156196      18.778841      45.494962    
    284000   1.0164159      18.544207      45.160029    
    285000   0.98491543     18.079893      44.930505    
    286000   1.0008385      18.073614      44.688388    
    287000   1.0485907      17.88053       44.547333    
    288000   1.0283507      18.344449      44.379543    
    289000   0.98725274     18.587795      44.097019    
    290000   0.94433778     17.939302      43.904762    
    291000   0.96698242     18.572921      43.614715    
    292000   0.96455285     18.016077      43.596313    
    293000   1.001774       18.554076      43.337241    
    294000   1.0015104      18.330345      43.311227    
    295000   1.0353974      18.348185      43.168094    
    296000   1.0564824      18.434247      43.072522    
    297000   0.96047717     18.145103      42.761402    
    298000   1.0274708      19.005148      42.35057     
    299000   1.0737019      18.30724       42.194717    
    300000   0.99474538     18.31712       41.937679    
    301000   0.9796193      18.008524      41.814188    
    302000   0.9067563      17.878497      41.519802    
    303000   1.0281889      18.318025      41.510968    
    304000   0.98920208     18.181742      41.398449    
    305000   0.98109042     17.774889      41.147989    
    306000   1.0274487      17.77095       40.864545    
    307000   1.0403668      18.736898      40.272827    
    308000   0.9417655      18.132574      40.101234    
    309000   1.0308204      18.620899      39.906193    
    310000   0.95596312     17.736204      39.767289    
    311000   0.9766074      18.268345      39.686777    
    312000   1.0590534      18.03511       39.531281    
    313000   0.94853415     17.968323      39.505757    
    314000   0.98982589     17.76019       39.457075    
    315000   0.96088987     17.936328      39.371324    
    316000   0.96395939     18.642969      39.253122    
    317000   1.0080751      18.602809      39.075229    
    318000   0.96448202     18.72491       38.949397    
    319000   0.98223689     18.539642      38.911203    
    320000   1.050753       18.38965       38.772997    
    321000   0.94584123     18.452864      38.636964    
    322000   0.98073574     18.48386       38.43088     
    323000   1.0230678      18.48596       38.58795     
    324000   1.0049709      18.32725       38.612181    
    325000   1.0567852      17.891405      38.281852    
    326000   1.0296794      18.229005      37.991931    
    327000   0.98344358     17.184413      37.732769    
    328000   1.0291103      18.809869      37.668025    
    329000   0.99550415     18.23959       37.518203    
    330000   1.0137132      18.546411      37.067211    
    331000   1.0150172      18.797679      36.631065    
    332000   1.0243036      17.95947       36.623424    
    333000   1.0742687      17.886334      36.487908    
    334000   1.0076531      17.91823       36.164461    
    335000   1.0018793      18.024463      36.029883    
    336000   0.9964734      18.566419      35.744188    
    337000   0.94752013     17.314409      35.368137    
    338000   1.0019905      17.869381      35.327339    
    339000   0.98512365     17.8194        35.209943    
    340000   0.9972852      18.822592      35.229998    
    341000   1.0201294      18.014808      35.12076     
    342000   0.96966376     18.486886      34.881641    
    343000   1.0425011      17.628389      34.835135    
    344000   1.0662508      18.076163      34.643717    
    345000   0.98605788     18.160812      34.360474    
    346000   1.0119645      17.588174      34.409685    
    347000   1.0152023      18.65766       34.07308     
    348000   0.99669449     18.807419      33.899031    
    349000   1.0103223      17.987705      33.618226    
    350000   0.99351693     17.59947       33.524305    
    351000   0.9561822      17.597475      33.282526    
    352000   0.96682052     18.310603      32.930648    
    353000   0.96201436     18.404925      32.880073    
    354000   0.98837432     18.089642      32.774212    
    355000   0.94321619     17.553542      32.664916    
    356000   0.97539809     17.693012      32.419773    
    357000   1.007635       18.205819      32.271438    
    358000   0.99832564     17.718889      32.14279     
    359000   0.99731068     18.099272      32.068889    
    360000   0.9762753      17.890469      32.013626    
    361000   0.99851509     18.656172      32.125434    
    362000   1.0299202      18.405054      31.905015    
    363000   1.0235644      17.902989      31.779069    
    364000   1.0186759      17.831352      31.5642      
    365000   1.0078923      18.350167      31.469317    
    366000   0.97741342     17.685368      31.426916    
    367000   0.97981146     18.008829      31.228281    
    368000   0.99576042     17.85468       30.99601     
    369000   0.95671206     18.32466       30.663203    
    370000   1.0184291      17.635251      30.307899    
    371000   1.0115927      17.715861      30.137288    
    372000   1.01075        17.820197      30.190531    
    373000   0.96022083     17.316381      30.252178    
    374000   1.0156478      18.111906      29.836763    
    375000   0.94692244     17.079978      29.856047    
    376000   0.98155221     18.140561      29.712222    
    377000   0.95718816     17.926623      29.432788    
    378000   0.97933414     17.805864      29.446586    
    379000   1.0133851      18.300196      29.489493    
    380000   0.99134202     18.08664       29.321798    
    381000   0.95994352     17.480558      29.168951    
    382000   0.94996905     17.536549      29.185827    
    383000   0.97923528     17.724182      29.32906     
    384000   1.0877517      18.354607      29.107744    
    385000   0.98169755     18.456382      29.077097    
    386000   1.0034497      17.75329       28.663115    
    387000   0.98981001     18.178351      28.714865    
    388000   1.0189041      18.145765      28.693246    
    389000   0.96831405     18.317772      28.620644    
    390000   0.99843564     18.294321      28.362276    
    391000   1.003301       17.889147      28.333868    
    392000   1.0203601      18.339938      28.24236     
    393000   1.048599       17.482508      28.454881    
    394000   1.0244426      17.974406      28.383104    
    395000   1.0377113      18.482891      27.871713    
    396000   1.0295665      18.332805      27.641669    
    397000   1.0051451      17.977785      27.556997    
    398000   0.9940594      17.809704      27.641128    
    399000   1.0233933      18.185726      27.60184     
    400000   1.0086881      17.735538      27.52941     
    401000   1.0214719      17.520818      27.339057    
    402000   1.0053988      18.063995      27.147355    
    403000   1.0066967      17.073094      27.150938    
    404000   0.99465573     17.917116      27.019655    
    405000   0.97623915     17.892752      26.773127    
    406000   1.0275613      17.089402      26.611312    
    407000   1.0298749      17.809237      26.617732    
    408000   0.96500943     17.882048      26.360655    
    409000   0.98092168     17.506783      26.136661    
    410000   0.97475277     17.984248      26.136879    
    411000   0.98958503     18.086849      25.807985    
    412000   0.93808707     18.575725      25.856087    
    413000   0.98040475     18.131809      25.716572    
    414000   0.96828037     17.771868      25.310383    
    415000   0.97204655     17.33715       25.28148     
    416000   0.99368455     18.032765      25.210212    
    417000   1.0370402      18.504052      25.119189    
    418000   0.96433666     17.797365      24.958977    
    419000   1.026172       17.668231      24.884687    
    420000   0.9888807      18.289985      24.833452    
    421000   1.0014573      18.277085      24.596927    
    422000   1.0208872      17.996027      24.444689    
    423000   1.0095675      17.36135       24.351708    
    424000   0.99913792     17.836045      24.205947    
    425000   1.0181185      18.307965      24.117435    
    426000   1.0008952      17.861254      23.618227    
    427000   0.9883497      17.26909       23.700244    
    428000   0.98035178     17.698892      23.621178    
    429000   1.0084377      17.790789      23.297354    
    430000   0.98203355     17.305528      23.118902    
    431000   1.0094035      17.949743      23.010396    
    432000   0.97824343     16.861368      22.699427    
    433000   1.047805       17.77628       22.656583    
    434000   0.95437454     17.802227      22.434126    
    435000   1.0496813      17.787116      22.054731    
    436000   0.98324304     18.012386      22.057491    
    437000   1.0616426      17.839804      21.906092    
    438000   1.0017481      18.00053       21.791581    
    439000   1.0292908      17.969693      21.706274    
    440000   1.0642228      18.651118      21.498284    
    441000   1.0148617      17.078989      21.411294    
    442000   1.028949       18.561213      21.139722    
    443000   1.0271307      17.865405      21.102573    
    444000   1.01641        17.696251      21.069854    
    445000   1.0119649      17.580852      21.040137    
    446000   1.0164696      17.80312       20.841004    
    447000   1.0658954      17.335581      20.626775    
    448000   0.98241293     17.96801       20.711553    
    449000   1.0485375      17.515195      20.825704    
    450000   1.0234704      17.117244      20.590003    
    451000   1.0056294      17.991995      20.454702    
    452000   0.95704989     17.269683      20.166274    
    453000   0.97568126     17.400152      19.762412    
    454000   1.0050286      17.87619       19.578603    
    455000   1.0302609      18.158438      19.276227    
    456000   1.0284722      17.791228      19.041218    
    457000   0.97991253     17.794476      18.846063    
    458000   1.0070425      18.139806      18.79796     
    459000   1.0395651      18.078361      18.604087    
    460000   1.076625       17.68237       18.548223    
    461000   0.99174129     17.609988      18.413102    
    462000   1.0220307      18.131956      17.995045    
    463000   0.99909316     17.923024      17.668788    
    464000   1.0404549      18.394007      17.347755    
    465000   0.96067183     17.21607       16.852971    
    466000   0.95640233     17.45494       16.645256    
    467000   0.9672969      17.522914      16.542731    
    468000   1.021578       17.576068      16.499264    
    469000   0.9792587      17.947932      16.443546    
    470000   1.0538971      16.840434      16.382515    
    471000   1.0026808      17.568629      16.159943    
    472000   1.0010355      17.476597      16.169825    
    473000   1.016409       17.77376       16.036036    
    474000   1.0095596      16.882341      15.926003    
    475000   1.0005858      17.507836      16.107591    
    476000   0.99507922     17.421334      15.950889    
    477000   0.97830837     17.493472      16.035725    
    478000   0.98777153     17.793217      15.80631     
    479000   1.0551076      17.446116      15.49815     
    480000   1.024655       17.945009      15.392721    
    481000   1.0099436      17.519494      15.411117    
    482000   1.0175621      17.598826      15.443266    
    483000   0.98894506     17.651515      15.25369     
    484000   0.95683423     16.855596      15.043075    
    485000   0.98883091     17.10498       14.974205    
    486000   1.04174        17.515667      14.972238    
    487000   0.99177691     16.891038      14.712264    
    488000   1.0016371      17.258828      14.418753    
    489000   0.98198303     18.099672      14.418638    
    490000   1.0620087      17.274699      14.195842    
    491000   1.0009017      18.301934      13.985022    
    492000   0.95404041     17.388326      13.635462    
    493000   0.98345137     17.420384      13.679909    
    494000   0.98495973     17.453327      13.495665    
    495000   1.0244419      17.455662      13.337385    
    496000   1.0042886      17.219206      13.108723    
    497000   1.0180471      17.688021      12.824214    
    498000   0.99238971     17.793125      12.500012    
    499000   0.98638766     16.528894      12.188948    
    500000   0.99761807     17.287207      12.242443    
    501000   1.0568579      17.450885      12.071233    
    502000   1.0185613      17.239973      11.973419    
    503000   1.0609433      17.929159      12.254196    
    504000   0.98615094     17.189887      12.218974    
    505000   0.98252304     17.571266      11.987276    
    506000   1.0441219      17.005039      12.016844    
    507000   0.96314198     17.348829      11.779215    
    508000   0.96646787     16.84418       11.644553    
    509000   1.0022965      16.50002       11.305876    
    510000   0.92204106     17.217157      11.228922    
    511000   0.98205676     17.182013      11.120398    
    512000   0.9918314      16.740363      11.302098    
    513000   1.0070938      16.318878      11.297404    
    514000   0.96014306     17.23665       11.228073    
    515000   1.0278039      16.697535      11.108074    
    516000   1.0016937      16.954774      10.968138    
    517000   0.9965914      16.698993      10.91114     
    518000   1.021709       17.343207      10.945652    
    519000   1.0041044      17.385749      10.902951    
    520000   0.90017395     16.999105      10.839593    
    521000   1.001805       17.464672      10.773755    
    522000   1.0312846      16.933902      10.250766    
    523000   0.9700604      16.687845      10.009718    
    524000   1.0305449      17.744608      10.123579    
    525000   1.0032273      17.323249      10.089752    
    526000   1.0001526      17.485811      9.862014     
    527000   0.99944453     17.002535      9.8906817    
    528000   0.98065966     17.436096      9.9116221    
    529000   0.98778786     17.194103      9.8440402    
    530000   0.99109748     17.162012      9.836676     
    531000   0.99904126     17.414221      9.8516255    
    532000   1.0447275      16.776926      9.8907701    
    533000   1.0428537      17.249681      9.6040653    
    534000   1.0223909      16.94075       9.6148532    
    535000   0.98323634     17.234607      9.6295683    
    536000   0.94737156     17.396268      9.8324754    
    537000   1.0292015      17.44139       10.02662     
    538000   1.010705       17.563621      9.8642955    
    539000   0.98545693     17.014535      9.6757595    
    540000   0.97276973     16.615018      9.6152666    
    541000   0.96607954     16.603658      9.4368037    
    542000   0.99469277     17.221025      9.3861728    
    543000   0.97905738     16.993153      9.2768421    
    544000   1.025624       16.917237      9.2168928    
    545000   1.0262755      17.186053      9.250535     
    546000   0.9558405      16.518358      9.1208163    
    547000   1.0193434      16.891545      9.0686249    
    548000   1.0157947      17.324318      8.9821271    
    549000   0.94689705     17.500781      9.0040087    
    550000   0.98325977     17.380864      8.9531608    
    551000   1.0078796      17.064482      8.6830309    
    552000   1.0248471      17.361445      8.6043106    
    553000   0.98084709     17.294987      8.6714699    
    554000   0.99953146     17.533758      8.4879708    
    555000   1.019063       17.159277      8.3677801    
    556000   1.0202297      17.147407      8.2051569    
    557000   0.99454393     17.126838      8.1096135    
    558000   0.99611321     16.789845      8.0770266    
    559000   0.98635226     17.326702      8.0484346    
    560000   0.97373438     16.951029      7.9811717    
    561000   1.0130344      17.56174       8.0244483    
    562000   0.94060917     17.191499      7.7461064    
    563000   0.99917823     16.905003      7.6452892    
    564000   1.0005005      17.709601      7.4296683    
    565000   0.9917147      17.176339      7.294918     
    566000   0.99375129     17.345116      7.3206971    
    567000   1.0493586      16.794875      7.3617033    
    568000   0.96814904     16.730973      7.3806505    
    569000   0.97809361     17.009636      7.2303415    
    570000   0.96994332     17.072471      7.0755509    
    571000   1.0375482      16.850033      7.0403817    
    572000   1.0080238      16.621156      7.1700056    
Fix halt condition for fix-id 3 met on step 573000 with value 6.9944738461487175 (src/fix_halt.cpp:237)
    573000   1.0365707      17.637315      6.9944738    
Loop time of 1217.12 on 2 procs for 473000 steps with 801 atoms

Performance: 335769.241 tau/day, 388.622 timesteps/s
112.1% CPU use with 1 MPI tasks x 2 OpenMP threads

MPI task timing breakdown:
Section |  min time  |  avg time  |  max time  |%varavg| %total
---------------------------------------------------------------
Pair    | 103.62     | 103.62     | 103.62     |   0.0 |  8.51
Bond    | 12.395     | 12.395     | 12.395     |   0.0 |  1.02
Neigh   | 1075.4     | 1075.4     | 1075.4     |   0.0 | 88.35
Comm    | 0.25238    | 0.25238    | 0.25238    |   0.0 |  0.02
Output  | 1.3833     | 1.3833     | 1.3833     |   0.0 |  0.11
Modify  | 21.609     | 21.609     | 21.609     |   0.0 |  1.78
Other   |            | 2.492      |            |       |  0.20

Nlocal:            801 ave         801 max         801 min
Histogram: 1 0 0 0 0 0 0 0 0 0
Nghost:              0 ave           0 max           0 min
Histogram: 1 0 0 0 0 0 0 0 0 0
Neighs:         153268 ave      153268 max      153268 min
Histogram: 1 0 0 0 0 0 0 0 0 0

Total # of neighbors = 153268
Ave neighs/atom = 191.34582
Ave special neighs/atom = 1.9975031
Neighbor list builds = 4361
Dangerous builds = 0

# This simulation is done
# Move onto the next one
clear
  using 2 OpenMP thread(s) per MPI task
package omp 0
using multi-threaded neighbor list subroutines
next f
jump SELF

###
# Reference paper:
# K. Kremer and G. S. Grest
# Dynamics of entangled linear polymer melts: A molecular-dynamics simulation
# J Chem Phys 92, 5057 (1990)

##################################
# MIHIR: for branched polymers
# LJ minimum first to expand and explore, then collapse
###

###
# Looping through the various plusshaped polymers to simulate,
# define variables to switch through
variable f index bb51nuc1bl25bn4d30tot100 bb101nuc1bl50bn4d30tot200 bb151nuc1bl75bn4d30tot300 bb201nuc1bl100bn4d30tot400 bb251nuc1bl125bn4d30tot500 bb301nuc1bl150bn4d30tot600 bb351nuc1bl175bn4d30tot700 bb401nuc1bl200bn4d30tot800 bb451nuc1bl225bn4d30tot900 bb501nuc1bl250bn4d30tot1000 bb551nuc1bl275bn4d30tot1100 bb601nuc1bl300bn4d30tot1200
###


###
# Box and units  (use LJ units and periodic boundaries)
###

units lj
log plusshaped/logs3/$f.log
log plusshaped/logs3/bb451nuc1bl225bn4d30tot900.log
