#atom_style bond #no stiffness
atom_style angle #with stiffness

boundary        p p p
###
# Pair interactions require lists of neighbours to be calculated
###

#neighbor 0.3 bin
neighbor 4 bin

neigh_modify every 1 delay 1 check yes
atom_modify sort 0 0
### Generate RESTART file, SPECIAL format, not a .txt file ###
### Useful if simulation crashes ###

restart 1000000 plusshaped/restarts3/$f.restart
restart 1000000 plusshaped/restarts3/bb451nuc1bl225bn4d30tot900.restart
#############################



### READ "start" data file ###

read_data plusshaped/$f.dat
read_data plusshaped/bb451nuc1bl225bn4d30tot900.dat
Reading data file ...
  orthogonal box = (-1000 -1000 -1000) to (1000 1000 1000)
  1 by 1 by 1 MPI processor grid
  reading atoms ...
  901 atoms
  scanning bonds ...
  3 = max bonds/atom
  scanning angles ...
  6 = max angles/atom
  reading bonds ...
  900 bonds
  reading angles ...
  902 angles
Finding 1-2 1-3 1-4 neighbors ...
  special bond factors lj:    0        0        0       
  special bond factors coul:  0        0        0       
     4 = max # of 1-2 neighbors
     4 = max # of 1-3 neighbors
     8 = max # of 1-4 neighbors
    12 = max # of special neighbors
  special bonds CPU = 0.002 seconds
  read_data CPU = 0.105 seconds

######################

### READ "REstart" data file ###

######################



###
# Define groups (atom type 1 is group 'all')
###
group all type 1
901 atoms in group all


###
# Dump configs - "simple dumpings"
###

###
# Dump configs + box coords
###

dump   1   all   custom   1000  plusshaped/trjs3/$f.lammpstrj  id  x y z  ix iy iz
dump   1   all   custom   1000  plusshaped/trjs3/bb451nuc1bl225bn4d30tot900.lammpstrj  id  x y z  ix iy iz
dump_modify   1   format line "%d %.5f %.5f %.5f %d %d %d"

########################################################################


###################################################################
# Stiffness term
#
# E = K * (1+cos(theta)), K>0
#
angle_style   cosine
#change this coefficient to change stiffness (e.g. 1,5,10)
angle_coeff   1 1.0
###################################################################

###################################################################
# Pair interaction between non-bonded atoms
#
#  Lennard-Jones 12-6 potential with cutoff:
#  potential E=4epsilon[ (sigma/r)^12 - (sigma/r)^6]  for r<r_cut
#
#  1.12246 = 2^(1/6) is the minimum of the potential


pair_style      lj/cut 1.12246152962189
#pair_style      lj/cut 3

#
#  pair_modify shift yes adds a constant to the potential such

#  that E(r_cut)=0. Forces remains unchanged.
#

pair_modify     shift yes

#
#  pair_coeff for lj/cut, specify 4:
#    * atom type interacting with
#    * atom type
#    * epsilon (energy units)
#    * sigma (distance units)
#

pair_coeff      1 1 1.0 1.0
###################################################################

###################################################################
# Pair interaction between non-bonded atoms
#
#  soft potential, for PUSHING apart overlapping atoms
#  potential E=A*(1 + cos(pi*r/r_c))
#
#  1.12246 = 2^(1/6) is the cut-off r_c

#pair_style     soft 1.12246152962189

#
#  pair_coeff for soft, specify 3:
#    * atom type interacting with
#    * atom type
#    * A
#
#

#pair_coeff      1 1 100.0
###################################################################

###################################################################
# Pair interaction between bonded atoms
#
# Fene potential + Lennard Jones 12-6:

#
#  E= - 0.5 K R0^2 ln[ 1- (r/R0)^2]
#     + 4epsilon[ (sigma/r)^12 - (sigma/r)^6] + epsilon
#

bond_style   fene


#
# For style fene, specify:
#   * bond type
#   * K (energy/distance^2)
#   * R0 (distance)
#   * epsilon (energy)  (LJ component)
#   * sigma (distance)  (LJ component)
#


special_bonds fene #<=== I M P O R T A N T (new command)
Finding 1-2 1-3 1-4 neighbors ...
  special bond factors lj:    0        1        1       
  special bond factors coul:  0        1        1       
     4 = max # of 1-2 neighbors
    12 = max # of special neighbors
  special bonds CPU = 0.000 seconds

bond_coeff   1   30   2   1.0   1.0


###################################################

###################################################################
# Pair interaction between bonded atoms
#
# Harmonic potential:
#
#  E= K * (R-R0)^2
#

#bond_style   harmonic

#
# For style harmonic, specify:
#   * bond type
#   * K (energy/distance^2)
#   * R0 (distance)
#

#bond_coeff   1   60.0   1.0
#bond_coeff   2   harmonic 0.1   1.0

###################################################
compute 1 all gyration
variable rog equal c_1
#compute 2 all coord/atom cutoff 1.1

#dump 2 all custom 10000 contact_number.dump id c_2


###
# Set up fixes
###
thermo_style   custom   step  temp enthalpy c_1
fix 1 all nve   ###NVE ensemble

fix 2 all   langevin   1.0 1.0 1.0  158102   ###Langevin integrator Tstart Tstop 1/friction rndseed


##### Sample thermodynamic info  (temperature, energy, pressure, etc.) #####
thermo 1000









############################################################################

###
# set timestep of integrator

timestep 0.01

###
# run integration for a number of steps
###
#run 0
#variable r equal c_1
#if "$r < 63.1" then "quit 1"

# lj potential minimum, cause molecule to explore
run 100000
Generated 0 of 0 mixed pair_coeff terms from geometric mixing rule
Last active /omp style is angle_style cosine/omp
Neighbor list info ...
  update: every = 1 steps, delay = 1 steps, check = yes
  max neighbors/atom: 2000, page size: 100000
  master list distance cutoff = 5.1224615
  ghost atom cutoff = 5.1224615
  binsize = 2.5612308, bins = 781 781 781
  1 neighbor lists, perpetual/occasional/extra = 1 0 0
  (1) pair lj/cut/omp, perpetual
      attributes: half, newton on, omp
      pair build: half/bin/newton/omp
      stencil: half/bin/3d
      bin: standard
WARNING: Communication cutoff 5.12246152962189 is shorter than a bond length based estimate of 5.455. This may lead to errors. (src/comm.cpp:723)
Per MPI rank memory allocation (min/avg/max) = 1862 | 1862 | 1862 Mbytes
   Step          Temp         Enthalpy         c_1      
         0   0              13.314344      118.29536    
      1000   1.026817       17.606682      117.67241    
      2000   1.0400405      17.990285      116.78567    
      3000   0.98847215     17.852264      116.20188    
      4000   0.99657711     17.946244      115.67713    
      5000   1.0209402      18.577241      115.0799     
      6000   1.0090733      18.480642      114.78226    
      7000   1.0331769      18.793028      114.35129    
      8000   0.96527475     18.910794      113.91168    
      9000   1.0879337      18.816378      113.37048    
     10000   0.97761328     18.297759      113.00539    
     11000   1.0190285      18.80722       112.77161    
     12000   1.0314526      18.971224      112.53325    
     13000   0.97382105     18.74675       112.08902    
     14000   1.0406653      19.131556      111.71828    
     15000   0.97808642     18.646267      111.56491    
     16000   0.99547888     19.060296      111.1456     
     17000   0.97035049     18.672708      110.63099    
     18000   0.98196238     18.891525      110.41289    
     19000   1.0536926      19.375042      110.07394    
     20000   0.99124444     19.112365      109.73049    
     21000   0.97152311     18.912226      109.58529    
     22000   1.0274725      19.154109      109.17408    
     23000   1.0261986      19.205501      108.69583    
     24000   1.0082703      19.272308      108.39598    
     25000   0.96611257     19.11349       108.06169    
     26000   1.0224873      19.175782      107.942      
     27000   1.0053178      19.563018      107.65655    
     28000   1.0566374      19.130384      107.54307    
     29000   0.98791237     19.437402      107.18129    
     30000   1.0024094      19.719229      106.83907    
     31000   0.95692877     19.181713      106.73135    
     32000   1.0061988      19.358519      106.35997    
     33000   0.98558597     19.288823      106.07873    
     34000   1.0426336      19.226943      105.9102     
     35000   1.0029583      19.35586       105.60466    
     36000   0.97346141     19.518252      105.3658     
     37000   1.0023953      19.019693      105.15289    
     38000   1.0058271      19.223318      104.7914     
     39000   0.97118374     18.692238      104.45834    
     40000   1.0248268      19.29066       104.20453    
     41000   0.99698815     19.332992      104.07792    
     42000   1.0414248      19.411499      103.80239    
     43000   0.9837679      19.009178      103.5905     
     44000   0.97602749     19.017056      103.46336    
     45000   0.98616904     19.524561      103.06617    
     46000   0.9888147      19.37277       102.80276    
     47000   0.99890538     19.294809      102.44627    
     48000   1.0258629      19.547981      102.39148    
     49000   1.0026247      19.648589      102.1523     
     50000   0.97966569     19.294267      101.94551    
     51000   1.0227541      19.613938      101.88847    
     52000   1.0041896      19.73127       101.57748    
     53000   0.98170598     19.362778      101.29057    
     54000   1.0558546      19.496321      100.99043    
     55000   0.97646687     19.250386      100.94363    
     56000   0.97764403     19.60126       100.59796    
     57000   0.97007115     19.903348      100.45468    
     58000   1.0131341      19.538416      100.29101    
     59000   0.96716819     19.445097      99.975866    
     60000   1.016813       19.647576      99.86946     
     61000   1.0194787      19.529567      99.45569     
     62000   0.99751585     19.657392      99.17075     
     63000   0.9406673      19.996449      98.988477    
     64000   1.0334701      19.897433      98.677847    
     65000   1.049068       20.507594      98.421258    
     66000   0.97223291     19.644752      98.189072    
     67000   1.0102298      19.420122      97.995091    
     68000   1.0172068      19.788414      97.839361    
     69000   1.0225711      20.180647      97.804257    
     70000   0.9683994      19.612891      97.722845    
     71000   1.0077857      19.592339      97.567945    
     72000   0.99219426     20.0303        97.151441    
     73000   0.99662884     20.712954      97.115962    
     74000   1.0497695      20.304592      97.01868     
     75000   0.9922443      19.63172       96.677779    
     76000   0.99874857     19.50009       96.368135    
     77000   0.99128093     20.456541      95.962356    
     78000   0.98270345     19.705863      95.728741    
     79000   1.0195704      19.635544      95.495391    
     80000   0.95642439     19.498894      94.996509    
     81000   1.0250121      19.843888      94.961529    
     82000   0.98857804     20.009791      94.58406     
     83000   0.96729578     19.510064      94.286136    
     84000   1.0219918      20.329471      94.107844    
     85000   0.9535466      20.168492      93.997366    
     86000   0.98204038     19.766049      93.822284    
     87000   1.044554       19.739465      93.684564    
     88000   0.97873197     19.911864      93.595663    
     89000   1.017991       20.223117      93.136715    
     90000   1.0614254      20.467874      92.737797    
     91000   1.0363728      19.926231      92.671696    
     92000   0.98222394     20.154675      92.54504     
     93000   1.0271564      19.823484      92.186069    
     94000   1.0376308      19.867441      92.196942    
     95000   0.99158205     19.71161       92.033931    
     96000   1.0000779      20.242701      92.007133    
     97000   1.0360779      19.764037      91.775065    
     98000   0.98925134     20.125999      91.558381    
     99000   1.0075649      20.04003       91.642115    
    100000   0.98339489     20.194245      91.421774    
Loop time of 657.593 on 2 procs for 100000 steps with 901 atoms

Performance: 131388.256 tau/day, 152.070 timesteps/s
101.6% CPU use with 1 MPI tasks x 2 OpenMP threads

MPI task timing breakdown:
Section |  min time  |  avg time  |  max time  |%varavg| %total
---------------------------------------------------------------
Pair    | 1.2017     | 1.2017     | 1.2017     |   0.0 |  0.18
Bond    | 2.4969     | 2.4969     | 2.4969     |   0.0 |  0.38
Neigh   | 648.46     | 648.46     | 648.46     |   0.0 | 98.61
Comm    | 0.048458   | 0.048458   | 0.048458   |   0.0 |  0.01
Output  | 0.28537    | 0.28537    | 0.28537    |   0.0 |  0.04
Modify  | 4.6416     | 4.6416     | 4.6416     |   0.0 |  0.71
Other   |            | 0.4549     |            |       |  0.07

Nlocal:            901 ave         901 max         901 min
Histogram: 1 0 0 0 0 0 0 0 0 0
Nghost:              0 ave           0 max           0 min
Histogram: 1 0 0 0 0 0 0 0 0 0
Neighs:           5122 ave        5122 max        5122 min
Histogram: 1 0 0 0 0 0 0 0 0 0

Total # of neighbors = 5122
Ave neighs/atom = 5.6847947
Ave special neighs/atom = 1.9977802
Neighbor list builds = 1095
Dangerous builds = 0

# Replace lj potential, now collapse
pair_style      lj/cut 3

# Cutoff simul when gyration under 5
# Variable created with equal requires v_ + 'name'
fix 3 all halt 1000 v_rog < 7

run 5000000
Generated 0 of 0 mixed pair_coeff terms from geometric mixing rule
Last active /omp style is angle_style cosine/omp
Per MPI rank memory allocation (min/avg/max) = 1862 | 1862 | 1862 Mbytes
   Step          Temp         Enthalpy         c_1      
    100000   0.98339489     19.632666      91.421774    
    101000   0.99220004     19.274442      91.074204    
    102000   0.93064099     19.661771      90.828706    
    103000   1.0006904      19.605881      90.75994     
    104000   0.97793623     19.654843      90.628651    
    105000   1.0116594      19.96012       90.141731    
    106000   1.0019773      19.308503      89.948866    
    107000   0.96310384     19.453804      89.417505    
    108000   1.0397939      19.559433      89.109927    
    109000   0.97777418     19.528759      88.917413    
    110000   1.0279963      19.624538      88.820665    
    111000   1.0107146      19.513607      88.818209    
    112000   0.98215305     19.193518      88.799503    
    113000   1.048343       19.013772      88.469333    
    114000   0.99124726     19.373172      88.349188    
    115000   0.98429528     19.048363      88.021759    
    116000   1.023368       19.528476      87.94362     
    117000   1.015083       19.362699      87.829928    
    118000   1.0013851      19.096394      87.49552     
    119000   1.0038358      19.222309      87.197827    
    120000   1.013628       19.737856      86.999455    
    121000   1.0019091      19.157927      86.654463    
    122000   1.0314499      20.187509      86.542298    
    123000   1.0223285      19.466957      86.428486    
    124000   0.97594087     19.531639      86.197838    
    125000   1.0373583      19.357101      85.884587    
    126000   1.0180306      18.480059      85.965957    
    127000   1.0158973      18.780496      85.714691    
    128000   0.97746592     19.718496      85.593       
    129000   0.99361057     18.70624       85.481974    
    130000   0.97501138     18.976525      85.446609    
    131000   0.97498124     19.047826      85.207199    
    132000   0.9716906      19.3132        84.955275    
    133000   0.93901475     18.819832      84.85029     
    134000   0.99528103     19.528644      84.643086    
    135000   1.0355346      19.043315      84.194891    
    136000   0.98227011     19.254238      83.947453    
    137000   0.95353484     19.073313      83.70692     
    138000   0.98021611     19.362196      83.391214    
    139000   0.99432678     18.727116      83.079877    
    140000   0.97936618     18.996268      82.629721    
    141000   1.0412566      19.767108      82.361012    
    142000   0.97391127     19.320865      82.130666    
    143000   0.99322158     18.937894      82.279825    
    144000   0.99889815     18.790986      81.960946    
    145000   0.97119761     18.701736      81.796156    
    146000   0.99943622     19.255285      81.742994    
    147000   1.015042       19.401681      81.456678    
    148000   0.98973381     18.957506      81.149772    
    149000   0.98019083     19.652133      80.714187    
    150000   0.95405935     18.799518      80.299045    
    151000   1.0337841      19.410458      80.116455    
    152000   0.98073682     19.205758      79.911652    
    153000   1.030193       19.365491      80.00725     
    154000   1.0790005      19.437479      79.893464    
    155000   0.98315151     19.643415      79.795393    
    156000   1.0325812      19.064791      79.606494    
    157000   0.98966483     19.098232      79.539044    
    158000   1.0249872      19.026057      79.31631     
    159000   0.99746559     18.881555      79.049015    
    160000   0.98019563     19.11023       78.754124    
    161000   0.98667548     19.190803      78.358705    
    162000   0.9772499      18.724948      78.076015    
    163000   1.0058119      18.974948      77.776875    
    164000   0.96015695     18.8783        77.637821    
    165000   1.0138688      19.071039      77.510797    
    166000   0.99028512     19.211673      77.229177    
    167000   1.031795       19.186738      76.992255    
    168000   0.98077045     19.400073      76.870038    
    169000   0.99113349     18.777486      76.670262    
    170000   1.0456224      19.265903      76.620597    
    171000   1.0412355      19.078757      76.555987    
    172000   0.96187808     19.378619      76.486443    
    173000   1.0027497      19.211488      76.295135    
    174000   1.0469427      19.258866      76.256317    
    175000   0.96166101     19.165364      76.236945    
    176000   1.0299391      18.937565      75.998409    
    177000   1.0441768      18.866441      75.875237    
    178000   1.0404922      19.244075      75.704449    
    179000   1.0412385      19.063325      75.603865    
    180000   0.97880107     19.451787      75.757476    
    181000   0.9948263      18.666903      75.661425    
    182000   1.0050505      18.745092      75.559135    
    183000   0.95643116     18.854064      75.526994    
    184000   0.98634623     18.805651      75.563541    
    185000   1.0023971      19.3384        75.416826    
    186000   1.0266702      19.115071      75.266838    
    187000   1.0207682      18.837648      75.090804    
    188000   0.98969056     18.49397       75.137399    
    189000   0.9804312      19.015163      75.015644    
    190000   1.0011549      18.575292      74.965102    
    191000   0.97396365     19.236561      74.618361    
    192000   1.0235704      19.369553      74.160272    
    193000   1.034027       18.796229      73.847914    
    194000   1.0438376      18.938952      73.723916    
    195000   1.0106128      19.116748      73.434049    
    196000   0.98857695     18.672441      73.098754    
    197000   0.99850941     18.340087      72.803642    
    198000   1.0310144      18.562868      72.861669    
    199000   0.98339289     18.935101      72.829182    
    200000   1.0025196      19.167073      72.56687     
    201000   0.9849373      18.367434      72.39562     
    202000   1.0104741      18.696803      72.164378    
    203000   0.98077352     18.374969      72.014623    
    204000   1.0172382      18.223129      71.887785    
    205000   1.0108184      18.729174      71.704788    
    206000   0.99899795     18.986659      71.727126    
    207000   0.99218467     18.959957      71.625103    
    208000   1.0268415      19.035066      71.411075    
    209000   1.0194637      18.939408      71.198616    
    210000   1.0069181      18.723895      71.125756    
    211000   1.0385059      18.708287      71.133016    
    212000   0.99057304     18.660959      71.016913    
    213000   1.0324502      18.565937      70.69923     
    214000   0.99047376     18.894777      70.442202    
    215000   1.0064842      18.9684        70.361793    
    216000   0.99528863     18.890111      70.012632    
    217000   0.98091474     18.997992      70.017003    
    218000   0.99167655     18.690442      69.876627    
    219000   0.9620545      18.952415      69.415068    
    220000   0.96280403     17.755458      69.297553    
    221000   0.99994107     18.453636      68.964253    
    222000   1.0291172      18.878595      68.884268    
    223000   1.0285912      18.531301      68.717091    
    224000   0.99385851     18.885199      68.344598    
    225000   1.0160566      19.071374      68.10803     
    226000   0.97323846     19.22029       67.876949    
    227000   1.0153784      19.072785      67.666178    
    228000   1.0213222      18.819649      67.272357    
    229000   1.0041055      18.212067      67.001309    
    230000   1.015291       18.512029      66.66223     
    231000   1.0086609      19.532113      66.342747    
    232000   0.99523867     18.565238      66.180179    
    233000   1.0176166      18.794848      65.899612    
    234000   1.0323814      18.966156      65.949982    
    235000   0.99576422     18.477964      65.629719    
    236000   0.99948368     18.188491      65.565643    
    237000   0.98059207     18.938943      65.491414    
    238000   0.99386361     18.817847      65.400611    
    239000   1.0148547      18.721899      65.38225     
    240000   0.97729524     18.3645        64.969043    
    241000   1.0071461      18.956159      64.864744    
    242000   1.0098761      18.115967      64.77159     
    243000   1.0046253      18.848517      64.644986    
    244000   1.0274883      18.577678      64.611041    
    245000   1.008822       18.645241      64.490975    
    246000   1.0306241      18.729727      64.180003    
    247000   0.96713371     18.550876      64.229088    
    248000   0.95377964     18.512345      63.781511    
    249000   0.98350512     17.971679      63.580002    
    250000   1.0645022      18.763123      63.580593    
    251000   1.0230343      18.817123      63.32869     
    252000   1.015715       18.387314      63.003364    
    253000   1.0383346      18.931818      62.929573    
    254000   1.0443597      18.72047       62.693253    
    255000   1.0303887      18.443033      62.534337    
    256000   1.0411728      18.647907      62.42485     
    257000   0.96229332     18.378802      62.330684    
    258000   0.9780768      18.597286      62.310481    
    259000   1.0017472      18.933944      62.119498    
    260000   0.97358049     18.665388      62.167459    
    261000   1.0302073      18.30189       61.968695    
    262000   1.0071291      18.738447      61.995169    
    263000   0.9699311      18.443908      62.10478     
    264000   1.0465434      18.713725      62.059774    
    265000   0.98480518     18.829206      62.20623     
    266000   1.0346967      18.260488      62.047474    
    267000   0.99052816     18.545792      61.817919    
    268000   0.97795305     18.719574      61.53606     
    269000   0.97224962     18.283762      61.438646    
    270000   1.0278569      18.329636      61.45561     
    271000   1.0096026      18.742042      61.314018    
    272000   0.97092569     18.76744       61.266526    
    273000   0.96127257     18.316648      60.886773    
    274000   0.96976807     18.471663      60.63916     
    275000   0.98889728     18.272825      60.50283     
    276000   0.9837901      18.444384      60.367697    
    277000   0.98835326     18.03542       60.302426    
    278000   1.020488       18.680095      60.206684    
    279000   1.0039887      18.281009      60.05832     
    280000   1.0060998      18.625386      60.014641    
    281000   1.0408         18.72178       60.292422    
    282000   0.97615847     18.487111      60.154421    
    283000   0.96105104     18.749892      60.153729    
    284000   0.98533105     19.01287       60.018857    
    285000   1.0116207      18.555437      59.644011    
    286000   1.0342937      18.268346      59.488671    
    287000   0.99543834     18.782873      59.347748    
    288000   1.0036708      18.561824      58.94806     
    289000   1.002728       18.865508      59.147474    
    290000   1.0412169      18.311038      58.91409     
    291000   0.97496969     18.550663      58.866141    
    292000   0.98746555     18.201548      58.77737     
    293000   1.0155538      18.282943      58.597266    
    294000   1.012376       18.209136      58.249227    
    295000   1.0460519      18.607712      58.357702    
    296000   0.9580889      18.375007      58.114322    
    297000   0.98676812     18.53323       58.080962    
    298000   0.98248711     18.018398      57.827619    
    299000   0.97926348     17.851778      57.440233    
    300000   1.0173697      18.405944      57.488244    
    301000   1.0114735      18.512669      57.291133    
    302000   1.0008006      18.3684        57.176991    
    303000   1.0264609      18.200742      56.99269     
    304000   0.99780593     18.294397      56.855647    
    305000   0.9509617      18.277907      56.472666    
    306000   1.0529665      18.927764      56.456774    
    307000   1.0315753      18.577186      56.292063    
    308000   1.044251       18.006608      56.017519    
    309000   1.0037483      18.969248      55.757872    
    310000   1.0361114      18.400406      55.68457     
    311000   0.97874253     17.790702      55.406987    
    312000   1.0205192      18.153568      55.137857    
    313000   0.97221792     18.327923      55.056637    
    314000   1.0030969      18.335808      54.960569    
    315000   1.033946       18.434574      54.96157     
    316000   0.98258629     18.031887      54.804741    
    317000   1.0453189      18.611381      54.474359    
    318000   0.98150005     18.402013      54.34282     
    319000   1.0169651      18.383953      54.416985    
    320000   0.99617669     18.826767      54.303847    
    321000   1.0212499      18.894285      54.138833    
    322000   1.0030518      18.893172      53.953913    
    323000   1.041848       18.504769      53.859266    
    324000   1.014134       18.299491      53.844198    
    325000   1.0114009      18.294645      53.660916    
    326000   1.043572       18.408755      53.598903    
    327000   0.99208297     17.867132      53.619445    
    328000   1.0078808      18.420742      53.372534    
    329000   0.98608684     18.401187      53.302494    
    330000   0.98913271     18.956111      53.399583    
    331000   1.0091097      18.077024      53.300217    
    332000   1.030631       18.980504      53.235185    
    333000   1.0323454      18.476643      52.906605    
    334000   1.0421549      18.49215       52.695385    
    335000   0.99367924     18.507772      52.825366    
    336000   0.98557459     17.927328      52.605072    
    337000   1.0198435      18.264991      52.513919    
    338000   0.94537949     18.342673      52.478717    
    339000   1.0209671      18.211712      52.45242     
    340000   0.95366337     18.267786      52.174173    
    341000   0.97825865     17.997948      51.923924    
    342000   1.0136324      18.804291      51.867344    
    343000   1.0147367      18.47007       51.657462    
    344000   1.0456217      18.26604       51.225779    
    345000   1.0279415      18.47683       51.177794    
    346000   0.97791887     18.39032       51.015346    
    347000   1.0117384      18.695235      51.037252    
    348000   0.97736738     17.778964      50.752615    
    349000   1.0262649      18.129562      50.488531    
    350000   0.9927607      18.126934      50.376947    
    351000   1.0437135      18.536267      50.156494    
    352000   0.98759065     18.505452      50.088698    
    353000   1.0041206      18.075844      50.09949     
    354000   0.97581379     18.839552      50.029338    
    355000   0.9898578      18.747229      50.063849    
    356000   1.0021365      18.747913      50.085639    
    357000   1.0065659      18.155275      50.050838    
    358000   0.99217222     18.406954      49.841127    
    359000   1.0501179      18.541217      49.667776    
    360000   1.0045647      17.947853      49.505326    
    361000   0.9584012      17.709451      49.618918    
    362000   1.0036568      17.823585      49.465866    
    363000   0.97785756     17.697747      49.0769      
    364000   0.99666625     17.657691      48.919989    
    365000   0.97020752     18.246637      48.882108    
    366000   0.96883832     18.527756      48.910855    
    367000   0.99328965     18.066332      48.896858    
    368000   1.0164469      18.794801      48.632383    
    369000   0.97901322     18.200337      48.78407     
    370000   0.96729751     18.149992      48.803425    
    371000   0.98335202     17.793423      48.683405    
    372000   1.0076582      18.717951      48.666252    
    373000   0.99335306     18.539409      48.724186    
    374000   1.0069892      18.191058      48.635341    
    375000   1.0325212      18.720638      48.654561    
    376000   0.98085924     17.994077      48.479814    
    377000   1.0070222      18.136343      48.574323    
    378000   0.99575816     18.216951      48.398345    
    379000   0.98350147     17.967954      48.308638    
    380000   0.98740725     18.378806      48.101954    
    381000   1.0010839      18.70548       47.916294    
    382000   1.0290547      18.279784      47.85844     
    383000   0.99043992     17.998305      47.41905     
    384000   0.97461262     17.909094      47.172743    
    385000   0.97139181     18.930005      47.196807    
    386000   0.95596643     17.745925      47.039262    
    387000   0.9917917      18.525869      46.941006    
    388000   0.96905957     18.471974      46.887528    
    389000   0.98260659     18.421935      46.775928    
    390000   0.97711132     18.309889      46.590162    
    391000   1.0509928      18.34626       46.486181    
    392000   0.99714085     18.535985      46.251832    
    393000   1.0226675      18.106706      46.069696    
    394000   0.91611201     18.506631      45.921146    
    395000   1.0028741      17.832764      45.834383    
    396000   1.0197252      18.453837      45.881171    
    397000   0.99230513     18.408442      45.591231    
    398000   1.0065757      18.139335      45.364497    
    399000   0.97581988     18.238193      45.120797    
    400000   1.0464475      18.600262      44.839078    
    401000   1.0130231      18.488717      44.522576    
    402000   1.0591546      17.819115      44.544752    
    403000   0.97871789     17.935641      44.340198    
    404000   1.0524337      19.138607      44.189371    
    405000   0.96502757     17.610202      44.136307    
    406000   1.0042269      18.688439      43.95846     
    407000   0.99600352     17.972209      43.689247    
    408000   0.97272088     17.802062      43.712798    
    409000   0.98252322     17.425673      43.455358    
    410000   0.95616343     17.357503      43.225121    
    411000   1.0526551      17.91633       43.225438    
    412000   1.0086595      17.62023       42.894228    
    413000   0.98489902     18.126642      42.703102    
    414000   1.0027581      18.03329       42.328021    
    415000   0.97367775     17.363865      42.164173    
    416000   1.0143098      18.660489      42.237504    
    417000   1.0030504      18.359127      42.097232    
    418000   0.96960651     18.097187      41.879049    
    419000   0.99827578     18.256043      41.934564    
    420000   0.97924725     18.063346      41.699217    
    421000   0.98950414     17.634107      41.494089    
    422000   1.0035841      17.833073      41.368782    
    423000   0.9999495      18.621939      41.135769    
    424000   0.99788623     18.375204      40.950304    
    425000   0.99241202     18.069431      40.758597    
    426000   0.94932377     18.249411      40.626781    
    427000   0.98168242     17.909855      40.398797    
    428000   0.98906589     17.544132      40.433186    
    429000   1.0093781      17.99618       40.632224    
    430000   1.0052269      17.807464      40.57109     
    431000   1.021014       18.007678      40.21552     
    432000   1.0284544      18.191738      40.025926    
    433000   0.94149318     18.20855       39.853923    
    434000   1.0106215      18.174304      39.774809    
    435000   0.97143157     17.603432      39.639674    
    436000   1.0305697      17.796261      39.353192    
    437000   1.0701147      18.128195      39.182641    
    438000   0.98546075     17.645481      38.957019    
    439000   1.0162538      17.520387      38.916964    
    440000   0.99776955     18.110507      38.97091     
    441000   1.0619349      17.685488      38.896295    
    442000   0.95301442     17.644534      38.916187    
    443000   1.0160274      17.873991      38.741927    
    444000   1.0798582      18.559219      38.66825     
    445000   0.9938116      17.921435      38.689514    
    446000   1.0566175      18.082869      38.547797    
    447000   0.99264483     17.952935      38.058084    
    448000   0.95228544     17.178656      37.934774    
    449000   0.96819889     18.077223      38.052356    
    450000   0.93806217     17.425798      37.723674    
    451000   1.0174645      17.964585      37.29004     
    452000   1.0284635      17.927754      37.140122    
    453000   0.9699026      18.34368       36.972051    
    454000   1.0103267      18.277454      36.671209    
    455000   0.99835227     17.828373      36.3923      
    456000   1.0054079      18.334408      36.455431    
    457000   1.0186261      17.916191      36.489354    
    458000   0.99681698     18.338638      36.323617    
    459000   1.0063709      17.712876      35.945113    
    460000   0.98801919     18.053172      35.911429    
    461000   1.0020662      17.719142      35.578628    
    462000   1.0007799      18.312421      35.657356    
    463000   0.98670834     18.052072      35.545812    
    464000   1.0311241      18.048439      35.154235    
    465000   0.99122185     17.504952      34.89362     
    466000   0.97916438     17.790533      34.635923    
    467000   1.0525764      18.265213      34.486728    
    468000   1.0089477      17.892674      34.370102    
    469000   0.98238397     18.308103      34.311422    
    470000   0.98338732     17.544032      34.139922    
    471000   1.0559367      17.755651      33.925354    
    472000   1.0022321      17.831617      33.749355    
    473000   0.96318514     18.149292      33.368622    
    474000   0.9671957      17.951782      33.34839     
    475000   0.98856105     17.612596      33.148429    
    476000   0.99046176     17.336904      32.805256    
    477000   1.0042482      17.512306      32.508369    
    478000   1.0055158      17.608178      32.189071    
    479000   1.002542       17.409569      32.106392    
    480000   1.0150367      17.778269      32.024403    
    481000   0.98881074     18.088916      32.078254    
    482000   0.98756215     18.083499      31.748667    
    483000   1.0474547      17.959423      31.520175    
    484000   0.95119544     18.228555      31.306468    
    485000   0.99923672     17.89321       31.040443    
    486000   1.0258794      17.846146      31.073245    
    487000   1.0131538      17.868837      30.812521    
    488000   0.99134693     17.767572      30.653529    
    489000   0.96951924     17.412116      30.769814    
    490000   1.0407096      18.208435      30.594103    
    491000   0.98877696     17.566472      30.242792    
    492000   1.002535       17.572466      30.006023    
    493000   1.0246641      18.218171      29.840826    
    494000   0.99917736     17.838065      29.948852    
    495000   0.99156146     17.757383      29.630988    
    496000   1.0190858      17.589982      29.543745    
    497000   0.98339413     17.992938      29.715041    
    498000   1.0371119      17.495801      29.591486    
    499000   1.0184875      17.895753      29.489167    
    500000   1.0459338      18.256271      29.396718    
    501000   0.97251445     17.07088       29.203283    
    502000   1.0353888      18.61905       29.075281    
    503000   1.0097612      18.242202      28.802287    
    504000   0.99471795     17.683442      28.945656    
    505000   0.9832227      17.859619      29.002113    
    506000   0.99237169     18.037097      28.759862    
    507000   1.025145       17.192322      28.631588    
    508000   1.061532       17.363324      28.318754    
    509000   0.99041406     17.665097      28.348004    
    510000   0.9636051      17.907895      28.163111    
    511000   0.97096126     18.077144      27.938872    
    512000   0.96882425     17.655791      27.701997    
    513000   1.0277124      17.74871       27.57667     
    514000   0.93357601     17.667846      27.48308     
    515000   1.0205348      17.495542      27.333026    
    516000   1.0202557      17.824838      27.139744    
    517000   1.0220696      17.761332      27.112949    
    518000   1.0120086      18.076265      26.881196    
    519000   1.0398081      17.892616      26.525672    
    520000   0.99791233     17.165106      26.376462    
    521000   1.0098335      17.493033      26.23984     
    522000   0.96466953     17.169793      26.261639    
    523000   1.0236265      17.544715      26.011221    
    524000   1.0286163      18.043339      25.809383    
    525000   0.95510916     18.952142      25.789195    
    526000   1.0156056      17.234496      25.48978     
    527000   0.96153685     17.994873      25.425647    
    528000   0.99701056     17.202272      25.2075      
    529000   0.94326149     17.162073      25.110334    
    530000   1.0141858      17.536545      24.863295    
    531000   0.98883672     17.455092      24.733482    
    532000   0.98506677     17.840724      24.724401    
    533000   1.0176529      17.432484      24.753978    
    534000   0.95147688     18.332974      24.597128    
    535000   0.9725775      17.413012      24.289317    
    536000   0.9759801      17.546554      24.129997    
    537000   1.0189263      16.919352      24.011964    
    538000   1.0090375      17.485999      24.23329     
    539000   0.95398207     17.414827      23.86202     
    540000   0.97840508     18.301474      23.760435    
    541000   0.97232256     17.145008      23.469431    
    542000   0.96710548     17.917481      23.13344     
    543000   1.0490252      17.605173      22.788222    
    544000   0.96383615     17.789171      22.760958    
    545000   0.98397056     17.930718      22.652741    
    546000   1.0036         17.699732      22.58517     
    547000   0.99760863     17.352466      22.595604    
    548000   0.9596678      17.315849      22.556906    
    549000   0.95490147     18.06155       22.374296    
    550000   0.99223426     16.990273      22.625555    
    551000   0.97000914     17.603996      22.321878    
    552000   0.99740406     17.574474      22.059336    
    553000   0.99719489     17.785255      22.00026     
    554000   0.96611106     17.512097      21.720996    
    555000   0.98558356     17.435091      21.523626    
    556000   1.0075109      17.875155      21.364531    
    557000   1.0753016      18.202576      21.299203    
    558000   0.9652244      17.71695       21.045       
    559000   1.0414284      17.545865      20.929605    
    560000   0.98603849     17.400981      20.681548    
    561000   0.96451914     17.923831      20.502819    
    562000   0.9826757      17.651066      20.468917    
    563000   1.0101374      17.581177      20.327966    
    564000   1.0125735      17.960286      20.080102    
    565000   1.0012694      17.605461      19.891927    
    566000   1.0320017      17.970547      19.452425    
    567000   0.98575484     17.278088      18.933723    
    568000   0.94005749     18.184694      18.768463    
    569000   0.98893497     17.524251      18.446881    
    570000   0.97080584     17.416653      18.441669    
    571000   0.96938052     17.470594      18.237905    
    572000   0.98613524     17.742962      18.227012    
    573000   1.0074288      17.942217      18.090942    
    574000   0.9767946      17.082503      17.790782    
    575000   1.0047663      17.272425      17.785446    
    576000   1.0234925      17.986543      17.65788     
    577000   0.98310562     17.389199      17.60456     
    578000   1.0330582      17.880261      17.586691    
    579000   0.9864143      17.24057       17.553684    
    580000   1.0267665      17.169051      17.610705    
    581000   1.0041407      17.96757       17.525325    
    582000   0.97080881     17.167911      17.559668    
    583000   1.0062729      17.024874      17.591179    
    584000   1.0162295      17.667623      17.423995    
    585000   0.99535452     17.721112      17.232431    
    586000   0.99676226     17.669921      17.143826    
    587000   0.96262684     17.214047      16.945641    
    588000   0.97507522     18.145438      16.850591    
    589000   0.99993536     17.583205      16.92467     
    590000   0.95933466     17.19949       16.820798    
    591000   0.9625625      17.937627      16.620725    
    592000   0.98938242     17.574827      16.665318    
    593000   1.0539034      17.389579      16.529083    
    594000   1.0190629      17.934694      16.302236    
    595000   0.95918978     17.100548      16.429737    
    596000   1.0291793      17.221149      16.460839    
    597000   1.0221831      17.807674      16.186421    
    598000   0.99669605     17.824847      15.948747    
    599000   0.99055125     17.59582       15.868106    
    600000   1.0118954      18.083245      16.053955    
    601000   1.0002095      17.696297      16.080108    
    602000   0.98515162     18.104533      15.973326    
    603000   0.99229715     17.027619      15.974917    
    604000   1.0092363      17.588223      15.998468    
    605000   0.95432112     17.603898      16.04994     
    606000   1.0037082      17.59206       15.863236    
    607000   1.0136164      17.300423      15.818371    
    608000   1.0179633      17.511962      15.49641     
    609000   1.0073853      17.491496      15.298903    
    610000   0.98331829     17.352195      15.156485    
    611000   1.0121184      17.695801      15.129365    
    612000   0.97740214     17.566758      14.937464    
    613000   1.0356141      17.414144      14.912584    
    614000   0.99455129     17.528364      14.72969     
    615000   1.0191413      17.891063      14.632517    
    616000   1.0234218      17.498982      14.347504    
    617000   1.0272691      17.310302      14.171887    
    618000   0.94194017     16.983651      14.148057    
    619000   0.9871421      17.445196      14.06689     
    620000   1.0209652      17.080391      13.695582    
    621000   1.0346978      17.862311      13.72874     
    622000   0.9718316      17.066224      13.829459    
    623000   1.0168623      17.039027      13.708963    
    624000   0.96134606     17.293235      13.824067    
    625000   1.0076644      17.344248      13.931988    
    626000   1.0138812      17.719403      13.803369    
    627000   0.95199306     17.389901      13.681019    
    628000   1.0152105      17.259212      13.540407    
    629000   1.0778053      17.593083      13.702216    
    630000   1.0378317      17.379409      13.381542    
    631000   0.96075806     17.41769       13.500825    
    632000   0.98383072     17.4456        13.260455    
    633000   1.0222204      16.386594      13.187071    
    634000   0.98000127     17.0007        13.032247    
    635000   1.008054       17.715109      13.035513    
    636000   1.0383933      17.67656       13.198338    
    637000   0.96814815     17.809935      13.09037     
    638000   1.0183799      17.897687      13.114535    
    639000   0.97841935     17.751297      13.136959    
    640000   0.97489709     17.433623      12.859191    
    641000   0.98562058     17.027552      12.996483    
    642000   0.9903309      17.294829      13.24586     
    643000   0.98955316     17.014466      13.239367    
    644000   0.99285873     17.280303      13.331822    
    645000   0.92597159     17.197495      13.111503    
    646000   1.0596334      17.229737      12.94796     
    647000   1.022283       17.467846      12.925832    
    648000   1.0218219      16.993762      12.890076    
    649000   1.0179608      17.409339      12.732141    
    650000   0.99304252     17.003322      12.577873    
    651000   1.0370484      17.035931      12.297151    
    652000   0.9891269      17.074423      12.223684    
    653000   1.0230534      17.628599      12.235108    
    654000   0.95263818     17.039146      12.059511    
    655000   1.0135001      17.199187      11.865886    
    656000   1.0161386      17.591377      11.810989    
    657000   0.98182497     17.037664      11.744362    
    658000   0.98613834     16.89695       11.762333    
    659000   0.98151851     17.702678      11.508684    
    660000   1.0329184      17.222233      11.44151     
    661000   0.9912147      17.102381      11.523614    
    662000   0.97178946     17.843193      11.561865    
    663000   1.0017027      17.522857      11.47948     
    664000   1.0482388      17.414756      11.375255    
    665000   1.0211018      17.191235      11.402139    
    666000   1.0270536      16.928155      11.400856    
    667000   0.9750166      17.686457      11.581882    
    668000   0.99724778     17.358524      11.331314    
    669000   1.0263358      17.502704      11.235797    
    670000   1.0010568      17.355769      11.103776    
    671000   1.0454447      16.764103      11.050288    
    672000   1.0414111      16.870695      10.653233    
    673000   0.96691649     17.351832      10.324348    
    674000   1.0259638      16.867809      10.062303    
    675000   1.0645295      17.21875       9.8463337    
    676000   0.97952531     16.891554      9.7100679    
    677000   1.0033159      17.697461      9.6343752    
    678000   0.9855792      17.534414      9.4709415    
    679000   1.0254941      16.920043      9.2303174    
    680000   0.98689577     17.573559      8.9888501    
    681000   0.98282069     17.434007      8.82558      
    682000   0.99564661     17.171945      8.8232861    
    683000   0.95661244     16.558453      8.7136833    
    684000   1.0043339      17.133216      8.584895     
    685000   0.99643626     17.458106      8.4489152    
    686000   1.0382606      17.290075      8.5130176    
    687000   1.0211519      17.365245      8.4627854    
    688000   0.99649154     17.080631      8.617972     
    689000   1.0075857      17.736536      8.4209634    
    690000   0.96018701     16.703226      8.2466416    
    691000   1.0409539      17.55739       8.1310809    
    692000   0.96020682     17.651732      8.2543559    
    693000   1.011037       17.261921      8.2055001    
    694000   1.0309787      17.156723      8.0550099    
    695000   1.0547778      16.795312      7.8789683    
    696000   1.0328214      17.104137      7.7328268    
    697000   1.0339041      17.013668      7.7886892    
    698000   1.0131442      16.883142      7.4540772    
    699000   1.0328521      17.180721      7.2557354    
    700000   0.98052363     16.563209      7.0845106    
    701000   1.0092599      17.415201      7.1293118    
    702000   0.99757169     16.594914      7.3378281    
    703000   1.0003744      16.773135      7.2136538    
    704000   1.0085833      17.244228      7.2240242    
Fix halt condition for fix-id 3 met on step 705000 with value 6.782137714851271 (src/fix_halt.cpp:237)
    705000   0.94671825     17.04127       6.7821377    
Loop time of 1533.86 on 2 procs for 605000 steps with 901 atoms

Performance: 340787.453 tau/day, 394.430 timesteps/s
113.1% CPU use with 1 MPI tasks x 2 OpenMP threads

MPI task timing breakdown:
Section |  min time  |  avg time  |  max time  |%varavg| %total
---------------------------------------------------------------
Pair    | 140.17     | 140.17     | 140.17     |   0.0 |  9.14
Bond    | 17.437     | 17.437     | 17.437     |   0.0 |  1.14
Neigh   | 1339.8     | 1339.8     | 1339.8     |   0.0 | 87.35
Comm    | 0.33206    | 0.33206    | 0.33206    |   0.0 |  0.02
Output  | 1.8351     | 1.8351     | 1.8351     |   0.0 |  0.12
Modify  | 30.793     | 30.793     | 30.793     |   0.0 |  2.01
Other   |            | 3.503      |            |       |  0.23

Nlocal:            901 ave         901 max         901 min
Histogram: 1 0 0 0 0 0 0 0 0 0
Nghost:              0 ave           0 max           0 min
Histogram: 1 0 0 0 0 0 0 0 0 0
Neighs:         181046 ave      181046 max      181046 min
Histogram: 1 0 0 0 0 0 0 0 0 0

Total # of neighbors = 181046
Ave neighs/atom = 200.93896
Ave special neighs/atom = 1.9977802
Neighbor list builds = 5723
Dangerous builds = 0

# This simulation is done
# Move onto the next one
clear
  using 2 OpenMP thread(s) per MPI task
package omp 0
using multi-threaded neighbor list subroutines
next f
jump SELF

###
# Reference paper:
# K. Kremer and G. S. Grest
# Dynamics of entangled linear polymer melts: A molecular-dynamics simulation
# J Chem Phys 92, 5057 (1990)

##################################
# MIHIR: for branched polymers
# LJ minimum first to expand and explore, then collapse
###

###
# Looping through the various plusshaped polymers to simulate,
# define variables to switch through
variable f index bb51nuc1bl25bn4d30tot100 bb101nuc1bl50bn4d30tot200 bb151nuc1bl75bn4d30tot300 bb201nuc1bl100bn4d30tot400 bb251nuc1bl125bn4d30tot500 bb301nuc1bl150bn4d30tot600 bb351nuc1bl175bn4d30tot700 bb401nuc1bl200bn4d30tot800 bb451nuc1bl225bn4d30tot900 bb501nuc1bl250bn4d30tot1000 bb551nuc1bl275bn4d30tot1100 bb601nuc1bl300bn4d30tot1200
###


###
# Box and units  (use LJ units and periodic boundaries)
###

units lj
log plusshaped/logs3/$f.log
log plusshaped/logs3/bb501nuc1bl250bn4d30tot1000.log
