#atom_style bond #no stiffness
atom_style angle #with stiffness

boundary        p p p
###
# Pair interactions require lists of neighbours to be calculated
###

#neighbor 0.3 bin
neighbor 4 bin

neigh_modify every 1 delay 1 check yes
atom_modify sort 0 0
### Generate RESTART file, SPECIAL format, not a .txt file ###
### Useful if simulation crashes ###

restart 1000000 nuc3branch4/restarts3/$f.restart
restart 1000000 nuc3branch4/restarts3/bb240nuc3bl60bn4d30tot600.restart
#############################



### READ "start" data file ###

read_data nuc3branch4/$f.dat
read_data nuc3branch4/bb240nuc3bl60bn4d30tot600.dat
Reading data file ...
  orthogonal box = (-1000 -1000 -1000) to (1000 1000 1000)
  1 by 1 by 1 MPI processor grid
  reading atoms ...
  601 atoms
  scanning bonds ...
  3 = max bonds/atom
  scanning angles ...
  6 = max angles/atom
  reading bonds ...
  600 bonds
  reading angles ...
  608 angles
Finding 1-2 1-3 1-4 neighbors ...
  special bond factors lj:    0        0        0       
  special bond factors coul:  0        0        0       
     4 = max # of 1-2 neighbors
     4 = max # of 1-3 neighbors
     8 = max # of 1-4 neighbors
    12 = max # of special neighbors
  special bonds CPU = 0.001 seconds
  read_data CPU = 0.054 seconds

######################

### READ "REstart" data file ###

######################



###
# Define groups (atom type 1 is group 'all')
###
group all type 1
601 atoms in group all


###
# Dump configs - "simple dumpings"
###

###
# Dump configs + box coords
###

dump   1   all   custom   1000  nuc3branch4/trjs3/$f.lammpstrj  id  x y z  ix iy iz
dump   1   all   custom   1000  nuc3branch4/trjs3/bb240nuc3bl60bn4d30tot600.lammpstrj  id  x y z  ix iy iz
dump_modify   1   format line "%d %.5f %.5f %.5f %d %d %d"

########################################################################


###################################################################
# Stiffness term
#
# E = K * (1+cos(theta)), K>0
#
angle_style   cosine
#change this coefficient to change stiffness (e.g. 1,5,10)
angle_coeff   1 1.0
###################################################################

###################################################################
# Pair interaction between non-bonded atoms
#
#  Lennard-Jones 12-6 potential with cutoff:
#  potential E=4epsilon[ (sigma/r)^12 - (sigma/r)^6]  for r<r_cut
#
#  1.12246 = 2^(1/6) is the minimum of the potential


pair_style      lj/cut 1.12246152962189
#pair_style      lj/cut 3

#
#  pair_modify shift yes adds a constant to the potential such

#  that E(r_cut)=0. Forces remains unchanged.
#

pair_modify     shift yes

#
#  pair_coeff for lj/cut, specify 4:
#    * atom type interacting with
#    * atom type
#    * epsilon (energy units)
#    * sigma (distance units)
#

pair_coeff      1 1 1.0 1.0
###################################################################

###################################################################
# Pair interaction between non-bonded atoms
#
#  soft potential, for PUSHING apart overlapping atoms
#  potential E=A*(1 + cos(pi*r/r_c))
#
#  1.12246 = 2^(1/6) is the cut-off r_c

#pair_style     soft 1.12246152962189

#
#  pair_coeff for soft, specify 3:
#    * atom type interacting with
#    * atom type
#    * A
#
#

#pair_coeff      1 1 100.0
###################################################################

###################################################################
# Pair interaction between bonded atoms
#
# Fene potential + Lennard Jones 12-6:

#
#  E= - 0.5 K R0^2 ln[ 1- (r/R0)^2]
#     + 4epsilon[ (sigma/r)^12 - (sigma/r)^6] + epsilon
#

bond_style   fene


#
# For style fene, specify:
#   * bond type
#   * K (energy/distance^2)
#   * R0 (distance)
#   * epsilon (energy)  (LJ component)
#   * sigma (distance)  (LJ component)
#


special_bonds fene #<=== I M P O R T A N T (new command)
Finding 1-2 1-3 1-4 neighbors ...
  special bond factors lj:    0        1        1       
  special bond factors coul:  0        1        1       
     4 = max # of 1-2 neighbors
    12 = max # of special neighbors
  special bonds CPU = 0.000 seconds

bond_coeff   1   30   2   1.0   1.0


###################################################

###################################################################
# Pair interaction between bonded atoms
#
# Harmonic potential:
#
#  E= K * (R-R0)^2
#

#bond_style   harmonic

#
# For style harmonic, specify:
#   * bond type
#   * K (energy/distance^2)
#   * R0 (distance)
#

#bond_coeff   1   60.0   1.0
#bond_coeff   2   harmonic 0.1   1.0

###################################################
compute 1 all gyration
variable rog equal c_1
#compute 2 all coord/atom cutoff 1.1

#dump 2 all custom 10000 contact_number.dump id c_2


###
# Set up fixes
###
thermo_style   custom   step  temp enthalpy c_1
fix 1 all nve   ###NVE ensemble

fix 2 all   langevin   1.0 1.0 1.0  158102   ###Langevin integrator Tstart Tstop 1/friction rndseed


##### Sample thermodynamic info  (temperature, energy, pressure, etc.) #####
thermo 1000









############################################################################

###
# set timestep of integrator

timestep 0.01

###
# run integration for a number of steps
###
#run 0
#variable r equal c_1
#if "$r < 63.1" then "quit 1"

# lj potential minimum, cause molecule to explore
run 100000
Generated 0 of 0 mixed pair_coeff terms from geometric mixing rule
Last active /omp style is angle_style cosine/omp
Neighbor list info ...
  update: every = 1 steps, delay = 1 steps, check = yes
  max neighbors/atom: 2000, page size: 100000
  master list distance cutoff = 5.1224615
  ghost atom cutoff = 5.1224615
  binsize = 2.5612308, bins = 781 781 781
  1 neighbor lists, perpetual/occasional/extra = 1 0 0
  (1) pair lj/cut/omp, perpetual
      attributes: half, newton on, omp
      pair build: half/bin/newton/omp
      stencil: half/bin/3d
      bin: standard
WARNING: Communication cutoff 5.12246152962189 is shorter than a bond length based estimate of 5.455. This may lead to errors. (src/comm.cpp:723)
Per MPI rank memory allocation (min/avg/max) = 1861 | 1861 | 1861 Mbytes
   Step          Temp         Enthalpy         c_1      
         0   0              13.256716      52.28199     
      1000   1.0436584      18.23663       51.251399    
      2000   1.0273269      19.131605      50.218174    
      3000   0.98458058     19.108824      49.668285    
      4000   0.99368178     19.102864      48.740871    
      5000   1.0071739      19.518425      48.166277    
      6000   0.95666516     20.025944      47.5584      
      7000   1.0485427      19.790956      47.11442     
      8000   1.0137672      19.098973      46.760993    
      9000   0.97759972     20.319351      46.293574    
     10000   0.9840062      20.699717      46.017878    
     11000   0.98059898     20.295749      45.626643    
     12000   1.0178786      19.712363      45.243739    
     13000   0.96590094     19.634194      44.898524    
     14000   1.0271512      20.486057      44.490495    
     15000   1.0086088      20.625393      43.931938    
     16000   1.0365422      20.22499       43.659613    
     17000   1.0211353      20.351428      43.495131    
     18000   1.1061479      20.665282      43.239387    
     19000   1.0004449      20.460762      42.898488    
     20000   1.0008334      20.875729      42.546375    
     21000   1.0118872      20.241613      42.295893    
     22000   0.99859463     20.546814      42.427928    
     23000   0.96994746     19.938598      42.426468    
     24000   1.018177       20.081954      41.85924     
     25000   1.0331472      20.668984      41.778699    
     26000   1.026076       21.033068      41.789404    
     27000   0.99238783     20.452865      42.034242    
     28000   1.0626931      19.801784      41.674883    
     29000   0.99778884     20.447731      41.556873    
     30000   1.0013911      19.792523      41.445037    
     31000   0.98601493     20.595765      41.078956    
     32000   1.0202977      20.209555      40.757891    
     33000   1.0388531      20.828221      40.407944    
     34000   1.0156787      20.603514      40.205578    
     35000   0.97242235     20.191341      39.807738    
     36000   1.0006405      20.244501      39.357569    
     37000   1.0163161      20.548967      38.875562    
     38000   0.93913871     20.613766      38.646338    
     39000   0.99679944     20.379707      38.584506    
     40000   0.99999376     20.16181       38.350318    
     41000   0.97874195     20.499723      38.208922    
     42000   1.0000025      20.418888      37.983693    
     43000   0.99058598     20.127976      37.605051    
     44000   0.98087436     20.462076      37.236715    
     45000   0.98274997     20.730824      37.2171      
     46000   0.98035896     20.365638      37.08428     
     47000   1.0111011      19.593748      37.408398    
     48000   1.0239749      20.514553      37.434232    
     49000   0.96293005     20.723947      37.147447    
     50000   1.080721       20.584586      37.112079    
     51000   1.0825548      20.07953       36.957638    
     52000   1.0171648      20.907605      36.838374    
     53000   0.93103838     19.931885      36.805025    
     54000   0.99958201     20.416221      37.04849     
     55000   1.0410501      20.983466      37.11379     
     56000   1.0501565      20.608717      37.193262    
     57000   1.0395365      20.749714      37.538491    
     58000   1.0021575      20.806349      37.356533    
     59000   1.0144961      20.743547      37.170108    
     60000   0.99433298     20.110749      37.034531    
     61000   0.99749627     20.763161      36.818261    
     62000   1.0395531      20.735495      36.774512    
     63000   0.99874346     20.476669      36.621729    
     64000   0.97312238     20.583533      36.629489    
     65000   0.99673976     20.607536      36.378113    
     66000   1.0099592      20.892704      36.622163    
     67000   0.96847629     20.333462      36.517784    
     68000   1.001418       20.373632      36.578492    
     69000   1.0009036      20.399792      36.338845    
     70000   1.0290093      19.938642      36.262877    
     71000   0.95237078     20.707194      36.320525    
     72000   1.0164311      20.341634      36.200363    
     73000   0.95423342     20.613758      36.270248    
     74000   1.027686       21.201644      36.287191    
     75000   1.0116572      20.222074      36.174602    
     76000   0.96642568     20.549084      36.059447    
     77000   0.9556113      19.767182      36.054961    
     78000   1.0158049      20.707077      35.799227    
     79000   1.0226773      20.30944       35.552105    
     80000   1.0325942      20.926671      35.387456    
     81000   1.0114758      20.895487      35.72817     
     82000   1.0137368      20.514247      35.417052    
     83000   0.95848599     20.154753      35.373904    
     84000   0.98966165     20.998196      35.501501    
     85000   0.97315019     19.89221       35.552466    
     86000   0.9448444      20.361392      35.543764    
     87000   1.0232628      20.750818      35.619187    
     88000   1.0341684      20.933813      36.035239    
     89000   1.0012934      20.617243      35.891754    
     90000   0.99419782     20.06769       35.689123    
     91000   0.9515738      20.927979      35.45934     
     92000   0.9723906      20.534577      35.392086    
     93000   0.9789388      19.687164      35.17795     
     94000   0.99740272     20.564438      34.916703    
     95000   1.029323       20.695705      34.580519    
     96000   1.0611078      20.622026      34.203983    
     97000   1.0076843      20.597697      34.159841    
     98000   0.99986804     20.605788      34.175116    
     99000   1.0327441      20.83491       33.988592    
    100000   1.0029749      19.95937       33.839035    
Loop time of 438.078 on 2 procs for 100000 steps with 601 atoms

Performance: 197225.058 tau/day, 228.270 timesteps/s
102.1% CPU use with 1 MPI tasks x 2 OpenMP threads

MPI task timing breakdown:
Section |  min time  |  avg time  |  max time  |%varavg| %total
---------------------------------------------------------------
Pair    | 1.1861     | 1.1861     | 1.1861     |   0.0 |  0.27
Bond    | 1.8015     | 1.8015     | 1.8015     |   0.0 |  0.41
Neigh   | 430.59     | 430.59     | 430.59     |   0.0 | 98.29
Comm    | 0.034652   | 0.034652   | 0.034652   |   0.0 |  0.01
Output  | 0.23884    | 0.23884    | 0.23884    |   0.0 |  0.05
Modify  | 3.9389     | 3.9389     | 3.9389     |   0.0 |  0.90
Other   |            | 0.2855     |            |       |  0.07

Nlocal:            601 ave         601 max         601 min
Histogram: 1 0 0 0 0 0 0 0 0 0
Nghost:              0 ave           0 max           0 min
Histogram: 1 0 0 0 0 0 0 0 0 0
Neighs:           5540 ave        5540 max        5540 min
Histogram: 1 0 0 0 0 0 0 0 0 0

Total # of neighbors = 5540
Ave neighs/atom = 9.21797
Ave special neighs/atom = 1.9966722
Neighbor list builds = 1127
Dangerous builds = 0

# Replace lj potential, now collapse
pair_style      lj/cut 3

# Cutoff simul when gyration under 10
# Variable created with equal requires v_ + 'name'
fix 3 all halt 1000 v_rog < 7

run 3000000
Generated 0 of 0 mixed pair_coeff terms from geometric mixing rule
Last active /omp style is angle_style cosine/omp
Per MPI rank memory allocation (min/avg/max) = 1861 | 1861 | 1861 Mbytes
   Step          Temp         Enthalpy         c_1      
    100000   1.0029749      19.086885      33.839035    
    101000   0.96591574     19.281112      33.614031    
    102000   1.0553581      19.178161      33.434063    
    103000   1.0035656      19.244112      33.136878    
    104000   1.0336775      18.572471      32.726866    
    105000   1.0056623      19.52961       32.575797    
    106000   1.0563795      19.310758      32.355774    
    107000   0.97331422     18.897852      32.049927    
    108000   1.0099605      19.064617      31.885024    
    109000   1.0367825      18.599876      31.958136    
    110000   0.95550462     18.329743      31.837681    
    111000   0.98641151     17.748904      31.507294    
    112000   1.0497367      18.214383      31.248029    
    113000   1.0014793      18.843676      31.042591    
    114000   1.0137969      18.503022      31.019962    
    115000   1.0252098      18.550583      30.616684    
    116000   1.0078906      18.256107      30.215448    
    117000   0.97956498     18.127799      30.155794    
    118000   0.95269315     17.670505      29.640662    
    119000   1.0305695      18.123439      29.54266     
    120000   0.9864868      19.485181      29.097376    
    121000   0.96833135     17.634299      28.848374    
    122000   1.0474616      19.102816      28.542302    
    123000   0.96149057     17.6654        28.281755    
    124000   1.0286633      18.29576       28.368921    
    125000   0.97797048     17.732726      28.267819    
    126000   1.0099396      17.939425      28.059151    
    127000   0.9439193      17.598564      28.111215    
    128000   1.0025971      17.972884      28.067826    
    129000   0.9791588      18.027344      27.909502    
    130000   0.99717862     18.123183      27.689014    
    131000   0.97177957     17.690082      27.53894     
    132000   1.0221939      18.893398      27.12149     
    133000   0.99090753     18.203021      27.16923     
    134000   0.97423702     17.955865      27.120599    
    135000   0.96187733     17.216642      27.129823    
    136000   1.0245055      18.063472      27.184001    
    137000   1.0210328      17.65871       27.306132    
    138000   1.0021511      18.165802      27.319073    
    139000   0.98980751     17.719775      27.31738     
    140000   0.99191028     17.763695      27.432235    
    141000   0.99273131     18.447529      27.189178    
    142000   1.0279977      18.062213      27.03929     
    143000   0.97836758     17.670917      27.021743    
    144000   1.0065517      17.43804       26.844877    
    145000   1.0015146      17.577833      26.874502    
    146000   0.96417579     17.42784       26.57635     
    147000   0.98826221     18.408663      26.364927    
    148000   1.0126305      17.326941      25.968963    
    149000   0.96484476     17.865025      26.079124    
    150000   1.0250854      17.104916      25.534381    
    151000   1.0685186      17.780614      25.191443    
    152000   0.98465204     17.241051      25.081667    
    153000   0.96600131     17.822398      24.860215    
    154000   0.99927953     17.492956      24.757509    
    155000   0.99395237     17.472666      24.480256    
    156000   1.0491878      18.084888      24.525433    
    157000   1.0753652      18.468188      24.506169    
    158000   0.94072662     17.725377      24.00714     
    159000   0.99316952     17.702134      23.822599    
    160000   1.0273159      18.196874      23.786481    
    161000   1.0421059      17.703966      23.562482    
    162000   0.95072385     18.392569      23.381025    
    163000   0.97726215     18.19334       23.359445    
    164000   1.0382691      18.035733      23.037028    
    165000   0.99149697     18.167069      22.673079    
    166000   1.0083879      17.682442      22.391562    
    167000   0.96292411     17.484067      21.926674    
    168000   0.97961868     17.74428       21.629238    
    169000   0.98497749     17.583999      21.50181     
    170000   0.99159765     17.76285       21.363611    
    171000   1.0460707      18.002648      21.610518    
    172000   1.0276062      17.602705      21.482775    
    173000   1.0724541      18.093699      21.255648    
    174000   0.98537955     16.922874      20.89995     
    175000   0.96596745     17.958465      20.645158    
    176000   1.0113229      17.473278      20.54643     
    177000   1.0459378      17.634373      20.448387    
    178000   1.0366055      17.587089      20.472195    
    179000   1.0010545      18.066181      20.130028    
    180000   1.0124667      17.063663      20.008889    
    181000   1.0383287      17.879304      19.65466     
    182000   0.97880088     18.129786      19.600163    
    183000   0.96021131     17.954533      19.612434    
    184000   1.0349784      16.539581      19.600638    
    185000   1.0001727      18.258254      19.304689    
    186000   0.99563679     17.873673      19.196211    
    187000   0.99581575     17.167165      18.97677     
    188000   0.99052433     17.56392       18.768241    
    189000   0.96220056     18.05251       18.430856    
    190000   1.0629255      17.156576      18.299084    
    191000   1.0040764      17.727252      18.319976    
    192000   0.97310237     18.164292      18.051016    
    193000   1.0266084      17.526559      17.923314    
    194000   1.0090954      17.150006      17.736052    
    195000   1.011795       17.541184      17.841106    
    196000   1.0088737      16.974172      17.756553    
    197000   1.0407598      17.565758      17.59464     
    198000   0.97917571     18.250618      17.810553    
    199000   1.0193262      18.207002      17.813823    
    200000   1.0394379      17.624158      17.876646    
    201000   1.0439827      17.627493      17.968688    
    202000   0.98387263     16.664377      17.524801    
    203000   0.98322818     18.111122      17.452937    
    204000   1.020288       17.906797      17.109992    
    205000   0.98229978     17.525172      16.90963     
    206000   1.0779136      17.122329      16.920145    
    207000   0.9736112      18.132333      16.681787    
    208000   0.9455603      17.383347      16.929052    
    209000   1.0540266      17.9466        17.012601    
    210000   0.99526197     17.801724      16.823067    
    211000   1.0202762      17.189598      16.650998    
    212000   1.0237201      17.606015      16.469862    
    213000   0.96409798     17.303746      16.374934    
    214000   0.96054901     17.782848      16.295998    
    215000   1.0053008      17.339192      15.922506    
    216000   0.94335958     17.541969      15.386994    
    217000   0.96924642     18.068668      15.428417    
    218000   1.022757       17.832823      15.418222    
    219000   0.98361497     17.835893      15.121384    
    220000   1.0582835      18.219231      14.982173    
    221000   1.0042295      17.931863      14.60901     
    222000   0.99515704     17.763456      14.531588    
    223000   0.98286353     18.315352      14.240442    
    224000   1.0194821      17.968729      14.327061    
    225000   1.0231451      17.940507      14.345568    
    226000   1.0482603      17.759964      13.850341    
    227000   1.0296942      17.996832      13.683883    
    228000   0.98996744     17.862839      13.733342    
    229000   1.0460642      17.783987      13.682532    
    230000   0.99672576     17.885677      13.463709    
    231000   1.0129555      17.50336       13.236017    
    232000   0.99348924     17.381861      13.03481     
    233000   1.0020371      17.993491      12.654259    
    234000   1.0083502      17.868346      12.509726    
    235000   1.04306        17.580927      12.358953    
    236000   0.97593236     17.123584      12.30666     
    237000   1.0148545      17.773514      12.328118    
    238000   1.0613623      17.39121       12.127951    
    239000   1.0005082      17.064073      11.959579    
    240000   0.95296467     17.351758      12.098323    
    241000   0.95773448     17.754543      12.079633    
    242000   1.0463796      17.507492      11.914189    
    243000   1.0262034      17.776718      11.857568    
    244000   1.0178338      17.502848      11.899402    
    245000   1.0463881      17.387336      11.529158    
    246000   1.0141746      18.106634      11.22919     
    247000   0.98617537     16.64136       11.297163    
    248000   0.96725876     17.252957      11.281772    
    249000   0.94365248     17.167017      10.801245    
    250000   1.0062873      16.872757      10.80748     
    251000   0.93376538     17.333731      10.765411    
    252000   1.0139717      16.888596      10.678678    
    253000   0.9975329      17.658882      10.556929    
    254000   1.0252183      17.495717      10.411461    
    255000   1.0006463      17.516221      10.300743    
    256000   0.98427285     17.196856      10.172269    
    257000   0.96969687     17.196776      9.9442439    
    258000   1.0277383      17.529073      9.6949127    
    259000   0.92880568     17.036243      9.8028227    
    260000   0.9872981      17.193835      9.6173577    
    261000   0.99557926     17.016656      9.4526863    
    262000   1.0090997      16.778411      9.2214097    
    263000   1.0196553      18.012637      9.3121044    
    264000   0.99589087     17.694117      9.2044928    
    265000   1.0356206      17.209815      9.1056611    
    266000   1.0105733      17.446087      8.9711151    
    267000   1.041133       17.594724      8.8298451    
    268000   1.0437192      17.572974      8.3018033    
    269000   1.0345788      18.086018      8.2237843    
    270000   0.98061645     16.812592      8.2238212    
    271000   0.96586902     17.097661      8.1363415    
    272000   0.9750335      17.47174       7.9107709    
    273000   0.97144629     17.409389      7.8656251    
    274000   0.96409614     17.024855      7.7913144    
    275000   1.0065146      16.950153      7.6240521    
    276000   1.0235932      17.48583       7.4930363    
    277000   0.9902298      17.308828      7.5176165    
    278000   1.0109059      17.997142      7.4009388    
    279000   0.9561988      17.173551      7.014363     
Fix halt condition for fix-id 3 met on step 280000 with value 6.75460985768179 (src/fix_halt.cpp:237)
    280000   1.0401683      17.616727      6.7546099    
Loop time of 263.174 on 2 procs for 180000 steps with 601 atoms

Performance: 590939.821 tau/day, 683.958 timesteps/s
121.0% CPU use with 1 MPI tasks x 2 OpenMP threads

MPI task timing breakdown:
Section |  min time  |  avg time  |  max time  |%varavg| %total
---------------------------------------------------------------
Pair    | 40.591     | 40.591     | 40.591     |   0.0 | 15.42
Bond    | 3.5318     | 3.5318     | 3.5318     |   0.0 |  1.34
Neigh   | 210.35     | 210.35     | 210.35     |   0.0 | 79.93
Comm    | 0.068906   | 0.068906   | 0.068906   |   0.0 |  0.03
Output  | 0.46173    | 0.46173    | 0.46173    |   0.0 |  0.18
Modify  | 7.5798     | 7.5798     | 7.5798     |   0.0 |  2.88
Other   |            | 0.5857     |            |       |  0.22

Nlocal:            601 ave         601 max         601 min
Histogram: 1 0 0 0 0 0 0 0 0 0
Nghost:              0 ave           0 max           0 min
Histogram: 1 0 0 0 0 0 0 0 0 0
Neighs:          86611 ave       86611 max       86611 min
Histogram: 1 0 0 0 0 0 0 0 0 0

Total # of neighbors = 86611
Ave neighs/atom = 144.11148
Ave special neighs/atom = 1.9966722
Neighbor list builds = 1421
Dangerous builds = 0

# This simulation is done
# Move onto the next one
clear
  using 2 OpenMP thread(s) per MPI task
package omp 0
using multi-threaded neighbor list subroutines
next f
jump SELF

###
# Reference paper:
# K. Kremer and G. S. Grest
# Dynamics of entangled linear polymer melts: A molecular-dynamics simulation
# J Chem Phys 92, 5057 (1990)

##################################
# MIHIR: for branched polymers
# LJ minimum first to expand and explore, then collapse
###

###
# Looping through the various nuc3branch4 polymers to simulate,
# define variables to switch through
variable f index bb40nuc3bl10bn4d30tot100 bb80nuc3bl20bn4d30tot200 bb120nuc3bl30bn4d30tot300 bb160nuc3bl40bn4d30tot400 bb200nuc3bl50bn4d30tot500 bb240nuc3bl60bn4d30tot600 bb280nuc3bl70bn4d30tot700 bb320nuc3bl80bn4d30tot800 bb360nuc3bl90bn4d30tot900 bb400nuc3bl100bn4d30tot1000 bb440nuc3bl110bn4d30tot1100 bb480nuc3bl120bn4d30tot1200
###


###
# Box and units  (use LJ units and periodic boundaries)
###

units lj
log nuc3branch4/logs3/$f.log
log nuc3branch4/logs3/bb280nuc3bl70bn4d30tot700.log
