#atom_style bond #no stiffness
atom_style angle #with stiffness

boundary        p p p
###
# Pair interactions require lists of neighbours to be calculated
###

#neighbor 0.3 bin
neighbor 4 bin

neigh_modify every 1 delay 1 check yes
atom_modify sort 0 0
### Generate RESTART file, SPECIAL format, not a .txt file ###
### Useful if simulation crashes ###

restart 1000000 nuc3branch4/restarts3/$f.restart
restart 1000000 nuc3branch4/restarts3/bb440nuc3bl110bn4d30tot1100.restart
#############################



### READ "start" data file ###

read_data nuc3branch4/$f.dat
read_data nuc3branch4/bb440nuc3bl110bn4d30tot1100.dat
Reading data file ...
  orthogonal box = (-1000 -1000 -1000) to (1000 1000 1000)
  1 by 1 by 1 MPI processor grid
  reading atoms ...
  1101 atoms
  scanning bonds ...
  3 = max bonds/atom
  scanning angles ...
  6 = max angles/atom
  reading bonds ...
  1100 bonds
  reading angles ...
  1108 angles
Finding 1-2 1-3 1-4 neighbors ...
  special bond factors lj:    0        0        0       
  special bond factors coul:  0        0        0       
     4 = max # of 1-2 neighbors
     4 = max # of 1-3 neighbors
     8 = max # of 1-4 neighbors
    12 = max # of special neighbors
  special bonds CPU = 0.003 seconds
  read_data CPU = 0.122 seconds

######################

### READ "REstart" data file ###

######################



###
# Define groups (atom type 1 is group 'all')
###
group all type 1
1101 atoms in group all


###
# Dump configs - "simple dumpings"
###

###
# Dump configs + box coords
###

dump   1   all   custom   1000  nuc3branch4/trjs3/$f.lammpstrj  id  x y z  ix iy iz
dump   1   all   custom   1000  nuc3branch4/trjs3/bb440nuc3bl110bn4d30tot1100.lammpstrj  id  x y z  ix iy iz
dump_modify   1   format line "%d %.5f %.5f %.5f %d %d %d"

########################################################################


###################################################################
# Stiffness term
#
# E = K * (1+cos(theta)), K>0
#
angle_style   cosine
#change this coefficient to change stiffness (e.g. 1,5,10)
angle_coeff   1 1.0
###################################################################

###################################################################
# Pair interaction between non-bonded atoms
#
#  Lennard-Jones 12-6 potential with cutoff:
#  potential E=4epsilon[ (sigma/r)^12 - (sigma/r)^6]  for r<r_cut
#
#  1.12246 = 2^(1/6) is the minimum of the potential


pair_style      lj/cut 1.12246152962189
#pair_style      lj/cut 3

#
#  pair_modify shift yes adds a constant to the potential such

#  that E(r_cut)=0. Forces remains unchanged.
#

pair_modify     shift yes

#
#  pair_coeff for lj/cut, specify 4:
#    * atom type interacting with
#    * atom type
#    * epsilon (energy units)
#    * sigma (distance units)
#

pair_coeff      1 1 1.0 1.0
###################################################################

###################################################################
# Pair interaction between non-bonded atoms
#
#  soft potential, for PUSHING apart overlapping atoms
#  potential E=A*(1 + cos(pi*r/r_c))
#
#  1.12246 = 2^(1/6) is the cut-off r_c

#pair_style     soft 1.12246152962189

#
#  pair_coeff for soft, specify 3:
#    * atom type interacting with
#    * atom type
#    * A
#
#

#pair_coeff      1 1 100.0
###################################################################

###################################################################
# Pair interaction between bonded atoms
#
# Fene potential + Lennard Jones 12-6:

#
#  E= - 0.5 K R0^2 ln[ 1- (r/R0)^2]
#     + 4epsilon[ (sigma/r)^12 - (sigma/r)^6] + epsilon
#

bond_style   fene


#
# For style fene, specify:
#   * bond type
#   * K (energy/distance^2)
#   * R0 (distance)
#   * epsilon (energy)  (LJ component)
#   * sigma (distance)  (LJ component)
#


special_bonds fene #<=== I M P O R T A N T (new command)
Finding 1-2 1-3 1-4 neighbors ...
  special bond factors lj:    0        1        1       
  special bond factors coul:  0        1        1       
     4 = max # of 1-2 neighbors
    12 = max # of special neighbors
  special bonds CPU = 0.000 seconds

bond_coeff   1   30   2   1.0   1.0


###################################################

###################################################################
# Pair interaction between bonded atoms
#
# Harmonic potential:
#
#  E= K * (R-R0)^2
#

#bond_style   harmonic

#
# For style harmonic, specify:
#   * bond type
#   * K (energy/distance^2)
#   * R0 (distance)
#

#bond_coeff   1   60.0   1.0
#bond_coeff   2   harmonic 0.1   1.0

###################################################
compute 1 all gyration
variable rog equal c_1
#compute 2 all coord/atom cutoff 1.1

#dump 2 all custom 10000 contact_number.dump id c_2


###
# Set up fixes
###
thermo_style   custom   step  temp enthalpy c_1
fix 1 all nve   ###NVE ensemble

fix 2 all   langevin   1.0 1.0 1.0  158102   ###Langevin integrator Tstart Tstop 1/friction rndseed


##### Sample thermodynamic info  (temperature, energy, pressure, etc.) #####
thermo 1000









############################################################################

###
# set timestep of integrator

timestep 0.01

###
# run integration for a number of steps
###
#run 0
#variable r equal c_1
#if "$r < 63.1" then "quit 1"

# lj potential minimum, cause molecule to explore
run 100000
Generated 0 of 0 mixed pair_coeff terms from geometric mixing rule
Last active /omp style is angle_style cosine/omp
Neighbor list info ...
  update: every = 1 steps, delay = 1 steps, check = yes
  max neighbors/atom: 2000, page size: 100000
  master list distance cutoff = 5.1224615
  ghost atom cutoff = 5.1224615
  binsize = 2.5612308, bins = 781 781 781
  1 neighbor lists, perpetual/occasional/extra = 1 0 0
  (1) pair lj/cut/omp, perpetual
      attributes: half, newton on, omp
      pair build: half/bin/newton/omp
      stencil: half/bin/3d
      bin: standard
WARNING: Communication cutoff 5.12246152962189 is shorter than a bond length based estimate of 5.455. This may lead to errors. (src/comm.cpp:723)
Per MPI rank memory allocation (min/avg/max) = 1862 | 1862 | 1862 Mbytes
   Step          Temp         Enthalpy         c_1      
         0   0              13.234555      90.624926    
      1000   0.97839542     18.085389      89.912072    
      2000   1.0208667      18.267602      89.280199    
      3000   0.9857012      18.557333      88.421354    
      4000   0.97930889     18.950282      87.892863    
      5000   0.96851233     18.941788      87.414834    
      6000   1.0272245      18.651294      87.007926    
      7000   1.0466091      19.287874      86.719796    
      8000   0.98195949     19.304907      86.251105    
      9000   0.98303908     19.302786      85.736271    
     10000   1.0615909      19.160926      85.430248    
     11000   0.9547074      19.214233      85.215733    
     12000   0.9747776      19.376612      84.898636    
     13000   1.0014479      19.210531      84.368279    
     14000   1.0058062      19.562358      83.966237    
     15000   0.99062288     19.59977       83.505215    
     16000   1.0081562      19.660937      83.264077    
     17000   1.009271       19.612942      82.901755    
     18000   1.0605689      19.858488      82.781291    
     19000   0.95236827     19.631926      82.305442    
     20000   1.0123674      19.821891      82.177467    
     21000   0.98355833     19.562404      81.812453    
     22000   1.0197315      19.623926      81.543813    
     23000   0.97056097     19.596197      81.170422    
     24000   0.98727032     20.252363      80.884583    
     25000   0.98055027     19.689844      80.75108     
     26000   0.98903956     19.858621      80.448287    
     27000   1.0074377      20.066387      80.239448    
     28000   1.0059286      20.053307      80.31592     
     29000   1.0109349      20.328199      80.219346    
     30000   0.95377408     19.851607      80.255215    
     31000   0.96809474     20.031694      79.940895    
     32000   1.0250755      19.785943      79.559279    
     33000   0.9690354      19.787466      79.199899    
     34000   0.97691846     20.687479      79.045827    
     35000   0.99275193     20.04681       78.745817    
     36000   0.97981511     20.181574      78.614959    
     37000   0.96454455     20.137903      78.350248    
     38000   0.96981885     19.596966      78.298173    
     39000   0.99402839     20.06419       78.021812    
     40000   1.0175995      20.045569      77.811789    
     41000   0.99116815     19.78356       77.497655    
     42000   0.9489629      20.061101      77.20774     
     43000   1.0344914      20.257074      77.269155    
     44000   1.0061295      20.218091      77.295868    
     45000   1.002899       20.19382       77.256492    
     46000   0.96929928     20.07699       76.956       
     47000   1.0017768      20.414153      76.887565    
     48000   1.0240622      20.629731      76.844097    
     49000   1.0286134      20.249492      76.704406    
     50000   0.9866764      19.900429      76.50277     
     51000   1.0419443      20.544189      76.482357    
     52000   0.97405854     19.427588      76.257648    
     53000   1.0396802      20.303254      76.478935    
     54000   0.96447627     19.83306       76.535205    
     55000   1.0078753      19.817413      76.317065    
     56000   0.95710525     20.27482       76.204522    
     57000   0.99018122     20.091644      76.108704    
     58000   0.97586592     19.817902      75.745891    
     59000   0.99869805     20.254467      75.667342    
     60000   1.0075134      19.999771      75.524891    
     61000   0.99724483     20.258399      75.324819    
     62000   1.0138479      20.631916      75.020183    
     63000   0.9812354      20.382692      74.904868    
     64000   0.98183686     20.677642      74.738689    
     65000   1.002468       20.703155      74.554485    
     66000   1.0397458      20.507117      74.37451     
     67000   1.014732       20.70711       74.357091    
     68000   0.96280343     20.400376      74.396669    
     69000   1.0135134      20.194242      74.445657    
     70000   0.97666888     20.597876      74.249264    
     71000   1.0079191      20.391855      74.328781    
     72000   0.9874643      20.126101      74.327655    
     73000   1.0107908      20.526327      74.391067    
     74000   1.0521849      20.281878      74.192349    
     75000   0.98092875     20.102781      74.151285    
     76000   1.0273751      20.136031      73.901535    
     77000   1.0188475      20.716313      73.92285     
     78000   1.0141507      19.718688      73.885547    
     79000   0.97053493     19.825595      73.782293    
     80000   1.0172375      20.169544      73.792038    
     81000   0.98814149     20.359889      73.811922    
     82000   0.96108964     20.058964      73.701598    
     83000   1.0060752      20.184457      73.285101    
     84000   1.0199205      20.447361      73.027666    
     85000   0.97867171     20.00402       72.930071    
     86000   0.98746121     20.074664      72.795392    
     87000   1.0039494      20.031818      72.575475    
     88000   1.0285266      20.623855      72.523455    
     89000   1.0153268      20.802705      72.458227    
     90000   1.0250007      20.244738      72.223464    
     91000   0.97698788     20.680392      72.13278     
     92000   0.99180249     20.662242      71.98539     
     93000   0.98562354     20.250102      72.073427    
     94000   1.0326552      20.281374      72.099867    
     95000   1.0198607      20.544967      72.279131    
     96000   1.0040443      20.237873      72.225116    
     97000   1.0201338      19.916616      72.182702    
     98000   1.0025746      20.193607      72.106454    
     99000   0.97221875     20.196945      71.959713    
    100000   0.96571601     20.541989      71.889097    
Loop time of 621.227 on 2 procs for 100000 steps with 1101 atoms

Performance: 139079.703 tau/day, 160.972 timesteps/s
102.0% CPU use with 1 MPI tasks x 2 OpenMP threads

MPI task timing breakdown:
Section |  min time  |  avg time  |  max time  |%varavg| %total
---------------------------------------------------------------
Pair    | 1.58       | 1.58       | 1.58       |   0.0 |  0.25
Bond    | 2.8045     | 2.8045     | 2.8045     |   0.0 |  0.45
Neigh   | 610.5      | 610.5      | 610.5      |   0.0 | 98.27
Comm    | 0.050535   | 0.050535   | 0.050535   |   0.0 |  0.01
Output  | 0.32002    | 0.32002    | 0.32002    |   0.0 |  0.05
Modify  | 5.4716     | 5.4716     | 5.4716     |   0.0 |  0.88
Other   |            | 0.5013     |            |       |  0.08

Nlocal:           1101 ave        1101 max        1101 min
Histogram: 1 0 0 0 0 0 0 0 0 0
Nghost:              0 ave           0 max           0 min
Histogram: 1 0 0 0 0 0 0 0 0 0
Neighs:           8073 ave        8073 max        8073 min
Histogram: 1 0 0 0 0 0 0 0 0 0

Total # of neighbors = 8073
Ave neighs/atom = 7.3324251
Ave special neighs/atom = 1.9981835
Neighbor list builds = 1171
Dangerous builds = 0

# Replace lj potential, now collapse
pair_style      lj/cut 3

# Cutoff simul when gyration under 10
# Variable created with equal requires v_ + 'name'
fix 3 all halt 1000 v_rog < 7

run 3000000
Generated 0 of 0 mixed pair_coeff terms from geometric mixing rule
Last active /omp style is angle_style cosine/omp
Per MPI rank memory allocation (min/avg/max) = 1862 | 1862 | 1862 Mbytes
   Step          Temp         Enthalpy         c_1      
    100000   0.96571601     19.794137      71.889097    
    101000   0.99781789     19.512334      71.603913    
    102000   0.95714772     19.604002      71.441347    
    103000   0.98318484     19.360837      71.412445    
    104000   0.98023249     19.369545      71.30851     
    105000   1.056661       19.06822       70.990187    
    106000   1.0196307      19.49987       70.802443    
    107000   1.0061098      19.437437      70.390916    
    108000   0.98873787     19.068918      70.295202    
    109000   0.98937423     19.08527       70.177383    
    110000   1.0095273      19.464051      69.856876    
    111000   0.98574099     19.049993      69.686445    
    112000   0.99979694     19.19059       69.511548    
    113000   0.99403421     18.495028      69.232888    
    114000   0.99088597     18.782944      68.904575    
    115000   0.98981448     19.259247      68.96305     
    116000   1.0112247      18.744811      68.843423    
    117000   0.95383207     18.963061      68.755814    
    118000   1.0157493      18.84156       68.373019    
    119000   0.98334515     19.520356      68.103468    
    120000   1.0352462      18.98711       67.852063    
    121000   0.99537124     18.702753      67.421866    
    122000   0.982556       19.383956      67.472217    
    123000   0.9747208      19.133506      67.273986    
    124000   1.0137127      18.823516      66.965384    
    125000   1.0225354      19.235484      66.741433    
    126000   0.97612611     18.573117      66.680761    
    127000   1.0012551      19.110549      66.535383    
    128000   1.0307601      18.875265      66.426668    
    129000   1.0345468      18.919496      66.274984    
    130000   0.97914209     18.985934      66.087497    
    131000   1.038765       19.049857      65.883896    
    132000   0.970347       18.855921      65.682938    
    133000   0.99628565     19.081509      65.754313    
    134000   1.0346467      19.748251      65.53581     
    135000   1.0211449      18.855401      65.415928    
    136000   0.9999444      19.195835      65.227099    
    137000   0.99873995     18.632398      64.876311    
    138000   0.97405612     18.805598      64.489448    
    139000   1.018268       18.675257      64.423145    
    140000   0.97336126     18.939072      64.363384    
    141000   0.97592856     19.035179      64.211053    
    142000   0.95899177     18.687571      64.076286    
    143000   0.9731167      18.422693      63.992618    
    144000   0.99870975     18.796813      63.806532    
    145000   0.99647329     18.569156      63.721096    
    146000   1.0120884      19.058318      63.334708    
    147000   1.0144733      18.506258      63.211333    
    148000   1.0295262      18.849001      62.89325     
    149000   1.002673       18.640503      62.865465    
    150000   1.0356515      19.172545      62.777538    
    151000   1.0077197      19.016336      62.731388    
    152000   0.96931085     18.731651      62.513038    
    153000   1.0096676      18.476451      62.306337    
    154000   0.98384021     18.43619       62.338771    
    155000   0.98277186     18.657812      62.314454    
    156000   1.0008858      18.356983      62.302184    
    157000   1.003944       18.932597      62.224173    
    158000   1.0041864      18.820777      61.867757    
    159000   1.0043057      18.826694      61.801366    
    160000   0.98125609     19.022812      61.652526    
    161000   0.98966378     18.510003      61.517319    
    162000   0.97017126     18.640885      61.170075    
    163000   1.0285741      18.703343      61.205458    
    164000   1.0331623      18.826664      61.07728     
    165000   0.96177022     18.372212      60.837025    
    166000   0.99911004     18.314666      60.451268    
    167000   1.0226105      18.726538      60.373976    
    168000   1.0075844      18.668669      60.201641    
    169000   1.037932       18.859937      60.223327    
    170000   0.97942815     18.855306      60.216219    
    171000   1.0163963      18.542544      60.101287    
    172000   1.0112162      18.281087      59.826228    
    173000   1.0023719      18.30256       59.548682    
    174000   0.9920844      18.427138      59.288448    
    175000   0.98495591     18.326334      59.081949    
    176000   0.95451589     17.815011      59.029805    
    177000   0.993309       18.532519      58.837303    
    178000   1.0252588      18.133194      58.500694    
    179000   1.0236712      18.627037      58.120369    
    180000   0.99305222     18.445328      57.792213    
    181000   0.99955575     19.021628      57.600058    
    182000   0.99728511     18.273166      57.545414    
    183000   1.0249178      18.233503      57.329516    
    184000   1.0007474      18.109722      57.169276    
    185000   1.05045        18.583298      56.996546    
    186000   0.97973286     18.140951      56.894732    
    187000   1.0445227      17.849209      56.943275    
    188000   1.0096182      17.840318      56.810524    
    189000   1.032345       17.818765      56.447326    
    190000   1.0040808      18.255621      56.299574    
    191000   0.99245357     18.681775      56.177975    
    192000   1.0055381      18.086677      56.1352      
    193000   0.9576859      17.99558       55.962067    
    194000   1.0416001      18.021151      56.042302    
    195000   1.0179502      17.95661       55.941647    
    196000   0.98369033     17.722501      55.84162     
    197000   0.9809638      17.773243      55.835009    
    198000   1.0300051      17.803418      55.797823    
    199000   1.0146652      17.691087      55.906752    
    200000   0.95854627     17.434685      55.79659     
    201000   1.0067734      17.572363      55.593687    
    202000   1.0378305      18.006951      55.530807    
    203000   0.99106931     17.46437       55.348619    
    204000   1.0162066      17.801323      55.26711     
    205000   0.96308177     17.760065      55.163712    
    206000   1.0169164      18.025981      54.950203    
    207000   0.99556848     17.590816      54.627602    
    208000   0.96323493     17.597349      54.530604    
    209000   0.99881535     18.187656      54.369472    
    210000   1.0032385      17.292089      54.110126    
    211000   0.98991442     17.452835      53.845151    
    212000   0.97379826     17.611063      53.699516    
    213000   0.98071179     17.873411      53.604178    
    214000   0.98591812     17.671392      53.631009    
    215000   1.0049437      17.565985      53.46103     
    216000   0.96360706     17.852401      53.23254     
    217000   1.0068863      17.514466      53.054561    
    218000   1.0306171      17.925637      52.837388    
    219000   0.99638784     17.126434      52.862289    
    220000   0.98255061     17.693302      52.809345    
    221000   0.95535252     17.840886      52.717242    
    222000   0.97865302     17.766589      52.666799    
    223000   0.99737984     17.774708      52.670518    
    224000   0.99238548     17.763539      52.558971    
    225000   0.99005281     17.523826      52.671059    
    226000   1.0134504      18.089968      52.616139    
    227000   0.9813892      17.207891      52.410131    
    228000   0.98449552     17.569982      52.278572    
    229000   0.99977812     17.731139      52.025819    
    230000   0.9958205      17.546947      52.031718    
    231000   0.99812044     18.137459      51.931054    
    232000   0.98628155     17.442115      52.022538    
    233000   0.98263717     17.184729      51.832011    
    234000   0.97805431     17.784504      51.691008    
    235000   1.008367       17.738149      51.526067    
    236000   0.9894357      17.909029      51.567361    
    237000   0.99506769     17.168755      51.471864    
    238000   1.0487435      17.964325      51.302691    
    239000   0.97057756     17.419718      51.005289    
    240000   0.98290364     17.90717       50.804839    
    241000   1.0356761      18.39145       50.524811    
    242000   1.0133008      18.136747      50.287213    
    243000   0.96991593     17.909144      50.389161    
    244000   0.99019697     17.466437      50.372773    
    245000   0.99736409     17.524055      50.304628    
    246000   0.99573398     17.736518      50.25988     
    247000   1.0173762      18.286337      50.026733    
    248000   0.99083404     17.136682      49.62179     
    249000   1.0128151      17.819801      49.52182     
    250000   1.0309172      17.776534      49.399711    
    251000   0.99326044     17.737984      49.245054    
    252000   1.0017723      17.710886      49.052408    
    253000   0.99487049     18.01823       48.908008    
    254000   1.0040889      17.972717      48.711024    
    255000   1.0109487      17.841557      48.574208    
    256000   1.0293789      18.022887      48.510176    
    257000   0.99128115     17.43601       48.308231    
    258000   0.98332183     17.270841      48.359826    
    259000   1.0125156      17.4414        48.329737    
    260000   1.0129174      17.48275       48.106891    
    261000   0.94621333     17.738312      48.066046    
    262000   0.98032893     17.156188      48.009286    
    263000   1.0185026      17.726252      47.949176    
    264000   1.024028       17.541074      47.71213     
    265000   1.0067935      17.749898      47.60261     
    266000   1.0069074      18.027794      47.582368    
    267000   1.0036149      17.258175      47.511308    
    268000   0.96632582     17.277211      47.447994    
    269000   0.9844297      17.369508      47.424567    
    270000   1.0085404      17.920582      47.318283    
    271000   0.98361389     17.373622      47.103182    
    272000   1.0112959      17.437973      47.151059    
    273000   1.0144331      17.774058      47.06252     
    274000   1.0280213      17.300798      47.034194    
    275000   1.0170886      18.038932      47.041595    
    276000   1.0168         17.919862      46.852063    
    277000   0.98808861     17.629684      46.807933    
    278000   1.0049809      17.54067       46.844997    
    279000   1.0363795      17.515312      46.602741    
    280000   0.99255572     17.839362      46.352428    
    281000   1.0251754      17.970024      46.295873    
    282000   1.0312769      18.330563      46.175095    
    283000   1.0041412      17.38623       45.979278    
    284000   0.95752633     17.219156      45.751188    
    285000   0.99735438     17.779472      45.591299    
    286000   1.0133255      17.714024      45.322334    
    287000   0.99325433     17.818433      45.163908    
    288000   1.0179616      17.469672      45.152269    
    289000   1.0179739      17.538556      45.235481    
    290000   1.0069864      18.054195      45.38785     
    291000   0.99008815     17.507492      45.242976    
    292000   1.0014479      17.903441      45.33204     
    293000   0.95646443     17.170837      45.167827    
    294000   0.99823848     17.218028      45.06012     
    295000   1.0507927      17.775022      44.9448      
    296000   0.95143452     17.752257      44.981103    
    297000   1.037778       17.447373      45.014636    
    298000   0.98443017     17.483861      44.759745    
    299000   1.0053144      18.061194      44.50721     
    300000   0.96880854     18.121529      44.385318    
    301000   0.9597163      17.202511      44.240684    
    302000   1.0218083      17.620656      44.301229    
    303000   0.98595493     17.589686      44.299595    
    304000   0.9904804      17.618499      44.327605    
    305000   1.0093428      18.077186      44.148512    
    306000   1.0265192      16.988776      43.989837    
    307000   1.0151697      17.37132       43.892257    
    308000   0.99528047     17.316014      44.026152    
    309000   0.99217982     17.825813      43.861462    
    310000   1.0013874      17.356373      43.728273    
    311000   1.0567886      17.755268      43.746853    
    312000   0.9763614      17.884963      43.5697      
    313000   1.0087501      17.962454      43.555535    
    314000   1.028542       17.329543      43.448717    
    315000   0.96253853     18.016216      43.060201    
    316000   0.97051754     17.431595      43.1651      
    317000   1.0037824      17.407019      42.95074     
    318000   1.0072197      17.517669      42.807523    
    319000   0.98715221     17.357285      42.655617    
    320000   1.0072711      17.468385      42.457836    
    321000   0.96988922     17.415286      42.354623    
    322000   0.9899486      17.359249      42.471722    
    323000   0.99683728     17.507325      42.51786     
    324000   1.0002019      18.009039      42.323327    
    325000   0.99651738     17.515536      42.229862    
    326000   0.97541238     17.612193      42.158744    
    327000   0.99099877     17.340407      41.992472    
    328000   0.95976318     17.372441      41.754565    
    329000   0.9891339      17.755085      41.546706    
    330000   0.9704428      17.556191      41.327657    
    331000   1.0211965      17.347765      41.024677    
    332000   0.94266563     17.295305      40.886034    
    333000   0.9964837      17.314787      40.710255    
    334000   0.98279806     17.342275      40.645079    
    335000   1.0145937      17.439088      40.758783    
    336000   1.0100563      17.537429      40.559532    
    337000   0.99222446     17.531008      40.488619    
    338000   1.0059497      18.132654      40.333681    
    339000   1.0187718      17.925765      40.383706    
    340000   0.9914998      17.574183      40.554243    
    341000   1.0233385      17.828351      40.600349    
    342000   0.98432618     17.857416      40.635799    
    343000   1.0267033      17.82179       40.633468    
    344000   0.99094051     17.539755      40.465763    
    345000   0.97009464     17.681378      40.348639    
    346000   0.95359312     17.476497      40.401909    
    347000   1.0191585      17.352677      40.26648     
    348000   1.0264327      17.500932      40.211409    
    349000   0.9628423      17.298055      40.365719    
    350000   0.99827929     17.969575      40.241357    
    351000   1.006508       17.230023      40.252159    
    352000   0.982744       17.50179       39.887734    
    353000   1.0162558      17.727083      39.754519    
    354000   0.96898122     17.34847       39.598936    
    355000   1.0257121      16.983261      39.586518    
    356000   1.0111477      17.93192       39.753239    
    357000   0.98474749     17.905522      39.620719    
    358000   0.97359309     17.695821      39.732087    
    359000   0.93315292     17.19048       39.830066    
    360000   0.97129826     17.131691      39.737875    
    361000   1.0572561      17.407824      39.862231    
    362000   0.98407414     17.684448      39.805753    
    363000   1.0081748      16.945728      39.818547    
    364000   0.97737969     17.443396      39.809729    
    365000   1.0009191      17.778372      39.62091     
    366000   0.98254552     17.366917      39.605913    
    367000   1.000715       17.543541      39.301831    
    368000   1.0063774      17.703857      39.193085    
    369000   1.0206845      16.774192      39.04063     
    370000   1.0401098      17.647181      39.152568    
    371000   0.99545308     17.476547      39.229193    
    372000   1.0086094      17.388763      39.206228    
    373000   0.98739935     17.743265      39.010466    
    374000   1.0074011      17.462687      38.868207    
    375000   0.99829114     17.386036      38.77872     
    376000   1.0264463      17.098595      39.018651    
    377000   1.0010551      17.827068      39.02278     
    378000   1.0008811      17.425621      39.283257    
    379000   0.98221411     17.917518      39.183625    
    380000   1.0304897      17.546126      38.841878    
    381000   1.0021715      17.597693      38.666034    
    382000   1.0171287      17.343306      38.468485    
    383000   1.0061661      17.881377      38.196032    
    384000   1.004186       18.106681      38.197859    
    385000   1.017924       17.226417      38.001341    
    386000   1.0466263      17.956346      38.050803    
    387000   1.0285619      17.400966      37.86184     
    388000   0.98028638     17.626989      37.680188    
    389000   0.97594014     17.097351      37.55268     
    390000   0.97218872     17.210778      37.562705    
    391000   1.006406       17.633464      37.594073    
    392000   1.0239889      17.612679      37.390608    
    393000   1.0177844      17.710816      37.373234    
    394000   1.0344034      17.485986      37.266445    
    395000   0.94420994     17.347419      37.392213    
    396000   0.99235629     17.634123      37.237492    
    397000   0.99938325     17.743887      37.295056    
    398000   1.014355       18.225851      37.134084    
    399000   0.98370844     17.757785      36.830913    
    400000   1.0410997      17.545913      36.888891    
    401000   0.99542005     17.476256      36.933863    
    402000   1.0168568      17.988051      36.965541    
    403000   1.0556965      16.920573      36.87082     
    404000   1.0484031      17.925268      36.54472     
    405000   0.99565494     17.19479       36.254475    
    406000   1.0047857      17.341667      36.194694    
    407000   1.0426016      17.566159      36.018073    
    408000   0.99507299     17.811444      35.822743    
    409000   1.0218235      17.751975      35.804422    
    410000   0.98667086     17.860741      35.768832    
    411000   0.99418414     17.62093       35.505564    
    412000   0.99571838     17.376119      35.383609    
    413000   0.98372058     17.28346       35.106292    
    414000   1.0147647      17.261304      35.092397    
    415000   1.0346492      18.11753       35.286487    
    416000   1.0450272      17.563975      35.360497    
    417000   1.0340528      17.931081      35.325458    
    418000   1.0008851      16.968955      35.370945    
    419000   0.96891091     17.745261      35.404005    
    420000   1.0009208      16.829941      35.331504    
    421000   0.97853658     17.867607      35.109603    
    422000   0.98828444     17.411127      35.123221    
    423000   0.99075677     17.757617      34.972493    
    424000   0.99585824     16.930989      34.681899    
    425000   0.99700518     17.400487      34.599215    
    426000   1.0240037      17.227647      34.633417    
    427000   0.97603856     17.563556      34.681803    
    428000   0.97416202     17.406039      34.755449    
    429000   1.0396914      17.63193       34.764636    
    430000   0.96397108     17.812313      34.830921    
    431000   0.99538736     17.788729      34.739038    
    432000   0.99857303     17.865639      34.779296    
    433000   1.0367344      17.708201      34.605829    
    434000   0.99085178     18.302267      34.596061    
    435000   0.96906223     17.203133      34.654986    
    436000   0.99045505     17.155508      34.442636    
    437000   0.94626968     17.200635      34.152981    
    438000   1.007447       17.396351      33.996834    
    439000   1.0257476      17.496424      33.95604     
    440000   0.98973547     17.53667       33.894922    
    441000   1.0160729      17.175909      33.934677    
    442000   1.0298495      17.390728      33.981942    
    443000   1.0359147      17.657228      33.856948    
    444000   0.98686376     17.438932      33.783841    
    445000   0.95678714     17.513517      33.786199    
    446000   1.0285731      18.063795      33.717465    
    447000   1.004474       17.030754      33.599483    
    448000   1.0122308      17.04117       33.490064    
    449000   0.96778386     16.912968      33.51086     
    450000   1.0595447      18.106202      33.612325    
    451000   0.99507218     17.721588      33.510772    
    452000   1.0247456      17.757987      33.33237     
    453000   0.95604811     17.398252      33.340548    
    454000   0.97040796     17.786003      33.200875    
    455000   0.99732783     17.913923      33.037071    
    456000   1.0284166      16.957895      33.163385    
    457000   1.0233548      17.388844      32.966009    
    458000   0.98355794     17.140823      32.795328    
    459000   1.0324814      17.326794      32.624093    
    460000   0.99912842     17.61074       32.406234    
    461000   1.0188136      17.518542      32.364511    
    462000   1.0276543      17.310661      32.222987    
    463000   0.9869222      17.436507      32.216249    
    464000   0.97757646     16.844436      32.199065    
    465000   0.97266666     17.770375      32.074636    
    466000   0.9835321      17.576015      32.128226    
    467000   0.99213876     17.399211      32.223042    
    468000   0.98299592     17.331881      31.978342    
    469000   1.0395762      17.949622      31.768659    
    470000   0.99446755     17.561648      31.883576    
    471000   0.9518814      17.596886      31.957642    
    472000   0.9985174      17.606166      31.926645    
    473000   1.0434301      17.995453      31.48328     
    474000   1.0445409      17.24192       31.578136    
    475000   0.9838071      17.653341      31.401608    
    476000   1.0287187      17.842998      31.024074    
    477000   1.0314495      17.64419       31.14451     
    478000   1.0344589      17.360734      31.119949    
    479000   0.95455798     17.28209       31.013388    
    480000   1.0185125      17.224495      31.0184      
    481000   0.97773939     17.283582      30.860067    
    482000   1.005953       17.556344      30.636492    
    483000   0.99974769     17.380107      30.735592    
    484000   0.99689066     16.921061      30.859402    
    485000   1.0081366      17.848541      30.739471    
    486000   1.0477329      17.859357      30.805605    
    487000   0.98538156     17.728969      30.912712    
    488000   1.0017728      17.618096      30.598546    
    489000   0.99182323     17.477109      30.233446    
    490000   1.0244796      17.676317      30.387733    
    491000   0.97420183     17.554163      30.514679    
    492000   0.97055247     17.51429       30.188236    
    493000   0.99448867     17.158762      30.178144    
    494000   1.0106089      17.188075      30.054542    
    495000   1.0219505      17.59017       29.918599    
    496000   1.0094629      17.327871      29.811883    
    497000   1.0358969      18.135056      29.787189    
    498000   0.99448671     17.836784      29.799077    
    499000   1.020063       17.100177      29.870742    
    500000   1.034635       17.6073        29.522246    
    501000   1.0089722      17.174355      29.240181    
    502000   0.99123888     17.696551      29.345145    
    503000   0.99762611     17.982336      29.431641    
    504000   0.99110296     17.533147      29.487488    
    505000   1.0143015      17.250246      29.225059    
    506000   1.0671995      17.374437      29.011021    
    507000   1.0470595      17.160947      28.957971    
    508000   0.97918268     17.919334      28.984352    
    509000   1.018206       17.703866      29.048624    
    510000   0.98153512     17.18411       28.970923    
    511000   1.007323       17.316238      28.996668    
    512000   0.99109879     17.977278      28.991461    
    513000   1.0555633      18.147555      29.040885    
    514000   1.0004961      17.347754      28.933062    
    515000   1.0367701      16.995427      28.759909    
    516000   1.0209222      17.580836      28.805137    
    517000   0.94213542     17.145447      28.583713    
    518000   0.96793021     17.151621      28.42036     
    519000   0.97645512     17.100736      28.452477    
    520000   1.0314697      17.162965      28.272744    
    521000   1.0270229      17.604734      28.150286    
    522000   1.0211707      17.164749      28.115608    
    523000   1.0197543      17.665568      28.235429    
    524000   1.0149795      18.265432      28.374011    
    525000   0.97538782     17.394359      28.614879    
    526000   1.0048968      17.444333      28.53171     
    527000   0.99948861     17.785457      28.585986    
    528000   0.97044939     17.359216      28.480737    
    529000   0.99652508     17.212648      28.082545    
    530000   1.001938       17.588872      28.160484    
    531000   1.0432956      17.549376      28.227393    
    532000   0.96318243     16.785108      28.229384    
    533000   1.0043163      17.32712       28.253793    
    534000   1.0036223      17.708822      28.118968    
    535000   1.0081477      17.775761      27.973808    
    536000   0.99397906     17.203407      27.774534    
    537000   0.99268697     17.345548      27.46251     
    538000   0.99007853     17.634707      27.375519    
    539000   0.9782718      17.2217        27.079981    
    540000   0.99174709     17.485075      27.267514    
    541000   0.99131525     17.426083      27.130856    
    542000   0.98119578     17.078231      26.781639    
    543000   1.0039456      17.389005      26.802528    
    544000   0.98942533     17.644316      26.601024    
    545000   0.99432078     16.728166      26.513775    
    546000   1.0421403      17.028517      26.352245    
    547000   1.016102       17.961337      26.464425    
    548000   0.99499373     17.169168      26.577605    
    549000   1.0045014      17.348905      26.548816    
    550000   1.0116309      17.410664      26.285357    
    551000   1.0493748      17.537842      26.172143    
    552000   1.0149862      17.312983      26.037429    
    553000   1.0050768      16.979362      25.987557    
    554000   0.9608958      17.276504      25.665717    
    555000   0.98121245     16.996066      25.562427    
    556000   0.99024794     17.475052      25.386136    
    557000   0.99077923     17.307393      25.322749    
    558000   0.96423778     16.9839        25.170578    
    559000   0.98915986     17.251063      25.138109    
    560000   0.98379461     17.291858      25.064897    
    561000   0.99517417     17.223862      24.771688    
    562000   1.0066395      17.551773      24.755797    
    563000   0.9795274      17.621181      24.955856    
    564000   1.0052351      17.524662      24.706298    
    565000   1.0244938      17.717794      24.619173    
    566000   1.0021289      17.320478      24.354054    
    567000   1.0167012      17.464374      24.341418    
    568000   1.0281972      16.910905      24.168592    
    569000   0.96764389     17.861807      23.94121     
    570000   0.98937267     17.271805      23.757556    
    571000   0.97241839     17.960676      23.792792    
    572000   1.0229541      17.136652      23.688373    
    573000   0.99118209     17.578188      23.391347    
    574000   0.98236759     17.828017      23.29038     
    575000   0.95552993     17.268234      23.273714    
    576000   1.0128589      17.811107      23.226027    
    577000   1.0388497      17.079966      23.132895    
    578000   0.97507508     17.479142      22.774723    
    579000   1.0112332      17.363278      22.800669    
    580000   0.98087744     17.682195      22.81424     
    581000   0.98544033     17.128238      22.800803    
    582000   1.0397379      17.588867      22.556958    
    583000   0.99688497     17.58163       22.524573    
    584000   0.99283995     17.114767      22.291515    
    585000   0.96435632     17.95608       22.169637    
    586000   0.99281972     17.837012      21.872842    
    587000   1.0017733      17.280169      21.709832    
    588000   1.0102479      17.777826      21.54503     
    589000   1.043347       17.485589      21.711253    
    590000   1.008467       17.269399      21.678512    
    591000   1.0409274      17.79842       21.514183    
    592000   0.98835694     17.35184       21.757704    
    593000   1.0211737      17.376304      21.523772    
    594000   0.99412804     17.471777      21.642775    
    595000   1.0173268      17.601068      21.397074    
    596000   0.94489678     16.584759      21.553584    
    597000   0.97307134     17.419903      21.46431     
    598000   0.95807515     16.899116      21.346219    
    599000   0.98501988     16.946092      21.511564    
    600000   1.0107728      17.911591      21.561047    
    601000   0.99315806     16.945752      21.448553    
    602000   0.97209036     17.390865      21.230346    
    603000   1.031833       17.922682      21.092059    
    604000   1.0374695      17.357777      21.007988    
    605000   1.0058962      17.50827       20.808313    
    606000   1.0258539      17.065495      20.717696    
    607000   1.0075983      17.615716      20.751286    
    608000   0.99425659     17.152898      20.637729    
    609000   0.96852772     16.798251      20.642854    
    610000   1.0071147      16.889942      20.568272    
    611000   1.0084011      17.74466       20.521695    
    612000   1.0083925      17.166648      20.499876    
    613000   0.96205105     17.212757      20.45856     
    614000   1.0263862      17.488618      20.368567    
    615000   1.0376334      17.465454      20.305193    
    616000   0.96299919     17.453736      20.19596     
    617000   1.0551744      17.499836      20.106641    
    618000   0.97619354     17.711564      20.214666    
    619000   1.0000174      17.168774      20.200979    
    620000   1.0598143      17.818311      20.043286    
    621000   0.9520356      17.746471      19.899523    
    622000   0.99814502     17.609797      19.78777     
    623000   1.003716       17.079458      19.598643    
    624000   1.0172755      17.219627      19.673127    
    625000   1.0001367      17.660101      19.697372    
    626000   0.97359484     17.258169      19.701008    
    627000   0.95476583     17.086752      19.815006    
    628000   1.0328339      17.141689      19.933645    
    629000   1.0015182      17.105264      19.70771     
    630000   0.95770417     17.308873      19.575593    
    631000   1.0138348      17.051937      19.505942    
    632000   1.0021431      18.0036        19.543854    
    633000   1.0242816      17.233582      19.449469    
    634000   1.0005731      17.421401      19.28952     
    635000   1.0256995      18.182235      18.942231    
    636000   1.0336221      17.420621      18.831812    
    637000   1.0213683      17.076459      18.79404     
    638000   1.0123672      17.54658       18.834405    
    639000   1.0119624      17.551608      18.932362    
    640000   0.96091442     17.751401      18.827798    
    641000   1.0268678      17.348509      18.838968    
    642000   0.97856296     16.993987      18.854723    
    643000   1.0218186      17.122357      18.713191    
    644000   0.9974681      17.100323      18.567358    
    645000   1.0031726      17.482366      18.596244    
    646000   1.0305987      17.592457      18.534364    
    647000   0.97765804     17.122431      18.605784    
    648000   1.0123252      17.043519      18.433094    
    649000   0.97523826     17.836432      18.426403    
    650000   1.0202223      17.199194      18.330923    
    651000   1.0337518      18.102694      18.152682    
    652000   0.97088035     17.119865      18.21808     
    653000   1.03069        16.872388      18.23514     
    654000   1.0126659      17.010475      18.192682    
    655000   1.0015831      17.606978      18.106162    
    656000   0.9829742      17.327517      18.196459    
    657000   0.97661851     16.760885      18.358358    
    658000   1.0407537      17.629689      18.171404    
    659000   1.0310275      17.738221      18.051719    
    660000   1.0259171      16.622825      17.904044    
    661000   0.98248105     17.143137      17.975471    
    662000   0.96752738     17.060884      17.997773    
    663000   0.9998799      17.081412      17.962957    
    664000   0.97846307     17.745092      17.980076    
    665000   0.97785803     16.792507      17.899762    
    666000   1.0250917      17.359         17.721285    
    667000   0.96045648     17.505403      17.632017    
    668000   0.9796847      16.666174      17.626241    
    669000   1.0000833      17.466729      17.671098    
    670000   0.98191597     17.126359      17.66844     
    671000   1.0203681      17.764234      17.595941    
    672000   1.0295527      17.147693      17.707734    
    673000   0.970662       16.958822      17.630236    
    674000   1.0274073      17.465447      17.747157    
    675000   1.0149748      17.225201      17.720488    
    676000   0.99707339     17.383543      17.535168    
    677000   0.99331969     17.146081      17.468543    
    678000   0.96573064     17.185021      17.334109    
    679000   0.95566508     17.336629      17.173626    
    680000   0.99693961     17.785644      17.216241    
    681000   0.9914244      17.120296      17.205652    
    682000   1.0397219      17.39189       17.07563     
    683000   0.96055713     17.393108      17.008986    
    684000   1.0203472      17.61697       17.004657    
    685000   1.0030011      17.826557      17.007089    
    686000   1.0391381      17.201483      17.094028    
    687000   0.95072299     16.848706      17.180392    
    688000   1.0205569      17.073252      17.110051    
    689000   0.9816112      17.850884      17.148233    
    690000   1.0300179      17.05539       16.971883    
    691000   1.0009584      17.389033      16.896532    
    692000   1.0229974      17.563558      16.731796    
    693000   1.0279727      17.238298      16.8368      
    694000   1.0280212      17.469851      16.70254     
    695000   0.98958322     16.887093      16.777719    
    696000   0.96458021     17.624222      16.585821    
    697000   1.0089         17.2695        16.451647    
    698000   1.0214285      17.360704      16.302666    
    699000   1.0301862      17.536978      16.04667     
    700000   1.0122798      16.931773      15.996649    
    701000   1.0112958      17.201635      15.888476    
    702000   0.99952753     17.137833      15.68383     
    703000   1.0305836      17.127499      15.717004    
    704000   0.98776755     17.100982      15.719487    
    705000   1.0329024      17.419798      15.730251    
    706000   0.96825039     17.541055      15.422546    
    707000   1.0651603      18.07087       15.444582    
    708000   0.99888585     16.911588      15.28494     
    709000   1.0350639      17.581314      15.079955    
    710000   0.99539842     17.513736      14.962652    
    711000   0.95810684     16.640379      14.723421    
    712000   0.99466391     17.126435      14.400781    
    713000   0.97832381     17.40668       14.342978    
    714000   0.976386       17.169087      14.314409    
    715000   1.0352356      16.996822      14.329202    
    716000   1.0013139      17.105964      14.240802    
    717000   0.99324332     16.606769      14.183515    
    718000   1.0415302      16.671002      14.04997     
    719000   0.95894311     17.092837      14.031847    
    720000   1.0251221      17.570247      14.229426    
    721000   0.99495223     17.03555       13.997526    
    722000   0.98006707     17.59373       14.118663    
    723000   0.95389295     17.471258      14.027327    
    724000   1.0050041      16.669417      13.97791     
    725000   1.0058466      17.068832      13.886802    
    726000   0.99542056     17.028831      13.67572     
    727000   1.0222952      17.549584      13.753724    
    728000   0.98576489     17.433345      13.588251    
    729000   1.0396902      17.130238      13.441465    
    730000   1.0153405      17.09116       13.250325    
    731000   1.0407635      17.450953      13.075204    
    732000   1.0044492      17.208685      12.907931    
    733000   1.0241246      16.985921      12.912712    
    734000   0.98279459     16.849258      13.07616     
    735000   0.99263909     16.993849      12.797413    
    736000   0.97437627     17.067609      12.670413    
    737000   1.0101914      16.889438      12.836564    
    738000   0.9447706      17.483693      12.585382    
    739000   0.98114638     17.014241      12.339916    
    740000   0.95058984     16.969982      12.402127    
    741000   0.97349331     16.787041      12.145624    
    742000   0.98251654     17.143055      12.271907    
    743000   0.96949243     17.284186      12.266815    
    744000   0.99709973     16.755901      12.263084    
    745000   0.99710064     16.819844      12.276636    
    746000   1.01213        17.193024      12.201579    
    747000   0.96023958     16.921448      11.968925    
    748000   1.0087907      16.963394      11.93883     
    749000   1.0218768      17.037169      11.842011    
    750000   1.0578536      16.666133      11.721861    
    751000   1.0296654      17.245332      11.533599    
    752000   1.0254148      17.165234      11.571797    
    753000   1.0301247      16.595895      11.629766    
    754000   0.98067621     17.370118      11.660874    
    755000   0.97457924     17.209614      11.552844    
    756000   0.99059755     16.997593      11.64355     
    757000   0.98619369     16.886754      11.688346    
    758000   0.99023115     17.133306      11.354245    
    759000   1.0031853      17.526345      11.102664    
    760000   1.0364635      17.360562      11.032341    
    761000   0.97370473     16.759348      10.941015    
    762000   0.96496618     16.567547      10.783798    
    763000   1.0139097      17.231122      10.800638    
    764000   1.0416517      17.424455      10.781792    
    765000   0.98422172     17.152003      10.795681    
    766000   1.0070687      16.978315      10.81407     
    767000   0.99241043     17.309419      10.735491    
    768000   1.0407305      16.977734      10.781033    
    769000   0.98127388     16.640006      10.689585    
    770000   1.0124183      17.233928      10.554814    
    771000   1.0066603      17.08566       10.650361    
    772000   1.0081759      17.468413      10.537655    
    773000   0.96702036     16.836155      10.319819    
    774000   0.99827774     16.841785      10.375494    
    775000   1.0145092      17.262356      10.558533    
    776000   0.99582877     17.370101      10.452305    
    777000   0.98493693     16.810607      10.45904     
    778000   1.0046898      16.980113      10.210193    
    779000   0.98008069     17.554706      10.082392    
    780000   0.99690053     16.599454      9.8822659    
    781000   1.0430846      16.877675      10.024464    
    782000   1.0526369      17.581735      9.8405124    
    783000   0.99025561     17.19676       9.7109979    
    784000   1.0025465      17.147959      9.6069576    
    785000   0.99551507     17.136791      9.4150594    
    786000   0.98924107     17.057059      9.3391597    
    787000   0.93334286     16.593283      9.487371     
    788000   1.0245715      17.38272       9.4049573    
    789000   1.0058574      17.090901      9.5993188    
    790000   0.97935832     16.177879      9.6244719    
    791000   1.0050864      17.081319      9.5212109    
    792000   0.98242059     16.632263      9.4925384    
    793000   1.0135319      17.030978      9.4208838    
    794000   0.9888305      17.080644      9.3122997    
    795000   1.0007145      16.821804      9.2690073    
    796000   0.97353459     16.644528      9.2284459    
    797000   0.98230917     16.838042      9.4587833    
    798000   1.0076023      16.615246      9.4084079    
    799000   0.94962226     16.862209      9.2207155    
    800000   1.0400097      16.994697      9.1403585    
    801000   0.99509998     17.097756      9.2043828    
    802000   1.0006483      16.7529        9.1607729    
    803000   0.96071061     17.041748      9.1259022    
    804000   0.99665719     16.69287       9.2569321    
    805000   0.99833561     16.94921       9.2828847    
    806000   1.0211383      16.933272      9.2162804    
    807000   1.0178362      17.170059      9.1857346    
    808000   1.0393569      16.812882      9.0031703    
    809000   1.0087857      16.926078      8.7836184    
    810000   0.98028351     17.538432      8.8846347    
    811000   0.96740676     17.192967      8.6902364    
    812000   0.97381418     17.130402      8.6590069    
    813000   0.98853722     16.534713      8.7176639    
    814000   0.96831419     16.851851      8.5589109    
    815000   0.99030702     16.633123      8.5079048    
    816000   1.0034415      17.482483      8.3211915    
    817000   0.99996434     16.62372       8.2761562    
    818000   0.99064213     17.237223      8.065804     
    819000   0.96591504     16.697131      8.0061604    
    820000   1.0317899      16.947861      7.8596961    
    821000   0.9908544      16.691234      7.6634103    
    822000   1.0026652      17.233056      7.5614184    
    823000   1.0307071      16.88393       7.4036162    
    824000   0.9942349      17.64102       7.3316816    
    825000   1.0155405      16.853236      7.1207112    
Fix halt condition for fix-id 3 met on step 826000 with value 6.9205109508055305 (src/fix_halt.cpp:237)
    826000   0.98659628     16.740378      6.920511     
Loop time of 1767.66 on 2 procs for 726000 steps with 1101 atoms

Performance: 354856.213 tau/day, 410.713 timesteps/s
124.8% CPU use with 1 MPI tasks x 2 OpenMP threads

MPI task timing breakdown:
Section |  min time  |  avg time  |  max time  |%varavg| %total
---------------------------------------------------------------
Pair    | 350.66     | 350.66     | 350.66     |   0.0 | 19.84
Bond    | 24.594     | 24.594     | 24.594     |   0.0 |  1.39
Neigh   | 1339.6     | 1339.6     | 1339.6     |   0.0 | 75.78
Comm    | 0.43469    | 0.43469    | 0.43469    |   0.0 |  0.02
Output  | 2.4166     | 2.4166     | 2.4166     |   0.0 |  0.14
Modify  | 44.666     | 44.666     | 44.666     |   0.0 |  2.53
Other   |            | 5.271      |            |       |  0.30

Nlocal:           1101 ave        1101 max        1101 min
Histogram: 1 0 0 0 0 0 0 0 0 0
Nghost:              0 ave           0 max           0 min
Histogram: 1 0 0 0 0 0 0 0 0 0
Neighs:         240549 ave      240549 max      240549 min
Histogram: 1 0 0 0 0 0 0 0 0 0

Total # of neighbors = 240549
Ave neighs/atom = 218.48229
Ave special neighs/atom = 1.9981835
Neighbor list builds = 6258
Dangerous builds = 0

# This simulation is done
# Move onto the next one
clear
  using 2 OpenMP thread(s) per MPI task
package omp 0
using multi-threaded neighbor list subroutines
next f
jump SELF

###
# Reference paper:
# K. Kremer and G. S. Grest
# Dynamics of entangled linear polymer melts: A molecular-dynamics simulation
# J Chem Phys 92, 5057 (1990)

##################################
# MIHIR: for branched polymers
# LJ minimum first to expand and explore, then collapse
###

###
# Looping through the various nuc3branch4 polymers to simulate,
# define variables to switch through
variable f index bb40nuc3bl10bn4d30tot100 bb80nuc3bl20bn4d30tot200 bb120nuc3bl30bn4d30tot300 bb160nuc3bl40bn4d30tot400 bb200nuc3bl50bn4d30tot500 bb240nuc3bl60bn4d30tot600 bb280nuc3bl70bn4d30tot700 bb320nuc3bl80bn4d30tot800 bb360nuc3bl90bn4d30tot900 bb400nuc3bl100bn4d30tot1000 bb440nuc3bl110bn4d30tot1100 bb480nuc3bl120bn4d30tot1200
###


###
# Box and units  (use LJ units and periodic boundaries)
###

units lj
log nuc3branch4/logs3/$f.log
log nuc3branch4/logs3/bb480nuc3bl120bn4d30tot1200.log
