#atom_style bond #no stiffness
atom_style angle #with stiffness

boundary        p p p
###
# Pair interactions require lists of neighbours to be calculated
###

#neighbor 0.3 bin
neighbor 4 bin

neigh_modify every 1 delay 1 check yes
atom_modify sort 0 0
### Generate RESTART file, SPECIAL format, not a .txt file ###
### Useful if simulation crashes ###

restart 1000000 nuc3branch4/restarts3/$f.restart
restart 1000000 nuc3branch4/restarts3/bb480nuc3bl120bn4d30tot1200.restart
#############################



### READ "start" data file ###

read_data nuc3branch4/$f.dat
read_data nuc3branch4/bb480nuc3bl120bn4d30tot1200.dat
Reading data file ...
  orthogonal box = (-1000 -1000 -1000) to (1000 1000 1000)
  1 by 1 by 1 MPI processor grid
  reading atoms ...
  1201 atoms
  scanning bonds ...
  3 = max bonds/atom
  scanning angles ...
  6 = max angles/atom
  reading bonds ...
  1200 bonds
  reading angles ...
  1208 angles
Finding 1-2 1-3 1-4 neighbors ...
  special bond factors lj:    0        0        0       
  special bond factors coul:  0        0        0       
     4 = max # of 1-2 neighbors
     4 = max # of 1-3 neighbors
     8 = max # of 1-4 neighbors
    12 = max # of special neighbors
  special bonds CPU = 0.002 seconds
  read_data CPU = 0.201 seconds

######################

### READ "REstart" data file ###

######################



###
# Define groups (atom type 1 is group 'all')
###
group all type 1
1201 atoms in group all


###
# Dump configs - "simple dumpings"
###

###
# Dump configs + box coords
###

dump   1   all   custom   1000  nuc3branch4/trjs3/$f.lammpstrj  id  x y z  ix iy iz
dump   1   all   custom   1000  nuc3branch4/trjs3/bb480nuc3bl120bn4d30tot1200.lammpstrj  id  x y z  ix iy iz
dump_modify   1   format line "%d %.5f %.5f %.5f %d %d %d"

########################################################################


###################################################################
# Stiffness term
#
# E = K * (1+cos(theta)), K>0
#
angle_style   cosine
#change this coefficient to change stiffness (e.g. 1,5,10)
angle_coeff   1 1.0
###################################################################

###################################################################
# Pair interaction between non-bonded atoms
#
#  Lennard-Jones 12-6 potential with cutoff:
#  potential E=4epsilon[ (sigma/r)^12 - (sigma/r)^6]  for r<r_cut
#
#  1.12246 = 2^(1/6) is the minimum of the potential


pair_style      lj/cut 1.12246152962189
#pair_style      lj/cut 3

#
#  pair_modify shift yes adds a constant to the potential such

#  that E(r_cut)=0. Forces remains unchanged.
#

pair_modify     shift yes

#
#  pair_coeff for lj/cut, specify 4:
#    * atom type interacting with
#    * atom type
#    * epsilon (energy units)
#    * sigma (distance units)
#

pair_coeff      1 1 1.0 1.0
###################################################################

###################################################################
# Pair interaction between non-bonded atoms
#
#  soft potential, for PUSHING apart overlapping atoms
#  potential E=A*(1 + cos(pi*r/r_c))
#
#  1.12246 = 2^(1/6) is the cut-off r_c

#pair_style     soft 1.12246152962189

#
#  pair_coeff for soft, specify 3:
#    * atom type interacting with
#    * atom type
#    * A
#
#

#pair_coeff      1 1 100.0
###################################################################

###################################################################
# Pair interaction between bonded atoms
#
# Fene potential + Lennard Jones 12-6:

#
#  E= - 0.5 K R0^2 ln[ 1- (r/R0)^2]
#     + 4epsilon[ (sigma/r)^12 - (sigma/r)^6] + epsilon
#

bond_style   fene


#
# For style fene, specify:
#   * bond type
#   * K (energy/distance^2)
#   * R0 (distance)
#   * epsilon (energy)  (LJ component)
#   * sigma (distance)  (LJ component)
#


special_bonds fene #<=== I M P O R T A N T (new command)
Finding 1-2 1-3 1-4 neighbors ...
  special bond factors lj:    0        1        1       
  special bond factors coul:  0        1        1       
     4 = max # of 1-2 neighbors
    12 = max # of special neighbors
  special bonds CPU = 0.000 seconds

bond_coeff   1   30   2   1.0   1.0


###################################################

###################################################################
# Pair interaction between bonded atoms
#
# Harmonic potential:
#
#  E= K * (R-R0)^2
#

#bond_style   harmonic

#
# For style harmonic, specify:
#   * bond type
#   * K (energy/distance^2)
#   * R0 (distance)
#

#bond_coeff   1   60.0   1.0
#bond_coeff   2   harmonic 0.1   1.0

###################################################
compute 1 all gyration
variable rog equal c_1
#compute 2 all coord/atom cutoff 1.1

#dump 2 all custom 10000 contact_number.dump id c_2


###
# Set up fixes
###
thermo_style   custom   step  temp enthalpy c_1
fix 1 all nve   ###NVE ensemble

fix 2 all   langevin   1.0 1.0 1.0  158102   ###Langevin integrator Tstart Tstop 1/friction rndseed


##### Sample thermodynamic info  (temperature, energy, pressure, etc.) #####
thermo 1000









############################################################################

###
# set timestep of integrator

timestep 0.01

###
# run integration for a number of steps
###
#run 0
#variable r equal c_1
#if "$r < 63.1" then "quit 1"

# lj potential minimum, cause molecule to explore
run 100000
Generated 0 of 0 mixed pair_coeff terms from geometric mixing rule
Last active /omp style is angle_style cosine/omp
Neighbor list info ...
  update: every = 1 steps, delay = 1 steps, check = yes
  max neighbors/atom: 2000, page size: 100000
  master list distance cutoff = 5.1224615
  ghost atom cutoff = 5.1224615
  binsize = 2.5612308, bins = 781 781 781
  1 neighbor lists, perpetual/occasional/extra = 1 0 0
  (1) pair lj/cut/omp, perpetual
      attributes: half, newton on, omp
      pair build: half/bin/newton/omp
      stencil: half/bin/3d
      bin: standard
WARNING: Communication cutoff 5.12246152962189 is shorter than a bond length based estimate of 5.455. This may lead to errors. (src/comm.cpp:723)
Per MPI rank memory allocation (min/avg/max) = 1862 | 1862 | 1862 Mbytes
   Step          Temp         Enthalpy         c_1      
         0   0              13.283583      114.05129    
      1000   0.98884652     18.231662      113.5208     
      2000   0.96786588     18.516227      113.13721    
      3000   0.99825745     18.794232      112.59731    
      4000   1.0049131      18.169834      112.18933    
      5000   1.0078438      18.675998      111.98135    
      6000   1.0046339      18.581201      111.58159    
      7000   0.99458475     18.628361      111.18147    
      8000   0.98624519     18.71506       110.95204    
      9000   0.99833752     19.093692      110.44669    
     10000   1.0125089      18.98808       109.86303    
     11000   1.006631       19.46218       109.47778    
     12000   1.0168798      19.410963      109.13166    
     13000   0.96965679     19.321162      108.69685    
     14000   0.95979073     19.098686      108.4944     
     15000   1.0153251      19.778333      108.04502    
     16000   0.99782428     19.53732       107.81931    
     17000   1.0010752      19.670119      107.61517    
     18000   0.97036069     19.119085      107.47722    
     19000   1.0185559      19.105875      107.17159    
     20000   1.0191228      19.66389       106.90943    
     21000   1.0199753      20.096224      106.67102    
     22000   1.0062122      19.613072      106.39406    
     23000   1.055048       20.025067      106.18597    
     24000   1.01279        19.417331      106.01987    
     25000   1.0174815      19.828214      105.72085    
     26000   0.99176365     19.470931      105.27157    
     27000   1.0092521      19.598372      104.95066    
     28000   0.98852134     19.855972      104.61183    
     29000   1.0483525      19.452979      104.46485    
     30000   0.94091272     19.859333      104.46492    
     31000   0.97542348     19.634796      104.2622     
     32000   1.0136825      19.732946      104.17954    
     33000   0.98322995     19.633673      104.0609     
     34000   1.0038815      19.763708      103.7431     
     35000   0.98661599     19.441918      103.54371    
     36000   1.0027572      20.511122      103.40993    
     37000   0.98099111     19.635636      103.23432    
     38000   0.99631253     19.406926      103.01127    
     39000   0.96802776     20.026687      102.80957    
     40000   1.0195685      19.844675      102.66017    
     41000   0.99978953     19.588523      102.3088     
     42000   1.0089529      20.206975      101.9235     
     43000   0.98875587     20.06039       102.03004    
     44000   0.97938449     19.884954      101.85644    
     45000   1.0060007      20.372743      101.85945    
     46000   0.99909207     20.080644      101.59312    
     47000   1.0268613      19.805789      101.54498    
     48000   0.95299309     19.931833      101.46434    
     49000   1.0078054      19.913465      101.27786    
     50000   1.051513       19.857928      101.13982    
     51000   1.0240473      20.214639      101.04233    
     52000   1.0075156      19.803863      100.62178    
     53000   0.99407511     19.939377      100.50229    
     54000   1.029819       19.784012      100.3428     
     55000   1.0109956      19.730012      100.09026    
     56000   1.0194891      20.139058      99.925504    
     57000   1.0282215      20.262211      99.853939    
     58000   0.99921182     19.913976      99.595914    
     59000   0.98677006     20.096333      99.535928    
     60000   0.9990895      19.654679      99.451028    
     61000   1.027343       20.047834      99.219453    
     62000   1.000809       20.055342      99.204503    
     63000   1.0027924      20.380785      99.095679    
     64000   1.0229318      20.055925      98.889663    
     65000   1.0207924      20.380671      98.850087    
     66000   1.0029981      20.493343      99.033614    
     67000   0.9975914      19.922738      99.100612    
     68000   0.99007158     19.744174      99.072154    
     69000   0.99763816     20.279415      98.887336    
     70000   0.97811223     19.978202      98.564131    
     71000   1.0125139      19.72754       98.23006     
     72000   0.99860168     19.607688      98.111292    
     73000   0.99029432     19.785232      98.136322    
     74000   0.97487028     20.170394      97.875056    
     75000   1.0464655      20.224736      97.825957    
     76000   1.0059193      19.93735       97.798145    
     77000   1.0178931      19.977787      97.851572    
     78000   1.0072435      20.144917      97.78895     
     79000   1.0030445      20.432358      97.891856    
     80000   1.0260513      19.876893      97.797334    
     81000   0.9740471      19.981596      97.722183    
     82000   0.98082717     20.44887       97.604396    
     83000   1.0074163      20.39905       97.499063    
     84000   1.0500759      20.198556      97.67337     
     85000   1.0051053      19.911415      97.813736    
     86000   1.0075535      20.164799      97.706781    
     87000   1.0342503      20.065307      97.608485    
     88000   0.98964002     20.175806      97.367075    
     89000   1.0058619      20.164859      97.174674    
     90000   1.0114798      20.48468       97.235799    
     91000   1.0008738      19.81677       97.286912    
     92000   0.99012152     20.704187      97.057699    
     93000   1.0230161      19.978986      97.048992    
     94000   0.98427632     19.798825      96.728198    
     95000   1.0404334      20.466039      96.549855    
     96000   0.99275923     20.469057      96.3765      
     97000   0.99696915     20.11992       96.242417    
     98000   1.0395856      20.404485      95.748144    
     99000   0.99375984     20.215026      95.647426    
    100000   1.0013617      19.898877      95.713587    
Loop time of 646.734 on 2 procs for 100000 steps with 1201 atoms

Performance: 133594.376 tau/day, 154.623 timesteps/s
102.7% CPU use with 1 MPI tasks x 2 OpenMP threads

MPI task timing breakdown:
Section |  min time  |  avg time  |  max time  |%varavg| %total
---------------------------------------------------------------
Pair    | 2.18       | 2.18       | 2.18       |   0.0 |  0.34
Bond    | 4.0992     | 4.0992     | 4.0992     |   0.0 |  0.63
Neigh   | 631.05     | 631.05     | 631.05     |   0.0 | 97.58
Comm    | 0.065727   | 0.065727   | 0.065727   |   0.0 |  0.01
Output  | 0.42246    | 0.42246    | 0.42246    |   0.0 |  0.07
Modify  | 8.2243     | 8.2243     | 8.2243     |   0.0 |  1.27
Other   |            | 0.6882     |            |       |  0.11

Nlocal:           1201 ave        1201 max        1201 min
Histogram: 1 0 0 0 0 0 0 0 0 0
Nghost:              0 ave           0 max           0 min
Histogram: 1 0 0 0 0 0 0 0 0 0
Neighs:           7754 ave        7754 max        7754 min
Histogram: 1 0 0 0 0 0 0 0 0 0

Total # of neighbors = 7754
Ave neighs/atom = 6.4562864
Ave special neighs/atom = 1.9983347
Neighbor list builds = 1172
Dangerous builds = 0

# Replace lj potential, now collapse
pair_style      lj/cut 3

# Cutoff simul when gyration under 10
# Variable created with equal requires v_ + 'name'
fix 3 all halt 1000 v_rog < 7

run 3000000
Generated 0 of 0 mixed pair_coeff terms from geometric mixing rule
Last active /omp style is angle_style cosine/omp
Per MPI rank memory allocation (min/avg/max) = 1862 | 1862 | 1862 Mbytes
   Step          Temp         Enthalpy         c_1      
    100000   1.0013617      19.222423      95.713587    
    101000   1.0189048      19.294344      95.653196    
    102000   1.000833       19.787688      95.667742    
    103000   1.0079314      19.364709      95.51181     
    104000   0.97579027     19.047527      95.550404    
    105000   1.0226174      19.274132      95.618039    
    106000   0.95989591     18.845591      95.447321    
    107000   1.0029805      19.152133      95.392424    
    108000   1.0106667      19.342943      95.246154    
    109000   1.0262244      19.77612       95.20151     
    110000   0.96649831     19.543061      94.837769    
    111000   0.98856617     19.16506       94.831316    
    112000   0.95035154     18.862447      94.810519    
    113000   0.99151311     18.847209      94.566246    
    114000   0.9793756      18.954545      94.235742    
    115000   0.97666321     19.182848      94.048357    
    116000   1.0326419      19.259725      93.769661    
    117000   0.97518278     18.80798       93.634516    
    118000   1.0007345      19.021837      93.492451    
    119000   0.99030372     18.639968      93.409086    
    120000   1.0105449      19.299738      93.243232    
    121000   1.0015877      19.043756      92.914127    
    122000   0.97328728     19.342377      92.569182    
    123000   1.0205062      19.087558      92.369598    
    124000   1.0259844      19.565354      92.062378    
    125000   0.94490227     19.13518       91.682529    
    126000   1.006417       18.884703      91.468043    
    127000   1.0499014      19.419507      91.211077    
    128000   1.0047025      18.664809      91.020898    
    129000   0.99110321     18.855354      90.694894    
    130000   0.95291155     18.880625      90.397769    
    131000   0.99561634     18.969877      90.298831    
    132000   0.99702498     18.490587      89.979782    
    133000   1.0253653      19.264486      89.801352    
    134000   0.97371935     18.529357      89.704822    
    135000   1.0337092      19.457086      89.567322    
    136000   1.0250705      18.661136      89.479904    
    137000   1.0071744      18.41515       89.429188    
    138000   0.99227588     19.076809      89.365789    
    139000   1.0097679      18.340867      88.982389    
    140000   1.0026089      18.718989      88.937036    
    141000   1.0055464      19.170298      88.761852    
    142000   1.0012581      18.954747      88.462676    
    143000   1.0036138      18.774256      88.512316    
    144000   0.98192525     18.72832       88.317167    
    145000   0.94672318     19.624578      88.382622    
    146000   0.99749739     18.671228      88.236781    
    147000   0.95284152     19.31938       87.930782    
    148000   1.0090728      18.390587      87.771068    
    149000   1.0132565      19.150483      87.547215    
    150000   0.98464182     18.746262      87.162895    
    151000   1.0510546      19.281754      86.835272    
    152000   1.0496663      18.784074      86.734648    
    153000   1.0067223      18.89641       86.596931    
    154000   1.0082663      18.975533      86.593594    
    155000   1.0277466      18.869417      86.120525    
    156000   0.99208374     18.549971      85.961794    
    157000   1.0108255      18.120575      85.932882    
    158000   0.96038013     18.736975      85.919217    
    159000   0.96257071     18.607517      85.800077    
    160000   1.0197063      19.252794      85.732634    
    161000   1.0078042      18.631791      85.939967    
    162000   1.0084643      18.288511      85.797475    
    163000   1.0178657      19.257803      85.734099    
    164000   1.0304598      18.679197      85.565216    
    165000   0.97873449     18.315827      85.442872    
    166000   0.96879044     18.758316      85.254534    
    167000   0.98118989     18.28502       84.994725    
    168000   1.0188282      18.046979      84.976706    
    169000   1.0177283      18.94217       84.986129    
    170000   1.0189106      18.279996      84.948196    
    171000   0.99156328     18.348658      84.703295    
    172000   0.9911528      18.273796      84.423879    
    173000   1.039416       18.749779      84.26324     
    174000   1.0135313      18.58524       84.185135    
    175000   1.0454346      18.747366      83.998483    
    176000   1.0149805      18.754662      83.691482    
    177000   0.9914594      18.023166      83.432498    
    178000   1.0057976      18.316638      83.150793    
    179000   1.0125065      19.08194       82.752046    
    180000   0.99499229     17.897178      82.405846    
    181000   0.96916895     17.989298      82.076908    
    182000   0.99394004     18.366397      81.864054    
    183000   0.99782012     18.547789      81.586465    
    184000   1.0020219      18.119517      81.337914    
    185000   1.0085125      18.351908      81.08739     
    186000   1.035051       18.597842      80.980872    
    187000   1.0326508      19.089615      81.058967    
    188000   0.97684287     18.59119       81.057643    
    189000   1.0052169      18.424909      80.885243    
    190000   0.97448241     18.531722      80.653285    
    191000   0.97783396     18.788031      80.303555    
    192000   0.93305        18.62721       80.262359    
    193000   1.0279808      18.770946      79.961003    
    194000   1.0232609      18.356112      80.069604    
    195000   1.0127089      18.642417      80.144973    
    196000   0.98851145     18.330025      79.980047    
    197000   0.95319664     18.348332      79.690176    
    198000   1.0090517      18.226981      79.773715    
    199000   1.0058758      18.416022      79.517932    
    200000   1.0416739      18.533549      79.399698    
    201000   1.0307194      18.304909      79.183963    
    202000   0.99943683     18.089853      79.170984    
    203000   0.94745806     17.7236        78.955568    
    204000   1.045151       17.960045      78.92445     
    205000   0.98324088     18.218925      78.971616    
    206000   1.0057585      18.210689      78.805869    
    207000   1.0012218      18.194945      78.701302    
    208000   1.0270861      17.469737      78.684546    
    209000   0.97845868     18.398839      78.451767    
    210000   1.0073629      18.19372       78.177325    
    211000   1.0124759      17.802193      78.174298    
    212000   1.0141606      18.039786      77.972629    
    213000   0.97729657     18.028551      77.847067    
    214000   1.003708       17.962262      77.735247    
    215000   0.97197433     17.931249      77.767714    
    216000   0.9722402      17.853704      77.808662    
    217000   0.96203261     17.705118      77.433081    
    218000   0.95212357     17.347173      77.396028    
    219000   0.97699042     17.679431      77.27264     
    220000   0.97635974     18.136584      76.931076    
    221000   1.0105522      17.72375       76.991552    
    222000   1.0227675      18.292847      76.812218    
    223000   0.9913153      17.701285      77.006631    
    224000   1.0335481      17.586481      76.9755      
    225000   1.0201319      17.742328      76.76048     
    226000   1.0073926      17.924479      76.64061     
    227000   0.98804695     17.944716      76.67888     
    228000   1.0000872      17.612868      76.516631    
    229000   1.0065406      17.907802      76.483185    
    230000   1.0036773      17.788365      76.452801    
    231000   1.0174863      18.192029      76.462357    
    232000   1.0346265      18.020217      76.259187    
    233000   1.0284073      17.800999      76.205695    
    234000   1.0387657      17.814012      76.096988    
    235000   1.0163899      18.092307      76.062071    
    236000   0.95159744     17.406313      76.135723    
    237000   0.98094884     17.665621      76.129906    
    238000   0.96808868     17.644411      76.104613    
    239000   1.0420008      18.270275      75.983038    
    240000   0.95778074     17.981102      75.73933     
    241000   1.0138343      18.424328      75.604558    
    242000   1.0180511      18.081515      75.768613    
    243000   1.0451675      17.962336      75.569917    
    244000   0.97625595     17.745032      75.386937    
    245000   0.99683024     18.240728      75.164785    
    246000   0.99863212     17.6002        75.389103    
    247000   1.0117339      17.508251      75.319676    
    248000   0.99870816     17.785402      75.376769    
    249000   1.0055011      17.689633      75.280511    
    250000   1.0094159      17.662122      75.006638    
    251000   0.99398282     17.823784      74.859232    
    252000   1.0188096      17.819777      74.804564    
    253000   1.0597843      17.483372      74.741245    
    254000   1.0144216      17.394021      74.773698    
    255000   0.99935885     17.603646      74.799348    
    256000   1.0261243      17.854664      74.532064    
    257000   0.98224374     17.938613      74.380763    
    258000   1.0037854      17.407316      74.216949    
    259000   1.0484508      17.945194      74.305219    
    260000   1.0273426      17.294935      74.337078    
    261000   0.97384562     17.535525      74.273289    
    262000   0.97663695     17.615649      74.082911    
    263000   1.0252731      17.354776      74.046347    
    264000   0.99423568     17.417335      73.879448    
    265000   1.0314347      17.825959      73.805192    
    266000   1.0292637      18.065843      73.659702    
    267000   1.0281177      17.943136      73.669472    
    268000   1.0080452      17.600957      73.729979    
    269000   0.98946689     17.941327      73.651021    
    270000   1.0069536      17.853547      73.359709    
    271000   0.96664251     17.626428      73.114883    
    272000   1.0162041      17.923236      73.045455    
    273000   0.97087803     17.46055       72.750207    
    274000   0.98044264     17.665714      72.729732    
    275000   1.0465456      17.620275      72.698303    
    276000   1.0251829      17.755157      72.56664     
    277000   1.0127154      17.853254      72.49139     
    278000   1.0022477      17.818633      72.518917    
    279000   0.97980306     17.372564      72.544191    
    280000   1.0222761      18.082562      72.625067    
    281000   1.0408006      17.418565      72.521217    
    282000   1.0357654      17.88889       72.302991    
    283000   0.96959211     17.388597      72.094156    
    284000   0.9867724      17.723995      71.989317    
    285000   1.0407754      18.157004      71.838983    
    286000   0.97463327     17.876205      71.534073    
    287000   0.976313       17.310568      71.343409    
    288000   0.97168128     17.11965       71.229168    
    289000   1.011143       18.051085      71.296196    
    290000   0.96305819     18.119608      71.212419    
    291000   0.96385531     17.42803       71.13939     
    292000   1.0457913      17.569957      71.054552    
    293000   0.99767612     17.932366      70.860678    
    294000   0.98584178     17.644701      70.93189     
    295000   1.005693       17.090482      71.13548     
    296000   0.9818005      17.879684      71.181969    
    297000   1.016925       17.676524      70.830645    
    298000   1.026178       17.172767      70.61486     
    299000   1.0220879      17.347827      70.423856    
    300000   1.0062482      17.742603      70.303166    
    301000   1.0202727      17.63046       70.245876    
    302000   1.0317383      17.193181      70.263893    
    303000   0.98094117     17.677532      70.161572    
    304000   0.97464176     17.822729      69.932233    
    305000   0.98698519     17.751271      69.83382     
    306000   0.99132592     17.940207      69.761361    
    307000   0.98620155     17.86796       69.592868    
    308000   0.97966851     17.354487      69.488117    
    309000   1.0227852      17.815447      69.317794    
    310000   1.0091888      17.826866      69.205065    
    311000   1.0223718      17.052388      69.306555    
    312000   0.94878127     17.694892      69.22301     
    313000   1.052617       17.735296      69.098126    
    314000   1.0053962      17.848274      69.072957    
    315000   1.0120309      17.520814      68.918369    
    316000   0.98093705     17.742949      68.956803    
    317000   0.99645181     18.05904       68.905053    
    318000   1.0114477      17.818474      68.805387    
    319000   1.0057886      17.724398      68.623918    
    320000   1.0511876      17.853386      68.366029    
    321000   1.0780391      17.79835       68.182077    
    322000   0.96439272     18.14949       68.241951    
    323000   0.9703079      17.688113      68.266094    
    324000   1.0030723      17.846467      68.189835    
    325000   1.0003037      18.21449       67.954792    
    326000   1.0328419      17.248955      67.777977    
    327000   0.97600353     17.592622      67.523604    
    328000   1.0182139      17.507853      67.338997    
    329000   0.9633356      17.687744      67.467518    
    330000   1.0422915      18.068259      67.325102    
    331000   1.0062387      17.001707      67.067525    
    332000   1.045963       17.977409      67.054464    
    333000   1.0025315      17.840937      66.807972    
    334000   0.96574789     17.431372      66.83483     
    335000   1.009581       17.628333      66.731958    
    336000   1.0160351      17.697425      66.74756     
    337000   0.99426904     17.741672      66.687397    
    338000   1.0000398      17.751828      66.677373    
    339000   0.98610516     17.506287      66.718801    
    340000   0.95861646     17.567529      66.476823    
    341000   1.0572186      17.977533      66.48722     
    342000   0.96571155     18.043916      66.559473    
    343000   0.99023824     17.551355      66.582582    
    344000   1.0175168      17.677769      66.594971    
    345000   1.0134855      17.903071      66.735573    
    346000   0.98393705     17.268062      66.766886    
    347000   1.0401534      18.01804       66.695854    
    348000   0.98894168     17.124981      66.469972    
    349000   1.0067407      17.56092       66.453392    
    350000   1.026821       17.642329      66.701469    
    351000   1.0369405      17.391645      66.780378    
    352000   0.9963471      17.455621      66.679726    
    353000   0.95433054     17.4119        66.533069    
    354000   0.99892415     17.688797      66.374912    
    355000   1.0036538      18.274222      66.428979    
    356000   0.98692225     17.259928      66.316351    
    357000   0.98894621     17.999321      66.303262    
    358000   0.98908251     17.514737      66.161376    
    359000   0.97519479     17.67033       66.270463    
    360000   0.98583802     17.405129      66.068806    
    361000   1.013332       17.121891      66.018937    
    362000   0.97107743     17.582985      66.18331     
    363000   1.0040084      17.675598      66.076433    
    364000   1.0048402      17.28415       66.076996    
    365000   0.98877688     17.598401      66.189624    
    366000   1.0214235      17.542683      65.991712    
    367000   0.98880975     17.349356      65.949098    
    368000   1.0098318      17.623444      65.87902     
    369000   0.99534111     17.975508      65.747803    
    370000   0.9864393      17.796942      65.704925    
    371000   0.99796678     17.692389      65.737175    
    372000   1.0005303      17.983454      65.711414    
    373000   1.0021957      18.255643      65.52363     
    374000   0.97667826     17.274831      65.544821    
    375000   0.9523382      17.163354      65.432586    
    376000   1.0138925      17.53173       65.43428     
    377000   1.0109425      17.359836      65.413344    
    378000   1.0297116      17.124868      65.345616    
    379000   1.0026982      17.112118      65.041543    
    380000   1.0437889      18.221748      64.860736    
    381000   1.0129852      17.605345      64.837421    
    382000   1.0096109      17.67038       64.954294    
    383000   0.96321624     17.244086      64.646425    
    384000   1.0035503      17.90409       64.572634    
    385000   1.0044317      17.426707      64.308367    
    386000   0.96604941     17.476817      64.267201    
    387000   1.0509742      17.392861      64.288411    
    388000   1.0207299      17.894198      64.252201    
    389000   1.0151684      17.785003      64.255334    
    390000   1.0047617      17.157326      63.970993    
    391000   1.0146152      17.953319      64.074372    
    392000   1.0055476      17.305284      63.977839    
    393000   1.0202484      17.876922      64.126429    
    394000   0.99354447     17.317234      64.043212    
    395000   0.97684327     18.070422      64.099728    
    396000   0.99632155     17.44243       63.857524    
    397000   0.97879796     17.438294      63.650281    
    398000   1.0350194      18.018928      63.707658    
    399000   1.0207868      17.529288      63.671046    
    400000   1.0368927      17.385237      63.586607    
    401000   1.0018081      17.703463      63.620848    
    402000   0.98687435     17.640272      63.68438     
    403000   1.0240821      17.579873      63.625074    
    404000   1.0019103      18.080314      63.477735    
    405000   0.98099831     17.505563      63.36405     
    406000   0.98984121     17.091464      63.255776    
    407000   1.0151149      17.69553       63.244526    
    408000   1.0028546      17.385363      63.050115    
    409000   0.93540857     17.450154      63.050083    
    410000   1.0568207      17.582084      63.13556     
    411000   0.96807816     17.974579      62.892875    
    412000   1.0310565      17.668766      62.845514    
    413000   1.0219901      17.268402      62.882619    
    414000   1.0240524      17.535518      62.799894    
    415000   1.056104       17.528343      62.598476    
    416000   0.99390516     18.075362      62.477309    
    417000   1.0214884      17.735567      62.253486    
    418000   1.0263005      17.700357      62.246822    
    419000   0.96986313     17.122852      62.001105    
    420000   1.0590089      18.261585      61.8868      
    421000   1.0303776      17.432824      61.718117    
    422000   1.0465768      17.551141      61.599547    
    423000   1.0388747      17.57828       61.57933     
    424000   0.99468999     17.701444      61.477667    
    425000   1.0238343      17.714905      61.360555    
    426000   1.0212006      17.537916      61.120365    
    427000   0.98629954     17.712013      61.085222    
    428000   1.0199443      17.484643      61.30315     
    429000   1.0178581      17.837213      61.318168    
    430000   0.98783619     17.739046      61.347344    
    431000   1.0051449      17.475219      61.288656    
    432000   0.99167195     17.266636      61.053291    
    433000   1.0095982      17.58019       60.817285    
    434000   1.0435349      17.303204      60.714488    
    435000   0.99468413     17.665063      60.70649     
    436000   0.99921642     18.088545      60.760289    
    437000   1.002021       17.341797      60.813338    
    438000   1.0748388      17.078725      60.748702    
    439000   0.979428       17.187343      60.583988    
    440000   0.99564568     17.958684      60.434979    
    441000   0.98932712     17.268544      60.510946    
    442000   1.0163944      17.60655       60.386346    
    443000   1.0309059      17.95943       60.131526    
    444000   1.0231074      17.806846      60.008601    
    445000   0.98272058     17.510312      59.956762    
    446000   1.011338       17.853193      59.909094    
    447000   0.98656262     18.02537       59.784159    
    448000   0.99810464     17.110431      59.778396    
    449000   0.95929855     18.154827      59.696874    
    450000   1.0067846      17.249243      59.822513    
    451000   0.98488982     16.343308      59.786555    
    452000   1.056556       17.37742       59.495964    
    453000   0.96454906     16.713982      59.413259    
    454000   1.0045554      17.568184      59.191446    
    455000   0.98859292     18.36744       59.038961    
    456000   1.0147744      17.138079      58.897401    
    457000   1.0287121      17.39241       58.805116    
    458000   0.99105035     17.90964       58.713899    
    459000   1.0189369      17.569372      58.728609    
    460000   1.0156999      17.520855      58.591502    
    461000   1.0327028      17.651622      58.387565    
    462000   0.96233949     17.226219      58.322191    
    463000   1.0222876      17.687741      58.269204    
    464000   0.97652499     17.228391      58.303698    
    465000   1.0448788      17.434839      58.344443    
    466000   1.0168281      17.660189      58.262646    
    467000   1.0435223      17.627383      58.262563    
    468000   0.99386455     17.444757      58.219403    
    469000   1.0383699      17.862082      58.260525    
    470000   1.019393       17.479299      58.100861    
    471000   0.98388377     17.763629      58.005866    
    472000   0.99242919     16.908476      57.81362     
    473000   1.0170089      17.40559       57.77942     
    474000   0.99310921     17.815554      57.695224    
    475000   1.0124238      17.873435      57.560456    
    476000   1.0569311      17.958232      57.393002    
    477000   0.99723783     17.692922      57.191664    
    478000   1.017724       16.975988      57.122998    
    479000   1.0175126      17.513919      57.12773     
    480000   0.9806195      17.24672       57.216402    
    481000   0.98747994     17.462337      57.110571    
    482000   1.0444709      17.691411      57.019863    
    483000   1.013848       17.558115      57.135262    
    484000   1.0059215      17.480332      56.870138    
    485000   1.0062695      17.844905      56.823541    
    486000   0.99160846     17.708146      56.798007    
    487000   0.98572006     17.228489      56.701515    
    488000   0.98920602     17.624266      56.69903     
    489000   1.0251607      17.305411      56.525197    
    490000   0.9570043      18.232646      56.459176    
    491000   0.96926876     17.926586      56.593035    
    492000   1.0029876      17.231489      56.790345    
    493000   0.98114075     17.322459      56.895039    
    494000   0.99540739     17.757335      57.014511    
    495000   1.0257299      18.007952      56.897331    
    496000   1.0087766      17.625218      56.895637    
    497000   1.0434808      17.715761      56.78615     
    498000   0.97327914     17.219271      56.82224     
    499000   1.0047917      17.542564      56.833974    
    500000   0.98845054     17.88102       56.628566    
    501000   1.0052423      18.127384      56.530327    
    502000   0.9814672      16.872242      56.746562    
    503000   1.0119591      17.181384      56.659338    
    504000   1.029654       17.815405      56.336475    
    505000   1.0417191      18.05508       56.372295    
    506000   0.98310102     17.492952      56.272994    
    507000   0.99458037     17.162127      56.171426    
    508000   1.0081616      17.487646      56.255608    
    509000   1.0283855      18.04954       56.20303     
    510000   0.98657213     17.937554      56.208241    
    511000   0.94789643     17.443495      56.092747    
    512000   0.96773734     17.111929      56.150789    
    513000   1.0059379      17.364075      55.949232    
    514000   0.99445666     17.370637      55.836519    
    515000   1.0083474      17.74909       55.655563    
    516000   1.0324098      17.812546      55.281499    
    517000   0.96869473     16.982746      55.359326    
    518000   0.98139291     17.386913      55.368126    
    519000   0.98390923     17.550613      55.211687    
    520000   0.99941283     17.121141      54.92463     
    521000   1.0079937      17.338797      54.83681     
    522000   0.99335221     17.760499      54.92088     
    523000   0.9733399      17.225928      54.836986    
    524000   0.98912693     17.359057      54.648591    
    525000   1.006967       17.884396      54.88957     
    526000   0.94501244     17.679435      54.69668     
    527000   1.0266691      18.029784      54.84826     
    528000   0.99933284     17.340431      54.946212    
    529000   0.97421379     17.192513      55.017076    
    530000   0.98576079     17.137121      54.909807    
    531000   0.96542289     17.11094       54.792293    
    532000   1.0122254      18.216199      54.665777    
    533000   1.0135497      17.369117      54.366788    
    534000   1.0276773      17.620966      54.160216    
    535000   0.98094478     17.530108      54.010223    
    536000   1.0417899      17.580394      53.893767    
    537000   1.0100717      17.931688      53.541956    
    538000   1.0118394      17.239135      53.431837    
    539000   1.0047866      17.362023      53.211518    
    540000   0.98554624     17.040968      52.988272    
    541000   0.99871198     17.55614       52.966175    
    542000   1.0070586      17.278376      53.078193    
    543000   0.99500398     17.509172      53.064296    
    544000   1.0023819      17.285043      52.981824    
    545000   0.98262443     17.344516      52.914399    
    546000   1.0179287      17.980255      52.863728    
    547000   1.0628482      17.935339      53.03793     
    548000   0.96866439     17.498435      52.966232    
    549000   0.96929989     17.939356      52.923973    
    550000   1.0464554      17.744378      52.808427    
    551000   1.0245031      17.601185      52.877063    
    552000   0.96117739     17.222558      52.905633    
    553000   1.0411849      17.444423      52.793279    
    554000   0.94419965     17.43183       52.886671    
    555000   0.9783538      17.519988      52.672496    
    556000   1.0347081      17.664852      52.838829    
    557000   0.99847894     17.362073      52.794734    
    558000   1.0364287      17.179592      52.622937    
    559000   0.98109266     17.723223      52.548787    
    560000   0.97700128     17.330336      52.55196     
    561000   1.0284265      17.512298      52.504494    
    562000   0.9730239      17.622172      52.36913     
    563000   1.0124466      17.120011      52.400944    
    564000   1.0652896      17.762625      52.206729    
    565000   1.0013012      17.306776      52.103029    
    566000   0.9526361      17.163034      52.235378    
    567000   1.0127385      18.137066      52.090481    
    568000   0.95743925     17.221758      52.023189    
    569000   0.97747166     17.331609      51.947994    
    570000   1.0258199      17.015565      51.804923    
    571000   0.99994135     17.470419      51.878912    
    572000   0.98230567     17.366048      51.787911    
    573000   0.94642617     17.353717      51.602791    
    574000   1.0117972      16.953752      51.377953    
    575000   0.97238745     17.573942      51.341884    
    576000   1.0102184      17.531666      51.347575    
    577000   1.0014403      17.591959      51.242794    
    578000   1.0183152      17.499897      51.250584    
    579000   0.9598108      17.696815      51.260556    
    580000   1.0299581      17.617481      51.156171    
    581000   1.001738       17.024534      50.898344    
    582000   1.032973       17.272005      50.920826    
    583000   0.97473167     17.488154      50.720203    
    584000   0.98414251     17.399272      50.636389    
    585000   1.0145692      17.744678      50.421714    
    586000   1.0180798      16.844914      50.339547    
    587000   0.97528222     17.705507      50.338157    
    588000   1.0273414      18.033085      50.177124    
    589000   0.99939651     17.752799      49.975383    
    590000   0.98300609     17.353903      49.905871    
    591000   1.0199767      17.184178      49.768623    
    592000   0.99279625     17.596251      49.582553    
    593000   1.0221937      17.374663      49.675488    
    594000   1.045236       17.925482      49.711107    
    595000   1.0055908      17.444827      49.561523    
    596000   1.0348473      17.18806       49.424767    
    597000   0.98579645     17.634302      49.245893    
    598000   1.0375224      17.287996      49.156386    
    599000   0.9966153      17.792609      49.083799    
    600000   0.95254078     17.178499      48.89883     
    601000   0.99520128     17.858401      48.917151    
    602000   0.99628648     16.914651      48.85046     
    603000   0.97229336     17.707606      48.717935    
    604000   1.0287317      17.872111      48.686499    
    605000   0.97215454     17.356351      48.483429    
    606000   0.97137601     17.574209      48.445052    
    607000   0.98514868     16.928417      48.453179    
    608000   0.98181124     17.604461      48.488745    
    609000   1.0031459      17.400547      48.459049    
    610000   1.0372282      17.76754       48.419014    
    611000   0.99002805     17.029716      48.188373    
    612000   1.040561       17.480334      48.103965    
    613000   0.99255001     17.117457      47.999289    
    614000   1.0220785      17.90527       47.924825    
    615000   1.0335642      17.716038      47.920232    
    616000   1.0161519      16.91627       47.657452    
    617000   0.98058757     17.083366      47.44884     
    618000   1.0002768      17.664779      47.177554    
    619000   1.0170829      17.755721      47.110706    
    620000   0.98956656     17.240307      46.807697    
    621000   0.9738389      17.467033      46.790503    
    622000   1.0104512      17.222284      46.525731    
    623000   0.98672144     17.11014       46.348603    
    624000   1.0306284      17.18464       46.300362    
    625000   0.96848417     17.291506      46.174715    
    626000   0.98843837     17.48873       45.985219    
    627000   0.99843628     17.017231      45.865931    
    628000   1.0072227      17.584956      45.981256    
    629000   0.98901998     17.115825      46.053703    
    630000   0.98983285     16.904832      45.978338    
    631000   1.010554       17.538608      45.811035    
    632000   0.99972513     17.415722      45.711544    
    633000   1.0080566      17.203631      45.587891    
    634000   1.0587479      17.348621      45.402278    
    635000   1.0115392      17.835608      45.6628      
    636000   0.99124191     17.556448      45.484674    
    637000   1.002678       17.812258      45.522286    
    638000   1.0107437      17.303308      45.317865    
    639000   0.98390106     17.391732      45.066154    
    640000   0.94326463     17.78352       44.937829    
    641000   0.99951792     17.440331      44.924693    
    642000   1.0347679      17.593353      45.053247    
    643000   0.99195213     17.665359      44.862772    
    644000   0.98665644     17.501823      45.127838    
    645000   0.97631068     17.402492      45.092006    
    646000   1.0106695      17.226873      45.084188    
    647000   0.97631062     17.533708      45.023638    
    648000   0.97775515     16.937005      45.045727    
    649000   1.0071044      17.5073        45.000091    
    650000   1.0163367      17.488061      44.905391    
    651000   1.0094706      17.439634      44.681828    
    652000   0.9963117      17.605065      44.43166     
    653000   1.0039992      17.064554      44.272034    
    654000   1.0041095      17.800347      44.304165    
    655000   1.0247318      17.657064      44.078522    
    656000   1.0149423      17.517525      43.890563    
    657000   0.98704492     17.514338      43.564891    
    658000   1.0175111      17.488926      43.484203    
    659000   1.0314916      17.89642       43.477394    
    660000   0.95790435     17.450788      43.522161    
    661000   1.0106839      17.360326      43.475017    
    662000   1.0208063      17.598799      43.366498    
    663000   1.0425351      17.880397      43.373348    
    664000   0.99169612     17.360713      43.144318    
    665000   1.0328785      17.360661      42.909294    
    666000   1.0360221      17.38302       42.90438     
    667000   0.97699544     17.24036       42.872611    
    668000   0.98949975     17.174289      42.828874    
    669000   1.0013882      17.15106       42.602336    
    670000   0.96872614     17.453108      42.564984    
    671000   1.0365192      17.006392      42.341868    
    672000   0.98600817     17.370759      42.067214    
    673000   1.0054341      17.538206      41.988649    
    674000   1.0008425      17.087866      41.970283    
    675000   1.0096085      17.77238       42.094483    
    676000   1.0075085      17.371347      42.101345    
    677000   0.99959144     17.396671      41.812371    
    678000   1.0276188      17.360076      41.724511    
    679000   1.0076767      17.150746      41.705133    
    680000   1.0181392      16.875488      41.599245    
    681000   0.95211789     17.051715      41.526909    
    682000   1.0073139      17.869457      41.356698    
    683000   1.0336869      17.651832      41.193979    
    684000   1.0228955      17.638862      41.288377    
    685000   0.99090498     17.110376      41.114999    
    686000   1.0495881      17.552153      40.928615    
    687000   1.0137634      17.328116      40.666053    
    688000   1.0178413      17.554215      40.528736    
    689000   1.032616       17.467964      40.559222    
    690000   0.97160639     17.511565      40.353738    
    691000   0.98927033     17.70301       40.129487    
    692000   0.99725186     17.378771      40.118971    
    693000   1.0128509      18.035932      40.185281    
    694000   0.9949329      17.361804      40.121862    
    695000   1.0199402      17.792676      40.03317     
    696000   1.0364314      17.744084      40.009109    
    697000   0.95308588     17.953909      39.848615    
    698000   0.99405897     17.42842       39.734606    
    699000   1.0019844      17.136047      39.54991     
    700000   1.0249709      17.569715      39.69776     
    701000   0.97616743     17.316123      39.483234    
    702000   0.98160585     16.795453      39.280595    
    703000   0.99566465     17.34099       39.303362    
    704000   0.99884733     16.941345      39.323966    
    705000   1.0306927      17.843899      39.14729     
    706000   0.96389642     17.39434       38.952067    
    707000   0.97885324     17.782787      38.82303     
    708000   0.97969071     16.900227      38.549714    
    709000   1.0104141      17.661993      38.54994     
    710000   0.98802253     17.343316      38.419688    
    711000   0.97714403     16.903809      38.355738    
    712000   1.0102388      16.70509       38.3071      
    713000   0.94753274     17.307773      38.433095    
    714000   0.99865547     17.245488      38.314514    
    715000   0.94117867     17.382275      38.125301    
    716000   0.99775317     17.596611      37.936063    
    717000   0.98083992     17.080231      38.118226    
    718000   0.99582882     17.542472      37.887552    
    719000   1.0178628      17.558207      37.896561    
    720000   0.96654777     16.820596      37.912414    
    721000   1.0266208      17.492819      37.759934    
    722000   1.0066503      17.743745      37.858       
    723000   0.98826981     16.937012      37.967633    
    724000   0.94771628     17.190406      37.905495    
    725000   1.028265       17.157523      37.934535    
    726000   0.97938168     17.323923      37.648793    
    727000   0.99258644     17.580384      37.55306     
    728000   0.99250571     17.33455       37.622819    
    729000   1.0183367      17.435239      37.662937    
    730000   0.98452455     17.342856      37.737424    
    731000   1.0248526      17.588609      37.430121    
    732000   0.97761569     17.261611      37.43465     
    733000   0.99437063     17.362368      37.537013    
    734000   1.0188667      17.182355      37.576083    
    735000   1.0377351      17.254456      37.506598    
    736000   0.96737714     17.326914      37.604035    
    737000   1.0034161      16.923746      37.597363    
    738000   0.97136487     17.089883      37.446152    
    739000   0.99767267     16.916589      37.59427     
    740000   1.0498469      17.295458      37.431305    
    741000   0.99004726     17.696169      37.364472    
    742000   0.98536298     17.111466      37.251531    
    743000   0.9709311      16.84479       37.175563    
    744000   1.0325462      18.067814      37.128069    
    745000   1.0346455      17.426434      37.035676    
    746000   1.0439224      17.527524      36.974503    
    747000   0.97392517     17.094987      37.1049      
    748000   1.0298902      17.91689       37.117467    
    749000   1.0567348      17.790334      37.077667    
    750000   0.99313159     16.90604       37.245552    
    751000   1.0166287      17.471957      37.278376    
    752000   0.97708346     17.739731      37.386215    
    753000   0.99322197     17.462206      37.427899    
    754000   1.0226942      18.01556       37.461468    
    755000   0.99050288     17.199615      37.528577    
    756000   1.0035925      17.41514       37.354798    
    757000   1.0144863      17.015692      37.306323    
    758000   0.96902259     17.837493      37.251344    
    759000   1.0261047      17.647214      37.305866    
    760000   1.0189361      17.452638      37.340237    
    761000   0.96793304     17.562321      37.526942    
    762000   0.96313105     17.667309      37.40449     
    763000   0.9653203      17.438779      37.227506    
    764000   1.0326287      17.939697      37.138038    
    765000   1.0185448      17.493015      36.979006    
    766000   1.0006471      17.230894      36.878659    
    767000   1.0260545      17.232694      36.669346    
    768000   0.97828552     16.842142      36.679046    
    769000   1.0349504      17.290413      36.668847    
    770000   0.96342319     16.956748      36.53866     
    771000   1.0186444      17.290609      36.546928    
    772000   1.0227782      17.357582      36.599479    
    773000   1.0248986      17.671206      36.573104    
    774000   0.98890876     17.070892      36.662986    
    775000   1.0031786      17.521381      36.653732    
    776000   0.99317877     17.03309       36.67585     
    777000   0.9689281      17.217073      36.461339    
    778000   0.99492926     17.200669      36.208048    
    779000   1.0014426      17.708202      36.153603    
    780000   0.94669937     17.288938      36.157235    
    781000   1.0286268      17.485271      36.170686    
    782000   1.0150038      17.244139      36.271873    
    783000   0.9818627      17.71658       36.41101     
    784000   0.99125249     17.360012      36.240506    
    785000   0.94848312     17.351139      36.419169    
    786000   1.0034251      17.027002      36.445894    
    787000   1.0425578      17.858053      36.309308    
    788000   0.97776798     18.07213       36.240644    
    789000   0.97490768     17.167138      36.31047     
    790000   1.0042917      17.13616       36.116087    
    791000   1.0017099      17.258659      36.126682    
    792000   1.0082131      17.194353      35.900994    
    793000   1.0194993      17.460772      35.970197    
    794000   0.97935234     16.890781      35.949465    
    795000   1.0104953      17.664248      35.948658    
    796000   0.97520895     17.271958      35.945583    
    797000   0.9763673      17.34494       36.020182    
    798000   0.99081103     17.220328      36.145397    
    799000   0.97961064     16.650867      35.944699    
    800000   1.0116794      17.338575      36.03677     
    801000   1.0398937      17.638103      35.97533     
    802000   1.0340746      17.946109      36.037339    
    803000   1.0133355      17.190424      35.975407    
    804000   0.97630666     16.888834      35.912568    
    805000   0.99093157     17.570732      35.893351    
    806000   0.98574103     17.200416      35.863653    
    807000   1.0186153      16.988468      35.836666    
    808000   1.0052654      17.113838      35.627564    
    809000   0.96970703     17.636903      35.473161    
    810000   1.0010547      17.304975      35.289684    
    811000   1.0198098      17.340458      35.134794    
    812000   1.0429833      17.572842      35.077641    
    813000   1.0272118      17.527517      34.994508    
    814000   0.99599529     17.292117      35.031946    
    815000   1.0056532      17.101133      34.991383    
    816000   1.0081068      16.860558      34.696279    
    817000   1.0103867      17.005126      34.659336    
    818000   1.0087081      17.331905      34.592929    
    819000   0.94915467     17.177919      34.313215    
    820000   0.95783522     17.432354      34.276902    
    821000   0.98079736     17.580286      34.03457     
    822000   1.0053498      17.562559      34.016504    
    823000   1.0060478      17.826691      33.83253     
    824000   1.0247916      17.527086      33.772899    
    825000   0.97087004     16.998541      33.569125    
    826000   1.0149068      17.313141      33.550897    
    827000   0.97683952     17.427854      33.670675    
    828000   0.97170561     17.452783      33.656185    
    829000   1.0120063      17.244756      33.41179     
    830000   0.99994556     17.365181      33.253709    
    831000   1.0166574      17.094599      33.160625    
    832000   1.0166126      17.8925        33.072199    
    833000   1.0171445      17.381663      32.723806    
    834000   1.0182261      17.399797      32.583352    
    835000   1.0287571      17.295493      32.744823    
    836000   0.9692911      17.165298      32.653508    
    837000   1.0212409      17.113975      32.446398    
    838000   1.0399618      17.582791      32.271838    
    839000   0.98387274     16.536066      32.399638    
    840000   1.0353613      17.92059       32.410042    
    841000   0.99871038     17.681387      32.292209    
    842000   1.0274758      17.401828      32.126385    
    843000   1.0442631      17.14839       32.046532    
    844000   0.99619227     17.55015       31.934937    
    845000   0.97607391     16.95369       31.683753    
    846000   1.0432025      16.944505      31.691874    
    847000   0.95620869     17.431319      31.654398    
    848000   1.0376738      18.091325      31.627555    
    849000   0.9820127      17.050169      31.751786    
    850000   0.98492518     16.844924      31.710711    
    851000   1.0223142      17.724097      31.40396     
    852000   1.0051388      17.769417      31.328346    
    853000   1.0409639      17.273627      31.15145     
    854000   0.98331212     17.084639      31.005128    
    855000   1.0015203      17.212667      30.918709    
    856000   0.99673566     17.486898      30.783731    
    857000   1.0314087      17.353932      30.866238    
    858000   1.0001551      16.897069      30.830723    
    859000   0.97729895     17.679378      30.639145    
    860000   1.0331834      17.259953      30.823439    
    861000   1.005794       17.38988       30.830949    
    862000   0.96829288     16.995085      30.61349     
    863000   0.95818959     17.041972      30.687846    
    864000   1.0179604      17.206265      30.735107    
    865000   0.95410288     16.922269      30.926053    
    866000   1.0235505      17.692705      30.894818    
    867000   1.0139955      17.494149      30.906841    
    868000   0.98764149     17.327303      30.885005    
    869000   1.0096436      17.233251      30.935152    
    870000   0.97669981     17.527277      30.764445    
    871000   0.98548352     17.711138      30.691481    
    872000   1.0381619      16.96206       30.461852    
    873000   1.0160043      17.575768      30.523804    
    874000   1.0019241      17.266326      30.256191    
    875000   0.97683184     17.399525      30.124756    
    876000   0.98023957     16.895918      30.284193    
    877000   0.99153014     17.396192      30.153733    
    878000   0.98116965     17.567634      29.993224    
    879000   1.0246808      17.421661      29.993604    
    880000   1.0258561      17.433538      29.9989      
    881000   0.98296238     17.465497      29.982899    
    882000   1.0353793      16.98026       29.95993     
    883000   0.97625756     17.266648      29.818417    
    884000   1.0208066      17.542591      29.847883    
    885000   1.0076456      17.857017      29.802245    
    886000   0.99505148     17.392955      29.816645    
    887000   1.0119286      16.867429      29.896313    
    888000   1.0510345      17.102563      29.7864      
    889000   1.0071135      17.286538      29.613844    
    890000   1.0636097      17.126775      29.544873    
    891000   1.0422429      17.60062       29.295742    
    892000   0.9792058      17.243476      29.219893    
    893000   1.019424       17.365979      29.077312    
    894000   0.98553318     17.02525       29.027312    
    895000   0.94863717     17.043118      28.988486    
    896000   1.0090743      17.503836      29.078663    
    897000   0.9984311      17.496952      29.014188    
    898000   1.0053539      17.940276      29.108161    
    899000   0.99126049     17.281379      28.850011    
    900000   1.0356073      17.225849      28.992473    
    901000   1.0460763      17.862797      28.790399    
    902000   1.033388       17.059032      28.846059    
    903000   0.99395412     17.338776      28.558919    
    904000   1.0037826      17.190176      28.400546    
    905000   1.0362237      16.83006       28.456764    
    906000   1.0020773      17.400261      28.543545    
    907000   0.98858508     17.375077      28.39431     
    908000   0.96707383     17.36191       28.265672    
    909000   0.98136552     17.801296      28.510515    
    910000   0.97092196     17.274094      28.481013    
    911000   1.002002       17.41009       28.528733    
    912000   1.0663817      17.376334      28.383748    
    913000   1.0295247      17.265295      28.561261    
    914000   0.99589122     16.958437      28.767581    
    915000   0.99038571     16.662351      28.670724    
    916000   0.97263364     17.401609      28.840296    
    917000   1.0225061      17.047511      28.871901    
    918000   0.95196323     16.633456      28.878546    
    919000   0.99601577     17.329217      28.888831    
    920000   0.96219898     16.933469      28.837373    
    921000   0.98589375     17.304344      28.63596     
    922000   1.0063249      17.808684      28.521196    
    923000   1.0094864      17.226083      28.474513    
    924000   1.0178188      17.176363      28.397338    
    925000   0.97706697     17.340894      28.301335    
    926000   0.99433214     17.06936       27.835451    
    927000   1.0138249      17.542152      27.813812    
    928000   1.0429431      17.585782      27.623948    
    929000   1.0086546      17.388917      27.587534    
    930000   0.96570511     17.49481       27.752655    
    931000   1.015118       17.731041      27.743195    
    932000   0.95517989     16.935017      27.785872    
    933000   1.0245265      17.446728      27.712789    
    934000   0.98947292     16.861172      27.776251    
    935000   0.99796855     17.426721      27.694898    
    936000   1.0340582      17.700077      27.700555    
    937000   0.99460917     17.077136      27.641315    
    938000   0.99491169     16.976854      27.560655    
    939000   0.98453347     16.782793      27.73241     
    940000   0.97491898     17.622838      27.81071     
    941000   1.0337007      17.481802      27.673043    
    942000   0.99703598     17.29521       27.548       
    943000   1.0137321      17.17143       27.585873    
    944000   1.0074167      17.574876      27.64721     
    945000   0.95921273     17.292954      27.752954    
    946000   0.96943135     17.273084      27.656527    
    947000   1.0000347      17.341325      27.49659     
    948000   1.041604       17.333202      27.469169    
    949000   1.0234957      17.447725      27.491543    
    950000   0.99097087     17.484404      27.474043    
    951000   0.9703082      17.218684      27.58745     
    952000   1.0163511      16.974818      27.592803    
    953000   1.0080078      17.160385      27.533441    
    954000   0.9980191      17.521136      27.480587    
    955000   1.0225726      17.465252      27.606009    
    956000   1.0017845      16.984018      27.523084    
    957000   1.005432       17.72549       27.484569    
    958000   1.0292952      16.959927      27.439605    
    959000   1.0223071      17.678523      27.242249    
    960000   0.97159382     17.116954      27.344959    
    961000   0.95695815     17.310985      27.220451    
    962000   0.99592251     17.4161        27.078871    
    963000   1.0116241      17.846132      27.018835    
    964000   0.99832347     17.256534      26.919454    
    965000   0.99735171     17.2366        26.735833    
    966000   1.0088708      17.620932      26.584783    
    967000   1.0661166      17.692597      26.30788     
    968000   1.0136109      17.286459      26.315105    
    969000   0.97901837     16.678961      26.24848     
    970000   1.036871       17.194448      26.233968    
    971000   1.0112528      17.426805      26.105739    
    972000   1.0012653      17.689695      26.108524    
    973000   0.99451676     17.427579      25.921392    
    974000   0.99937042     17.53211       25.897806    
    975000   1.0428852      17.561748      25.826977    
    976000   1.0136939      17.655614      25.90131     
    977000   1.0368578      17.000115      25.991984    
    978000   0.96934178     17.152365      26.008806    
    979000   1.0211306      16.998207      26.155402    
    980000   1.0518974      17.828098      26.033406    
    981000   0.97546714     17.543289      26.064414    
    982000   1.0041144      17.506636      25.910862    
    983000   0.95127164     17.29372       25.976821    
    984000   1.016702       17.355138      26.017572    
    985000   1.0292823      17.270783      26.000194    
    986000   1.0343142      17.734411      25.922819    
    987000   0.9801875      16.9303        25.867706    
    988000   0.99053627     16.928231      25.823245    
    989000   1.0043018      16.963518      25.811139    
    990000   1.0206287      17.433915      25.74385     
    991000   0.94371406     17.241669      25.717507    
    992000   0.99645653     16.887361      25.362161    
    993000   0.97662769     17.002642      25.46197     
    994000   1.0175154      17.599643      25.374984    
    995000   0.99674697     17.257831      25.196658    
    996000   1.0103579      16.744325      25.068119    
    997000   0.99387635     16.803857      24.895635    
    998000   0.9856481      16.959877      24.753207    
    999000   0.99695471     17.744299      24.769449    
   1000000   0.98099424     16.584963      24.777113    
   1001000   1.0619554      17.149652      24.746702    
   1002000   1.0066445      17.180909      24.544832    
   1003000   1.0177991      17.613588      24.408176    
   1004000   1.0148598      16.917708      24.453264    
   1005000   0.98019386     16.945529      24.401914    
   1006000   1.0214409      17.546858      24.189019    
   1007000   1.0378527      17.002285      24.260981    
   1008000   0.99867042     16.456512      24.35919     
   1009000   1.000906       17.625186      24.08091     
   1010000   1.0092803      16.439149      24.151183    
   1011000   0.99401147     17.008463      24.279427    
   1012000   0.96637514     16.829482      24.099986    
   1013000   1.0036465      17.196782      23.99212     
   1014000   0.98026423     17.681939      23.864663    
   1015000   1.0104918      17.193308      23.736914    
   1016000   0.97556374     17.15653       23.643607    
   1017000   1.0328623      17.08813       23.672693    
   1018000   0.99689705     16.805995      23.693993    
   1019000   1.0007274      17.479692      23.510729    
   1020000   0.96173441     17.483574      23.4423      
   1021000   0.983747       17.010453      23.578334    
   1022000   0.98156012     17.357809      23.473614    
   1023000   1.0288452      16.859538      23.546294    
   1024000   0.99939973     17.251291      23.484988    
   1025000   1.0355938      16.581299      23.394252    
   1026000   1.0037731      17.32995       23.42487     
   1027000   1.0196707      17.031438      23.387916    
   1028000   1.0058013      17.024251      23.332659    
   1029000   1.02679        16.427579      23.200238    
   1030000   0.96770165     17.278402      23.12685     
   1031000   0.98046679     16.998758      23.015783    
   1032000   0.99433419     16.999265      22.835523    
   1033000   0.99181952     17.357913      22.761209    
   1034000   0.98722326     16.789103      22.633297    
   1035000   0.97255842     16.994306      22.644886    
   1036000   0.99818203     16.60871       22.339644    
   1037000   1.0180503      16.558842      22.062629    
   1038000   1.0362261      17.41239       22.113117    
   1039000   0.99055143     17.33361       22.16869     
   1040000   1.0382337      17.161866      22.396086    
   1041000   0.98344224     17.154779      22.370892    
   1042000   0.99987961     17.474273      22.279127    
   1043000   0.98647907     17.878738      22.198616    
   1044000   1.0120296      16.872989      22.139868    
   1045000   1.014095       17.622447      22.168708    
   1046000   1.0370199      16.887285      22.261833    
   1047000   0.94489468     16.747316      22.121153    
   1048000   1.0014693      17.015927      22.036827    
   1049000   0.99252521     16.827955      21.844049    
   1050000   0.98667063     16.989535      21.775149    
   1051000   1.0438443      17.282342      21.719052    
   1052000   1.0201452      17.003846      21.644158    
   1053000   0.99349537     17.842228      21.675666    
   1054000   1.0413703      17.278599      21.76318     
   1055000   1.0175036      17.116627      21.741352    
   1056000   1.0126487      17.085862      21.684841    
   1057000   1.0137125      17.325955      21.627952    
   1058000   0.9988307      17.630277      21.540628    
   1059000   1.003765       17.085875      21.767282    
   1060000   1.0163185      17.613593      21.669743    
   1061000   0.96943102     17.249094      21.509671    
   1062000   0.9877189      16.752625      21.446472    
   1063000   1.0160789      17.019278      21.219661    
   1064000   0.9912486      16.511679      21.064052    
   1065000   1.0020099      17.175382      21.21834     
   1066000   1.0261918      17.301701      21.34303     
   1067000   0.99709253     17.082207      21.332687    
   1068000   0.9671124      17.113088      21.34774     
   1069000   0.9887409      17.149152      21.468148    
   1070000   1.0051095      17.014994      21.384217    
   1071000   1.0266428      17.103337      21.259814    
   1072000   0.97434612     17.166591      21.150251    
   1073000   0.98304739     16.925308      21.102799    
   1074000   0.9884744      17.779316      21.081823    
   1075000   1.023826       17.430607      20.74206     
   1076000   1.0529382      17.454348      20.534773    
   1077000   0.98551819     16.736263      20.552017    
   1078000   1.0119075      17.816609      20.53477     
   1079000   0.99471669     16.813076      20.624197    
   1080000   0.99571335     17.382692      20.539898    
   1081000   1.0357822      17.396443      20.68884     
   1082000   0.98084556     17.364285      20.537059    
   1083000   0.96971953     17.85477       20.517004    
   1084000   1.0437653      17.499111      20.408978    
   1085000   0.97830532     17.22693       20.329766    
   1086000   0.98258084     16.921204      20.179404    
   1087000   0.98802712     16.598164      20.006551    
   1088000   0.99698943     17.083509      20.240222    
   1089000   1.0039245      16.891792      20.183224    
   1090000   0.97399133     16.87215       20.120371    
   1091000   1.0004237      17.506443      20.070435    
   1092000   1.0427953      17.382652      19.95303     
   1093000   1.0206114      16.863788      19.77133     
   1094000   1.0140474      17.523498      19.677788    
   1095000   0.97244337     16.914582      19.527036    
   1096000   1.023413       16.992593      19.511674    
   1097000   1.0188904      17.010356      19.454744    
   1098000   0.99414597     16.948855      19.671176    
   1099000   1.050182       17.178949      19.438597    
   1100000   0.97702054     16.865714      19.266785    
   1101000   1.0142388      17.341214      19.252412    
   1102000   1.0436239      17.270195      19.229357    
   1103000   1.0037862      17.456623      19.313859    
   1104000   0.98082503     16.796389      19.457178    
   1105000   0.99971136     17.24618       19.316461    
   1106000   1.0206599      16.908273      19.163845    
   1107000   1.0167092      17.164406      19.12442     
   1108000   1.0327615      16.915984      18.965948    
   1109000   0.97446231     16.93743       18.710249    
   1110000   1.022021       17.162293      18.688501    
   1111000   1.009248       17.106137      18.735808    
   1112000   0.97667912     17.495816      18.896903    
   1113000   1.0072907      17.1393        18.858105    
   1114000   0.9911068      16.91784       18.91061     
   1115000   1.0117881      17.333028      18.861111    
   1116000   1.0160188      16.803385      18.741171    
   1117000   0.96488928     16.639661      18.634715    
   1118000   0.9982338      17.251381      18.558297    
   1119000   1.0024924      17.041307      18.502985    
   1120000   1.0158736      17.477721      18.439475    
   1121000   1.0334775      16.771229      18.329368    
   1122000   1.0246995      17.182245      18.075686    
   1123000   1.0326546      17.187501      17.87146     
   1124000   1.0135418      16.916357      17.746554    
   1125000   0.98918008     17.363918      17.553981    
   1126000   0.97761483     17.332099      17.527965    
   1127000   0.97537294     16.771003      17.461648    
   1128000   1.0452846      17.184618      17.25301     
   1129000   1.0394473      16.730009      17.061891    
   1130000   1.0196008      17.045795      16.836979    
   1131000   0.9649528      16.730595      16.8387      
   1132000   0.95970221     17.127974      16.801197    
   1133000   1.0032614      17.412936      16.85917     
   1134000   0.97796795     16.832034      16.720526    
   1135000   0.99269852     17.355018      16.555144    
   1136000   0.94252479     16.882896      16.7143      
   1137000   0.94645654     17.331882      16.758282    
   1138000   1.0352358      16.854046      16.591192    
   1139000   0.98981299     17.117065      16.745897    
   1140000   0.98897581     16.837106      16.638159    
   1141000   1.012925       17.405134      16.649678    
   1142000   0.97917685     17.433564      16.39587     
   1143000   1.0027765      17.099768      16.336042    
   1144000   1.0182         17.425697      16.297114    
   1145000   1.0472362      16.751621      16.18679     
   1146000   0.96310024     16.627443      15.941192    
   1147000   1.0003593      16.958077      15.71228     
   1148000   0.94533798     16.732884      15.788727    
   1149000   1.0046078      17.572792      15.883248    
   1150000   1.009401       17.381596      15.748762    
   1151000   1.0112524      16.7099        15.882447    
   1152000   1.0387617      17.02474       15.823814    
   1153000   1.0027825      17.45524       15.796304    
   1154000   1.0364851      17.355517      15.593317    
   1155000   1.0205659      16.838809      15.592525    
   1156000   1.0756864      17.169438      15.568422    
   1157000   0.95095693     16.995336      15.589717    
   1158000   1.0014467      17.452242      15.41185     
   1159000   1.0022096      16.803753      15.182292    
   1160000   1.0246773      17.06255       15.132334    
   1161000   1.0098797      16.905382      15.208032    
   1162000   1.0321197      17.21753       15.094436    
   1163000   0.99573084     17.114599      15.000793    
   1164000   0.9665234      16.914562      14.985942    
   1165000   0.95970141     16.40415       14.947471    
   1166000   1.0070999      17.106353      14.837712    
   1167000   0.99303216     16.836836      14.628725    
   1168000   1.0483162      17.823776      14.516968    
   1169000   0.98610415     17.018968      14.416891    
   1170000   1.0061198      17.009405      14.31253     
   1171000   1.06573        17.326029      14.569863    
   1172000   1.0017448      16.829695      14.467226    
   1173000   1.0295354      17.00644       14.534971    
   1174000   0.9801448      16.881116      14.518266    
   1175000   0.98599565     17.364456      14.44438     
   1176000   1.0068306      17.627162      14.308501    
   1177000   0.99756518     17.167201      14.261892    
   1178000   0.99144583     17.236715      14.196583    
   1179000   1.0184645      16.608923      14.188266    
   1180000   0.99025417     17.147275      14.115646    
   1181000   1.0411383      17.211276      14.095326    
   1182000   0.97074855     17.28267       13.963586    
   1183000   1.0156111      17.388574      13.99453     
   1184000   1.0111817      16.819054      13.85397     
   1185000   1.0306341      17.667193      13.864537    
   1186000   0.97320858     17.094138      13.73833     
   1187000   0.96790383     16.368931      13.75621     
   1188000   0.99891382     16.969387      13.648494    
   1189000   0.99934438     16.651689      13.715841    
   1190000   1.0018793      17.585529      13.683601    
   1191000   0.98213407     17.20065       13.632841    
   1192000   1.0340106      16.989035      13.627223    
   1193000   0.9647887      16.811543      13.520965    
   1194000   0.93509166     16.757702      13.63844     
   1195000   0.98604089     16.963838      13.669101    
   1196000   0.95655106     17.124949      13.590332    
   1197000   0.97221069     16.527776      13.422812    
   1198000   1.0249715      17.050399      13.337491    
   1199000   0.97819695     17.406047      13.438444    
   1200000   1.002315       17.10625       13.321284    
   1201000   1.0077383      16.63871       13.136348    
   1202000   1.0161766      17.12903       13.021442    
   1203000   0.96710823     16.832899      12.850562    
   1204000   1.0372912      17.389347      12.758759    
   1205000   0.97637587     17.274012      12.822813    
   1206000   1.0021413      16.996472      12.780169    
   1207000   1.0063014      17.470204      12.644774    
   1208000   1.0031609      17.397941      12.489329    
   1209000   0.97329147     16.544456      12.21451     
   1210000   0.99831771     17.161007      12.093533    
   1211000   1.0044447      16.92049       11.958577    
   1212000   1.020929       17.228101      11.725942    
   1213000   1.0047011      17.113764      11.924496    
   1214000   0.97290281     17.270228      11.62597     
   1215000   0.98084414     16.911238      11.610903    
   1216000   0.97707396     16.522518      11.671678    
   1217000   0.99827581     17.025303      11.614952    
   1218000   1.0183423      17.160269      11.683161    
   1219000   0.96922505     16.942209      11.696924    
   1220000   0.96432328     16.990304      11.717501    
   1221000   0.98338008     17.218393      11.555038    
   1222000   1.0005454      17.093058      11.425308    
   1223000   0.98409686     16.943351      11.293928    
   1224000   0.96651273     16.784398      11.291612    
   1225000   0.99011681     17.013499      11.358434    
   1226000   1.0066646      17.064183      11.134372    
   1227000   0.9951231      17.140881      11.051232    
   1228000   1.0376376      17.501466      11.117686    
   1229000   0.97724173     16.593746      11.138813    
   1230000   1.0471029      16.982615      11.135434    
   1231000   0.98738303     17.340634      10.921175    
   1232000   1.0210222      16.925544      10.839013    
   1233000   1.0271437      17.07118       10.667644    
   1234000   0.99316539     16.751637      10.529257    
   1235000   0.98872318     17.072314      10.526706    
   1236000   0.97724597     16.68593       10.4073      
   1237000   1.0297725      16.550064      10.191907    
   1238000   0.9426166      16.825424      10.354958    
   1239000   0.94196649     16.745187      10.340119    
   1240000   0.98245721     17.385519      10.3043      
   1241000   1.0023748      17.328106      10.310403    
   1242000   0.97481315     17.46729       10.317845    
   1243000   1.0062105      17.445478      10.28546     
   1244000   0.99031508     16.799954      10.224662    
   1245000   1.0349576      17.232109      10.436876    
   1246000   0.96929996     17.124683      10.374075    
   1247000   1.026629       16.842015      10.488136    
   1248000   0.97025337     17.525674      10.416581    
   1249000   1.0082993      17.13175       10.125108    
   1250000   1.0233108      17.175856      9.9434375    
   1251000   1.0077986      17.424467      10.064703    
   1252000   0.97968203     16.98759       9.9137657    
   1253000   1.0042543      16.829776      9.951989     
   1254000   0.98400493     17.044531      9.9025022    
   1255000   1.0184784      17.100278      9.9365625    
   1256000   1.0249806      16.956301      10.100517    
   1257000   0.96485392     16.660696      10.154773    
   1258000   0.98517921     16.93861       10.017272    
   1259000   0.98087197     17.114831      10.090735    
   1260000   0.97066155     16.812073      10.118051    
   1261000   1.0250655      17.243801      10.20638     
   1262000   1.0302237      16.999781      10.072677    
   1263000   1.0349082      17.761401      9.8488855    
   1264000   0.99381529     16.343649      9.6494939    
   1265000   1.0134498      17.033292      9.6356744    
   1266000   0.99957075     17.03228       9.4756544    
   1267000   1.0019853      16.77022       9.5015346    
   1268000   1.0145071      16.887828      9.4345943    
   1269000   1.0098866      16.909621      9.3469053    
   1270000   1.0196389      16.90966       9.1548181    
   1271000   1.028425       17.038807      9.3601379    
   1272000   1.0053063      16.971075      9.0476402    
   1273000   1.0089815      17.018722      8.9866465    
   1274000   0.98640184     16.911702      9.0273824    
   1275000   0.99672466     16.838372      9.1570417    
   1276000   1.0131387      17.057682      9.4841013    
   1277000   1.0297138      16.944487      9.3945626    
   1278000   1.0122206      16.644085      9.3143784    
   1279000   0.99763582     16.956396      9.2604193    
   1280000   1.0047119      17.127644      9.1424767    
   1281000   0.97452227     16.812925      9.1381299    
   1282000   1.0118257      17.119026      9.0026908    
   1283000   0.98322067     16.97283       8.629488     
   1284000   0.97860339     16.937937      8.6048536    
   1285000   0.98415469     16.778559      8.6184565    
   1286000   1.0050096      17.169268      8.3498888    
   1287000   0.98810575     17.035879      8.2650893    
   1288000   1.0321293      17.647613      8.1048069    
   1289000   1.0202353      17.101998      7.9845297    
   1290000   1.0111102      17.03324       7.7551311    
   1291000   1.0022978      17.003518      7.654126     
   1292000   1.0052093      16.444607      7.6201414    
   1293000   1.0094049      16.964483      7.4149748    
   1294000   0.99031509     17.242984      7.2027124    
Fix halt condition for fix-id 3 met on step 1295000 with value 6.860399764534776 (src/fix_halt.cpp:237)
   1295000   1.0313585      17.083939      6.8603998    
Loop time of 3427.15 on 2 procs for 1195000 steps with 1201 atoms

Performance: 301264.976 tau/day, 348.686 timesteps/s
127.6% CPU use with 1 MPI tasks x 2 OpenMP threads

MPI task timing breakdown:
Section |  min time  |  avg time  |  max time  |%varavg| %total
---------------------------------------------------------------
Pair    | 761.46     | 761.46     | 761.46     |   0.0 | 22.22
Bond    | 52.53      | 52.53      | 52.53      |   0.0 |  1.53
Neigh   | 2500.1     | 2500.1     | 2500.1     |   0.0 | 72.95
Comm    | 0.91081    | 0.91081    | 0.91081    |   0.0 |  0.03
Output  | 4.6587     | 4.6587     | 4.6587     |   0.0 |  0.14
Modify  | 94.748     | 94.748     | 94.748     |   0.0 |  2.76
Other   |            | 12.74      |            |       |  0.37

Nlocal:           1201 ave        1201 max        1201 min
Histogram: 1 0 0 0 0 0 0 0 0 0
Nghost:              0 ave           0 max           0 min
Histogram: 1 0 0 0 0 0 0 0 0 0
Neighs:         287352 ave      287352 max      287352 min
Histogram: 1 0 0 0 0 0 0 0 0 0

Total # of neighbors = 287352
Ave neighs/atom = 239.26062
Ave special neighs/atom = 1.9983347
Neighbor list builds = 10359
Dangerous builds = 0

# This simulation is done
# Move onto the next one
clear
  using 2 OpenMP thread(s) per MPI task
package omp 0
using multi-threaded neighbor list subroutines
next f
jump SELF

Total wall time: 4:46:21
