#atom_style bond #no stiffness
atom_style angle #with stiffness

boundary        p p p
###
# Pair interactions require lists of neighbours to be calculated
###

#neighbor 0.3 bin
neighbor 4 bin

neigh_modify every 1 delay 1 check yes
atom_modify sort 0 0
### Generate RESTART file, SPECIAL format, not a .txt file ###
### Useful if simulation crashes ###

restart 1000000 plusshaped/restarts2/$f.restart
restart 1000000 plusshaped/restarts2/bb351nuc1bl175bn4d30tot700.restart
#############################



### READ "start" data file ###

read_data plusshaped/$f.dat
read_data plusshaped/bb351nuc1bl175bn4d30tot700.dat
Reading data file ...
  orthogonal box = (-1000 -1000 -1000) to (1000 1000 1000)
  1 by 1 by 1 MPI processor grid
  reading atoms ...
  701 atoms
  scanning bonds ...
  3 = max bonds/atom
  scanning angles ...
  6 = max angles/atom
  reading bonds ...
  700 bonds
  reading angles ...
  702 angles
Finding 1-2 1-3 1-4 neighbors ...
  special bond factors lj:    0        0        0       
  special bond factors coul:  0        0        0       
     4 = max # of 1-2 neighbors
     4 = max # of 1-3 neighbors
     8 = max # of 1-4 neighbors
    12 = max # of special neighbors
  special bonds CPU = 0.001 seconds
  read_data CPU = 0.050 seconds

######################

### READ "REstart" data file ###

######################



###
# Define groups (atom type 1 is group 'all')
###
group all type 1
701 atoms in group all


###
# Dump configs - "simple dumpings"
###

###
# Dump configs + box coords
###

dump   1   all   custom   1000  plusshaped/trjs2/$f.lammpstrj  id  x y z  ix iy iz
dump   1   all   custom   1000  plusshaped/trjs2/bb351nuc1bl175bn4d30tot700.lammpstrj  id  x y z  ix iy iz
dump_modify   1   format line "%d %.5f %.5f %.5f %d %d %d"

########################################################################


###################################################################
# Stiffness term
#
# E = K * (1+cos(theta)), K>0
#
angle_style   cosine
#change this coefficient to change stiffness (e.g. 1,5,10)
angle_coeff   1 1.0
###################################################################

###################################################################
# Pair interaction between non-bonded atoms
#
#  Lennard-Jones 12-6 potential with cutoff:
#  potential E=4epsilon[ (sigma/r)^12 - (sigma/r)^6]  for r<r_cut
#
#  1.12246 = 2^(1/6) is the minimum of the potential


pair_style      lj/cut 1.12246152962189
#pair_style      lj/cut 3

#
#  pair_modify shift yes adds a constant to the potential such

#  that E(r_cut)=0. Forces remains unchanged.
#

pair_modify     shift yes

#
#  pair_coeff for lj/cut, specify 4:
#    * atom type interacting with
#    * atom type
#    * epsilon (energy units)
#    * sigma (distance units)
#

pair_coeff      1 1 1.0 1.0
###################################################################

###################################################################
# Pair interaction between non-bonded atoms
#
#  soft potential, for PUSHING apart overlapping atoms
#  potential E=A*(1 + cos(pi*r/r_c))
#
#  1.12246 = 2^(1/6) is the cut-off r_c

#pair_style     soft 1.12246152962189

#
#  pair_coeff for soft, specify 3:
#    * atom type interacting with
#    * atom type
#    * A
#
#

#pair_coeff      1 1 100.0
###################################################################

###################################################################
# Pair interaction between bonded atoms
#
# Fene potential + Lennard Jones 12-6:

#
#  E= - 0.5 K R0^2 ln[ 1- (r/R0)^2]
#     + 4epsilon[ (sigma/r)^12 - (sigma/r)^6] + epsilon
#

bond_style   fene


#
# For style fene, specify:
#   * bond type
#   * K (energy/distance^2)
#   * R0 (distance)
#   * epsilon (energy)  (LJ component)
#   * sigma (distance)  (LJ component)
#


special_bonds fene #<=== I M P O R T A N T (new command)
Finding 1-2 1-3 1-4 neighbors ...
  special bond factors lj:    0        1        1       
  special bond factors coul:  0        1        1       
     4 = max # of 1-2 neighbors
    12 = max # of special neighbors
  special bonds CPU = 0.000 seconds

bond_coeff   1   30   2   1.0   1.0


###################################################

###################################################################
# Pair interaction between bonded atoms
#
# Harmonic potential:
#
#  E= K * (R-R0)^2
#

#bond_style   harmonic

#
# For style harmonic, specify:
#   * bond type
#   * K (energy/distance^2)
#   * R0 (distance)
#

#bond_coeff   1   60.0   1.0
#bond_coeff   2   harmonic 0.1   1.0

###################################################
compute 1 all gyration
variable rog equal c_1
#compute 2 all coord/atom cutoff 1.1

#dump 2 all custom 10000 contact_number.dump id c_2


###
# Set up fixes
###
thermo_style   custom   step  temp enthalpy c_1
fix 1 all nve   ###NVE ensemble

fix 2 all   langevin   1.0 1.0 1.0  778655   ###Langevin integrator Tstart Tstop 1/friction rndseed


##### Sample thermodynamic info  (temperature, energy, pressure, etc.) #####
thermo 1000









############################################################################

###
# set timestep of integrator

timestep 0.01

###
# run integration for a number of steps
###
#run 0
#variable r equal c_1
#if "$r < 63.1" then "quit 1"

# lj potential minimum, cause molecule to explore
run 100000
Generated 0 of 0 mixed pair_coeff terms from geometric mixing rule
Last active /omp style is angle_style cosine/omp
Neighbor list info ...
  update: every = 1 steps, delay = 1 steps, check = yes
  max neighbors/atom: 2000, page size: 100000
  master list distance cutoff = 5.1224615
  ghost atom cutoff = 5.1224615
  binsize = 2.5612308, bins = 781 781 781
  1 neighbor lists, perpetual/occasional/extra = 1 0 0
  (1) pair lj/cut/omp, perpetual
      attributes: half, newton on, omp
      pair build: half/bin/newton/omp
      stencil: half/bin/3d
      bin: standard
WARNING: Communication cutoff 5.12246152962189 is shorter than a bond length based estimate of 5.455. This may lead to errors. (src/comm.cpp:723)
Per MPI rank memory allocation (min/avg/max) = 1862 | 1862 | 1862 Mbytes
   Step          Temp         Enthalpy         c_1      
         0   0              13.196122      92.093179    
      1000   0.99946142     17.658069      91.169946    
      2000   0.95543033     18.171545      90.267685    
      3000   1.0281332      17.905933      89.727131    
      4000   1.0372516      18.586248      88.968786    
      5000   0.99935315     18.502093      88.30352     
      6000   0.99339277     18.835719      87.829386    
      7000   0.99555219     18.662931      87.121737    
      8000   0.97176695     18.400368      86.622476    
      9000   1.0153006      18.421221      86.191775    
     10000   1.003945       18.607926      85.478303    
     11000   1.0517726      19.096732      84.901223    
     12000   1.006388       19.209309      84.133507    
     13000   0.9346065      18.890309      83.840459    
     14000   0.95647886     19.309841      83.541176    
     15000   0.97757083     19.094203      83.246223    
     16000   1.0043134      19.574979      82.977655    
     17000   1.0239638      19.492736      82.50886     
     18000   1.0010821      19.280803      82.027017    
     19000   1.074872       19.611982      81.617006    
     20000   0.96211182     19.424802      81.272354    
     21000   0.9661083      19.233373      80.90444     
     22000   1.0368673      19.923155      80.22805     
     23000   1.0571502      19.423995      79.962445    
     24000   1.0511307      19.881239      79.665403    
     25000   1.0175502      19.38989       79.011429    
     26000   1.0021125      19.943349      78.574649    
     27000   0.97021078     19.756498      78.48179     
     28000   1.0043755      19.442107      78.323411    
     29000   0.97966557     19.53242       77.76539     
     30000   0.9946135      19.869721      77.553231    
     31000   0.98285401     19.79586       77.324892    
     32000   0.99504114     20.095172      76.830437    
     33000   0.97510935     19.67001       76.55723     
     34000   1.0453814      19.467631      76.344644    
     35000   0.97254071     19.530418      76.121684    
     36000   0.9528258      20.143796      76.037095    
     37000   0.97055537     19.836251      75.566892    
     38000   1.0099742      19.888164      75.230894    
     39000   1.0563745      19.352439      75.046221    
     40000   0.95484473     19.888699      74.808051    
     41000   1.0507339      19.804293      74.608633    
     42000   0.99239921     19.416716      74.480661    
     43000   0.98013011     19.829463      74.503048    
     44000   0.98512928     19.973044      74.338229    
     45000   1.0127596      20.251519      73.975699    
     46000   0.99792558     19.809518      73.813432    
     47000   0.97769914     19.773723      73.550951    
     48000   0.97335558     19.922479      73.448291    
     49000   0.9463557      19.942915      73.190947    
     50000   1.0184433      20.614055      73.157526    
     51000   1.0006576      19.79112       73.011284    
     52000   0.96902588     19.50542       72.849088    
     53000   0.95905221     19.574606      72.834567    
     54000   0.98588564     19.747082      72.659292    
     55000   0.93879627     20.325858      72.601632    
     56000   1.0356782      19.755614      72.578953    
     57000   1.0198972      20.309757      72.335439    
     58000   1.0150271      19.592048      72.129973    
     59000   1.0435265      19.945602      71.770586    
     60000   1.0048018      19.837567      71.362968    
     61000   1.0018654      20.239163      71.103547    
     62000   1.0137827      20.029043      70.958107    
     63000   1.006923       19.891225      70.930259    
     64000   1.0332588      19.817826      70.641789    
     65000   1.0094263      19.920228      70.509433    
     66000   1.053953       19.751114      70.384793    
     67000   0.99951213     20.058847      70.268156    
     68000   1.0442435      20.591989      70.167885    
     69000   1.0163444      20.387276      70.098173    
     70000   0.9772328      20.2104        69.911295    
     71000   1.0177303      20.693931      69.575454    
     72000   1.03026        20.905978      69.221134    
     73000   0.98996702     20.905127      69.57699     
     74000   1.0246715      20.420923      69.245163    
     75000   0.99135506     19.981661      68.826481    
     76000   0.9809643      19.949028      68.748928    
     77000   0.96679503     19.962597      68.501796    
     78000   0.95121873     19.513883      68.079962    
     79000   1.0310222      20.614336      68.07575     
     80000   1.0516172      20.717951      68.008327    
     81000   1.0202548      20.139079      67.94801     
     82000   0.98398173     19.563399      67.802989    
     83000   1.0556626      20.139823      67.651878    
     84000   0.95337305     20.093416      67.42238     
     85000   1.0141361      20.051357      67.546089    
     86000   1.058939       19.828138      67.426391    
     87000   1.0340963      20.015604      67.263444    
     88000   1.0013051      20.041441      67.238766    
     89000   1.0071734      20.368452      67.207192    
     90000   1.0014712      20.652344      66.67897     
     91000   1.0109476      20.644466      66.694902    
     92000   1.0454978      20.183478      66.659362    
     93000   1.0337966      19.518773      66.583843    
     94000   0.99084148     20.362106      66.525174    
     95000   0.95226667     20.394743      66.546761    
     96000   1.0091254      20.209359      66.318263    
     97000   1.0345569      20.260447      66.537151    
     98000   0.98069829     20.03727       66.587972    
     99000   0.99254227     20.322644      66.24514     
    100000   0.9383407      19.776706      65.973739    
Loop time of 390.787 on 2 procs for 100000 steps with 701 atoms

Performance: 221092.220 tau/day, 255.894 timesteps/s
101.8% CPU use with 1 MPI tasks x 2 OpenMP threads

MPI task timing breakdown:
Section |  min time  |  avg time  |  max time  |%varavg| %total
---------------------------------------------------------------
Pair    | 0.76578    | 0.76578    | 0.76578    |   0.0 |  0.20
Bond    | 1.5022     | 1.5022     | 1.5022     |   0.0 |  0.38
Neigh   | 384.91     | 384.91     | 384.91     |   0.0 | 98.50
Comm    | 0.025332   | 0.025332   | 0.025332   |   0.0 |  0.01
Output  | 0.20981    | 0.20981    | 0.20981    |   0.0 |  0.05
Modify  | 3.1338     | 3.1338     | 3.1338     |   0.0 |  0.80
Other   |            | 0.2356     |            |       |  0.06

Nlocal:            701 ave         701 max         701 min
Histogram: 1 0 0 0 0 0 0 0 0 0
Nghost:              0 ave           0 max           0 min
Histogram: 1 0 0 0 0 0 0 0 0 0
Neighs:           4432 ave        4432 max        4432 min
Histogram: 1 0 0 0 0 0 0 0 0 0

Total # of neighbors = 4432
Ave neighs/atom = 6.3223966
Ave special neighs/atom = 1.9971469
Neighbor list builds = 1092
Dangerous builds = 0

# Replace lj potential, now collapse
pair_style      lj/cut 3

# Cutoff simul when gyration under 5
# Variable created with equal requires v_ + 'name'
fix 3 all halt 1000 v_rog < 7

run 5000000
Generated 0 of 0 mixed pair_coeff terms from geometric mixing rule
Last active /omp style is angle_style cosine/omp
Per MPI rank memory allocation (min/avg/max) = 1862 | 1862 | 1862 Mbytes
   Step          Temp         Enthalpy         c_1      
    100000   0.9383407      19.097915      65.973739    
    101000   0.98562453     19.267631      65.680322    
    102000   0.9742016      19.776859      65.35552     
    103000   1.0061332      19.580584      65.313944    
    104000   0.98041951     18.617699      65.010573    
    105000   0.97763567     18.829992      64.577343    
    106000   1.0573158      20.050936      64.419873    
    107000   1.0445811      19.212237      63.897673    
    108000   1.0422579      18.9159        63.559689    
    109000   0.99206582     19.784016      63.388087    
    110000   0.97643003     19.321073      63.059248    
    111000   0.94388646     19.680012      62.84252     
    112000   0.99346463     19.718348      62.666224    
    113000   1.0473548      19.168678      62.602483    
    114000   0.99031947     19.258387      62.376027    
    115000   1.0165533      19.158182      62.144905    
    116000   0.95384461     18.992563      62.147801    
    117000   0.96160478     18.718977      62.052093    
    118000   1.0504947      19.213669      61.801102    
    119000   1.0348866      19.259917      61.701676    
    120000   0.99288763     19.109971      61.635421    
    121000   0.97437056     19.153754      61.604399    
    122000   0.9627949      19.070348      61.401178    
    123000   0.99641871     19.320598      60.969276    
    124000   0.98731181     18.372157      60.60762     
    125000   1.0092402      19.30791       60.119756    
    126000   1.0318376      18.970446      59.559831    
    127000   0.97343137     19.074282      59.317647    
    128000   1.0007699      18.837427      59.165822    
    129000   1.0404056      19.687596      59.16898     
    130000   1.0239246      19.501125      58.969055    
    131000   1.0556313      19.487713      58.710548    
    132000   0.99282087     19.964846      58.406135    
    133000   0.94165172     19.644428      58.123304    
    134000   1.022054       19.464917      57.753403    
    135000   0.96149753     19.150401      57.607589    
    136000   0.97373218     19.212087      57.551119    
    137000   0.92310609     19.425819      57.455125    
    138000   1.0261325      19.179438      57.206448    
    139000   0.95829643     18.924396      56.900469    
    140000   0.97801487     19.497071      56.659391    
    141000   0.96428235     18.898144      56.26115     
    142000   1.0295175      18.896437      56.249827    
    143000   0.94748453     18.809014      56.078747    
    144000   1.0358125      18.543292      55.862862    
    145000   0.99235779     19.27594       56.039905    
    146000   1.0133014      18.998845      56.083201    
    147000   0.97474096     18.9159        55.810216    
    148000   1.0035105      18.498604      55.579672    
    149000   1.0651849      18.955894      55.381497    
    150000   0.98401243     18.57246       55.32283     
    151000   0.99279763     18.78283       55.092249    
    152000   0.95158477     19.525975      54.948102    
    153000   0.98603655     18.410901      54.688787    
    154000   0.99923289     19.300127      54.769704    
    155000   0.9613808      18.17745       54.630038    
    156000   0.97128654     18.487929      54.217449    
    157000   1.0399567      18.74855       53.352365    
    158000   1.0066506      19.023652      53.262154    
    159000   1.0572244      19.187928      52.976352    
    160000   0.97295678     19.046146      52.881653    
    161000   0.96692127     18.824801      52.741205    
    162000   0.94560736     18.797516      52.747843    
    163000   0.99858548     18.398256      52.356084    
    164000   0.9773696      18.23861       52.208368    
    165000   0.99041615     18.466227      52.013511    
    166000   1.0253927      19.607374      51.835686    
    167000   0.99107836     18.824335      51.731764    
    168000   0.98198402     19.370487      51.681913    
    169000   0.93453838     18.509124      51.609063    
    170000   0.99927868     18.735438      51.226508    
    171000   0.94447407     18.516268      50.826781    
    172000   1.0643371      18.762361      50.560284    
    173000   0.98618531     19.403497      50.598206    
    174000   0.98298381     18.706704      50.479869    
    175000   1.0156541      18.660776      50.305272    
    176000   0.97291956     18.616107      50.091081    
    177000   1.0188749      18.329224      50.005886    
    178000   0.96947866     18.900465      49.775453    
    179000   1.0023845      18.926227      49.716202    
    180000   1.0735531      19.13662       49.473551    
    181000   0.98859882     19.042128      49.310029    
    182000   1.0254652      18.962557      49.22459     
    183000   1.0379969      18.948848      48.837332    
    184000   1.0103262      19.491682      48.793261    
    185000   1.0340354      19.150106      48.691845    
    186000   0.98718774     18.751212      48.642275    
    187000   1.0332235      18.637148      48.499623    
    188000   0.99668736     18.809906      48.247775    
    189000   1.0224339      18.151313      48.057067    
    190000   1.0038193      19.168404      47.908421    
    191000   1.0033038      18.389506      47.99272     
    192000   1.0583711      18.879472      48.046672    
    193000   1.012666       18.149525      47.753517    
    194000   1.0104491      18.73897       47.54566     
    195000   1.0100966      18.254072      46.777374    
    196000   0.95821584     18.484564      46.256816    
    197000   0.9798245      18.589836      45.939218    
    198000   0.96092588     18.986458      45.508912    
    199000   0.98404017     18.43768       45.098942    
    200000   1.0386288      18.579649      44.72575     
    201000   0.96555978     18.788004      44.486085    
    202000   0.98419083     18.159244      44.394077    
    203000   1.0468969      18.78881       44.229397    
    204000   0.94626963     18.291009      44.111084    
    205000   0.9330903      18.154244      43.900109    
    206000   1.0003252      18.159287      43.76506     
    207000   0.98797065     18.822759      43.3742      
    208000   0.95062737     18.116964      43.161449    
    209000   1.0241622      18.831337      42.869722    
    210000   1.0031859      18.695889      42.45859     
    211000   1.0322175      18.799639      42.183632    
    212000   0.98404955     18.008628      41.907256    
    213000   0.97689176     19.008472      41.886197    
    214000   1.0563227      19.253483      41.972568    
    215000   0.97057446     17.651094      41.757173    
    216000   1.0291109      19.069871      41.466365    
    217000   1.0202637      19.300411      41.336391    
    218000   1.0165889      18.416006      41.090757    
    219000   0.98612326     18.967604      41.06913     
    220000   1.017522       18.713738      41.196866    
    221000   0.95779595     18.58158       40.892386    
    222000   1.016504       18.405518      40.991293    
    223000   0.95782022     18.037968      40.619471    
    224000   0.94966882     18.47788       40.74944     
    225000   0.98704194     18.397053      40.635384    
    226000   0.99693969     18.044369      40.545404    
    227000   1.0176796      18.206031      40.383967    
    228000   1.0008461      18.339051      40.171457    
    229000   0.97424348     18.68492       40.041591    
    230000   1.0037277      18.664837      39.936258    
    231000   0.96126058     18.085126      40.013996    
    232000   1.0740574      18.153305      39.945284    
    233000   0.96977793     18.744957      39.615325    
    234000   1.007319       18.325837      39.65408     
    235000   1.0015492      18.963286      39.460606    
    236000   1.0133659      18.94565       39.395329    
    237000   1.0174667      18.191371      39.354624    
    238000   1.0418323      18.699052      39.286994    
    239000   0.98622092     18.716156      39.319937    
    240000   1.0320356      18.749307      39.020561    
    241000   0.94595853     18.217249      38.672239    
    242000   1.0247238      18.20179       38.224854    
    243000   1.0006905      18.314654      38.015952    
    244000   0.99419446     18.032788      37.793625    
    245000   0.97271177     18.581409      37.635968    
    246000   0.97837151     18.376611      37.239226    
    247000   1.0143482      17.972398      37.036193    
    248000   1.0323269      18.999839      36.98569     
    249000   0.98732518     19.042343      37.006421    
    250000   1.0125732      18.464309      37.010184    
    251000   0.98665288     17.940802      36.85515     
    252000   0.99514201     18.176781      36.508864    
    253000   0.99081322     18.63701       36.203519    
    254000   0.95965854     18.928958      35.985798    
    255000   1.0075566      18.553461      35.470188    
    256000   0.96891852     17.67279       35.381232    
    257000   1.0373528      18.029841      35.325608    
    258000   0.96415612     17.679124      35.06039     
    259000   1.0406994      19.084179      35.01231     
    260000   1.0222806      18.55533       34.506608    
    261000   1.0307552      18.584102      34.101526    
    262000   0.98930363     18.099361      34.055285    
    263000   1.0118233      18.03394       33.822954    
    264000   1.000159       17.999217      33.765065    
    265000   0.93604537     17.580748      33.630035    
    266000   0.97103585     18.511097      33.321086    
    267000   0.99681429     18.136141      33.314966    
    268000   0.99674466     17.985451      33.151607    
    269000   0.98267676     18.651536      32.948087    
    270000   1.0038295      17.113994      32.79711     
    271000   1.0479726      17.893222      32.912549    
    272000   0.97486869     18.263441      32.788689    
    273000   0.98996052     18.200219      32.719068    
    274000   0.96742626     18.517827      32.467857    
    275000   1.0212115      18.487         32.317766    
    276000   1.0069095      17.995507      32.175641    
    277000   0.96588695     18.436038      31.834625    
    278000   0.96956946     18.128541      31.841162    
    279000   0.97193168     17.702771      31.478048    
    280000   1.0112444      17.906725      31.149839    
    281000   1.0346526      18.269991      31.135841    
    282000   1.0228116      18.510271      30.91684     
    283000   1.0219223      18.149148      30.692504    
    284000   1.0079099      18.613706      30.354358    
    285000   0.98056414     17.24611       29.976557    
    286000   0.97029876     17.756143      29.938474    
    287000   0.96362363     18.495336      29.862262    
    288000   1.0722307      18.292927      29.478076    
    289000   0.98902838     18.283763      29.482454    
    290000   0.99589571     17.876748      29.421017    
    291000   1.0037318      18.247574      29.280469    
    292000   0.98311403     18.451846      29.107987    
    293000   0.99290627     18.412788      28.868181    
    294000   0.97419331     17.667107      28.953787    
    295000   0.99064388     18.562713      28.690213    
    296000   1.0028541      17.781292      28.488475    
    297000   0.98212233     17.986972      28.203353    
    298000   0.97697553     18.208662      28.12151     
    299000   1.0014686      17.67805       28.175224    
    300000   1.0628591      17.936575      27.857453    
    301000   0.99017957     17.653222      27.927653    
    302000   0.97151994     17.996119      27.909413    
    303000   0.99523903     17.153096      27.960849    
    304000   0.99819911     17.74854       27.753316    
    305000   1.0671545      18.004004      27.727344    
    306000   1.0081498      17.709036      27.3715      
    307000   1.0046557      17.589753      27.156833    
    308000   0.98398602     17.710334      26.8296      
    309000   0.99470193     17.489366      26.78218     
    310000   1.0337208      17.349666      26.38651     
    311000   1.008299       18.065321      26.145894    
    312000   1.0143954      17.640157      26.286581    
    313000   1.0170085      18.121589      26.211385    
    314000   0.97033763     18.660193      26.068639    
    315000   0.94640336     18.079463      25.710805    
    316000   1.0401189      18.195187      25.389737    
    317000   1.0446354      18.539322      25.182461    
    318000   1.0118647      18.255458      24.783529    
    319000   0.97922944     18.127211      24.793879    
    320000   1.0114683      17.858034      24.583982    
    321000   1.0535395      17.60056       24.710284    
    322000   0.98687888     18.695399      24.553247    
    323000   1.0083315      17.642124      24.240772    
    324000   1.0359606      18.491633      24.1391      
    325000   0.99868443     17.498065      24.117365    
    326000   1.0002833      18.108378      23.901458    
    327000   0.95202539     17.520881      23.847734    
    328000   1.0084757      18.341631      23.518786    
    329000   0.99469033     17.321343      23.435996    
    330000   0.99410437     17.833476      23.300876    
    331000   0.95647844     17.401017      23.01315     
    332000   0.99247131     17.699706      23.029632    
    333000   0.93726297     18.399189      22.695134    
    334000   1.0230055      17.924038      22.278744    
    335000   0.99448685     17.746897      22.07574     
    336000   0.97361854     18.122896      21.863579    
    337000   1.0349703      17.528954      21.519873    
    338000   0.97748939     17.761365      21.32699     
    339000   0.97853048     18.132698      20.913801    
    340000   0.98427089     18.080833      20.828519    
    341000   1.0242837      17.657696      20.532858    
    342000   0.99991022     17.764361      20.451629    
    343000   0.99214942     18.077358      20.515461    
    344000   1.0129458      17.921242      20.453332    
    345000   1.0373356      18.229562      20.307372    
    346000   0.99590224     17.605322      19.845358    
    347000   1.0439414      17.663694      19.540896    
    348000   0.96373995     17.278483      19.36799     
    349000   0.98274654     17.345147      19.130839    
    350000   0.96095675     17.405773      19.100292    
    351000   0.99118164     17.255635      19.048988    
    352000   1.0181218      17.591386      18.916432    
    353000   1.001302       17.495402      18.98399     
    354000   0.99924192     17.608604      18.73106     
    355000   1.0756866      17.971244      18.456783    
    356000   1.0005191      16.825459      18.418079    
    357000   1.0258498      18.062021      18.408962    
    358000   1.046855       18.030793      18.111839    
    359000   1.0269191      18.12124       17.793638    
    360000   0.97286967     17.808418      17.761686    
    361000   1.0317629      18.474035      17.484454    
    362000   1.0432161      18.048655      17.411958    
    363000   1.0115833      17.912202      17.025514    
    364000   1.0393087      17.670331      16.909986    
    365000   1.0153551      17.601122      16.72768     
    366000   1.015148       17.093974      16.493439    
    367000   1.0367972      17.953285      16.039983    
    368000   1.0632882      17.521278      15.729219    
    369000   0.9854497      17.777584      15.665894    
    370000   1.0010017      17.398268      15.839121    
    371000   1.0302182      18.175751      15.6991      
    372000   1.0335998      17.857526      15.708564    
    373000   0.99007606     17.747383      15.250385    
    374000   1.0155178      18.745169      14.975104    
    375000   0.9191401      17.45979       14.847598    
    376000   0.97944598     17.574162      14.622291    
    377000   0.99422331     17.255704      14.478558    
    378000   1.0505446      17.704868      14.467652    
    379000   0.9787814      17.457967      14.333292    
    380000   0.98589552     17.10975       14.3966      
    381000   0.9770464      17.518092      14.252496    
    382000   1.0246938      17.224173      13.97148     
    383000   0.96181212     17.321586      14.021036    
    384000   0.95004399     17.418189      14.018856    
    385000   1.0022635      17.101807      13.683727    
    386000   0.99295094     17.765133      13.26432     
    387000   1.0015409      18.086646      13.035766    
    388000   1.0207331      17.018672      13.032246    
    389000   0.99819017     17.310826      12.976699    
    390000   0.95039518     17.106389      12.719318    
    391000   1.0044275      17.235337      12.540785    
    392000   1.0411002      17.719552      12.385931    
    393000   1.0042465      17.530583      12.521404    
    394000   1.0420512      17.405535      12.355271    
    395000   1.0000403      16.644008      12.099144    
    396000   1.0411247      17.263755      11.703425    
    397000   0.99725242     17.924326      11.705639    
    398000   0.94221085     16.076127      11.413206    
    399000   1.0256773      17.04886       11.525824    
    400000   1.0035558      17.272472      11.33965     
    401000   1.0225827      17.975498      11.243815    
    402000   0.97993775     17.115167      10.984515    
    403000   1.0235693      16.611369      10.90783     
    404000   0.95960473     17.151072      10.55983     
    405000   1.0047392      17.490273      10.430508    
    406000   0.97236        17.521259      10.353771    
    407000   0.97481209     17.55965       10.549161    
    408000   0.96398454     16.565833      10.507395    
    409000   0.9475705      17.88094       10.509681    
    410000   0.96982133     17.5009        10.43079     
    411000   0.93946767     16.582493      10.349946    
    412000   0.98265359     17.532181      10.228902    
    413000   0.97379223     16.835559      10.180792    
    414000   0.9765957      16.962007      10.289349    
    415000   0.98682533     17.261096      10.169002    
    416000   0.97290218     16.832016      10.236223    
    417000   1.0102893      17.373461      10.107369    
    418000   1.0239739      17.263749      10.121727    
    419000   1.000027       17.467485      9.9848382    
    420000   0.96567645     17.045104      9.9890396    
    421000   1.0065098      16.98571       9.7504604    
    422000   1.0324204      16.945252      9.687436     
    423000   1.0420162      16.870459      9.787825     
    424000   1.0027907      16.768251      9.8729464    
    425000   0.96606542     17.072779      9.9431528    
    426000   1.0058219      16.605382      10.08315     
    427000   1.0176163      17.205234      10.176957    
    428000   0.96754955     16.749617      10.34233     
    429000   1.0500255      17.515623      10.498944    
    430000   1.0118532      17.052562      10.374519    
    431000   1.0104184      17.269462      10.372883    
    432000   1.0174374      17.367962      10.145357    
    433000   1.0287956      16.874873      10.178208    
    434000   1.039113       17.920841      9.9816742    
    435000   1.0338598      17.233731      9.851991     
    436000   0.99778281     17.081654      9.89604      
    437000   1.036132       17.753295      10.034127    
    438000   0.98211715     16.459355      9.9380609    
    439000   1.0262478      17.343651      9.9477587    
    440000   0.97171859     17.322607      9.9336986    
    441000   0.96822682     16.765698      9.8061978    
    442000   0.95574729     16.460261      9.6779027    
    443000   0.95457116     16.603069      9.9162473    
    444000   0.98716617     17.19857       9.9228156    
    445000   1.0422338      17.255152      9.7233223    
    446000   0.97805053     16.968796      9.4459756    
    447000   0.98112624     17.207707      9.2156532    
    448000   0.99942809     17.069301      8.9866056    
    449000   0.99056962     16.419705      8.7975924    
    450000   0.98230375     17.336761      8.5637658    
    451000   1.0133836      17.356123      8.5661159    
    452000   1.0476638      17.230006      8.3434538    
    453000   1.0653952      17.429954      8.0212059    
    454000   1.031809       17.269109      8.2053784    
    455000   1.0708935      17.493288      8.0693276    
    456000   0.96233758     17.790136      8.1483804    
    457000   0.98745594     16.554666      8.2828497    
    458000   1.028517       17.118168      8.2565905    
    459000   1.0114008      16.312907      8.579065     
    460000   0.97475492     17.463822      8.3203894    
    461000   0.92127275     16.739775      8.0075405    
    462000   0.99372367     17.346804      8.0421511    
    463000   1.0316122      16.810815      7.8843409    
    464000   0.9637823      17.227001      7.7977258    
    465000   0.98669991     16.961297      7.5659251    
    466000   0.96153975     16.49578       7.5266065    
    467000   1.0013705      16.805923      7.3415467    
    468000   0.97904665     16.792999      7.0630354    
Fix halt condition for fix-id 3 met on step 469000 with value 6.968151354241945 (src/fix_halt.cpp:237)
    469000   0.98954262     16.930249      6.9681514    
Loop time of 574.254 on 2 procs for 369000 steps with 701 atoms

Performance: 555182.739 tau/day, 642.573 timesteps/s
117.6% CPU use with 1 MPI tasks x 2 OpenMP threads

MPI task timing breakdown:
Section |  min time  |  avg time  |  max time  |%varavg| %total
---------------------------------------------------------------
Pair    | 73.658     | 73.658     | 73.658     |   0.0 | 12.83
Bond    | 8.0194     | 8.0194     | 8.0194     |   0.0 |  1.40
Neigh   | 476.08     | 476.08     | 476.08     |   0.0 | 82.90
Comm    | 0.12174    | 0.12174    | 0.12174    |   0.0 |  0.02
Output  | 0.89297    | 0.89297    | 0.89297    |   0.0 |  0.16
Modify  | 14.356     | 14.356     | 14.356     |   0.0 |  2.50
Other   |            | 1.125      |            |       |  0.20

Nlocal:            701 ave         701 max         701 min
Histogram: 1 0 0 0 0 0 0 0 0 0
Nghost:              0 ave           0 max           0 min
Histogram: 1 0 0 0 0 0 0 0 0 0
Neighs:         119418 ave      119418 max      119418 min
Histogram: 1 0 0 0 0 0 0 0 0 0

Total # of neighbors = 119418
Ave neighs/atom = 170.35378
Ave special neighs/atom = 1.9971469
Neighbor list builds = 3302
Dangerous builds = 0

# This simulation is done
# Move onto the next one
clear
  using 2 OpenMP thread(s) per MPI task
package omp 0
using multi-threaded neighbor list subroutines
next f
jump SELF

###
# Reference paper:
# K. Kremer and G. S. Grest
# Dynamics of entangled linear polymer melts: A molecular-dynamics simulation
# J Chem Phys 92, 5057 (1990)

##################################
# MIHIR: for branched polymers
# LJ minimum first to expand and explore, then collapse
###

###
# Looping through the various plusshaped polymers to simulate,
# define variables to switch through
variable f index bb51nuc1bl25bn4d30tot100 bb101nuc1bl50bn4d30tot200 bb151nuc1bl75bn4d30tot300 bb201nuc1bl100bn4d30tot400 bb251nuc1bl125bn4d30tot500 bb301nuc1bl150bn4d30tot600 bb351nuc1bl175bn4d30tot700 bb401nuc1bl200bn4d30tot800 bb451nuc1bl225bn4d30tot900 bb501nuc1bl250bn4d30tot1000 bb551nuc1bl275bn4d30tot1100 bb601nuc1bl300bn4d30tot1200
###


###
# Box and units  (use LJ units and periodic boundaries)
###

units lj
log plusshaped/logs2/$f.log
log plusshaped/logs2/bb401nuc1bl200bn4d30tot800.log
