#atom_style bond #no stiffness
atom_style angle #with stiffness

boundary        p p p
###
# Pair interactions require lists of neighbours to be calculated
###

#neighbor 0.3 bin
neighbor 4 bin

neigh_modify every 1 delay 1 check yes
atom_modify sort 0 0
### Generate RESTART file, SPECIAL format, not a .txt file ###
### Useful if simulation crashes ###

restart 1000000 plusshaped/restarts2/$f.restart
restart 1000000 plusshaped/restarts2/bb451nuc1bl225bn4d30tot900.restart
#############################



### READ "start" data file ###

read_data plusshaped/$f.dat
read_data plusshaped/bb451nuc1bl225bn4d30tot900.dat
Reading data file ...
  orthogonal box = (-1000 -1000 -1000) to (1000 1000 1000)
  1 by 1 by 1 MPI processor grid
  reading atoms ...
  901 atoms
  scanning bonds ...
  3 = max bonds/atom
  scanning angles ...
  6 = max angles/atom
  reading bonds ...
  900 bonds
  reading angles ...
  902 angles
Finding 1-2 1-3 1-4 neighbors ...
  special bond factors lj:    0        0        0       
  special bond factors coul:  0        0        0       
     4 = max # of 1-2 neighbors
     4 = max # of 1-3 neighbors
     8 = max # of 1-4 neighbors
    12 = max # of special neighbors
  special bonds CPU = 0.000 seconds
  read_data CPU = 0.053 seconds

######################

### READ "REstart" data file ###

######################



###
# Define groups (atom type 1 is group 'all')
###
group all type 1
901 atoms in group all


###
# Dump configs - "simple dumpings"
###

###
# Dump configs + box coords
###

dump   1   all   custom   1000  plusshaped/trjs2/$f.lammpstrj  id  x y z  ix iy iz
dump   1   all   custom   1000  plusshaped/trjs2/bb451nuc1bl225bn4d30tot900.lammpstrj  id  x y z  ix iy iz
dump_modify   1   format line "%d %.5f %.5f %.5f %d %d %d"

########################################################################


###################################################################
# Stiffness term
#
# E = K * (1+cos(theta)), K>0
#
angle_style   cosine
#change this coefficient to change stiffness (e.g. 1,5,10)
angle_coeff   1 1.0
###################################################################

###################################################################
# Pair interaction between non-bonded atoms
#
#  Lennard-Jones 12-6 potential with cutoff:
#  potential E=4epsilon[ (sigma/r)^12 - (sigma/r)^6]  for r<r_cut
#
#  1.12246 = 2^(1/6) is the minimum of the potential


pair_style      lj/cut 1.12246152962189
#pair_style      lj/cut 3

#
#  pair_modify shift yes adds a constant to the potential such

#  that E(r_cut)=0. Forces remains unchanged.
#

pair_modify     shift yes

#
#  pair_coeff for lj/cut, specify 4:
#    * atom type interacting with
#    * atom type
#    * epsilon (energy units)
#    * sigma (distance units)
#

pair_coeff      1 1 1.0 1.0
###################################################################

###################################################################
# Pair interaction between non-bonded atoms
#
#  soft potential, for PUSHING apart overlapping atoms
#  potential E=A*(1 + cos(pi*r/r_c))
#
#  1.12246 = 2^(1/6) is the cut-off r_c

#pair_style     soft 1.12246152962189

#
#  pair_coeff for soft, specify 3:
#    * atom type interacting with
#    * atom type
#    * A
#
#

#pair_coeff      1 1 100.0
###################################################################

###################################################################
# Pair interaction between bonded atoms
#
# Fene potential + Lennard Jones 12-6:

#
#  E= - 0.5 K R0^2 ln[ 1- (r/R0)^2]
#     + 4epsilon[ (sigma/r)^12 - (sigma/r)^6] + epsilon
#

bond_style   fene


#
# For style fene, specify:
#   * bond type
#   * K (energy/distance^2)
#   * R0 (distance)
#   * epsilon (energy)  (LJ component)
#   * sigma (distance)  (LJ component)
#


special_bonds fene #<=== I M P O R T A N T (new command)
Finding 1-2 1-3 1-4 neighbors ...
  special bond factors lj:    0        1        1       
  special bond factors coul:  0        1        1       
     4 = max # of 1-2 neighbors
    12 = max # of special neighbors
  special bonds CPU = 0.000 seconds

bond_coeff   1   30   2   1.0   1.0


###################################################

###################################################################
# Pair interaction between bonded atoms
#
# Harmonic potential:
#
#  E= K * (R-R0)^2
#

#bond_style   harmonic

#
# For style harmonic, specify:
#   * bond type
#   * K (energy/distance^2)
#   * R0 (distance)
#

#bond_coeff   1   60.0   1.0
#bond_coeff   2   harmonic 0.1   1.0

###################################################
compute 1 all gyration
variable rog equal c_1
#compute 2 all coord/atom cutoff 1.1

#dump 2 all custom 10000 contact_number.dump id c_2


###
# Set up fixes
###
thermo_style   custom   step  temp enthalpy c_1
fix 1 all nve   ###NVE ensemble

fix 2 all   langevin   1.0 1.0 1.0  778655   ###Langevin integrator Tstart Tstop 1/friction rndseed


##### Sample thermodynamic info  (temperature, energy, pressure, etc.) #####
thermo 1000









############################################################################

###
# set timestep of integrator

timestep 0.01

###
# run integration for a number of steps
###
#run 0
#variable r equal c_1
#if "$r < 63.1" then "quit 1"

# lj potential minimum, cause molecule to explore
run 100000
Generated 0 of 0 mixed pair_coeff terms from geometric mixing rule
Last active /omp style is angle_style cosine/omp
Neighbor list info ...
  update: every = 1 steps, delay = 1 steps, check = yes
  max neighbors/atom: 2000, page size: 100000
  master list distance cutoff = 5.1224615
  ghost atom cutoff = 5.1224615
  binsize = 2.5612308, bins = 781 781 781
  1 neighbor lists, perpetual/occasional/extra = 1 0 0
  (1) pair lj/cut/omp, perpetual
      attributes: half, newton on, omp
      pair build: half/bin/newton/omp
      stencil: half/bin/3d
      bin: standard
WARNING: Communication cutoff 5.12246152962189 is shorter than a bond length based estimate of 5.455. This may lead to errors. (src/comm.cpp:723)
Per MPI rank memory allocation (min/avg/max) = 1862 | 1862 | 1862 Mbytes
   Step          Temp         Enthalpy         c_1      
         0   0              13.314344      118.29536    
      1000   0.98277443     17.954604      117.70391    
      2000   0.99905978     17.441908      117.24172    
      3000   0.97024559     17.839809      116.68941    
      4000   1.008588       18.101143      115.96538    
      5000   0.96201203     18.375807      115.2671     
      6000   0.97389026     18.883401      114.7339     
      7000   0.99824289     18.066235      114.2614     
      8000   1.0028214      19.088921      113.7601     
      9000   1.0706089      18.94611       113.22094    
     10000   0.99406436     18.619548      112.65697    
     11000   1.0064692      19.349875      112.15041    
     12000   0.95908742     18.752063      111.7762     
     13000   1.0096002      18.47587       111.23951    
     14000   1.0235001      19.079799      110.60576    
     15000   0.9976964      19.544077      110.15008    
     16000   1.0272097      19.359266      109.95421    
     17000   0.98977845     19.548805      109.37839    
     18000   1.0274964      19.032483      109.14862    
     19000   0.9716847      19.269899      108.8999     
     20000   1.0179963      18.890536      108.55579    
     21000   1.0108058      19.726076      108.18275    
     22000   0.96152934     19.362395      107.80337    
     23000   1.0084388      19.537295      107.30474    
     24000   1.0045744      19.199405      107.00677    
     25000   0.99791832     19.587478      106.82481    
     26000   0.9949833      18.903838      106.4774     
     27000   1.0212391      19.587447      106.12911    
     28000   1.0223578      19.113017      105.57897    
     29000   0.97900019     19.664646      105.07427    
     30000   0.97884748     18.967579      105.10131    
     31000   0.97765938     19.496229      104.93375    
     32000   1.0059187      19.107613      104.87472    
     33000   0.99721783     18.922229      104.59491    
     34000   0.99974809     19.913143      104.57324    
     35000   0.99298185     19.110412      104.60552    
     36000   1.0087189      19.346237      104.47976    
     37000   0.98680615     19.577012      104.03516    
     38000   1.0081394      19.852958      103.93988    
     39000   0.97210511     19.642569      103.72039    
     40000   1.015267       19.524974      103.66653    
     41000   0.99732883     19.345366      103.4244     
     42000   0.96223892     19.521376      103.08653    
     43000   1.0001215      19.767673      102.75556    
     44000   0.99117219     19.202459      102.4446     
     45000   0.95505361     19.726803      102.2093     
     46000   1.0139266      19.448704      102.06906    
     47000   1.0348465      19.225953      102.04296    
     48000   1.024916       19.960635      101.94945    
     49000   1.0388069      20.037985      101.76686    
     50000   1.0009715      19.284822      101.55668    
     51000   1.0298486      19.902025      101.29941    
     52000   1.0258489      19.544648      101.11699    
     53000   1.0156843      19.273337      100.9275     
     54000   0.99440487     19.722121      100.69961    
     55000   1.0230936      20.160931      100.29107    
     56000   0.97949901     19.692469      100.04047    
     57000   1.0395425      19.774983      99.714493    
     58000   1.0052164      19.896303      99.357053    
     59000   0.98226766     19.537915      99.014878    
     60000   0.98101171     19.822828      98.6516      
     61000   0.98505055     19.627406      98.641648    
     62000   0.98158359     19.354888      98.594567    
     63000   0.99879986     19.575057      98.604899    
     64000   0.99100109     19.840662      98.424518    
     65000   0.99808944     19.667251      98.211458    
     66000   1.0212203      19.766147      98.212714    
     67000   0.9576315      19.926117      98.227211    
     68000   1.010951       19.448792      97.817863    
     69000   0.993279       19.850443      97.44832     
     70000   1.0231155      19.588841      97.322517    
     71000   1.0244925      20.046351      96.860453    
     72000   1.0049906      19.942771      96.627613    
     73000   0.98565882     19.637909      96.3251      
     74000   1.0075617      19.998816      96.104577    
     75000   0.97921071     19.367131      96.056055    
     76000   1.0155027      19.750519      95.663352    
     77000   1.02914        19.524928      95.388679    
     78000   1.0023464      20.402944      95.191599    
     79000   1.0518426      19.981959      95.050557    
     80000   0.96884841     19.682397      94.743376    
     81000   1.0143465      19.354909      94.347859    
     82000   0.99017822     19.987146      94.153733    
     83000   0.94388036     19.640425      93.996478    
     84000   1.00529        19.516477      93.606757    
     85000   0.95185468     19.982622      93.30745     
     86000   0.97571865     20.389391      93.025897    
     87000   1.0421929      19.77496       92.619029    
     88000   1.0142522      20.476112      92.39929     
     89000   1.0199974      19.780418      92.632212    
     90000   1.0022307      20.139999      92.452109    
     91000   1.0119667      19.520007      92.454137    
     92000   0.98730014     19.976868      92.501921    
     93000   0.96468443     19.685886      92.43954     
     94000   1.007129       19.819824      92.273653    
     95000   1.0275215      19.854901      92.242166    
     96000   0.99092147     19.649562      92.012888    
     97000   0.95565861     19.530197      91.932204    
     98000   1.0309135      20.042459      91.561097    
     99000   0.98500279     20.045605      91.418804    
    100000   0.99144666     20.05619       91.585074    
Loop time of 259.565 on 2 procs for 100000 steps with 901 atoms

Performance: 332864.637 tau/day, 385.260 timesteps/s
103.1% CPU use with 1 MPI tasks x 2 OpenMP threads

MPI task timing breakdown:
Section |  min time  |  avg time  |  max time  |%varavg| %total
---------------------------------------------------------------
Pair    | 0.84027    | 0.84027    | 0.84027    |   0.0 |  0.32
Bond    | 1.6697     | 1.6697     | 1.6697     |   0.0 |  0.64
Neigh   | 252.88     | 252.88     | 252.88     |   0.0 | 97.42
Comm    | 0.02504    | 0.02504    | 0.02504    |   0.0 |  0.01
Output  | 0.22361    | 0.22361    | 0.22361    |   0.0 |  0.09
Modify  | 3.6797     | 3.6797     | 3.6797     |   0.0 |  1.42
Other   |            | 0.2457     |            |       |  0.09

Nlocal:            901 ave         901 max         901 min
Histogram: 1 0 0 0 0 0 0 0 0 0
Nghost:              0 ave           0 max           0 min
Histogram: 1 0 0 0 0 0 0 0 0 0
Neighs:           5205 ave        5205 max        5205 min
Histogram: 1 0 0 0 0 0 0 0 0 0

Total # of neighbors = 5205
Ave neighs/atom = 5.7769145
Ave special neighs/atom = 1.9977802
Neighbor list builds = 1090
Dangerous builds = 0

# Replace lj potential, now collapse
pair_style      lj/cut 3

# Cutoff simul when gyration under 5
# Variable created with equal requires v_ + 'name'
fix 3 all halt 1000 v_rog < 7

run 5000000
Generated 0 of 0 mixed pair_coeff terms from geometric mixing rule
Last active /omp style is angle_style cosine/omp
Per MPI rank memory allocation (min/avg/max) = 1862 | 1862 | 1862 Mbytes
   Step          Temp         Enthalpy         c_1      
    100000   0.99144666     19.436492      91.585074    
    101000   1.0104619      19.557111      91.382949    
    102000   0.9932095      19.043681      91.2161      
    103000   1.0007963      20.318322      90.747762    
    104000   0.99992991     18.650571      90.601827    
    105000   0.98339593     19.149525      90.376549    
    106000   0.97833209     18.959531      89.901045    
    107000   0.94638511     18.853458      89.907891    
    108000   0.99820299     19.603915      89.510779    
    109000   0.98498998     18.972947      89.380009    
    110000   1.0062504      19.218574      89.042753    
    111000   0.98206785     19.671027      88.851561    
    112000   1.0351295      18.870804      88.644449    
    113000   1.015117       19.804496      88.398016    
    114000   1.0007605      19.42125       88.445388    
    115000   1.0250987      19.218922      88.25806     
    116000   1.0318149      19.422399      88.249598    
    117000   0.96437344     19.551579      87.999485    
    118000   1.0240188      19.263383      88.02999     
    119000   1.0389085      19.534869      87.839859    
    120000   0.97209748     19.781911      87.585589    
    121000   0.96361161     19.326053      87.393847    
    122000   0.96019544     19.684409      87.213175    
    123000   1.0286711      19.204632      86.988661    
    124000   0.9828208      19.108587      86.885198    
    125000   1.0758376      20.136622      86.4165      
    126000   1.0612737      19.984684      86.153751    
    127000   1.0032426      19.379035      85.915774    
    128000   1.0374045      19.099276      85.774231    
    129000   1.0262213      19.123965      85.762099    
    130000   0.99116487     18.548439      85.559844    
    131000   1.0124635      19.598948      85.060588    
    132000   1.034372       19.092792      85.016905    
    133000   0.97280826     19.152094      85.02449     
    134000   1.0066949      19.500998      84.948509    
    135000   0.97389631     18.890571      84.826293    
    136000   1.0186459      19.180211      84.564723    
    137000   1.0056461      19.356773      84.670105    
    138000   0.98912176     19.243867      84.495497    
    139000   0.99631068     19.27916       84.367303    
    140000   0.96014262     19.208153      84.166479    
    141000   1.0075756      19.473669      83.834893    
    142000   0.98173169     19.485706      83.558466    
    143000   1.0127508      19.15863       83.442418    
    144000   1.0118211      19.1907        83.147952    
    145000   0.94711365     19.266241      82.77289     
    146000   1.0081381      19.014507      82.480784    
    147000   1.0106136      18.770054      82.258825    
    148000   1.0364702      19.717393      82.126529    
    149000   1.0224885      18.777761      82.130618    
    150000   1.0566916      19.658763      82.021165    
    151000   0.98131886     18.891195      81.729332    
    152000   0.95444636     19.00308       81.614674    
    153000   0.99385743     19.066714      81.417476    
    154000   1.0139298      20.047318      81.1507      
    155000   1.0363282      19.017513      80.739562    
    156000   0.94852937     18.819891      80.823048    
    157000   1.0277237      18.91273       80.818164    
    158000   1.0129872      18.840624      80.874192    
    159000   0.98105363     18.947596      80.685757    
    160000   1.0150692      19.063245      80.67589     
    161000   0.96934837     19.231104      80.444419    
    162000   1.0327843      18.926297      80.011023    
    163000   0.98751888     18.809169      79.67114     
    164000   0.99639234     19.513017      79.601171    
    165000   1.0268604      18.956594      79.564546    
    166000   0.98587131     19.485822      79.508133    
    167000   1.0205612      19.521234      79.474289    
    168000   1.0128658      19.075718      79.369464    
    169000   0.96595082     19.188923      79.243874    
    170000   1.0304613      19.034648      79.015953    
    171000   1.0186393      19.536823      79.088853    
    172000   1.0021084      18.984038      79.048409    
    173000   0.98039369     19.238708      79.003576    
    174000   0.99938086     18.978703      78.915569    
    175000   1.0129725      19.173284      78.800964    
    176000   1.0248825      19.579869      78.735934    
    177000   1.0112851      19.142609      78.653955    
    178000   0.98485938     19.034373      78.329075    
    179000   1.0165486      19.429925      78.292736    
    180000   1.0259595      19.274871      78.285827    
    181000   0.95470119     18.3728        78.089447    
    182000   0.9577009      19.566097      78.155452    
    183000   0.99992002     19.077314      77.72228     
    184000   1.0169044      18.913544      77.556165    
    185000   0.984729       19.028841      77.284028    
    186000   1.0197923      19.077248      77.173982    
    187000   0.97204204     19.342344      77.005147    
    188000   0.99550725     18.267847      77.029198    
    189000   0.98812044     18.899909      76.894435    
    190000   1.0001382      19.336564      76.713648    
    191000   0.97477009     18.747876      76.570976    
    192000   1.0172272      19.383093      76.323325    
    193000   0.98387305     18.784909      76.131652    
    194000   1.0050118      19.360278      75.987753    
    195000   1.0138767      19.120356      75.775015    
    196000   0.99474088     18.984056      75.81252     
    197000   1.0535062      19.006575      75.600554    
    198000   1.0403859      19.750398      75.471165    
    199000   0.99643534     18.408844      75.082291    
    200000   1.0324919      18.978533      75.132566    
    201000   1.0076783      18.624823      74.960528    
    202000   1.0211555      19.200357      74.839524    
    203000   0.98765337     18.572634      74.568353    
    204000   1.0220376      19.353848      74.395821    
    205000   1.0023032      18.82639       74.382741    
    206000   0.9926923      19.079242      74.224188    
    207000   1.0362679      19.559538      73.932972    
    208000   1.0322419      19.28405       74.009925    
    209000   0.97503419     18.662579      73.773066    
    210000   0.95949795     19.036287      73.871375    
    211000   1.0118101      19.394242      73.596538    
    212000   0.96604568     18.662781      73.25974     
    213000   1.0195093      18.614443      73.230924    
    214000   1.0011584      19.326173      73.085913    
    215000   0.98362528     19.123511      72.789454    
    216000   0.97333098     18.595991      72.5916      
    217000   0.99592994     19.613967      72.498876    
    218000   1.0381421      18.864903      72.219388    
    219000   0.98950677     18.870727      71.95196     
    220000   1.0222826      18.866354      71.52115     
    221000   1.0128144      18.715992      71.424591    
    222000   1.0096477      18.74089       71.331461    
    223000   1.0279239      19.085245      70.93948     
    224000   0.96799045     18.739863      70.840893    
    225000   1.0140621      19.044807      70.719221    
    226000   0.99248407     18.77458       70.364542    
    227000   1.0676242      18.786956      70.021498    
    228000   1.0616016      18.37358       69.975185    
    229000   1.0311285      19.061125      69.891032    
    230000   1.001035       18.780267      69.835513    
    231000   1.0145776      18.736136      69.679526    
    232000   1.0220862      18.807196      69.654671    
    233000   0.97824731     18.466451      69.310795    
    234000   0.96825568     18.319503      69.152901    
    235000   0.99631114     18.873474      68.878209    
    236000   0.99992527     18.81076       68.686682    
    237000   1.054061       18.196306      68.545165    
    238000   1.0050778      19.306202      68.548276    
    239000   0.99430258     18.461263      68.475603    
    240000   0.99443608     18.464552      68.489403    
    241000   1.0187362      19.109337      68.222653    
    242000   1.0765025      18.395862      68.02499     
    243000   0.96953789     18.690118      67.870666    
    244000   0.99945632     19.085368      67.636405    
    245000   1.0333255      19.062806      67.443004    
    246000   0.99621147     18.8668        67.301134    
    247000   0.99478256     18.685371      67.160027    
    248000   1.0214797      18.20644       67.040535    
    249000   0.96461428     18.55906       66.879421    
    250000   1.0177006      18.862976      66.804542    
    251000   0.99399056     19.152204      66.488673    
    252000   1.0248916      18.470979      66.370995    
    253000   0.97934193     18.260192      66.124337    
    254000   1.0046672      18.850194      65.9051      
    255000   0.95355955     18.329829      65.855565    
    256000   1.0176524      18.716746      65.811565    
    257000   0.99026062     17.834105      65.358487    
    258000   1.0460264      19.088547      65.263597    
    259000   1.0082905      18.326165      65.168292    
    260000   0.99481306     18.916372      65.175955    
    261000   0.97937961     18.320542      65.10488     
    262000   0.99284985     19.274627      64.824046    
    263000   0.97747167     18.318105      64.620187    
    264000   0.98128302     18.49724       64.610152    
    265000   1.0210875      18.477605      64.531946    
    266000   1.0523821      18.435153      64.396538    
    267000   0.95451525     18.09554       64.294051    
    268000   0.99778617     18.926302      63.745938    
    269000   0.97603823     18.541518      63.533882    
    270000   1.0024676      18.65393       63.50359     
    271000   0.9643559      18.723791      63.42631     
    272000   0.99313063     18.591568      63.055311    
    273000   1.0280987      19.080021      62.92923     
    274000   0.98722824     18.806432      62.835487    
    275000   0.95386314     19.176038      62.665195    
    276000   1.0131727      19.125564      62.673373    
    277000   0.96332756     18.356683      62.55042     
    278000   0.97495648     18.890888      62.14929     
    279000   1.0028673      18.637918      61.823913    
    280000   1.0103676      18.417839      61.785554    
    281000   1.0354631      17.948413      61.512439    
    282000   1.0621903      18.627809      61.284195    
    283000   1.0338915      18.657758      61.169055    
    284000   1.05011        18.673399      60.98226     
    285000   1.0445979      18.322339      60.802363    
    286000   0.99185572     18.634367      60.695537    
    287000   1.0461765      19.250729      60.379147    
    288000   1.0395505      18.280553      60.177684    
    289000   1.0364012      18.989355      60.026299    
    290000   1.0129175      18.928326      59.855992    
    291000   1.0551899      18.693798      59.719651    
    292000   0.96936839     18.549871      59.562525    
    293000   1.0032367      18.220668      59.502306    
    294000   0.97375066     18.242347      59.292487    
    295000   1.0109293      18.760431      59.195249    
    296000   1.0320572      18.816448      59.162206    
    297000   0.99772684     18.690185      58.922977    
    298000   1.0208398      18.501241      58.634718    
    299000   1.0225331      18.946676      58.471406    
    300000   1.0116602      18.442571      58.436849    
    301000   1.0167347      18.316323      58.135552    
    302000   1.0374773      18.556939      58.004878    
    303000   1.0362833      18.386302      57.559699    
    304000   0.9953223      18.342384      57.25979     
    305000   1.0246838      18.415557      57.177402    
    306000   0.97910436     18.269093      57.033237    
    307000   0.99869332     18.392994      56.679463    
    308000   1.0135749      18.830665      56.662595    
    309000   0.99774094     18.538397      56.529681    
    310000   0.99482518     18.688627      56.532487    
    311000   1.0003135      18.482231      56.327667    
    312000   0.99045571     18.916308      56.106506    
    313000   0.96142135     18.604508      55.892007    
    314000   0.9877248      18.35805       55.93629     
    315000   1.0340852      18.755298      55.692362    
    316000   0.97577995     18.428         55.386744    
    317000   1.0561299      18.517893      55.224621    
    318000   0.99642129     18.873632      55.394333    
    319000   0.97583063     18.294257      55.408672    
    320000   0.94341982     18.057128      55.208244    
    321000   1.0030406      18.165446      54.971151    
    322000   0.97130306     17.643913      54.583709    
    323000   1.0151651      18.52721       54.381629    
    324000   1.0391941      18.169936      53.945479    
    325000   1.0121563      17.553254      53.739713    
    326000   1.0065452      18.103864      53.625146    
    327000   0.99251805     17.958236      53.365217    
    328000   0.96853497     17.551023      53.265381    
    329000   1.0533098      18.241179      53.278749    
    330000   1.0011758      18.698722      53.235688    
    331000   1.0443321      18.941647      53.08195     
    332000   1.0254179      18.226729      52.727776    
    333000   0.99801572     17.971512      52.534447    
    334000   0.95619524     18.328966      52.540713    
    335000   1.0158973      18.374526      52.462649    
    336000   1.0294154      18.259616      52.083746    
    337000   1.0338732      18.801297      51.882747    
    338000   0.9871556      18.338008      51.919313    
    339000   1.0225664      17.789066      51.780403    
    340000   0.98719734     18.144103      51.542245    
    341000   1.017108       18.120057      51.126671    
    342000   0.99984096     17.552267      50.916496    
    343000   1.0343203      17.649606      50.923952    
    344000   1.000749       18.075537      50.68479     
    345000   1.013045       17.985464      50.447908    
    346000   0.99489894     18.021191      50.256082    
    347000   0.9733762      18.087394      50.120569    
    348000   1.039758       18.056082      50.036007    
    349000   0.9536904      17.851247      50.120722    
    350000   0.99203378     18.295025      50.12531     
    351000   0.98408675     17.998946      50.012495    
    352000   0.9970919      18.126421      49.967698    
    353000   0.9454278      17.916377      49.839777    
    354000   1.0193228      18.421475      49.977805    
    355000   0.96288542     18.324797      49.992772    
    356000   0.98010861     18.281598      50.128762    
    357000   1.0313311      18.718246      49.998562    
    358000   0.98253763     17.836863      50.090851    
    359000   1.0511272      18.062609      50.25105     
    360000   1.015477       18.885149      50.093061    
    361000   1.0060099      18.283348      49.845355    
    362000   1.0078072      18.652315      49.52816     
    363000   0.96317508     18.4356        49.190528    
    364000   0.9781108      18.684446      48.9195      
    365000   0.98876067     19.060218      48.869915    
    366000   1.0517894      18.665885      48.889383    
    367000   0.99776169     18.181061      48.815637    
    368000   0.9763735      18.46464       48.711392    
    369000   1.0354335      18.513367      48.591596    
    370000   0.99991731     18.090776      48.530376    
    371000   0.99409408     18.066096      48.262632    
    372000   1.0043772      18.256774      48.074673    
    373000   1.0147155      18.228631      48.059762    
    374000   0.96257848     18.13188       47.829165    
    375000   1.0235517      18.695409      47.797568    
    376000   1.0199581      18.544303      47.78536     
    377000   0.98411993     18.711486      47.668143    
    378000   1.0359771      18.300299      47.815163    
    379000   0.9967916      18.775173      47.472422    
    380000   1.0406668      18.062887      47.480196    
    381000   0.98309396     17.957394      47.379584    
    382000   1.0289989      18.680696      47.231239    
    383000   0.9667018      18.591013      46.88266     
    384000   1.0099602      18.024862      46.669378    
    385000   0.97004361     18.36          46.544183    
    386000   0.99223976     18.226218      46.475045    
    387000   0.96000434     18.187922      46.481179    
    388000   1.0104558      17.921948      46.35491     
    389000   0.98768715     17.993148      46.089497    
    390000   0.97361694     18.174318      46.116784    
    391000   1.0550629      18.706196      46.194958    
    392000   1.0548545      17.890681      46.080726    
    393000   1.0043658      17.721607      45.984916    
    394000   0.98915983     17.763062      45.711202    
    395000   1.0329342      18.27286       45.406677    
    396000   1.0029727      18.745113      45.213       
    397000   0.99155788     17.753821      45.098166    
    398000   0.98676155     18.140341      44.992553    
    399000   1.0744481      18.73261       44.827089    
    400000   1.0312265      18.084883      44.487403    
    401000   0.98913073     18.178478      43.990286    
    402000   0.99933115     17.902336      43.675089    
    403000   1.0227797      18.470919      43.20846     
    404000   1.1012831      19.272709      42.867189    
    405000   0.96232267     18.545548      42.594045    
    406000   0.98977171     18.414342      42.178302    
    407000   0.99684846     18.092906      42.005212    
    408000   0.93128925     17.700368      41.888506    
    409000   0.98988879     17.820944      41.776341    
    410000   0.98644991     18.339057      41.648668    
    411000   0.99485902     18.44516       41.503824    
    412000   0.9780982      18.074702      41.382855    
    413000   0.98555966     17.880004      41.244361    
    414000   0.99786756     18.037719      41.174155    
    415000   0.99769238     18.720535      41.301509    
    416000   1.0089885      18.736853      41.04049     
    417000   0.99391203     18.158799      41.039143    
    418000   0.98388265     18.186498      41.143291    
    419000   0.94710692     18.251712      41.130591    
    420000   0.98724948     17.839845      41.023501    
    421000   0.9830026      18.077597      40.88942     
    422000   1.0209153      18.251378      40.587312    
    423000   0.97610686     18.228158      40.433034    
    424000   0.96918346     17.52418       40.410438    
    425000   1.006503       18.395165      40.434317    
    426000   0.99678141     18.304735      40.380857    
    427000   1.0746936      17.883219      40.223103    
    428000   1.0442236      17.666486      40.225862    
    429000   1.0205907      17.160328      40.02728     
    430000   1.0044522      18.214038      39.757113    
    431000   1.0089367      18.024311      39.505398    
    432000   0.99375982     18.067325      39.07872     
    433000   1.0130544      18.001508      39.01834     
    434000   0.97253039     17.951005      38.790018    
    435000   1.0010709      17.931655      38.751205    
    436000   0.99853377     17.201483      38.659407    
    437000   0.9833833      18.104876      38.472996    
    438000   1.0497764      18.782072      38.367339    
    439000   1.0502726      18.011196      38.340774    
    440000   1.0086844      17.970819      38.285758    
    441000   1.0013242      18.463888      38.153472    
    442000   1.0040272      17.792806      37.910043    
    443000   1.0562392      18.134696      37.804363    
    444000   0.98569012     18.133725      37.796787    
    445000   1.0165051      17.740154      37.651889    
    446000   0.99017485     18.016422      37.395249    
    447000   0.99652413     17.879416      37.267351    
    448000   1.0029577      17.377933      37.235765    
    449000   1.0604935      17.500491      37.110788    
    450000   0.99354376     17.995269      36.918176    
    451000   0.98273451     18.203857      36.614443    
    452000   1.0022189      18.552297      36.431987    
    453000   1.0277941      17.686231      36.159096    
    454000   1.005407       18.330523      35.894514    
    455000   0.97922191     17.860383      35.808564    
    456000   0.99761291     17.770845      35.783949    
    457000   1.0364362      17.916152      35.552449    
    458000   1.0200842      18.523103      35.293951    
    459000   0.93921323     18.348388      35.334402    
    460000   1.0726626      17.877331      35.009256    
    461000   1.0054726      17.278424      34.966549    
    462000   0.97436106     17.51918       34.802546    
    463000   0.99851754     17.786586      34.813209    
    464000   1.031276       17.797405      34.678509    
    465000   1.023289       18.284286      34.373339    
    466000   1.0083551      17.30258       34.13803     
    467000   1.0009457      17.481478      33.90289     
    468000   1.0469248      18.257347      33.672372    
    469000   0.98797481     18.012779      33.495373    
    470000   0.98681727     18.176537      33.223998    
    471000   1.0567412      17.854609      32.925847    
    472000   1.029268       18.109579      33.077865    
    473000   1.0111432      18.093846      32.708286    
    474000   1.0160056      18.011125      32.480205    
    475000   0.9916231      17.215115      32.267114    
    476000   0.96841942     17.498598      32.193841    
    477000   0.9582658      17.894413      32.12634     
    478000   1.001669       17.833883      32.157455    
    479000   1.0147123      17.535558      32.023922    
    480000   0.9667031      17.401891      32.034134    
    481000   1.0066763      17.789162      31.941868    
    482000   0.96417118     18.293966      32.045441    
    483000   1.0283209      17.957985      31.920876    
    484000   0.97788309     18.716743      31.939646    
    485000   0.99922953     17.822193      31.781697    
    486000   0.99645522     17.702436      31.636817    
    487000   1.0208055      18.0003        31.774021    
    488000   0.95329468     18.16937       31.700422    
    489000   0.97034936     17.635014      31.721428    
    490000   0.99913425     18.123888      31.65891     
    491000   1.0268084      17.55588       31.203619    
    492000   1.0235501      17.774063      31.213104    
    493000   0.98770952     18.115533      31.211247    
    494000   1.0346458      17.55097       30.959973    
    495000   1.0043839      17.636557      30.717329    
    496000   0.97758924     17.562043      30.482624    
    497000   0.98761314     17.688907      30.223324    
    498000   1.0400825      18.205307      30.141686    
    499000   0.98976325     17.623481      30.048129    
    500000   0.97265709     18.386883      29.963951    
    501000   1.0456566      18.540892      29.893001    
    502000   1.0432486      18.219605      29.545771    
    503000   0.97091391     17.964332      29.506365    
    504000   0.95708554     18.286018      29.324727    
    505000   0.96888373     18.325362      29.029412    
    506000   0.96484943     17.502649      28.945181    
    507000   1.016346       17.419764      29.176984    
    508000   0.97689601     17.251051      29.052897    
    509000   1.0172798      18.099149      28.846333    
    510000   1.0144291      17.757548      28.647138    
    511000   0.97092419     16.982655      28.371312    
    512000   1.006931       17.240088      28.573584    
    513000   0.99904146     17.730698      28.682411    
    514000   0.98472428     17.711563      28.856504    
    515000   1.0030438      18.037811      28.795481    
    516000   1.0248977      17.644278      28.478787    
    517000   0.98897299     18.048618      28.22737     
    518000   0.98748729     18.033755      27.910598    
    519000   1.0678316      17.71786       27.948988    
    520000   0.97284723     18.065489      27.847115    
    521000   1.0202334      18.096311      27.498532    
    522000   0.97443956     17.479542      27.178643    
    523000   1.0288124      17.704537      27.029087    
    524000   1.0198266      18.186907      27.195943    
    525000   0.97110574     17.502402      26.990696    
    526000   0.99737708     18.156217      26.651171    
    527000   1.005647       17.707551      26.633804    
    528000   1.0019951      18.507422      26.680825    
    529000   1.010068       18.088446      26.666127    
    530000   0.98067958     17.775294      26.497535    
    531000   1.0033386      17.666372      26.344984    
    532000   0.996603       17.757235      26.432781    
    533000   0.97116554     17.95998       26.252886    
    534000   1.0039363      18.103326      26.202023    
    535000   0.9717328      17.481315      26.081286    
    536000   1.0372043      18.039054      25.976121    
    537000   1.0238064      17.736448      25.949579    
    538000   1.0066352      17.907405      25.72565     
    539000   1.0153225      17.210303      25.607495    
    540000   0.97590518     17.316928      25.520908    
    541000   1.0113708      17.543428      25.53327     
    542000   0.99006896     18.04783       25.412563    
    543000   1.0065026      18.052435      25.394476    
    544000   0.95777714     18.007593      25.251097    
    545000   1.0015356      17.200513      25.33367     
    546000   0.95151046     17.955403      25.101593    
    547000   1.0075196      17.721538      24.78703     
    548000   1.0002484      17.618048      24.735438    
    549000   0.98572079     17.960418      24.538129    
    550000   1.0569396      17.154666      24.329189    
    551000   0.95767792     17.184494      24.021349    
    552000   0.98158672     17.336381      23.673532    
    553000   0.97315413     17.843344      23.646718    
    554000   0.97521589     17.149636      23.463182    
    555000   1.0015067      17.193614      23.50166     
    556000   0.98668024     16.981826      23.214003    
    557000   0.97930033     17.593507      22.847068    
    558000   1.0380871      17.803128      22.661589    
    559000   1.014564       17.166401      22.301151    
    560000   0.99280913     18.442886      22.140509    
    561000   1.0423785      17.918182      22.076821    
    562000   0.97877948     17.813166      21.699827    
    563000   0.97627257     17.588128      21.403282    
    564000   1.0266317      17.455278      21.217891    
    565000   0.9961551      17.478906      20.783992    
    566000   1.0374816      17.666409      20.669453    
    567000   1.0044771      17.963087      20.708849    
    568000   1.0558857      17.881187      20.42411     
    569000   0.9908132      17.929704      20.462293    
    570000   1.0162796      17.772577      20.297868    
    571000   1.0022297      17.598382      20.102169    
    572000   0.981349       17.261814      19.95011     
    573000   1.0020681      17.626887      19.975113    
    574000   0.9855021      17.192058      20.027468    
    575000   1.008885       17.64196       20.04033     
    576000   0.98540108     17.696246      20.070594    
    577000   1.0212662      17.928507      19.903647    
    578000   1.0009963      17.685211      20.020311    
    579000   1.0034843      17.905903      19.81619     
    580000   0.96865164     17.397326      19.564159    
    581000   1.0261211      18.359896      19.278393    
    582000   0.97809102     17.265729      19.108767    
    583000   0.97280199     17.619665      18.920231    
    584000   1.051679       17.558751      18.597936    
    585000   0.99428147     17.864318      18.844276    
    586000   0.98015375     17.542812      18.913685    
    587000   1.0143561      17.975155      18.686444    
    588000   0.99018383     17.825793      18.365714    
    589000   1.0123163      16.972083      18.401867    
    590000   1.0165324      17.799522      18.654489    
    591000   0.96399686     17.220636      18.383711    
    592000   0.96246812     17.324558      18.238439    
    593000   0.97436516     17.174955      17.911118    
    594000   1.0512836      18.235662      17.520589    
    595000   0.98434576     17.188074      17.28372     
    596000   0.96544939     17.655311      17.38838     
    597000   1.0331442      17.970786      17.387247    
    598000   0.97839993     17.144281      17.162973    
    599000   0.97219645     17.181268      16.978486    
    600000   1.0110906      17.323099      17.026578    
    601000   1.0124248      17.429943      16.92429     
    602000   1.0172242      17.048231      16.960469    
    603000   0.98372473     17.632515      16.734296    
    604000   0.99218479     17.146442      16.683294    
    605000   0.98403966     17.54236       16.630251    
    606000   0.97405243     17.57956       16.663002    
    607000   0.99379819     17.700749      16.356091    
    608000   1.017238       17.409989      16.032923    
    609000   1.0131547      18.251149      15.865055    
    610000   0.9826982      17.490024      15.759567    
    611000   1.0859665      17.94658       15.525224    
    612000   0.97538243     17.782754      15.421626    
    613000   1.0042229      17.897943      15.195386    
    614000   1.031669       17.738184      15.139165    
    615000   1.037238       17.491413      14.976211    
    616000   0.96590016     17.641101      14.791825    
    617000   0.9747352      17.832263      14.663517    
    618000   1.0552394      17.687756      14.510662    
    619000   0.97636687     17.182088      14.287516    
    620000   1.0282857      16.703395      14.204688    
    621000   1.0518983      17.171704      13.891046    
    622000   1.0039422      17.088978      13.792031    
    623000   1.0381145      17.571513      13.537874    
    624000   1.0202024      17.636784      13.246872    
    625000   1.0091744      17.437366      13.229675    
    626000   0.98916517     17.186348      13.042581    
    627000   1.0065314      17.670702      13.03541     
    628000   0.97080865     17.249059      12.829345    
    629000   1.0148853      17.071388      12.837682    
    630000   1.0675052      17.38806       12.777885    
    631000   1.0305576      17.528122      12.683147    
    632000   1.0100646      17.208179      12.793475    
    633000   0.99212635     17.521759      12.664309    
    634000   0.99718992     17.759872      12.412298    
    635000   0.98497327     17.172107      12.30456     
    636000   0.99487516     16.740829      12.224404    
    637000   0.95079284     16.377019      12.38691     
    638000   0.99191637     17.335061      12.302717    
    639000   1.0123581      17.363818      12.530665    
    640000   1.0286729      17.699896      12.162947    
    641000   0.99184404     17.377885      12.123716    
    642000   1.0089767      17.55306       12.02173     
    643000   1.0128731      16.861434      11.997309    
    644000   0.98180553     17.255631      11.917719    
    645000   0.99294004     17.320093      11.571526    
    646000   1.0081584      17.293773      11.602051    
    647000   0.97478826     17.39735       11.467991    
    648000   0.97408639     17.53879       11.441178    
    649000   1.0170419      16.98894       11.650382    
    650000   0.99324405     16.759548      11.537472    
    651000   1.0457889      16.698254      11.330714    
    652000   0.99130177     16.750596      11.006993    
    653000   1.0028291      17.285787      11.010907    
    654000   0.98997292     16.803486      11.04298     
    655000   0.98027525     16.900559      10.827603    
    656000   0.99193175     17.688649      10.697914    
    657000   0.96090345     17.457101      10.487501    
    658000   1.0414407      16.80387       10.428348    
    659000   0.95108036     17.302161      10.261899    
    660000   0.97752767     17.244943      10.294594    
    661000   1.014516       17.487595      10.342275    
    662000   1.0263125      17.412387      10.207611    
    663000   1.0515705      17.217707      10.075568    
    664000   1.0001895      17.553367      9.9521559    
    665000   1.0373612      17.650908      10.014506    
    666000   1.0352313      17.253306      9.8356798    
    667000   0.98530239     17.583608      9.9903305    
    668000   0.99067939     16.988751      9.8478455    
    669000   1.0076428      17.222115      9.9234779    
    670000   1.0296234      17.759441      9.7997993    
    671000   1.0233927      17.803559      9.8118399    
    672000   1.0425609      17.385662      9.8007998    
    673000   1.0004807      17.034584      9.9861187    
    674000   0.97716187     17.417861      10.007912    
    675000   1.0303938      17.608267      9.929592     
    676000   0.98163011     16.632126      9.8152167    
    677000   0.98366626     17.321525      9.5152441    
    678000   1.0171455      17.621069      9.2624054    
    679000   1.0512576      17.538499      9.0667642    
    680000   1.0089174      17.465296      8.8366378    
    681000   0.97008076     16.912779      8.6265617    
    682000   0.99608299     17.552947      8.3769621    
    683000   1.0256161      17.205363      8.3250412    
    684000   0.96412098     16.929889      8.3392243    
    685000   0.98736836     16.969236      8.0551805    
    686000   0.98327248     17.380836      7.9010739    
    687000   1.0698958      17.504091      7.5247002    
    688000   0.98691014     16.772605      7.2987849    
    689000   1.0302255      17.0647        7.1560075    
    690000   1.0157175      16.803092      7.0688955    
    691000   1.0077158      16.897661      7.0618346    
Fix halt condition for fix-id 3 met on step 692000 with value 6.864741682801645 (src/fix_halt.cpp:237)
    692000   1.0090101      17.576054      6.8647417    
Loop time of 608.104 on 2 procs for 592000 steps with 901 atoms

Performance: 841119.402 tau/day, 973.518 timesteps/s
121.6% CPU use with 1 MPI tasks x 2 OpenMP threads

MPI task timing breakdown:
Section |  min time  |  avg time  |  max time  |%varavg| %total
---------------------------------------------------------------
Pair    | 90.065     | 90.065     | 90.065     |   0.0 | 14.81
Bond    | 9.6777     | 9.6777     | 9.6777     |   0.0 |  1.59
Neigh   | 483.92     | 483.92     | 483.92     |   0.0 | 79.58
Comm    | 0.15031    | 0.15031    | 0.15031    |   0.0 |  0.02
Output  | 1.2576     | 1.2576     | 1.2576     |   0.0 |  0.21
Modify  | 21.538     | 21.538     | 21.538     |   0.0 |  3.54
Other   |            | 1.498      |            |       |  0.25

Nlocal:            901 ave         901 max         901 min
Histogram: 1 0 0 0 0 0 0 0 0 0
Nghost:              0 ave           0 max           0 min
Histogram: 1 0 0 0 0 0 0 0 0 0
Neighs:         179253 ave      179253 max      179253 min
Histogram: 1 0 0 0 0 0 0 0 0 0

Total # of neighbors = 179253
Ave neighs/atom = 198.94895
Ave special neighs/atom = 1.9977802
Neighbor list builds = 5645
Dangerous builds = 0

# This simulation is done
# Move onto the next one
clear
  using 2 OpenMP thread(s) per MPI task
package omp 0
using multi-threaded neighbor list subroutines
next f
jump SELF

###
# Reference paper:
# K. Kremer and G. S. Grest
# Dynamics of entangled linear polymer melts: A molecular-dynamics simulation
# J Chem Phys 92, 5057 (1990)

##################################
# MIHIR: for branched polymers
# LJ minimum first to expand and explore, then collapse
###

###
# Looping through the various plusshaped polymers to simulate,
# define variables to switch through
variable f index bb51nuc1bl25bn4d30tot100 bb101nuc1bl50bn4d30tot200 bb151nuc1bl75bn4d30tot300 bb201nuc1bl100bn4d30tot400 bb251nuc1bl125bn4d30tot500 bb301nuc1bl150bn4d30tot600 bb351nuc1bl175bn4d30tot700 bb401nuc1bl200bn4d30tot800 bb451nuc1bl225bn4d30tot900 bb501nuc1bl250bn4d30tot1000 bb551nuc1bl275bn4d30tot1100 bb601nuc1bl300bn4d30tot1200
###


###
# Box and units  (use LJ units and periodic boundaries)
###

units lj
log plusshaped/logs2/$f.log
log plusshaped/logs2/bb501nuc1bl250bn4d30tot1000.log
