#atom_style bond #no stiffness
atom_style angle #with stiffness

boundary        p p p
###
# Pair interactions require lists of neighbours to be calculated
###

#neighbor 0.3 bin
neighbor 4 bin

neigh_modify every 1 delay 1 check yes
atom_modify sort 0 0
### Generate RESTART file, SPECIAL format, not a .txt file ###
### Useful if simulation crashes ###

restart 1000000 plusshaped/restarts2/$f.restart
restart 1000000 plusshaped/restarts2/bb501nuc1bl250bn4d30tot1000.restart
#############################



### READ "start" data file ###

read_data plusshaped/$f.dat
read_data plusshaped/bb501nuc1bl250bn4d30tot1000.dat
Reading data file ...
  orthogonal box = (-1000 -1000 -1000) to (1000 1000 1000)
  1 by 1 by 1 MPI processor grid
  reading atoms ...
  1001 atoms
  scanning bonds ...
  3 = max bonds/atom
  scanning angles ...
  6 = max angles/atom
  reading bonds ...
  1000 bonds
  reading angles ...
  1002 angles
Finding 1-2 1-3 1-4 neighbors ...
  special bond factors lj:    0        0        0       
  special bond factors coul:  0        0        0       
     4 = max # of 1-2 neighbors
     4 = max # of 1-3 neighbors
     8 = max # of 1-4 neighbors
    12 = max # of special neighbors
  special bonds CPU = 0.001 seconds
  read_data CPU = 0.059 seconds

######################

### READ "REstart" data file ###

######################



###
# Define groups (atom type 1 is group 'all')
###
group all type 1
1001 atoms in group all


###
# Dump configs - "simple dumpings"
###

###
# Dump configs + box coords
###

dump   1   all   custom   1000  plusshaped/trjs2/$f.lammpstrj  id  x y z  ix iy iz
dump   1   all   custom   1000  plusshaped/trjs2/bb501nuc1bl250bn4d30tot1000.lammpstrj  id  x y z  ix iy iz
dump_modify   1   format line "%d %.5f %.5f %.5f %d %d %d"

########################################################################


###################################################################
# Stiffness term
#
# E = K * (1+cos(theta)), K>0
#
angle_style   cosine
#change this coefficient to change stiffness (e.g. 1,5,10)
angle_coeff   1 1.0
###################################################################

###################################################################
# Pair interaction between non-bonded atoms
#
#  Lennard-Jones 12-6 potential with cutoff:
#  potential E=4epsilon[ (sigma/r)^12 - (sigma/r)^6]  for r<r_cut
#
#  1.12246 = 2^(1/6) is the minimum of the potential


pair_style      lj/cut 1.12246152962189
#pair_style      lj/cut 3

#
#  pair_modify shift yes adds a constant to the potential such

#  that E(r_cut)=0. Forces remains unchanged.
#

pair_modify     shift yes

#
#  pair_coeff for lj/cut, specify 4:
#    * atom type interacting with
#    * atom type
#    * epsilon (energy units)
#    * sigma (distance units)
#

pair_coeff      1 1 1.0 1.0
###################################################################

###################################################################
# Pair interaction between non-bonded atoms
#
#  soft potential, for PUSHING apart overlapping atoms
#  potential E=A*(1 + cos(pi*r/r_c))
#
#  1.12246 = 2^(1/6) is the cut-off r_c

#pair_style     soft 1.12246152962189

#
#  pair_coeff for soft, specify 3:
#    * atom type interacting with
#    * atom type
#    * A
#
#

#pair_coeff      1 1 100.0
###################################################################

###################################################################
# Pair interaction between bonded atoms
#
# Fene potential + Lennard Jones 12-6:

#
#  E= - 0.5 K R0^2 ln[ 1- (r/R0)^2]
#     + 4epsilon[ (sigma/r)^12 - (sigma/r)^6] + epsilon
#

bond_style   fene


#
# For style fene, specify:
#   * bond type
#   * K (energy/distance^2)
#   * R0 (distance)
#   * epsilon (energy)  (LJ component)
#   * sigma (distance)  (LJ component)
#


special_bonds fene #<=== I M P O R T A N T (new command)
Finding 1-2 1-3 1-4 neighbors ...
  special bond factors lj:    0        1        1       
  special bond factors coul:  0        1        1       
     4 = max # of 1-2 neighbors
    12 = max # of special neighbors
  special bonds CPU = 0.000 seconds

bond_coeff   1   30   2   1.0   1.0


###################################################

###################################################################
# Pair interaction between bonded atoms
#
# Harmonic potential:
#
#  E= K * (R-R0)^2
#

#bond_style   harmonic

#
# For style harmonic, specify:
#   * bond type
#   * K (energy/distance^2)
#   * R0 (distance)
#

#bond_coeff   1   60.0   1.0
#bond_coeff   2   harmonic 0.1   1.0

###################################################
compute 1 all gyration
variable rog equal c_1
#compute 2 all coord/atom cutoff 1.1

#dump 2 all custom 10000 contact_number.dump id c_2


###
# Set up fixes
###
thermo_style   custom   step  temp enthalpy c_1
fix 1 all nve   ###NVE ensemble

fix 2 all   langevin   1.0 1.0 1.0  778655   ###Langevin integrator Tstart Tstop 1/friction rndseed


##### Sample thermodynamic info  (temperature, energy, pressure, etc.) #####
thermo 1000









############################################################################

###
# set timestep of integrator

timestep 0.01

###
# run integration for a number of steps
###
#run 0
#variable r equal c_1
#if "$r < 63.1" then "quit 1"

# lj potential minimum, cause molecule to explore
run 100000
Generated 0 of 0 mixed pair_coeff terms from geometric mixing rule
Last active /omp style is angle_style cosine/omp
Neighbor list info ...
  update: every = 1 steps, delay = 1 steps, check = yes
  max neighbors/atom: 2000, page size: 100000
  master list distance cutoff = 5.1224615
  ghost atom cutoff = 5.1224615
  binsize = 2.5612308, bins = 781 781 781
  1 neighbor lists, perpetual/occasional/extra = 1 0 0
  (1) pair lj/cut/omp, perpetual
      attributes: half, newton on, omp
      pair build: half/bin/newton/omp
      stencil: half/bin/3d
      bin: standard
WARNING: Communication cutoff 5.12246152962189 is shorter than a bond length based estimate of 5.455. This may lead to errors. (src/comm.cpp:723)
Per MPI rank memory allocation (min/avg/max) = 1862 | 1862 | 1862 Mbytes
   Step          Temp         Enthalpy         c_1      
         0   0              13.219708      131.3837     
      1000   0.9869102      17.774354      130.91359    
      2000   0.98744994     17.962974      130.34268    
      3000   1.0064148      17.933225      129.8997     
      4000   0.99850012     18.091971      129.48886    
      5000   1.0212712      18.325932      129.02704    
      6000   1.0210916      18.395622      128.30241    
      7000   0.97297394     18.555155      127.69076    
      8000   0.97854958     18.082783      127.04642    
      9000   1.0459834      18.262846      126.73393    
     10000   1.0288914      18.741057      126.28826    
     11000   1.0165692      18.971637      125.97074    
     12000   0.9998192      19.152488      125.30182    
     13000   0.98916348     18.516012      125.01042    
     14000   0.97279284     18.571368      124.43574    
     15000   1.0021096      18.926786      123.99845    
     16000   0.99903002     19.010237      123.63596    
     17000   0.97965522     18.575455      123.34966    
     18000   0.99718728     19.068722      123.14197    
     19000   0.99131177     18.360977      123.11979    
     20000   0.994107       18.872011      122.846      
     21000   0.96793536     18.990963      122.48908    
     22000   0.97534161     19.036792      121.91761    
     23000   0.99174216     19.409514      121.46512    
     24000   0.97097569     19.099358      121.11841    
     25000   1.0111331      19.104004      120.93403    
     26000   1.0047322      19.361372      120.69067    
     27000   0.97395699     18.869865      120.26458    
     28000   1.0277979      19.300887      120.15688    
     29000   1.0222648      18.854885      119.92894    
     30000   1.0015595      18.957089      119.84085    
     31000   0.9333309      19.342193      119.53597    
     32000   1.0286398      19.517479      119.42668    
     33000   0.98476683     19.477327      119.06958    
     34000   0.98008939     19.364576      119.05816    
     35000   0.97007641     19.256984      118.94635    
     36000   1.0075098      19.383093      118.64518    
     37000   1.0579749      19.71288       118.51306    
     38000   1.0034856      18.836522      118.07851    
     39000   1.056774       20.122716      117.67485    
     40000   0.9900838      19.19344       117.56846    
     41000   0.9878574      19.443784      117.32194    
     42000   0.99759996     19.042221      117.0833     
     43000   0.99383655     19.410852      117.2243     
     44000   0.95361831     19.374514      117.08036    
     45000   0.99207363     19.416338      116.84572    
     46000   0.95990589     19.596401      116.46491    
     47000   1.0555235      19.584297      116.17801    
     48000   0.99148638     19.894208      115.92208    
     49000   1.0020121      19.343965      115.59466    
     50000   0.99801093     19.265441      115.49062    
     51000   1.0562624      19.589395      115.31975    
     52000   0.99477208     19.332178      115.00577    
     53000   1.0107839      19.715657      114.63335    
     54000   0.98982767     19.418596      114.75629    
     55000   1.0009522      19.530616      114.51174    
     56000   1.0020225      19.605043      114.3283     
     57000   0.97280394     19.501307      114.362      
     58000   1.0348092      19.321224      114.07267    
     59000   1.0177676      19.587799      113.92139    
     60000   1.0051223      19.695341      113.61636    
     61000   1.0133435      19.394313      113.41065    
     62000   0.99484763     19.877829      113.27369    
     63000   0.99985528     19.44281       112.94569    
     64000   1.0403555      19.602677      112.61673    
     65000   0.97220943     19.687574      112.53572    
     66000   1.0274958      19.380038      112.29246    
     67000   1.0148386      19.052049      112.29437    
     68000   0.98425107     19.6793        112.20246    
     69000   1.0323885      19.989262      111.88287    
     70000   0.99253295     19.49962       111.56551    
     71000   0.96986803     19.415896      111.46904    
     72000   1.0317853      19.591346      111.31656    
     73000   1.0144057      19.931565      110.98321    
     74000   0.96762446     19.366784      110.83839    
     75000   1.0402092      19.85727       110.60898    
     76000   0.97397553     19.926996      110.29081    
     77000   1.037645       20.142628      110.21262    
     78000   0.96051239     19.633371      110.06361    
     79000   0.96161784     19.18487       109.9506     
     80000   1.0083151      20.204618      109.71293    
     81000   1.0087435      20.03234       109.58674    
     82000   1.0024111      19.239623      109.26674    
     83000   0.93512953     19.272132      108.95609    
     84000   1.0146245      19.78131       108.65831    
     85000   1.0253928      20.104495      108.67826    
     86000   0.98352291     19.301416      108.37686    
     87000   0.99014689     19.969137      108.28803    
     88000   0.98694296     19.993944      107.8225     
     89000   1.0009091      19.38794       107.55123    
     90000   1.0132776      19.90998       107.47606    
     91000   1.0040886      19.934418      107.26991    
     92000   0.99498686     19.819209      107.01698    
     93000   0.98469227     19.722158      107.05968    
     94000   0.99437595     20.076905      106.88165    
     95000   1.0155492      19.688066      106.80712    
     96000   1.0148843      19.827944      106.56502    
     97000   1.0135917      19.684377      106.53924    
     98000   1.0176813      20.065622      106.51864    
     99000   0.96743741     20.087308      106.43855    
    100000   1.0342806      19.928767      106.40784    
Loop time of 428.69 on 2 procs for 100000 steps with 1001 atoms

Performance: 201544.171 tau/day, 233.269 timesteps/s
102.2% CPU use with 1 MPI tasks x 2 OpenMP threads

MPI task timing breakdown:
Section |  min time  |  avg time  |  max time  |%varavg| %total
---------------------------------------------------------------
Pair    | 0.97477    | 0.97477    | 0.97477    |   0.0 |  0.23
Bond    | 2.0547     | 2.0547     | 2.0547     |   0.0 |  0.48
Neigh   | 420.69     | 420.69     | 420.69     |   0.0 | 98.13
Comm    | 0.033251   | 0.033251   | 0.033251   |   0.0 |  0.01
Output  | 0.27316    | 0.27316    | 0.27316    |   0.0 |  0.06
Modify  | 4.3208     | 4.3208     | 4.3208     |   0.0 |  1.01
Other   |            | 0.3396     |            |       |  0.08

Nlocal:           1001 ave        1001 max        1001 min
Histogram: 1 0 0 0 0 0 0 0 0 0
Nghost:              0 ave           0 max           0 min
Histogram: 1 0 0 0 0 0 0 0 0 0
Neighs:           5467 ave        5467 max        5467 min
Histogram: 1 0 0 0 0 0 0 0 0 0

Total # of neighbors = 5467
Ave neighs/atom = 5.4615385
Ave special neighs/atom = 1.998002
Neighbor list builds = 1104
Dangerous builds = 0

# Replace lj potential, now collapse
pair_style      lj/cut 3

# Cutoff simul when gyration under 5
# Variable created with equal requires v_ + 'name'
fix 3 all halt 1000 v_rog < 7

run 5000000
Generated 0 of 0 mixed pair_coeff terms from geometric mixing rule
Last active /omp style is angle_style cosine/omp
Per MPI rank memory allocation (min/avg/max) = 1862 | 1862 | 1862 Mbytes
   Step          Temp         Enthalpy         c_1      
    100000   1.0342806      19.344312      106.40784    
    101000   1.0342533      19.158906      106.07071    
    102000   0.97371876     19.336449      105.84413    
    103000   1.0121976      19.683938      105.67325    
    104000   1.065883       19.509002      105.4926     
    105000   1.0242433      19.339677      105.13752    
    106000   1.0626237      19.170955      105.01336    
    107000   0.97926137     19.136219      104.86304    
    108000   1.0336712      19.292242      104.60362    
    109000   1.0048126      19.434022      104.32248    
    110000   0.99629339     19.355295      104.0006     
    111000   0.9753593      19.19739       103.48903    
    112000   0.99572625     19.546426      103.5821     
    113000   1.0313591      19.831742      103.49173    
    114000   0.98991896     19.228108      103.51685    
    115000   0.9833088      18.89498       103.41116    
    116000   1.0244667      19.147049      103.15218    
    117000   1.0167059      19.577981      103.08618    
    118000   0.95663534     19.424312      103.09089    
    119000   0.99025016     18.833963      102.76606    
    120000   0.95594585     19.344054      102.69602    
    121000   0.9877152      19.239542      102.64291    
    122000   1.0045554      18.850893      102.39391    
    123000   1.0099123      19.641842      102.32327    
    124000   0.96957145     19.144682      102.43354    
    125000   0.99456577     19.480387      102.22111    
    126000   0.99750422     19.06215       101.86463    
    127000   1.0519566      19.282898      101.53021    
    128000   1.0093441      19.335267      101.36233    
    129000   0.99220705     19.24701       101.06983    
    130000   0.99510014     19.70787       101.20714    
    131000   1.0253566      19.163807      100.91084    
    132000   1.0200428      18.754359      100.31498    
    133000   0.99955753     18.857491      100.14345    
    134000   0.97048746     18.789085      99.917526    
    135000   1.0050743      19.588612      99.952259    
    136000   1.0496436      19.58195       99.673797    
    137000   1.0130061      18.474932      99.658202    
    138000   1.0028503      19.337465      99.221567    
    139000   0.97358528     19.077712      99.261239    
    140000   1.008469       19.137151      99.086633    
    141000   1.0570015      19.564502      98.788221    
    142000   0.95886528     18.527968      98.79919     
    143000   1.0237816      19.325082      98.801765    
    144000   0.99803473     19.202228      98.900548    
    145000   0.97854716     18.9932        98.691698    
    146000   0.95877779     19.284924      98.288794    
    147000   1.0299112      19.069088      98.188352    
    148000   1.0220968      19.517346      98.004927    
    149000   1.0561437      19.47097       97.768489    
    150000   0.99661135     18.850535      97.503177    
    151000   0.96013715     18.774033      97.485337    
    152000   0.99442383     19.114275      97.375331    
    153000   1.0358489      18.906004      96.987842    
    154000   0.98252118     19.299013      96.809122    
    155000   0.9984383      19.762686      96.689629    
    156000   1.0049243      18.378517      96.401078    
    157000   1.0136594      18.591866      96.261457    
    158000   0.98042871     18.810034      96.016343    
    159000   1.0261647      19.204186      95.859229    
    160000   0.99723534     19.350028      95.836533    
    161000   1.0390017      18.995256      95.563582    
    162000   0.97540552     18.816811      95.159316    
    163000   1.0172992      19.079727      94.919032    
    164000   1.0077269      18.760961      94.670658    
    165000   0.9664703      18.569699      94.656238    
    166000   1.0077526      19.220287      94.451567    
    167000   0.99884749     18.637822      94.332232    
    168000   1.0086251      18.655579      93.992809    
    169000   1.0320187      19.473111      93.810845    
    170000   1.0478412      19.464079      93.764312    
    171000   0.9671567      18.958432      93.640047    
    172000   1.0132279      18.958809      93.438066    
    173000   0.99936383     18.440207      93.398473    
    174000   0.98804758     19.319637      93.160383    
    175000   1.0003546      18.969202      92.817864    
    176000   0.9983601      19.186375      92.641959    
    177000   1.0555333      19.684629      92.427848    
    178000   1.0116266      19.146778      92.223578    
    179000   1.0119877      19.378414      91.918272    
    180000   1.0328655      19.007713      91.713559    
    181000   1.0547676      18.976197      91.474509    
    182000   0.97983706     18.725752      91.332102    
    183000   0.982028       19.320919      91.049004    
    184000   0.99582923     19.29361       90.928004    
    185000   1.0055248      18.848605      90.87797     
    186000   1.0020645      19.401113      90.709771    
    187000   0.99998492     18.689136      90.63936     
    188000   1.0073987      18.930049      90.602377    
    189000   0.99491179     18.730891      90.696425    
    190000   0.98398795     19.078869      90.411696    
    191000   0.9938521      18.388781      90.080577    
    192000   1.0177679      19.22999       90.033735    
    193000   1.0360501      18.848725      89.73141     
    194000   0.98198715     18.58212       89.3342      
    195000   0.98891689     18.43551       89.16149     
    196000   0.99906149     18.950012      89.005186    
    197000   1.0035393      19.151843      88.962601    
    198000   0.98994924     18.311699      88.724656    
    199000   1.0174779      19.206172      88.578545    
    200000   0.97389791     18.700047      88.43989     
    201000   1.0211659      18.954486      88.252642    
    202000   0.9881577      18.538886      87.883156    
    203000   1.0007682      18.701986      87.752589    
    204000   0.99485395     18.856191      87.541834    
    205000   1.0315727      18.243942      87.590624    
    206000   1.0048223      19.019538      87.350367    
    207000   0.96301458     19.144114      87.181042    
    208000   1.0192172      18.994426      87.164385    
    209000   1.0526225      19.024516      87.079921    
    210000   1.006608       18.70827       86.885872    
    211000   1.0199622      18.600262      86.820196    
    212000   1.0053929      18.950502      86.813318    
    213000   0.98738799     19.357983      86.456676    
    214000   1.0226815      18.77387       86.15234     
    215000   1.0130583      18.789607      86.041555    
    216000   0.98532661     19.050908      85.818091    
    217000   0.98628555     19.135308      85.587421    
    218000   1.0093963      19.085981      85.232388    
    219000   1.0062109      18.465832      84.989545    
    220000   0.96817905     18.523159      84.863979    
    221000   1.0195585      18.719935      84.947329    
    222000   0.98556209     18.71774       84.830572    
    223000   1.0170582      19.385299      84.767838    
    224000   0.97446606     18.951212      84.72985     
    225000   0.97057579     18.446521      84.554787    
    226000   1.0068153      18.788641      84.195547    
    227000   1.003557       18.879386      83.806995    
    228000   1.00574        19.335114      83.600695    
    229000   0.99897866     18.865249      83.416157    
    230000   1.0404695      19.152698      83.378544    
    231000   1.0389517      18.876899      83.240048    
    232000   1.0122587      18.790566      83.182093    
    233000   0.94379021     18.286647      82.891381    
    234000   1.0028269      18.345057      82.782359    
    235000   1.0214337      19.073934      82.584645    
    236000   0.96716671     18.726498      82.28357     
    237000   1.0485267      18.414597      82.083124    
    238000   1.0187244      18.772969      82.07812     
    239000   0.96170626     18.565017      82.107288    
    240000   1.0378626      19.126874      81.966274    
    241000   1.0085981      18.597037      81.728003    
    242000   0.98397206     19.019488      81.731016    
    243000   0.98341975     19.221         81.770078    
    244000   1.011217       18.572941      81.735819    
    245000   1.0848901      18.690868      81.628776    
    246000   0.98423352     19.12998       81.333402    
    247000   1.0030363      18.571707      81.314533    
    248000   0.94623592     18.50101       81.198618    
    249000   0.96645641     18.637768      80.998704    
    250000   1.0474603      19.43818       80.826891    
    251000   1.0443036      18.277834      80.705069    
    252000   1.011856       18.888822      80.341985    
    253000   0.99455604     19.164805      80.092891    
    254000   1.0077711      18.166733      79.983463    
    255000   1.028368       19.153235      79.80002     
    256000   1.0052936      19.089605      79.69757     
    257000   1.0215162      18.660752      79.606796    
    258000   1.0048353      18.833553      79.345632    
    259000   1.0421457      18.61933       79.261475    
    260000   0.99253016     18.748437      79.086411    
    261000   1.0366662      18.997759      78.843639    
    262000   1.058765       19.224935      78.532936    
    263000   0.9835666      18.585602      78.294996    
    264000   1.0118209      18.740154      78.222755    
    265000   1.0279644      19.148009      78.110274    
    266000   0.99523533     18.588725      78.023995    
    267000   0.95725702     18.912386      77.97549     
    268000   0.98180678     19.281953      77.75729     
    269000   1.0015793      18.481579      77.490321    
    270000   0.98501117     18.914921      77.611976    
    271000   1.0083758      18.381749      77.480203    
    272000   1.0045606      18.569863      77.411968    
    273000   1.0293629      18.68235       77.351593    
    274000   0.99334928     19.405032      77.203894    
    275000   0.97341685     18.886326      77.123583    
    276000   1.0301429      18.668794      76.994682    
    277000   1.026275       18.882558      76.612401    
    278000   0.98116476     18.860024      76.426704    
    279000   0.99860646     18.730083      76.186968    
    280000   0.96220053     18.633718      76.202297    
    281000   0.98096174     18.464457      76.133665    
    282000   0.93147848     18.66773       76.262256    
    283000   0.95477741     19.206515      76.059366    
    284000   0.98767529     18.388112      75.959131    
    285000   1.0206939      18.321499      75.700257    
    286000   1.0496516      18.838013      75.607069    
    287000   1.0221444      18.79503       75.397445    
    288000   1.0167278      18.872951      75.101242    
    289000   1.0080466      19.621667      74.644825    
    290000   0.99045715     18.589886      74.613678    
    291000   1.0089586      18.031864      74.631576    
    292000   0.98628632     18.721336      74.337597    
    293000   0.99014857     18.498234      74.215324    
    294000   1.019031       18.849133      74.430265    
    295000   1.0052567      18.995614      74.323252    
    296000   0.99581632     18.03919       74.210979    
    297000   1.011136       18.547165      74.136848    
    298000   0.97665276     18.067591      73.887939    
    299000   0.99374341     18.635473      73.757926    
    300000   1.0068407      18.612972      73.590456    
    301000   1.0497867      18.640683      73.429117    
    302000   0.98293736     18.424723      73.150923    
    303000   1.0478485      18.669767      72.912176    
    304000   1.0162622      18.84951       72.857182    
    305000   1.0205293      18.666004      72.724109    
    306000   0.97712571     18.594925      72.737237    
    307000   0.98860841     18.079832      72.611892    
    308000   0.97334456     19.057903      72.531542    
    309000   1.0101391      18.390066      72.595091    
    310000   1.023561       18.484924      72.531214    
    311000   1.041227       19.325921      72.313076    
    312000   0.98469475     17.986677      72.247413    
    313000   0.99860037     18.752949      71.958173    
    314000   1.0165055      18.726742      71.586307    
    315000   0.96403889     18.127042      71.260808    
    316000   0.99702464     18.09919       71.20636     
    317000   1.0113987      18.843807      71.07415     
    318000   0.97020059     18.83539       71.013741    
    319000   0.9720224      18.395702      70.800836    
    320000   1.0177926      18.339586      70.593764    
    321000   0.98132139     18.317299      70.525448    
    322000   1.0293366      18.633143      70.224431    
    323000   1.0398069      18.723777      70.252279    
    324000   0.97834717     18.757418      70.036676    
    325000   1.0131003      18.204155      69.948075    
    326000   1.029137       18.311885      69.821097    
    327000   1.0120291      19.206412      69.355445    
    328000   0.9905366      18.40129       69.17411     
    329000   0.97537067     18.34501       68.897628    
    330000   1.0011439      18.400815      68.696954    
    331000   0.97479158     18.225896      68.818141    
    332000   1.0023255      18.502224      68.890973    
    333000   1.0319468      18.782414      68.686714    
    334000   0.99903505     18.55426       68.445065    
    335000   1.0274426      18.857286      68.134264    
    336000   1.00251        18.0976        68.121197    
    337000   1.0235697      18.671438      67.938698    
    338000   0.96906884     18.709084      67.839311    
    339000   1.007218       18.43148       67.640428    
    340000   1.0282383      18.395401      67.518616    
    341000   0.96889636     18.387995      67.443238    
    342000   0.97493161     18.30238       67.283728    
    343000   1.0043022      18.254528      66.99552     
    344000   0.97490171     18.350814      67.04703     
    345000   0.9834772      18.210837      67.052671    
    346000   1.0146642      18.653852      66.861054    
    347000   1.0063047      18.367909      66.800498    
    348000   0.99547227     18.20851       66.899459    
    349000   0.95784845     18.298828      66.71661     
    350000   1.0126489      18.317407      66.323114    
    351000   1.0259312      19.005457      66.20921     
    352000   0.98198973     17.923526      65.905295    
    353000   1.0119418      18.278076      65.847259    
    354000   0.99070417     18.367821      65.830742    
    355000   1.0251356      18.811464      65.579327    
    356000   0.97642085     18.381115      65.466838    
    357000   1.0407146      18.401739      65.359594    
    358000   0.9933434      18.38403       65.159277    
    359000   0.94618559     17.380094      65.144566    
    360000   0.99594028     18.03093       64.765537    
    361000   0.99644927     18.191025      64.659489    
    362000   0.96132422     18.149021      64.250461    
    363000   0.99264268     18.763814      63.862601    
    364000   1.0373705      18.569667      63.910191    
    365000   1.0197145      18.737332      63.619138    
    366000   0.98673959     18.390099      63.662979    
    367000   0.96832861     17.744645      63.727569    
    368000   1.0124614      18.288885      63.708258    
    369000   1.0106417      18.409456      63.738643    
    370000   0.97439302     18.287994      63.644252    
    371000   1.0367817      18.401759      63.280779    
    372000   1.0037905      18.712648      63.129514    
    373000   1.0174065      18.53031       63.133054    
    374000   0.98311995     18.017824      62.964731    
    375000   1.0186442      18.146733      62.816706    
    376000   0.97609124     17.881981      62.901003    
    377000   1.02461        18.842802      62.799882    
    378000   1.0370868      18.047179      62.745321    
    379000   0.97913544     17.983082      62.735215    
    380000   0.9899676      18.589375      62.631528    
    381000   0.95464974     18.49074       62.358074    
    382000   0.99290554     17.84          62.054456    
    383000   0.98909566     17.885125      61.829516    
    384000   0.94502418     17.691486      61.883013    
    385000   0.97246748     18.31196       61.588557    
    386000   0.98991196     18.337062      61.218814    
    387000   1.0234016      18.294565      60.899392    
    388000   1.0439356      17.905711      60.5175      
    389000   1.0206903      18.256882      60.376347    
    390000   1.0082491      18.180963      60.403701    
    391000   1.01182        18.722451      60.176364    
    392000   1.0092453      18.541545      60.10198     
    393000   0.99865565     18.14316       60.018332    
    394000   1.0048033      18.125109      59.780607    
    395000   1.0294001      18.317506      59.649081    
    396000   1.0376837      17.915818      59.459889    
    397000   0.99274066     17.775649      59.139318    
    398000   0.9882236      18.423897      58.912712    
    399000   1.024661       18.296531      58.92823     
    400000   1.0044116      18.23498       58.581168    
    401000   1.0057578      18.241681      58.503276    
    402000   1.0502277      18.594303      58.397345    
    403000   0.98270453     18.086133      58.080706    
    404000   1.0272552      17.935632      58.066588    
    405000   1.0395318      18.770122      57.834021    
    406000   1.0234673      18.312144      57.804668    
    407000   1.0668518      18.365867      57.5469      
    408000   1.046155       18.266008      57.431642    
    409000   0.99336163     18.155314      57.312266    
    410000   0.97049622     18.369283      57.045516    
    411000   0.97403566     18.108703      56.939237    
    412000   1.0571966      18.719083      56.863315    
    413000   1.0268375      18.162832      56.966012    
    414000   0.95150395     18.136316      56.854336    
    415000   1.0038168      18.244292      56.605898    
    416000   1.0157405      18.052744      56.456868    
    417000   0.99700945     18.561137      56.302509    
    418000   1.0127594      18.756078      56.106923    
    419000   0.98435579     17.846154      55.985525    
    420000   1.0089033      18.575958      55.851123    
    421000   0.99517935     18.333898      55.8586      
    422000   1.0133838      18.533839      55.578339    
    423000   1.0050675      18.439263      55.411747    
    424000   1.035954       18.605815      55.267662    
    425000   1.0112255      18.576794      55.280694    
    426000   1.0108606      17.708271      55.252203    
    427000   1.0199342      18.382788      55.316914    
    428000   0.9689168      17.761933      55.157161    
    429000   0.99630759     18.605263      54.97627     
    430000   1.0125467      17.543326      54.704029    
    431000   1.004957       17.670621      54.41347     
    432000   1.0121431      18.454628      54.17576     
    433000   1.0192184      18.568586      53.988569    
    434000   1.0252857      18.835747      53.896005    
    435000   1.0300668      18.737278      53.749072    
    436000   0.99255688     18.264596      53.520042    
    437000   1.0305402      18.30039       53.596638    
    438000   1.0411874      18.705722      53.575053    
    439000   1.0206556      17.97813       53.395906    
    440000   0.98675546     18.321277      53.308579    
    441000   1.0179166      18.190394      53.27867     
    442000   0.96564608     18.300018      53.42322     
    443000   0.97161819     17.656589      53.19828     
    444000   1.0095511      18.275292      52.825836    
    445000   0.98725647     19.098896      52.620361    
    446000   1.0181025      17.868034      52.377896    
    447000   1.0081382      17.745995      52.500433    
    448000   0.98582965     18.13036       52.258383    
    449000   1.0274404      18.422989      52.233874    
    450000   0.99681841     17.972192      52.129058    
    451000   0.97466828     18.127412      51.807651    
    452000   0.95745531     18.222401      51.65788     
    453000   1.0209291      18.404511      51.69705     
    454000   0.97593367     18.418317      51.541023    
    455000   1.0345737      18.665493      51.333372    
    456000   0.99734281     18.079087      51.355472    
    457000   1.0659647      19.089935      51.419287    
    458000   1.0094607      18.178771      51.499414    
    459000   0.98255684     18.052529      51.269372    
    460000   0.95714759     17.603287      50.981644    
    461000   0.95900756     18.093744      50.659045    
    462000   0.97548641     18.547313      50.510591    
    463000   1.0270421      18.027336      50.254874    
    464000   0.98316787     17.697379      50.141913    
    465000   1.013198       17.688879      49.895443    
    466000   0.97117769     18.302281      49.777386    
    467000   0.99107763     18.100741      49.799848    
    468000   1.0444795      18.219229      49.735885    
    469000   1.0024131      17.885258      49.525261    
    470000   0.95792841     17.361116      49.184652    
    471000   0.96323565     17.583979      49.020068    
    472000   0.9507729      18.159503      48.834063    
    473000   0.96097085     17.844517      48.653885    
    474000   0.97693282     17.485017      48.206416    
    475000   0.99942594     18.051495      48.328978    
    476000   0.9986129      18.033791      48.199013    
    477000   0.99301511     18.047706      48.048521    
    478000   0.97768762     17.394465      48.060789    
    479000   1.0212268      17.909557      48.155503    
    480000   0.98949778     18.356169      47.96333     
    481000   1.0146446      18.007353      47.923164    
    482000   0.99462266     17.487935      47.858583    
    483000   0.99667895     17.818091      47.617323    
    484000   0.99005046     17.937777      47.505126    
    485000   0.99024434     18.351252      47.559231    
    486000   1.0192776      17.890025      47.555837    
    487000   0.99768038     17.813688      47.3023      
    488000   0.97063244     17.887743      47.271783    
    489000   0.989191       18.21416       47.158297    
    490000   0.98144787     18.13104       46.953771    
    491000   1.0423446      17.92263       46.707379    
    492000   1.0225403      17.681929      46.466034    
    493000   1.0135369      18.089398      46.318018    
    494000   1.0139506      18.016009      46.239651    
    495000   0.99543284     18.359364      46.054686    
    496000   1.0458186      17.96117       46.132239    
    497000   0.96873206     18.022755      46.094936    
    498000   0.9905094      18.851618      46.15539     
    499000   1.0226496      18.792913      46.105829    
    500000   0.98675696     18.404437      45.813507    
    501000   1.0104675      18.233039      45.856787    
    502000   1.0002145      17.682346      45.765183    
    503000   0.95901494     18.191239      45.5965      
    504000   1.0124556      18.084312      45.607745    
    505000   0.99664368     17.875664      45.481046    
    506000   0.99613847     18.451305      45.223223    
    507000   1.0390454      18.235052      44.966189    
    508000   0.97165654     18.058067      44.588007    
    509000   1.0187088      18.094879      44.398815    
    510000   1.0102942      18.096596      44.080706    
    511000   1.0208596      18.33718       44.087808    
    512000   0.96123766     17.9532        43.976864    
    513000   1.0230268      18.142863      43.667665    
    514000   1.0151228      18.221457      43.612221    
    515000   0.99737368     18.067196      43.601314    
    516000   0.96970083     18.089552      43.446622    
    517000   1.0083939      18.13725       43.372613    
    518000   1.0309395      18.479756      43.314518    
    519000   1.0310307      17.885083      43.120941    
    520000   0.98793784     17.706674      43.039765    
    521000   0.99249151     17.994756      42.920689    
    522000   0.99786716     18.115826      42.784566    
    523000   1.0365747      18.215149      42.735203    
    524000   0.99958521     18.204405      42.816494    
    525000   0.98602346     18.201206      42.622048    
    526000   1.0177636      17.614739      42.435513    
    527000   0.9894955      17.8218        42.192001    
    528000   0.99007772     17.62501       42.347971    
    529000   0.94959493     17.418779      42.375875    
    530000   0.9855364      18.394977      42.335263    
    531000   0.98508511     17.887843      42.256482    
    532000   1.044588       18.604092      42.227414    
    533000   1.0199184      17.8124        41.911836    
    534000   1.0408139      18.699155      41.871673    
    535000   1.0205272      17.841955      41.628573    
    536000   0.99975464     18.149004      41.49821     
    537000   1.0049451      18.034122      41.557865    
    538000   0.96334037     17.735002      41.425741    
    539000   1.024034       17.398911      41.273203    
    540000   1.0111166      17.370178      41.088095    
    541000   0.99260253     18.366823      41.184819    
    542000   0.99566944     18.117569      41.214221    
    543000   0.95810134     17.167422      41.179426    
    544000   1.0450524      17.930747      41.169538    
    545000   0.99625365     18.212367      40.954489    
    546000   1.0272876      17.954721      40.82153     
    547000   0.97182946     17.462096      40.85204     
    548000   0.99648294     17.735231      40.825716    
    549000   0.98974924     17.909067      40.802745    
    550000   1.02844        17.426068      40.781592    
    551000   1.0066378      17.853267      40.580805    
    552000   1.0294753      18.001948      40.491072    
    553000   0.98741237     18.120212      40.390013    
    554000   1.0262436      18.07275       40.290884    
    555000   1.0105084      18.057608      40.30357     
    556000   1.0086502      17.81699       40.434406    
    557000   0.96858468     17.968         40.259385    
    558000   0.98476726     18.35375       40.198543    
    559000   0.97880024     17.570523      40.120779    
    560000   0.99116058     17.743881      40.16119     
    561000   0.96594416     17.973193      40.038       
    562000   0.94850957     18.137617      39.800362    
    563000   1.0047619      18.329889      39.444498    
    564000   1.0061425      18.087937      39.381458    
    565000   0.99756128     17.462981      39.314486    
    566000   1.0331705      17.615152      39.094908    
    567000   0.93163759     17.62302       38.820597    
    568000   0.95090199     17.991565      38.680112    
    569000   0.96256482     17.569046      38.479979    
    570000   1.0045786      17.673971      38.564047    
    571000   1.0042948      17.509797      38.404277    
    572000   0.9745862      17.588661      38.434701    
    573000   0.99405545     17.92757       38.644596    
    574000   1.0489136      17.337836      38.492347    
    575000   0.99889594     17.767098      38.392914    
    576000   1.0008311      17.681619      38.411983    
    577000   0.98759405     17.235553      38.351       
    578000   1.0068426      17.58148       38.355873    
    579000   0.98123157     17.890693      38.092019    
    580000   0.97265185     17.570606      38.019011    
    581000   1.0059208      17.676161      37.709836    
    582000   0.95835198     17.692704      37.618225    
    583000   1.006589       18.162783      37.617522    
    584000   1.0132217      17.922232      37.423218    
    585000   1.0004272      18.10224       37.030416    
    586000   0.99146237     18.476987      36.803613    
    587000   0.99127915     18.415293      36.491841    
    588000   1.0140715      17.80598       36.400618    
    589000   0.99620198     18.167306      36.513639    
    590000   1.0262254      18.332215      36.58897     
    591000   0.95198918     17.582053      36.499089    
    592000   1.0326534      17.790742      36.395267    
    593000   0.99955094     18.374345      36.19824     
    594000   1.017267       18.03161       36.165568    
    595000   0.98451623     18.112384      36.147865    
    596000   0.95947546     17.842983      35.785352    
    597000   1.0261489      18.029395      35.730527    
    598000   1.0035859      17.496105      35.553641    
    599000   0.99172017     17.673658      35.447091    
    600000   1.045991       17.794744      34.983154    
    601000   0.99825185     17.724348      34.682494    
    602000   1.0094419      17.745162      34.646589    
    603000   1.0107401      17.773674      34.608599    
    604000   1.0344352      17.795069      34.667709    
    605000   1.0125159      17.719428      34.522745    
    606000   1.0061202      18.129859      34.020166    
    607000   0.99209398     18.116932      33.734103    
    608000   1.0057435      18.380274      33.399196    
    609000   1.0603037      18.193975      33.231062    
    610000   0.97377487     17.595504      33.159878    
    611000   1.0267747      17.900103      33.101487    
    612000   1.0105693      18.086563      32.96112     
    613000   1.0223944      18.390416      32.976959    
    614000   0.9791066      17.818518      32.814157    
    615000   0.99988171     17.389348      32.840616    
    616000   1.0024387      18.39983       32.818132    
    617000   0.94624945     17.507808      32.420598    
    618000   1.0067614      18.151343      32.216632    
    619000   0.98647345     17.702335      32.350614    
    620000   1.0418038      17.724317      32.410351    
    621000   1.0118336      18.117296      32.161639    
    622000   0.95526743     18.545078      32.04887     
    623000   1.0553404      17.893366      31.933284    
    624000   1.0369844      17.934811      31.930322    
    625000   0.99142676     17.504809      31.695928    
    626000   1.0100047      17.84281       31.473598    
    627000   1.0088506      17.991542      31.293892    
    628000   0.98198347     17.360021      31.106577    
    629000   1.0131646      17.89601       31.056817    
    630000   0.98502083     18.188761      30.92183     
    631000   1.0076175      17.615092      30.94997     
    632000   0.98068212     17.401238      30.560635    
    633000   1.0061113      17.965069      30.447879    
    634000   1.0419689      17.428654      30.244318    
    635000   0.98483117     18.090223      30.212946    
    636000   1.0161993      17.372541      29.916854    
    637000   1.0191345      17.586691      29.513372    
    638000   1.0173329      18.32548       29.397848    
    639000   1.0047036      17.488629      29.252777    
    640000   0.95412605     17.872839      29.215059    
    641000   1.0062115      17.450334      29.308471    
    642000   0.98967787     17.404722      29.06371     
    643000   0.99396068     16.750515      28.714565    
    644000   1.0388192      17.613849      28.709446    
    645000   1.0015205      17.098952      28.571262    
    646000   1.0545773      17.876198      28.717219    
    647000   1.0479128      17.585128      28.698806    
    648000   1.0675178      17.858027      28.422479    
    649000   1.0178111      18.225765      28.227677    
    650000   0.99872864     17.739015      28.200005    
    651000   1.0186944      17.415297      28.114009    
    652000   1.0214709      17.665298      27.880901    
    653000   0.98516938     17.775116      28.012671    
    654000   1.0143376      18.075053      27.922639    
    655000   1.0205634      17.471775      27.796686    
    656000   1.0542171      18.171992      27.638977    
    657000   0.97874093     16.97572       27.469684    
    658000   1.0010929      18.503014      27.357038    
    659000   1.0247558      17.522172      27.384127    
    660000   1.0145809      17.60268       26.971809    
    661000   0.98703016     17.188445      26.796601    
    662000   1.065467       17.005227      26.804185    
    663000   0.98645546     17.334563      26.383791    
    664000   0.99808275     17.900346      26.361691    
    665000   1.0289593      17.649354      26.245144    
    666000   1.0408199      17.509538      26.224641    
    667000   0.95887762     17.549987      26.101099    
    668000   1.0225068      17.124601      25.991633    
    669000   0.97327976     17.385704      25.78823     
    670000   0.96240547     17.25931       25.659456    
    671000   1.0350385      17.392711      25.678402    
    672000   0.96326341     17.825887      25.684782    
    673000   0.99081006     17.555214      25.658717    
    674000   1.0193997      17.693754      25.574074    
    675000   1.0126986      18.442571      25.378235    
    676000   1.0080171      18.042501      25.414307    
    677000   0.9695179      17.095282      25.266777    
    678000   1.0578529      17.263808      25.199026    
    679000   0.99706308     17.897312      25.1488      
    680000   1.0070605      17.51584       24.718348    
    681000   0.9992422      17.535115      24.65885     
    682000   0.99401294     17.501269      24.343198    
    683000   0.98264747     17.643161      24.179062    
    684000   0.99187731     17.188953      23.87587     
    685000   1.0372017      17.141585      23.68341     
    686000   0.96597487     18.180603      24.034776    
    687000   0.96630059     17.448586      24.062212    
    688000   0.9487629      17.370191      23.855069    
    689000   1.0279167      17.927862      23.886823    
    690000   1.0195951      17.766922      23.869366    
    691000   1.0402812      17.726818      23.740291    
    692000   1.0178382      17.583327      23.460207    
    693000   0.99425931     18.124348      23.250534    
    694000   0.9673156      17.51322       23.123015    
    695000   1.0218242      18.057951      22.953046    
    696000   1.0222001      17.404716      23.038898    
    697000   1.0128686      16.830034      22.86579     
    698000   1.0388108      17.322112      22.762663    
    699000   0.98530465     16.964881      22.499545    
    700000   1.0148279      17.154004      22.340925    
    701000   1.0113972      17.672251      22.176358    
    702000   0.98203548     17.50119       21.920131    
    703000   1.0047629      17.707895      21.993157    
    704000   1.0130724      18.321564      21.658205    
    705000   0.99910188     17.153364      21.516869    
    706000   0.99300187     17.395364      21.373916    
    707000   0.99356763     17.814837      21.064672    
    708000   1.0548736      17.082957      21.053435    
    709000   1.0130587      17.699263      20.923208    
    710000   0.98530362     17.604893      20.855525    
    711000   1.0388506      17.581916      20.72482     
    712000   1.0402232      17.725918      20.559005    
    713000   0.9588978      18.011202      20.342016    
    714000   1.0170264      17.790381      20.220605    
    715000   0.97626291     17.910453      20.053305    
    716000   0.97825282     17.673211      19.764859    
    717000   0.98358087     17.617276      19.550029    
    718000   0.97999067     17.380426      19.333827    
    719000   1.0030427      17.304357      19.320593    
    720000   0.97342459     17.503244      18.986872    
    721000   1.0382237      17.916035      18.8288      
    722000   1.0128619      17.073664      18.72473     
    723000   1.0085127      17.813571      18.475516    
    724000   0.96297498     16.758168      18.312534    
    725000   1.0118682      17.07621       18.094039    
    726000   0.98381859     17.746949      17.895416    
    727000   0.97696936     17.285458      17.852631    
    728000   1.0129254      17.319482      17.84133     
    729000   1.0273624      18.105621      17.536152    
    730000   1.012932       17.286946      17.141372    
    731000   0.99015096     17.461421      17.002001    
    732000   1.019855       17.403835      16.986414    
    733000   0.98712715     16.716914      16.892165    
    734000   1.0148355      17.574948      16.828927    
    735000   0.94423425     17.166607      16.53869     
    736000   0.97117155     17.298234      16.588455    
    737000   1.0077902      17.505388      16.60462     
    738000   0.97888659     17.301862      16.452437    
    739000   1.0021285      17.36905       16.382271    
    740000   0.99649506     17.294856      16.304778    
    741000   0.98163416     17.295819      16.082969    
    742000   0.99349164     16.729067      16.036897    
    743000   1.0275958      17.485222      15.676942    
    744000   1.0110793      18.001815      15.543601    
    745000   1.0303849      17.255934      15.701154    
    746000   1.0121651      17.000634      15.630059    
    747000   0.99000569     17.627906      15.598546    
    748000   0.98121483     17.085777      15.611736    
    749000   1.0050082      17.702353      15.525069    
    750000   0.95936107     17.549191      15.609853    
    751000   0.94022595     17.607721      15.646114    
    752000   1.0149982      17.774355      15.438152    
    753000   0.99146192     17.014757      15.373697    
    754000   1.0153592      17.42438       15.294567    
    755000   1.0373998      17.304249      15.13854     
    756000   0.96890638     17.291807      14.908623    
    757000   1.0127253      17.294553      14.790398    
    758000   0.98717468     16.962889      14.619462    
    759000   1.0061712      17.146492      14.469926    
    760000   0.9398629      17.725617      14.406791    
    761000   1.0419519      16.931348      14.225181    
    762000   0.96374616     17.566854      14.005915    
    763000   1.0396301      17.268606      13.668847    
    764000   1.0017542      17.326601      13.494348    
    765000   1.0122337      17.429308      13.524318    
    766000   0.99901252     17.187305      13.574983    
    767000   0.97274465     17.36744       13.412994    
    768000   0.98969188     16.997816      13.268781    
    769000   1.0015107      17.15289       12.993854    
    770000   1.0220556      17.289321      12.734722    
    771000   1.0191554      17.245937      12.714821    
    772000   0.98424103     17.701191      12.833035    
    773000   1.014354       17.500665      12.494875    
    774000   1.0186881      17.503966      12.406194    
    775000   1.0276548      17.429856      12.430123    
    776000   0.98960439     17.046636      12.275729    
    777000   1.035209       17.07163       12.18335     
    778000   1.0425549      17.379677      11.837339    
    779000   1.0362338      17.671373      11.701365    
    780000   0.9916761      17.374808      11.425894    
    781000   1.0087417      17.58429       11.322791    
    782000   0.99647717     17.301676      11.420046    
    783000   0.99460635     17.070381      11.214613    
    784000   1.0390793      17.369337      11.311905    
    785000   0.99834272     17.906465      10.999293    
    786000   0.98165412     16.949171      10.975632    
    787000   1.0005978      17.236509      10.965803    
    788000   1.0136989      17.908225      10.783612    
    789000   1.0163482      17.306126      10.747404    
    790000   0.98835086     17.570899      10.629155    
    791000   0.93509589     17.162651      10.637011    
    792000   1.0346641      17.670523      10.622722    
    793000   1.0032043      17.347987      10.356874    
    794000   0.9999248      16.929196      10.297647    
    795000   0.98434261     17.123601      10.031036    
    796000   0.9877507      17.445314      9.890086     
    797000   1.0551812      17.202374      9.7875953    
    798000   1.0196238      17.791978      9.7272384    
    799000   1.0140764      17.595954      9.5688146    
    800000   1.0444955      17.369538      9.3382958    
    801000   1.0233288      16.862815      9.2317026    
    802000   1.0186309      16.98587       9.1063617    
    803000   0.99983542     17.247305      9.1575108    
    804000   0.99851274     18.106505      9.1817826    
    805000   0.97919214     16.927246      9.0123942    
    806000   1.0115766      17.358539      8.8264635    
    807000   0.98063242     17.294183      8.9207169    
    808000   1.0489198      17.346423      8.9288255    
    809000   0.99774793     16.977304      8.8984378    
    810000   1.0344635      17.162639      8.4389797    
    811000   0.97142087     16.901517      8.5466519    
    812000   0.99243019     17.104244      8.4621289    
    813000   0.98993862     17.174201      8.5136473    
    814000   1.0176158      17.521206      8.7134355    
    815000   1.0435296      17.36472       8.5423169    
    816000   0.94672408     16.870346      8.2071723    
    817000   0.99854932     17.134522      8.0479018    
    818000   1.0213304      17.637803      7.7849815    
    819000   1.0274558      17.917239      7.6309558    
    820000   1.023214       17.190453      7.495292     
    821000   1.0179671      17.11592       7.4797448    
    822000   0.9828268      16.856531      7.4920021    
    823000   1.0189997      17.186374      7.419146     
    824000   0.97235724     16.447073      7.15392      
    825000   1.0433492      17.015018      7.0440352    
Fix halt condition for fix-id 3 met on step 826000 with value 6.856472330113656 (src/fix_halt.cpp:237)
    826000   0.96277372     17.087391      6.8564723    
Loop time of 1409.35 on 2 procs for 726000 steps with 1001 atoms

Performance: 445073.042 tau/day, 515.131 timesteps/s
114.7% CPU use with 1 MPI tasks x 2 OpenMP threads

MPI task timing breakdown:
Section |  min time  |  avg time  |  max time  |%varavg| %total
---------------------------------------------------------------
Pair    | 143.78     | 143.78     | 143.78     |   0.0 | 10.20
Bond    | 16.012     | 16.012     | 16.012     |   0.0 |  1.14
Neigh   | 1211.5     | 1211.5     | 1211.5     |   0.0 | 85.96
Comm    | 0.27767    | 0.27767    | 0.27767    |   0.0 |  0.02
Output  | 2.0627     | 2.0627     | 2.0627     |   0.0 |  0.15
Modify  | 32.897     | 32.897     | 32.897     |   0.0 |  2.33
Other   |            | 2.869      |            |       |  0.20

Nlocal:           1001 ave        1001 max        1001 min
Histogram: 1 0 0 0 0 0 0 0 0 0
Nghost:              0 ave           0 max           0 min
Histogram: 1 0 0 0 0 0 0 0 0 0
Neighs:         202684 ave      202684 max      202684 min
Histogram: 1 0 0 0 0 0 0 0 0 0

Total # of neighbors = 202684
Ave neighs/atom = 202.48152
Ave special neighs/atom = 1.998002
Neighbor list builds = 7001
Dangerous builds = 0

# This simulation is done
# Move onto the next one
clear
  using 2 OpenMP thread(s) per MPI task
package omp 0
using multi-threaded neighbor list subroutines
next f
jump SELF

###
# Reference paper:
# K. Kremer and G. S. Grest
# Dynamics of entangled linear polymer melts: A molecular-dynamics simulation
# J Chem Phys 92, 5057 (1990)

##################################
# MIHIR: for branched polymers
# LJ minimum first to expand and explore, then collapse
###

###
# Looping through the various plusshaped polymers to simulate,
# define variables to switch through
variable f index bb51nuc1bl25bn4d30tot100 bb101nuc1bl50bn4d30tot200 bb151nuc1bl75bn4d30tot300 bb201nuc1bl100bn4d30tot400 bb251nuc1bl125bn4d30tot500 bb301nuc1bl150bn4d30tot600 bb351nuc1bl175bn4d30tot700 bb401nuc1bl200bn4d30tot800 bb451nuc1bl225bn4d30tot900 bb501nuc1bl250bn4d30tot1000 bb551nuc1bl275bn4d30tot1100 bb601nuc1bl300bn4d30tot1200
###


###
# Box and units  (use LJ units and periodic boundaries)
###

units lj
log plusshaped/logs2/$f.log
log plusshaped/logs2/bb551nuc1bl275bn4d30tot1100.log
