#atom_style bond #no stiffness
atom_style angle #with stiffness

boundary        p p p
###
# Pair interactions require lists of neighbours to be calculated
###

#neighbor 0.3 bin
neighbor 4 bin

neigh_modify every 1 delay 1 check yes
atom_modify sort 0 0
### Generate RESTART file, SPECIAL format, not a .txt file ###
### Useful if simulation crashes ###

restart 1000000 plusshaped/restarts2/$f.restart
restart 1000000 plusshaped/restarts2/bb551nuc1bl275bn4d30tot1100.restart
#############################



### READ "start" data file ###

read_data plusshaped/$f.dat
read_data plusshaped/bb551nuc1bl275bn4d30tot1100.dat
Reading data file ...
  orthogonal box = (-1000 -1000 -1000) to (1000 1000 1000)
  1 by 1 by 1 MPI processor grid
  reading atoms ...
  1101 atoms
  scanning bonds ...
  3 = max bonds/atom
  scanning angles ...
  6 = max angles/atom
  reading bonds ...
  1100 bonds
  reading angles ...
  1102 angles
Finding 1-2 1-3 1-4 neighbors ...
  special bond factors lj:    0        0        0       
  special bond factors coul:  0        0        0       
     4 = max # of 1-2 neighbors
     4 = max # of 1-3 neighbors
     8 = max # of 1-4 neighbors
    12 = max # of special neighbors
  special bonds CPU = 0.001 seconds
  read_data CPU = 0.095 seconds

######################

### READ "REstart" data file ###

######################



###
# Define groups (atom type 1 is group 'all')
###
group all type 1
1101 atoms in group all


###
# Dump configs - "simple dumpings"
###

###
# Dump configs + box coords
###

dump   1   all   custom   1000  plusshaped/trjs2/$f.lammpstrj  id  x y z  ix iy iz
dump   1   all   custom   1000  plusshaped/trjs2/bb551nuc1bl275bn4d30tot1100.lammpstrj  id  x y z  ix iy iz
dump_modify   1   format line "%d %.5f %.5f %.5f %d %d %d"

########################################################################


###################################################################
# Stiffness term
#
# E = K * (1+cos(theta)), K>0
#
angle_style   cosine
#change this coefficient to change stiffness (e.g. 1,5,10)
angle_coeff   1 1.0
###################################################################

###################################################################
# Pair interaction between non-bonded atoms
#
#  Lennard-Jones 12-6 potential with cutoff:
#  potential E=4epsilon[ (sigma/r)^12 - (sigma/r)^6]  for r<r_cut
#
#  1.12246 = 2^(1/6) is the minimum of the potential


pair_style      lj/cut 1.12246152962189
#pair_style      lj/cut 3

#
#  pair_modify shift yes adds a constant to the potential such

#  that E(r_cut)=0. Forces remains unchanged.
#

pair_modify     shift yes

#
#  pair_coeff for lj/cut, specify 4:
#    * atom type interacting with
#    * atom type
#    * epsilon (energy units)
#    * sigma (distance units)
#

pair_coeff      1 1 1.0 1.0
###################################################################

###################################################################
# Pair interaction between non-bonded atoms
#
#  soft potential, for PUSHING apart overlapping atoms
#  potential E=A*(1 + cos(pi*r/r_c))
#
#  1.12246 = 2^(1/6) is the cut-off r_c

#pair_style     soft 1.12246152962189

#
#  pair_coeff for soft, specify 3:
#    * atom type interacting with
#    * atom type
#    * A
#
#

#pair_coeff      1 1 100.0
###################################################################

###################################################################
# Pair interaction between bonded atoms
#
# Fene potential + Lennard Jones 12-6:

#
#  E= - 0.5 K R0^2 ln[ 1- (r/R0)^2]
#     + 4epsilon[ (sigma/r)^12 - (sigma/r)^6] + epsilon
#

bond_style   fene


#
# For style fene, specify:
#   * bond type
#   * K (energy/distance^2)
#   * R0 (distance)
#   * epsilon (energy)  (LJ component)
#   * sigma (distance)  (LJ component)
#


special_bonds fene #<=== I M P O R T A N T (new command)
Finding 1-2 1-3 1-4 neighbors ...
  special bond factors lj:    0        1        1       
  special bond factors coul:  0        1        1       
     4 = max # of 1-2 neighbors
    12 = max # of special neighbors
  special bonds CPU = 0.000 seconds

bond_coeff   1   30   2   1.0   1.0


###################################################

###################################################################
# Pair interaction between bonded atoms
#
# Harmonic potential:
#
#  E= K * (R-R0)^2
#

#bond_style   harmonic

#
# For style harmonic, specify:
#   * bond type
#   * K (energy/distance^2)
#   * R0 (distance)
#

#bond_coeff   1   60.0   1.0
#bond_coeff   2   harmonic 0.1   1.0

###################################################
compute 1 all gyration
variable rog equal c_1
#compute 2 all coord/atom cutoff 1.1

#dump 2 all custom 10000 contact_number.dump id c_2


###
# Set up fixes
###
thermo_style   custom   step  temp enthalpy c_1
fix 1 all nve   ###NVE ensemble

fix 2 all   langevin   1.0 1.0 1.0  778655   ###Langevin integrator Tstart Tstop 1/friction rndseed


##### Sample thermodynamic info  (temperature, energy, pressure, etc.) #####
thermo 1000









############################################################################

###
# set timestep of integrator

timestep 0.01

###
# run integration for a number of steps
###
#run 0
#variable r equal c_1
#if "$r < 63.1" then "quit 1"

# lj potential minimum, cause molecule to explore
run 100000
Generated 0 of 0 mixed pair_coeff terms from geometric mixing rule
Last active /omp style is angle_style cosine/omp
Neighbor list info ...
  update: every = 1 steps, delay = 1 steps, check = yes
  max neighbors/atom: 2000, page size: 100000
  master list distance cutoff = 5.1224615
  ghost atom cutoff = 5.1224615
  binsize = 2.5612308, bins = 781 781 781
  1 neighbor lists, perpetual/occasional/extra = 1 0 0
  (1) pair lj/cut/omp, perpetual
      attributes: half, newton on, omp
      pair build: half/bin/newton/omp
      stencil: half/bin/3d
      bin: standard
WARNING: Communication cutoff 5.12246152962189 is shorter than a bond length based estimate of 5.455. This may lead to errors. (src/comm.cpp:723)
Per MPI rank memory allocation (min/avg/max) = 1862 | 1862 | 1862 Mbytes
   Step          Temp         Enthalpy         c_1      
         0   0              13.163119      144.49757    
      1000   1.0157799      17.320864      143.84152    
      2000   0.97393595     17.873819      143.05434    
      3000   0.99852908     18.018142      142.64401    
      4000   0.99593325     18.202529      142.03041    
      5000   1.0063561      17.752173      141.56358    
      6000   0.9817569      17.972159      141.08668    
      7000   1.0093494      18.121932      140.40206    
      8000   0.98828111     18.178247      139.87571    
      9000   1.0002066      18.362896      139.38965    
     10000   1.0279604      18.166545      138.99399    
     11000   0.97531107     18.502049      138.45598    
     12000   1.0181822      18.853921      137.90614    
     13000   0.97173793     18.91873       137.56407    
     14000   1.0091273      18.488254      137.43533    
     15000   1.0190082      19.219505      136.87408    
     16000   0.97663255     18.880983      136.35866    
     17000   0.97053101     19.111342      136.0294     
     18000   0.99949814     18.864933      135.53427    
     19000   0.98451865     19.10434       135.41097    
     20000   1.0294755      18.76291       134.88656    
     21000   1.0359022      19.314487      134.56202    
     22000   0.96737814     18.655482      134.19578    
     23000   1.0316498      19.285567      133.81447    
     24000   0.96830386     18.723797      133.55779    
     25000   0.98620057     19.242249      133.35293    
     26000   1.0050485      19.173554      132.9534     
     27000   0.97381969     19.015867      133.08143    
     28000   1.0545534      19.184481      132.83928    
     29000   1.0000481      19.156667      132.90932    
     30000   1.0390273      19.449192      132.76139    
     31000   0.94830741     18.847472      132.55367    
     32000   1.0233947      19.487185      132.20026    
     33000   0.96628187     19.172358      131.84567    
     34000   1.0141705      19.226463      131.66514    
     35000   0.9695204      18.946366      131.25155    
     36000   1.0195279      19.773484      130.9699     
     37000   1.001838       19.499587      130.75105    
     38000   1.0205215      19.365819      130.55905    
     39000   0.96569548     19.001409      130.10262    
     40000   0.9620586      19.237508      129.61536    
     41000   0.98417081     19.527129      129.33911    
     42000   1.0358865      19.47301       129.28333    
     43000   1.0167208      19.36097       129.02877    
     44000   0.98264439     19.590688      128.67778    
     45000   1.014446       19.490563      128.55862    
     46000   1.0004696      19.441429      128.26634    
     47000   1.0059522      19.465375      127.96028    
     48000   0.97573888     19.308627      127.83461    
     49000   1.0124042      20.038158      127.64663    
     50000   0.98682925     19.244739      127.28549    
     51000   0.98902487     19.607639      126.8044     
     52000   1.0163493      19.375595      126.48792    
     53000   1.0214455      19.537673      126.16391    
     54000   1.0174188      19.297386      125.89808    
     55000   0.98329828     19.651966      125.64318    
     56000   1.0194977      20.16377       125.59409    
     57000   1.0320187      19.484217      125.23527    
     58000   0.99734049     19.886751      124.88187    
     59000   0.96354244     19.495715      124.89928    
     60000   0.99559271     19.265444      124.80448    
     61000   0.98342836     19.930147      124.65835    
     62000   1.0369547      19.609096      124.33023    
     63000   1.0148216      19.411629      124.19702    
     64000   1.0173552      19.560244      123.86289    
     65000   1.0008355      19.729486      123.57165    
     66000   0.98058319     19.568708      123.3264     
     67000   0.99733702     19.369278      123.05643    
     68000   1.05351        19.566152      122.94146    
     69000   0.97088572     19.683243      122.65017    
     70000   1.0227975      19.70305       122.32966    
     71000   1.0438515      19.789802      122.07723    
     72000   1.0071449      19.380058      122.13839    
     73000   1.0295099      19.696176      121.86034    
     74000   0.99439281     19.504648      121.61499    
     75000   0.98632722     19.900208      121.688      
     76000   0.97608251     19.638524      121.48388    
     77000   1.0116394      19.572646      121.08145    
     78000   1.0026344      19.834731      121.01805    
     79000   0.99771731     19.859914      120.7264     
     80000   1.0021748      19.559042      120.49832    
     81000   1.0019666      19.605398      120.59761    
     82000   1.0073719      19.436669      120.38549    
     83000   0.98248223     19.914464      120.14729    
     84000   0.95470361     19.700039      119.92175    
     85000   0.94593779     19.356043      119.67589    
     86000   0.9985847      20.142558      119.54134    
     87000   1.004427       19.732583      119.37219    
     88000   1.0191385      19.834225      119.22978    
     89000   0.99305531     19.98474       119.23646    
     90000   0.98186786     19.391053      119.19173    
     91000   0.98155685     19.945646      119.16869    
     92000   1.0166789      20.009026      119.12826    
     93000   1.011599       19.814631      118.92517    
     94000   1.0138291      19.620941      118.64037    
     95000   0.96728577     19.450499      118.41039    
     96000   1.0086178      19.822644      118.49419    
     97000   1.0140241      19.755472      118.34445    
     98000   0.99524341     19.949444      118.03211    
     99000   0.99171765     19.715245      118.0353     
    100000   1.0600954      19.936893      118.03141    
Loop time of 520.024 on 2 procs for 100000 steps with 1101 atoms

Performance: 166146.180 tau/day, 192.299 timesteps/s
101.9% CPU use with 1 MPI tasks x 2 OpenMP threads

MPI task timing breakdown:
Section |  min time  |  avg time  |  max time  |%varavg| %total
---------------------------------------------------------------
Pair    | 1.0453     | 1.0453     | 1.0453     |   0.0 |  0.20
Bond    | 2.2358     | 2.2358     | 2.2358     |   0.0 |  0.43
Neigh   | 511.37     | 511.37     | 511.37     |   0.0 | 98.34
Comm    | 0.038548   | 0.038548   | 0.038548   |   0.0 |  0.01
Output  | 0.30639    | 0.30639    | 0.30639    |   0.0 |  0.06
Modify  | 4.629      | 4.629      | 4.629      |   0.0 |  0.89
Other   |            | 0.4009     |            |       |  0.08

Nlocal:           1101 ave        1101 max        1101 min
Histogram: 1 0 0 0 0 0 0 0 0 0
Nghost:              0 ave           0 max           0 min
Histogram: 1 0 0 0 0 0 0 0 0 0
Neighs:           6076 ave        6076 max        6076 min
Histogram: 1 0 0 0 0 0 0 0 0 0

Total # of neighbors = 6076
Ave neighs/atom = 5.5186194
Ave special neighs/atom = 1.9981835
Neighbor list builds = 1111
Dangerous builds = 0

# Replace lj potential, now collapse
pair_style      lj/cut 3

# Cutoff simul when gyration under 5
# Variable created with equal requires v_ + 'name'
fix 3 all halt 1000 v_rog < 7

run 5000000
Generated 0 of 0 mixed pair_coeff terms from geometric mixing rule
Last active /omp style is angle_style cosine/omp
Per MPI rank memory allocation (min/avg/max) = 1862 | 1862 | 1862 Mbytes
   Step          Temp         Enthalpy         c_1      
    100000   1.0600954      19.38184       118.03141    
    101000   0.99168151     19.145028      117.94197    
    102000   1.0479075      19.45006       117.77473    
    103000   0.98219732     19.13032       117.78592    
    104000   0.9611708      19.685248      117.55686    
    105000   1.0055974      19.642884      117.25546    
    106000   0.98225403     19.399494      117.00912    
    107000   0.99134841     19.098382      116.89326    
    108000   1.0083676      19.347226      116.90236    
    109000   0.98971943     19.13115       116.67904    
    110000   0.98252131     18.795262      116.66656    
    111000   1.0027564      19.455205      116.33016    
    112000   1.0086403      19.588973      115.97537    
    113000   0.99166097     19.247933      115.663      
    114000   0.99622714     19.89336       115.41762    
    115000   0.97691661     19.895863      115.31559    
    116000   0.97676321     19.436269      115.01837    
    117000   0.98804756     19.313454      114.72697    
    118000   1.0144532      19.253641      114.51563    
    119000   0.97730572     18.969777      114.37884    
    120000   1.0007441      19.660843      114.10117    
    121000   0.98867383     19.089899      113.70647    
    122000   1.0214598      19.271879      113.73444    
    123000   1.0027472      19.005121      113.63399    
    124000   1.0372578      18.798259      113.64303    
    125000   0.98144045     19.401814      113.50341    
    126000   1.0240192      19.147237      113.29449    
    127000   1.0601057      18.689668      113.05395    
    128000   0.99395298     18.949373      112.84992    
    129000   1.0064384      19.149322      112.55656    
    130000   0.98958064     19.033523      112.30963    
    131000   0.99870096     19.165898      112.02539    
    132000   0.96104448     19.313058      111.9107     
    133000   1.0210829      18.861599      111.76641    
    134000   1.0251543      19.215153      111.80003    
    135000   1.0150536      18.872039      111.6845     
    136000   1.0324412      19.274179      111.57861    
    137000   1.0044583      19.371261      111.36362    
    138000   0.97154222     19.38018       111.17716    
    139000   1.0171853      19.278244      111.08944    
    140000   0.96604649     18.953782      110.84242    
    141000   1.0044971      18.98212       110.53405    
    142000   1.0062571      18.804797      110.49839    
    143000   1.0139656      19.231404      110.35553    
    144000   1.0208075      19.091023      110.28935    
    145000   1.0408958      19.032888      110.14659    
    146000   0.98678838     19.087892      110.04115    
    147000   1.0164276      19.274781      110.0208     
    148000   1.021863       19.649364      109.86763    
    149000   1.018097       19.467342      109.77416    
    150000   1.0244157      19.126691      109.58391    
    151000   0.95921602     18.91144       109.45961    
    152000   1.03391        18.981132      109.11531    
    153000   0.95940331     18.928149      108.8233     
    154000   1.0215647      19.304046      108.74861    
    155000   1.0053543      19.003364      108.49207    
    156000   1.031833       19.310187      108.36071    
    157000   0.97917178     18.721678      108.14471    
    158000   1.0294812      19.357377      108.11415    
    159000   0.98980538     18.812753      107.80338    
    160000   1.0487718      19.154073      107.66652    
    161000   1.0254939      19.224249      107.42347    
    162000   1.0090859      19.413851      107.27423    
    163000   0.98946778     19.192494      107.08922    
    164000   1.0127892      19.490118      107.07144    
    165000   0.99033785     18.926209      106.83142    
    166000   1.0502059      19.225862      106.62638    
    167000   1.0092487      19.187196      106.35493    
    168000   1.0004367      19.008047      106.23531    
    169000   1.0035513      18.646893      106.01399    
    170000   0.98242202     18.997963      106.07186    
    171000   1.0237336      19.126553      105.81047    
    172000   0.98375066     18.753727      105.69187    
    173000   1.0121886      19.080836      105.50182    
    174000   0.9754365      19.215101      105.66978    
    175000   0.97458059     18.887418      105.64442    
    176000   1.0342243      18.865561      105.31268    
    177000   0.95863034     18.62013       105.05987    
    178000   0.99966572     19.265357      104.69333    
    179000   0.96896188     18.991498      104.43106    
    180000   0.98261156     19.282264      104.06422    
    181000   0.99464953     18.974646      103.57781    
    182000   0.97363064     19.055295      103.13035    
    183000   1.0396324      19.317703      102.9675     
    184000   1.0106808      18.751957      102.80749    
    185000   1.0081987      19.189355      102.62792    
    186000   1.0376647      19.089591      102.43922    
    187000   0.99010047     19.012061      102.19005    
    188000   0.98974391     19.279166      101.94753    
    189000   0.98047351     18.563682      101.77354    
    190000   1.0237569      19.231639      101.73203    
    191000   0.97935207     18.863998      101.68082    
    192000   1.0251986      19.140997      101.49015    
    193000   1.004375       18.948056      101.02583    
    194000   1.0459085      18.82182       100.73426    
    195000   1.0054288      19.067682      100.77911    
    196000   0.96130184     19.265104      100.62227    
    197000   1.0085388      19.16302       100.58626    
    198000   1.0078923      19.127761      100.35445    
    199000   1.0228715      19.01345       100.1472     
    200000   0.98705668     19.457324      99.951962    
    201000   1.0056059      18.824645      99.849474    
    202000   1.0425691      19.312993      99.719244    
    203000   0.99890174     19.271624      99.444804    
    204000   1.027127       19.387525      99.286776    
    205000   0.98631159     18.821433      99.204796    
    206000   0.96467453     19.236035      99.11165     
    207000   0.99838361     18.672473      98.777823    
    208000   1.0001164      18.751479      98.822024    
    209000   1.0046585      18.835381      98.655298    
    210000   0.9654419      19.006123      98.586295    
    211000   0.97933429     18.998823      98.28461     
    212000   0.95179598     18.640403      98.30016     
    213000   1.0316927      18.882302      97.973757    
    214000   0.96346337     18.662773      97.627461    
    215000   1.0269703      19.202866      97.415983    
    216000   1.0120553      18.751399      97.210234    
    217000   1.0278838      18.883618      96.996285    
    218000   1.011406       19.195374      96.89342     
    219000   0.98086284     18.805893      96.526552    
    220000   1.0219553      18.62203       96.270636    
    221000   1.0291977      19.380054      96.129589    
    222000   1.0456049      19.019842      95.943221    
    223000   1.0272952      18.792404      95.899465    
    224000   1.0177626      18.90903       95.959665    
    225000   0.96035993     18.81632       95.84898     
    226000   0.97307665     18.936441      95.590999    
    227000   1.0155935      18.939633      95.463803    
    228000   0.97890766     19.174691      95.312084    
    229000   0.98733186     18.930212      95.067271    
    230000   0.97477813     18.801109      95.032774    
    231000   1.0278101      18.968314      94.746701    
    232000   0.98063179     18.777853      94.63612     
    233000   0.99053343     18.733468      94.493306    
    234000   1.0118279      18.945013      94.263422    
    235000   1.047246       18.951819      94.064271    
    236000   0.98504231     18.655895      93.984224    
    237000   0.98938667     18.91722       93.927486    
    238000   0.97405947     18.502949      93.782019    
    239000   1.0354007      19.109765      93.766874    
    240000   0.97641417     18.21086       93.258522    
    241000   0.99663164     19.032926      92.939326    
    242000   1.0119946      19.14606       92.740597    
    243000   0.95407194     18.821692      92.616306    
    244000   0.99795119     18.902984      92.474042    
    245000   1.0216889      19.367621      92.315954    
    246000   1.0206428      18.636638      91.916372    
    247000   1.0281058      18.62693       91.853841    
    248000   1.0442335      19.343783      91.894143    
    249000   0.97603226     18.515927      91.560822    
    250000   0.97726415     18.643777      91.510546    
    251000   0.97876262     18.642055      91.325776    
    252000   0.96487496     18.652472      91.225408    
    253000   0.95133046     18.748891      90.779903    
    254000   0.9994135      19.304679      90.731364    
    255000   0.9669806      19.032419      90.791666    
    256000   0.975906       18.856264      90.75593     
    257000   0.99852365     18.870207      90.866866    
    258000   0.96772865     19.425809      91.009109    
    259000   1.0096401      18.842543      91.023226    
    260000   1.0187434      18.798127      90.902081    
    261000   1.0272994      18.682252      90.930902    
    262000   0.99665675     19.172112      90.630659    
    263000   1.0336825      18.829603      90.521987    
    264000   0.98423394     18.331022      90.378642    
    265000   0.96606796     18.713591      90.284728    
    266000   1.0377124      19.170591      90.250282    
    267000   0.97529343     18.845873      90.201225    
    268000   0.99012195     18.746251      89.930267    
    269000   1.0185529      19.377497      90.043092    
    270000   1.012777       18.874963      89.868367    
    271000   1.0343711      18.897436      89.631536    
    272000   1.0213495      18.964602      89.480493    
    273000   1.0118769      19.067042      89.290744    
    274000   0.98495234     18.615784      89.209472    
    275000   1.015687       18.875386      89.126713    
    276000   0.97721315     18.741442      88.875927    
    277000   1.0486851      19.257516      88.613679    
    278000   1.0289497      19.119856      88.534701    
    279000   0.9493055      18.329917      88.451305    
    280000   1.0157495      18.382784      88.125764    
    281000   0.9793844      18.880926      88.163141    
    282000   1.0255695      19.020995      88.014265    
    283000   1.0024973      18.87144       87.711879    
    284000   1.0382088      18.664923      87.388366    
    285000   1.0130378      18.999151      86.979295    
    286000   1.0192472      18.954471      86.781303    
    287000   1.0159479      18.521891      86.79291     
    288000   0.99041356     18.563879      86.644899    
    289000   1.0144589      18.521347      86.219918    
    290000   0.98523677     18.768899      86.029574    
    291000   1.0307931      18.214156      85.834109    
    292000   0.95911844     18.28128       85.786546    
    293000   1.0052986      18.582925      85.492565    
    294000   0.95538825     19.14028       85.259922    
    295000   0.99480689     18.849887      85.000614    
    296000   1.0295675      18.982201      85.007672    
    297000   0.95382866     18.408914      84.92333     
    298000   1.0229796      19.13513       84.824419    
    299000   1.0140891      19.06237       84.622466    
    300000   0.99176536     18.497207      84.552882    
    301000   0.99133429     18.553278      84.424173    
    302000   1.0122297      18.717772      84.345618    
    303000   0.98393766     18.297146      84.366721    
    304000   0.97111004     18.651596      84.125812    
    305000   1.03225        18.77905       84.052333    
    306000   0.99580005     18.348646      84.14205     
    307000   1.0024415      18.801384      83.877515    
    308000   1.0111942      18.546931      83.688051    
    309000   0.99200798     18.477692      83.649202    
    310000   0.97280305     18.306035      83.496747    
    311000   0.96317397     18.418103      83.428121    
    312000   1.0131741      18.751705      83.273517    
    313000   1.0118343      18.151406      83.040779    
    314000   0.9735366      18.509818      82.866124    
    315000   1.0024541      18.548027      82.580384    
    316000   1.0155367      18.962014      82.49359     
    317000   1.0143001      18.300991      82.470144    
    318000   0.94139811     18.436946      82.337026    
    319000   1.0267566      18.308323      82.283516    
    320000   0.98932987     18.606861      82.157991    
    321000   1.0101091      18.620207      82.177112    
    322000   1.0608872      19.225933      82.090881    
    323000   1.0187168      18.703309      82.055498    
    324000   0.99904295     18.776759      81.890029    
    325000   0.99814378     17.706865      81.816405    
    326000   1.0362396      18.456662      81.68055     
    327000   1.0018982      18.461342      81.432941    
    328000   1.0042034      18.340098      81.318827    
    329000   0.9587567      18.51091       81.286116    
    330000   0.99024117     18.287268      81.266632    
    331000   0.99503843     18.486064      81.036452    
    332000   0.98265562     18.623058      80.939345    
    333000   0.97793833     18.528371      80.930942    
    334000   1.0331939      19.091752      80.723467    
    335000   1.0476136      18.986376      80.609949    
    336000   0.99943325     18.285483      80.364469    
    337000   0.99114812     18.46606       80.421665    
    338000   0.98904371     18.762191      80.125799    
    339000   0.97699558     18.850394      79.863622    
    340000   1.0455863      18.728613      79.502447    
    341000   0.99013577     18.355325      79.196485    
    342000   0.98780311     17.912218      79.04228     
    343000   1.0198108      18.433459      78.922973    
    344000   0.98876516     18.422187      78.735022    
    345000   1.0171288      18.220108      78.515305    
    346000   0.98035621     18.450839      78.45853     
    347000   0.99658644     18.964302      78.168275    
    348000   1.0120802      18.230309      77.944453    
    349000   0.99128548     18.271033      77.762483    
    350000   0.97274456     18.266264      77.76907     
    351000   0.99606201     18.446377      77.648183    
    352000   0.9557559      18.513504      77.622324    
    353000   0.99703253     18.43755       77.558604    
    354000   1.0807103      19.064109      77.358867    
    355000   0.99539763     18.956042      77.181401    
    356000   1.0133745      18.557296      77.075013    
    357000   1.04648        18.49006       77.067197    
    358000   0.97798693     18.101116      76.961219    
    359000   0.97640269     18.242943      76.988954    
    360000   1.0174682      18.614226      76.890133    
    361000   0.94409584     17.892722      77.04172     
    362000   1.003677       18.465973      76.737815    
    363000   1.0354633      18.338863      76.714625    
    364000   1.0124475      18.670819      76.659947    
    365000   1.0591726      18.664245      76.275753    
    366000   1.0441624      18.173933      76.150168    
    367000   1.0237709      18.342471      75.937855    
    368000   0.98985107     19.006412      75.595966    
    369000   0.98516605     18.244116      75.492462    
    370000   0.96962575     18.179899      75.25898     
    371000   0.98870986     18.445741      75.194062    
    372000   0.95192299     18.15179       75.111706    
    373000   1.0242475      18.297987      75.043754    
    374000   0.98931853     17.92937       75.261638    
    375000   1.0140851      18.418241      75.211036    
    376000   1.0274389      18.746194      74.982484    
    377000   1.0109764      18.549828      74.864075    
    378000   1.0046087      18.301853      74.762053    
    379000   0.96474258     18.150669      74.611195    
    380000   1.0035122      18.034287      74.346695    
    381000   0.99847332     18.311364      74.105793    
    382000   1.0131186      18.564055      73.947593    
    383000   0.99532394     18.692888      74.029369    
    384000   1.0354969      18.627039      73.855367    
    385000   1.013453       18.211978      73.691537    
    386000   0.97707967     18.008818      73.680351    
    387000   0.94776481     18.98882       73.490809    
    388000   1.010913       18.589717      73.182044    
    389000   1.0625194      18.226808      73.041686    
    390000   0.97600437     18.68672       72.748578    
    391000   0.99220518     18.551728      72.632928    
    392000   0.98051        18.433011      72.405647    
    393000   1.000714       18.109509      72.1061      
    394000   1.0122777      18.617815      71.896763    
    395000   0.99940817     18.087633      71.691111    
    396000   1.0169007      18.533851      71.580508    
    397000   0.95870014     18.799215      71.410432    
    398000   1.0044694      17.921221      71.404232    
    399000   0.98113161     18.295589      71.055587    
    400000   0.9980452      18.307596      71.194341    
    401000   1.0354843      18.526943      71.203241    
    402000   0.99236096     17.989572      70.910005    
    403000   0.98724453     18.279401      71.042293    
    404000   1.0008228      18.201411      71.141527    
    405000   0.99667237     18.620669      70.992512    
    406000   0.99347556     18.443829      70.553141    
    407000   0.98450518     18.556227      70.412152    
    408000   0.96880459     18.378616      70.355944    
    409000   1.0075994      18.744011      70.324054    
    410000   0.99659978     18.307522      70.230491    
    411000   0.92610885     17.802381      69.927593    
    412000   1.0147897      18.976675      69.86296     
    413000   1.0132068      18.642187      69.84455     
    414000   1.0178332      18.216284      69.726881    
    415000   1.0268893      18.403216      69.717091    
    416000   0.99777634     18.678904      69.583226    
    417000   0.98787813     18.162178      69.455879    
    418000   1.0184295      18.821585      69.228334    
    419000   1.0080079      18.165425      69.253841    
    420000   1.0053959      18.626886      69.11408     
    421000   1.0491159      18.808994      68.893113    
    422000   1.017844       18.217954      68.643459    
    423000   1.0045663      18.247146      68.374481    
    424000   1.0137228      18.161524      68.072592    
    425000   1.0212738      18.29511       68.065877    
    426000   1.0452429      18.498865      67.841867    
    427000   1.0037468      18.280658      67.764804    
    428000   1.0025458      18.444465      67.678133    
    429000   1.022449       18.635881      67.464356    
    430000   1.0258565      18.476994      67.259393    
    431000   1.0465527      18.986707      67.405004    
    432000   1.0001081      18.105035      67.446411    
    433000   1.052883       18.474561      67.250327    
    434000   0.99216131     18.200406      66.874035    
    435000   0.986525       18.243228      66.702147    
    436000   1.0179307      18.195226      66.571958    
    437000   0.98057836     17.867366      66.700134    
    438000   1.0598366      18.137064      66.51208     
    439000   1.0120982      17.988893      66.397104    
    440000   0.99470318     18.312948      66.257372    
    441000   0.97896854     18.142849      65.924799    
    442000   1.0256465      18.270628      65.934453    
    443000   1.0160377      18.502724      65.864785    
    444000   1.0056818      18.194141      65.484681    
    445000   0.98668104     17.74255       65.419849    
    446000   1.0628727      18.238655      65.40953     
    447000   0.98555432     18.193754      65.103506    
    448000   1.0095076      17.984287      64.970461    
    449000   1.0277894      18.584403      64.852038    
    450000   1.0187307      17.820073      64.821842    
    451000   1.0079353      18.548273      65.026918    
    452000   0.9740588      18.42626       64.875851    
    453000   0.99451074     18.095853      64.66395     
    454000   0.98098998     18.569673      64.787333    
    455000   1.0141904      18.853839      64.599844    
    456000   1.0339356      18.434928      64.508945    
    457000   0.98163791     17.843281      64.257793    
    458000   1.0654653      18.597924      64.278801    
    459000   1.0254081      18.372386      64.075547    
    460000   1.0040912      18.409346      63.906181    
    461000   0.98154452     18.266478      63.883594    
    462000   1.0170238      18.227346      63.850866    
    463000   0.98949503     18.527702      63.607067    
    464000   1.0340987      18.231884      63.400855    
    465000   1.0067412      18.43096       63.270106    
    466000   0.99762015     18.471184      63.027425    
    467000   0.99872123     18.547285      62.964696    
    468000   0.99846989     18.2718        62.735169    
    469000   1.0303426      18.738285      62.669123    
    470000   0.96621963     18.230158      62.43759     
    471000   1.0058348      18.258165      62.460095    
    472000   0.97960495     18.389988      62.381879    
    473000   1.0239036      18.151336      62.404078    
    474000   0.9377022      18.414246      62.486024    
    475000   1.0024363      18.115146      62.534       
    476000   0.98130823     18.402327      62.515794    
    477000   1.0189455      18.002643      62.157903    
    478000   0.98645629     18.130118      62.062862    
    479000   0.96707064     17.74671       61.842541    
    480000   1.0370301      18.282236      61.849313    
    481000   0.96461161     18.294542      61.84424     
    482000   1.041464       18.390596      61.771153    
    483000   1.0220126      18.202519      61.441999    
    484000   1.0131057      17.745436      61.278578    
    485000   0.97452632     18.350817      61.311203    
    486000   0.99308635     18.193568      61.086583    
    487000   0.99402002     17.857114      61.032671    
    488000   1.030854       18.45835       60.677041    
    489000   1.0365236      18.294678      60.458413    
    490000   1.0315146      18.233411      60.213278    
    491000   1.0325282      18.598647      60.08163     
    492000   0.98912527     18.642097      60.090804    
    493000   0.98410124     18.262239      59.854199    
    494000   0.99404585     18.178913      59.629605    
    495000   1.013869       18.174671      59.704414    
    496000   1.0148279      18.069274      59.766621    
    497000   0.96678864     18.25637       59.633879    
    498000   1.0517957      17.892059      59.453923    
    499000   1.0037513      17.627475      59.372535    
    500000   0.96677249     18.557195      59.14836     
    501000   1.0055758      17.486465      58.767432    
    502000   1.0020799      18.421069      58.638357    
    503000   0.96645363     18.46172       58.609156    
    504000   1.0160328      18.057051      58.430361    
    505000   1.0177087      18.381687      58.591906    
    506000   1.0112547      18.492032      58.610896    
    507000   1.0391723      18.292186      58.538637    
    508000   1.0107124      18.475573      58.49226     
    509000   0.97390849     18.526509      58.371504    
    510000   0.99847416     17.920456      58.17968     
    511000   0.96871098     18.34077       57.907671    
    512000   1.0064936      18.137543      57.659721    
    513000   0.97552685     17.902196      57.523202    
    514000   1.0119872      17.816045      57.47125     
    515000   1.0046502      17.88521       57.278445    
    516000   0.99553616     18.003195      57.169654    
    517000   0.99230756     18.284566      57.059444    
    518000   1.0017354      17.72222       56.785937    
    519000   1.0603873      18.27854       56.561528    
    520000   0.97749309     18.196181      56.26546     
    521000   1.0112933      17.954611      56.196956    
    522000   1.019871       18.184371      55.942834    
    523000   0.99263477     17.915864      55.762068    
    524000   0.96992876     17.983234      55.626764    
    525000   1.0354918      17.632211      55.527871    
    526000   0.99473954     18.155811      55.223948    
    527000   1.0252187      18.431888      55.274736    
    528000   1.023271       18.538752      55.13667     
    529000   0.99977355     18.362465      54.893173    
    530000   1.0128843      18.28421       54.689183    
    531000   1.0129951      18.118746      54.547495    
    532000   1.0101399      18.101431      54.467424    
    533000   1.025509       18.223851      54.452088    
    534000   1.0147021      18.043389      54.489723    
    535000   0.99053848     18.079342      54.370831    
    536000   0.92279456     18.186198      54.285362    
    537000   0.98914247     17.988098      54.195362    
    538000   1.0041514      18.082861      54.389017    
    539000   1.0001788      18.222531      54.205105    
    540000   1.0406229      18.694929      54.052589    
    541000   1.0006978      17.963338      53.998317    
    542000   1.039382       17.712332      54.110643    
    543000   0.99347798     17.926634      53.916283    
    544000   0.97652918     18.181932      53.761568    
    545000   0.98197434     18.371513      53.727675    
    546000   0.96420194     18.526668      53.737253    
    547000   0.98493423     17.886438      53.500832    
    548000   1.0389968      18.046818      53.116112    
    549000   0.97544422     17.544705      52.944885    
    550000   0.99430157     18.068512      52.918014    
    551000   1.006625       18.510168      52.860515    
    552000   1.0160867      18.17497       52.737053    
    553000   0.97098834     17.96604       52.479755    
    554000   1.0459426      18.97203       52.539876    
    555000   1.036394       18.293185      52.422935    
    556000   1.0326464      17.971548      52.329432    
    557000   1.026124       18.174845      52.173652    
    558000   0.98937025     17.860911      52.070336    
    559000   1.0124938      18.085704      51.9496      
    560000   1.0068509      17.926482      51.762201    
    561000   1.0211856      17.894199      51.697111    
    562000   0.9907073      17.684266      51.595232    
    563000   0.94688        17.784101      51.485311    
    564000   0.96560565     17.933996      51.462851    
    565000   1.0127264      18.172703      51.287501    
    566000   1.0695398      18.8953        51.210572    
    567000   1.0284884      18.173322      51.095947    
    568000   1.0525701      18.181876      50.91844     
    569000   1.0163621      17.792304      50.790814    
    570000   1.0114412      17.655597      50.642983    
    571000   0.9775849      17.919932      50.595692    
    572000   1.0232109      17.984672      50.396035    
    573000   0.99421065     17.804013      50.315552    
    574000   1.0136924      18.513066      50.095017    
    575000   0.98337592     17.968544      50.00485     
    576000   0.99760287     18.021989      50.140555    
    577000   0.97772117     17.86548       50.143696    
    578000   1.0228162      17.819758      49.903572    
    579000   0.99373093     17.717165      49.843785    
    580000   1.0150182      17.504534      49.818815    
    581000   1.041606       18.216944      49.739028    
    582000   0.99333258     17.714966      49.734148    
    583000   1.0271047      18.162218      49.609329    
    584000   0.97572915     18.086131      49.518626    
    585000   0.96231643     17.552374      49.350816    
    586000   0.98829255     17.495797      49.265971    
    587000   1.018321       17.460482      48.847857    
    588000   1.0077945      18.282264      48.91974     
    589000   1.0052669      17.629202      48.497516    
    590000   1.0087172      18.277456      48.43717     
    591000   0.95233348     17.432791      48.527635    
    592000   1.0064572      18.202298      48.542695    
    593000   1.0174536      17.860989      48.33054     
    594000   0.96258276     17.976956      48.216354    
    595000   1.0009285      17.486262      48.328446    
    596000   0.98391447     17.806802      48.08381     
    597000   1.0224099      18.539591      47.841545    
    598000   1.005506       18.10534       47.867528    
    599000   0.99160249     17.74093       47.81738     
    600000   0.94692369     17.79803       47.80083     
    601000   1.0374817      17.846327      47.691317    
    602000   0.99981792     18.165796      47.510301    
    603000   1.0045906      17.547138      47.340553    
    604000   1.0231378      18.078759      47.272257    
    605000   0.98983887     18.331113      47.313272    
    606000   0.97829986     17.860259      47.188019    
    607000   0.97080923     17.731323      47.25555     
    608000   1.0311359      17.806835      47.160104    
    609000   1.0116343      17.704723      46.965289    
    610000   0.98338609     18.146739      46.748687    
    611000   1.0246402      18.162218      46.666874    
    612000   0.99947269     18.121436      46.516537    
    613000   0.96146342     18.072616      46.613189    
    614000   1.0037455      18.098506      46.30198     
    615000   0.98309846     17.714174      46.268035    
    616000   0.9923448      17.810019      46.181582    
    617000   0.9959267      17.978599      46.248206    
    618000   0.98031167     17.754354      46.175714    
    619000   0.97962969     18.032802      46.291006    
    620000   0.98920493     17.737336      46.301996    
    621000   0.98585952     18.542848      46.195686    
    622000   0.96400404     17.575131      45.975526    
    623000   0.98578211     17.680026      45.772797    
    624000   1.0433308      17.969308      45.426391    
    625000   0.96037252     17.536234      45.297181    
    626000   1.0093228      17.850204      45.08407     
    627000   1.0001541      18.001616      45.056946    
    628000   0.98727269     18.185837      44.901869    
    629000   1.0003306      17.799666      44.798355    
    630000   1.0301783      17.93321       44.757059    
    631000   0.97560745     18.566783      44.460711    
    632000   1.0057386      18.755267      44.388933    
    633000   1.0232333      17.637468      44.212544    
    634000   0.9852359      17.618991      44.043747    
    635000   1.0255841      18.213105      44.030293    
    636000   1.0053489      17.758801      43.941483    
    637000   1.0039         17.868359      43.935802    
    638000   0.98001602     17.924011      43.895373    
    639000   0.94616958     17.702272      44.089475    
    640000   0.96599461     17.922714      43.966384    
    641000   1.0197431      17.792641      44.088904    
    642000   0.94973224     17.669694      43.740308    
    643000   0.99010179     17.336343      43.428787    
    644000   0.96576161     17.604645      43.172711    
    645000   1.0052437      17.705275      43.171621    
    646000   1.0096948      17.775391      43.045663    
    647000   0.9578966      17.62193       43.002072    
    648000   0.99461199     17.962882      42.986522    
    649000   0.98259358     18.146331      42.674383    
    650000   1.0213684      17.778223      42.550462    
    651000   1.0034386      18.050806      42.432174    
    652000   0.9904465      17.456778      42.356703    
    653000   0.97605965     17.770444      42.109109    
    654000   1.0179791      17.582375      42.312689    
    655000   0.98274404     17.937676      42.149268    
    656000   0.98993146     17.358223      42.197053    
    657000   1.0372599      17.994415      42.064091    
    658000   1.0293625      17.909277      41.910866    
    659000   0.97333653     17.751513      41.671959    
    660000   0.9939714      18.421319      41.620052    
    661000   0.98512093     18.068497      41.58295     
    662000   1.0222288      17.869386      41.500734    
    663000   0.98020855     17.803887      41.193519    
    664000   1.0329457      17.98928       41.047139    
    665000   1.0358642      17.703882      40.964232    
    666000   1.0318163      17.705504      40.973448    
    667000   1.0046434      17.155125      41.209233    
    668000   1.0314315      17.659569      41.037421    
    669000   1.0092107      18.860738      40.874064    
    670000   1.0228165      17.239344      40.739482    
    671000   0.99427089     17.507293      40.777134    
    672000   1.021487       18.124788      40.696312    
    673000   0.99304162     18.014489      40.592657    
    674000   1.023737       17.873543      40.533776    
    675000   1.0299785      18.006003      40.530152    
    676000   0.99522251     17.887862      40.456822    
    677000   1.0061672      17.501611      40.429515    
    678000   1.0177397      17.727077      40.354265    
    679000   0.97994046     17.98721       40.320044    
    680000   0.96745603     17.813568      40.184454    
    681000   1.0398906      17.667727      40.084776    
    682000   0.96475059     18.052375      39.932306    
    683000   0.98307724     17.752785      39.943398    
    684000   1.0327518      17.630096      40.047459    
    685000   1.0365961      17.94575       39.972199    
    686000   1.0061754      18.243675      39.708696    
    687000   1.0500838      18.127266      39.614268    
    688000   1.0073405      17.254016      39.47886     
    689000   0.9941669      18.046933      39.28951     
    690000   1.0284938      17.457535      39.199902    
    691000   0.98742345     17.684057      39.10822     
    692000   1.0184237      17.770407      39.096034    
    693000   1.004434       17.336188      38.905511    
    694000   1.0302949      17.632842      38.86044     
    695000   1.0011922      17.997119      38.867421    
    696000   0.98406397     17.381693      38.734614    
    697000   1.0203157      17.280145      38.548781    
    698000   1.0231069      17.295574      38.129115    
    699000   1.0376408      17.919739      37.818971    
    700000   0.99725129     17.600107      37.731919    
    701000   0.99294313     17.752357      37.708457    
    702000   0.99094931     17.80786       37.544279    
    703000   0.99629381     17.398338      37.779591    
    704000   1.013516       17.624786      37.849334    
    705000   0.99362729     17.278523      37.701423    
    706000   1.0112492      18.105884      37.520278    
    707000   0.98132448     17.678571      37.516027    
    708000   0.98965215     17.683887      37.486396    
    709000   0.97900854     17.704854      37.401685    
    710000   1.0019119      17.887747      37.205317    
    711000   1.0386844      17.222897      37.020653    
    712000   0.98023413     17.196875      36.989679    
    713000   0.96198466     18.194409      36.96667     
    714000   0.97723689     17.284902      36.890792    
    715000   0.99508266     17.471076      36.805221    
    716000   0.99174607     17.829624      36.636904    
    717000   0.98096559     17.581484      36.469202    
    718000   1.0266201      18.330823      36.40908     
    719000   1.0267239      17.965097      36.326995    
    720000   1.0079296      17.749944      36.32966     
    721000   0.9819729      17.86655       36.282414    
    722000   1.0011996      18.086627      36.555985    
    723000   1.0106375      17.832653      36.393688    
    724000   0.95752454     17.479166      36.052503    
    725000   0.97621558     17.525163      36.115428    
    726000   1.011489       17.465414      35.973153    
    727000   0.97741389     17.67801       35.854906    
    728000   1.0007978      17.900113      35.659947    
    729000   0.98508044     17.753929      35.628288    
    730000   0.9742022      17.985182      35.804876    
    731000   0.95704813     17.935684      35.940303    
    732000   0.99520089     17.722456      35.747114    
    733000   0.96950485     17.258341      35.637118    
    734000   1.0119041      17.678059      35.827134    
    735000   1.0147073      17.772877      35.652246    
    736000   1.0224254      17.60353       35.569032    
    737000   1.0180459      17.723876      35.410631    
    738000   1.0013351      17.945347      35.376686    
    739000   0.96932309     17.579097      35.253703    
    740000   0.98658767     17.647174      35.100908    
    741000   0.99290059     17.010453      34.990222    
    742000   1.0076637      17.183445      34.754173    
    743000   0.99565577     17.115621      34.446571    
    744000   0.9913229      18.078671      34.32458     
    745000   1.0117647      18.616054      34.198551    
    746000   1.0087237      18.019737      33.972231    
    747000   1.0191823      17.676267      33.940411    
    748000   0.98655126     17.393172      34.1205      
    749000   1.000224       17.689388      34.051661    
    750000   1.0210683      17.416189      33.824096    
    751000   1.0282587      18.03391       33.535316    
    752000   0.99744369     17.857301      33.601051    
    753000   1.0186108      17.625647      33.420385    
    754000   0.99790728     18.095903      33.347323    
    755000   0.98617987     17.359027      33.039749    
    756000   1.0114115      18.107832      33.024154    
    757000   0.99899273     17.688581      32.837669    
    758000   1.0045364      17.605533      32.70381     
    759000   1.0143249      17.511857      32.596501    
    760000   0.95153334     17.922068      32.705325    
    761000   1.0123515      17.738997      32.499134    
    762000   1.0045304      18.011658      32.386795    
    763000   0.96101327     17.635926      32.031506    
    764000   1.0058959      17.582666      31.97589     
    765000   1.0244719      17.564714      31.722671    
    766000   1.0196718      17.804914      31.60022     
    767000   0.95146242     17.985337      31.590155    
    768000   1.0089109      17.973248      31.471426    
    769000   0.98637795     18.033809      31.436789    
    770000   1.0071193      17.442591      31.286388    
    771000   0.99940797     17.301334      31.281984    
    772000   1.0012483      18.110878      31.303582    
    773000   1.0220061      17.680666      31.107637    
    774000   0.97578199     17.617758      31.007539    
    775000   1.001828       17.316737      30.965123    
    776000   0.9575666      17.148266      30.850879    
    777000   1.0056443      17.659416      30.902296    
    778000   0.97881615     17.654935      30.867784    
    779000   0.96851923     17.35455       30.663925    
    780000   0.95971298     17.552689      30.728871    
    781000   1.0162921      17.617939      30.546484    
    782000   1.0242654      17.377188      30.485209    
    783000   0.99675983     17.135423      30.336002    
    784000   0.97447572     17.30116       30.278744    
    785000   0.98415968     17.536685      30.351737    
    786000   0.95988153     17.306422      30.165447    
    787000   1.0377673      17.442476      30.009307    
    788000   0.9981418      17.977368      29.916344    
    789000   0.97463089     17.764766      29.876999    
    790000   1.0138472      17.492411      29.652643    
    791000   1.0199061      17.727536      29.67099     
    792000   1.040586       17.398937      29.695646    
    793000   0.98850624     17.332262      29.70415     
    794000   1.0340252      17.619215      29.397286    
    795000   0.97928903     17.000234      29.123592    
    796000   1.000269       17.543432      28.962187    
    797000   1.0354814      17.283069      28.741263    
    798000   1.0139782      17.739311      28.729739    
    799000   0.98459536     17.474021      28.698683    
    800000   1.0088322      17.987372      28.842444    
    801000   0.99184837     17.018312      28.530595    
    802000   1.0447095      17.855048      28.503516    
    803000   1.0105495      17.227649      28.237945    
    804000   1.0446025      17.90801       28.059701    
    805000   0.9717904      17.492295      28.027305    
    806000   1.0359066      17.301866      28.035318    
    807000   0.97299167     17.240921      27.91306     
    808000   1.0398424      17.145539      27.939159    
    809000   1.0149984      17.90826       27.874247    
    810000   0.97637717     17.472532      27.686756    
    811000   0.96017231     17.525944      27.510351    
    812000   0.9701013      17.309581      27.200914    
    813000   0.99984123     17.114722      26.712667    
    814000   1.0071826      17.596818      26.660508    
    815000   0.97582279     17.700504      26.400506    
    816000   1.043988       17.495284      26.434263    
    817000   0.98133625     17.350887      26.398405    
    818000   0.99133973     17.706367      26.114208    
    819000   0.99717647     17.498405      25.812568    
    820000   1.0139421      17.433588      25.696416    
    821000   1.0041657      17.71038       25.787592    
    822000   1.0115558      16.597692      25.684602    
    823000   0.99872349     17.406023      25.503043    
    824000   0.99997106     17.096125      25.451836    
    825000   1.039075       17.151089      25.397056    
    826000   0.9715058      17.605729      25.092403    
    827000   1.0289832      17.217514      24.896962    
    828000   0.97336144     16.783738      25.026725    
    829000   0.98932657     16.948237      25.070907    
    830000   1.0013566      17.347072      24.752144    
    831000   1.0172455      16.850694      24.825422    
    832000   1.0010039      17.691792      24.761201    
    833000   1.0074212      16.923331      24.475727    
    834000   0.98627712     17.145242      24.579826    
    835000   0.96666149     17.320988      24.427854    
    836000   0.99921537     16.984337      24.351227    
    837000   1.0307427      17.236671      24.301003    
    838000   1.0348397      17.827683      24.183964    
    839000   0.99388075     17.212995      24.248525    
    840000   0.98343373     17.267273      24.269727    
    841000   1.0093404      17.62594       24.278162    
    842000   0.97865552     17.101812      24.345908    
    843000   0.98447243     17.470418      24.275363    
    844000   1.0231565      17.037633      24.182958    
    845000   0.97167177     17.407981      23.929596    
    846000   0.98703969     17.022539      23.958937    
    847000   1.0126672      17.276682      23.93959     
    848000   1.0289136      17.198044      23.932891    
    849000   1.0010996      17.0923        23.596547    
    850000   0.98281041     17.365935      23.594421    
    851000   1.0304983      16.846901      23.62986     
    852000   1.0004977      17.351078      23.510663    
    853000   0.99616637     17.59223       23.483744    
    854000   1.028221       16.979916      23.404068    
    855000   1.0020994      17.482376      23.454859    
    856000   0.99590109     17.329322      23.400758    
    857000   1.0434756      17.433888      23.338251    
    858000   1.0022574      17.091844      23.270121    
    859000   1.0102808      17.606492      23.341401    
    860000   1.0150749      16.882967      23.330964    
    861000   0.99757869     17.445018      23.153118    
    862000   0.97742705     17.241652      23.004758    
    863000   1.015644       17.53196       22.812228    
    864000   0.9745865      16.936732      22.595708    
    865000   1.0230209      17.321766      22.592651    
    866000   0.9949497      17.200301      22.406356    
    867000   1.0221845      17.301217      22.529906    
    868000   0.99872622     17.496348      22.602755    
    869000   0.95751112     17.182636      22.463817    
    870000   0.99928993     16.834829      22.698188    
    871000   1.0452453      17.119113      22.563089    
    872000   0.98904133     16.803942      22.424727    
    873000   1.0266301      17.181063      22.52183     
    874000   1.0086125      17.231617      22.59942     
    875000   0.97597966     17.841041      22.49723     
    876000   1.0303208      16.935975      22.510635    
    877000   1.0180605      16.852673      22.275003    
    878000   0.99974885     17.371498      22.475669    
    879000   1.0219696      17.467472      22.354117    
    880000   0.95906023     17.69446       22.244695    
    881000   0.97151722     17.42024       22.308686    
    882000   1.0466478      17.872636      22.421181    
    883000   0.98069287     17.421432      22.171551    
    884000   0.99989004     17.215         21.957655    
    885000   0.97897792     17.218979      21.88323     
    886000   0.9849904      17.331039      21.640288    
    887000   1.0003045      17.328461      21.59283     
    888000   0.98797402     17.520792      21.825367    
    889000   1.006549       17.231609      21.709219    
    890000   1.0204155      17.418434      21.540119    
    891000   1.0093568      17.122871      21.614404    
    892000   1.053295       17.115217      21.462608    
    893000   1.0112271      17.258422      21.463117    
    894000   1.0333611      17.27201       21.53962     
    895000   0.99180881     17.191322      21.445244    
    896000   1.0450026      17.516512      21.496381    
    897000   1.0049634      17.498047      21.342253    
    898000   0.99271908     16.949051      21.360904    
    899000   0.98808823     17.195586      21.397584    
    900000   0.99857746     17.097122      21.466594    
    901000   0.98145353     16.92149       21.438867    
    902000   1.0069778      17.31578       21.117526    
    903000   0.97382007     17.504752      20.893319    
    904000   0.98981615     16.919443      20.773637    
    905000   1.0428867      17.380915      20.703841    
    906000   1.0197056      17.659443      20.510101    
    907000   0.99450224     17.174891      20.450253    
    908000   1.0277475      17.021649      20.194337    
    909000   0.97220838     16.879679      20.28463     
    910000   0.97589788     17.133416      20.055477    
    911000   0.9590862      16.81919       20.12077     
    912000   0.98908874     17.236404      19.986164    
    913000   1.0144235      17.395452      20.009707    
    914000   1.0004942      16.679144      20.121914    
    915000   1.0045467      17.257306      20.007629    
    916000   1.0114156      17.154615      19.815135    
    917000   1.0269248      17.483332      19.8523      
    918000   0.9837769      17.394993      19.628521    
    919000   1.0558847      17.55188       19.357733    
    920000   1.0091821      17.537706      19.141231    
    921000   1.0057559      17.596492      19.026382    
    922000   0.99873113     16.965641      18.744602    
    923000   1.0027578      17.489404      18.894724    
    924000   0.96918614     16.704136      18.869022    
    925000   1.0159103      16.972343      18.776454    
    926000   1.0021689      17.354999      18.4679      
    927000   0.97931805     17.289534      18.417447    
    928000   1.0315671      17.719606      18.37778     
    929000   1.0253987      17.384631      18.060078    
    930000   1.0284706      16.871487      17.962102    
    931000   1.0134922      17.201119      17.835942    
    932000   0.95918485     17.086262      17.721382    
    933000   1.011907       16.965322      17.760746    
    934000   1.027417       16.642585      17.58581     
    935000   0.9744399      17.023483      17.525061    
    936000   1.0145835      16.968681      17.470388    
    937000   1.0123135      17.64906       17.45889     
    938000   0.96504144     16.732237      17.294015    
    939000   0.99551465     17.10511       17.267202    
    940000   1.0036551      16.810047      17.248683    
    941000   0.98538773     17.492392      17.170856    
    942000   1.031725       17.134514      17.376929    
    943000   1.010374       17.24177       17.403762    
    944000   1.0211865      17.463062      17.646188    
    945000   0.9848053      17.150763      17.662549    
    946000   1.0131488      17.200404      17.583916    
    947000   0.97574715     16.998398      17.422873    
    948000   1.0228148      17.40616       17.399663    
    949000   1.0351277      16.649512      17.026222    
    950000   0.99989994     16.926655      17.046845    
    951000   1.0519641      17.191537      17.113175    
    952000   0.98903887     16.810717      17.089919    
    953000   0.99131258     17.07949       17.158469    
    954000   0.99543096     16.903716      17.023908    
    955000   1.0081703      16.914299      16.821054    
    956000   0.99803299     17.637158      16.613835    
    957000   1.0272493      17.0658        16.481108    
    958000   1.0414087      17.294183      16.342054    
    959000   1.0274075      17.006753      16.260703    
    960000   0.98845092     17.309725      16.286899    
    961000   1.0315248      17.01704       16.37734     
    962000   0.99262967     17.296582      16.211996    
    963000   0.99735448     16.682277      16.093353    
    964000   0.92301116     16.459267      15.984531    
    965000   0.97926798     16.810337      15.982629    
    966000   0.97876835     16.878072      15.998423    
    967000   0.97976008     16.415956      15.931043    
    968000   0.96998674     16.811169      15.709146    
    969000   0.97518042     16.467118      15.622181    
    970000   0.9975542      16.888552      15.542095    
    971000   0.99656611     17.480233      15.594229    
    972000   0.98973814     16.777981      15.55017     
    973000   0.94999467     17.758327      15.363342    
    974000   1.0150995      17.263894      15.337149    
    975000   0.95847745     16.865623      15.306315    
    976000   1.018763       16.958612      15.067102    
    977000   0.97097682     17.389394      15.094706    
    978000   1.0072976      17.025039      14.992869    
    979000   0.98762101     16.963461      14.827572    
    980000   1.0422915      17.428033      14.775307    
    981000   1.0182999      17.61741       14.884358    
    982000   1.0082998      16.264221      14.878597    
    983000   0.99100978     16.908581      14.994289    
    984000   0.97359608     17.721017      14.859453    
    985000   1.0333578      17.414297      14.924418    
    986000   1.0063392      17.306291      14.862951    
    987000   1.0064481      17.415455      14.759174    
    988000   1.0122877      17.637285      14.608224    
    989000   1.0354099      17.231234      14.750633    
    990000   0.98472651     17.411831      14.488651    
    991000   0.99763401     17.174345      14.333426    
    992000   1.009185       16.825604      14.310056    
    993000   1.0140599      16.279149      14.251583    
    994000   0.96717045     16.904907      14.173102    
    995000   1.0453424      17.159296      13.998563    
    996000   1.0314051      17.185174      13.954337    
    997000   1.0424847      16.993393      13.957212    
    998000   1.0282977      17.255332      13.918397    
    999000   1.0465491      17.016907      13.842165    
   1000000   1.0067734      17.125021      13.646325    
   1001000   0.98605014     17.046449      13.846286    
   1002000   0.98794192     17.369856      13.678155    
   1003000   0.96700483     17.090412      13.555459    
   1004000   1.0197508      17.291706      13.535391    
   1005000   1.0039573      17.340785      13.536663    
   1006000   1.0125017      17.129806      13.487633    
   1007000   0.98742848     16.927454      13.307342    
   1008000   1.0441235      17.72192       13.272598    
   1009000   0.98717905     16.608618      13.258031    
   1010000   0.9818703      16.303308      13.143764    
   1011000   1.0154858      17.316534      12.940191    
   1012000   0.96495245     16.906836      13.006974    
   1013000   1.0208196      16.786496      13.00422     
   1014000   1.0022437      17.056139      13.017095    
   1015000   0.94224307     16.793352      13.122671    
   1016000   0.98376118     16.713872      13.101134    
   1017000   1.0712124      17.201906      12.924244    
   1018000   1.0150295      17.314301      12.81056     
   1019000   1.0318129      17.072755      12.63065     
   1020000   1.0320986      16.826487      12.638749    
   1021000   1.0362484      17.161275      12.691489    
   1022000   1.0413228      16.833744      12.464877    
   1023000   1.0175913      17.155161      12.238122    
   1024000   0.9913021      16.528689      12.029534    
   1025000   1.0327353      16.805867      11.965272    
   1026000   0.9978028      16.960909      12.089612    
   1027000   0.99761632     17.011093      11.885656    
   1028000   1.0050945      16.876027      12.100296    
   1029000   1.0378356      17.339491      12.275426    
   1030000   1.0630661      17.049555      12.280438    
   1031000   0.97577369     16.852757      12.105276    
   1032000   1.016665       16.642985      12.058249    
   1033000   0.9557031      16.584682      12.112568    
   1034000   0.98253541     17.038005      11.913567    
   1035000   0.9835299      16.898135      11.938993    
   1036000   0.99697096     16.991442      11.917257    
   1037000   1.0341133      17.008894      11.972161    
   1038000   0.99688062     16.877706      12.148627    
   1039000   0.96995361     16.796173      12.020619    
   1040000   1.0173241      16.921551      11.815155    
   1041000   0.99745927     17.213489      11.600359    
   1042000   1.0176029      16.5669        11.505532    
   1043000   0.99689322     16.919739      11.446096    
   1044000   1.057637       16.659676      11.291657    
   1045000   1.0061896      16.787316      11.188525    
   1046000   0.99933407     16.76145       11.155279    
   1047000   1.0223043      16.804209      11.191093    
   1048000   0.92809146     16.988821      10.884808    
   1049000   0.96529719     17.035573      10.711699    
   1050000   1.0369508      16.867641      10.516463    
   1051000   0.9522601      16.711954      10.553427    
   1052000   0.97040031     16.969698      10.741089    
   1053000   1.0310729      16.97485       10.85252     
   1054000   1.0198895      17.130508      10.754442    
   1055000   1.0293816      16.516331      10.569567    
   1056000   1.0482375      17.618039      10.595228    
   1057000   0.94430219     17.017444      10.401852    
   1058000   0.98970381     16.788585      10.253523    
   1059000   0.99504516     16.861295      10.157069    
   1060000   0.97737218     16.693173      9.9861116    
   1061000   1.0140987      16.982539      9.8451976    
   1062000   0.98950337     16.2603        9.8623493    
   1063000   1.0273576      16.822495      9.8371915    
   1064000   0.99326118     17.209098      9.9266487    
   1065000   0.99923762     16.73898       9.918429     
   1066000   0.98190818     16.520732      9.922918     
   1067000   0.96713715     16.606974      9.8673415    
   1068000   0.98795383     16.411991      9.9555733    
   1069000   1.0358724      16.578627      9.9346833    
   1070000   1.0307962      16.995933      9.7657569    
   1071000   1.0294073      17.097896      9.7039823    
   1072000   0.94939572     16.560036      9.4176108    
   1073000   0.9804908      17.651628      9.2615516    
   1074000   1.0099565      17.330531      9.0625641    
   1075000   0.97941242     17.363218      8.9154401    
   1076000   1.0043986      16.794564      8.8382324    
   1077000   0.98263871     16.606825      8.9881745    
   1078000   0.98298484     17.301058      8.8826349    
   1079000   1.0117222      17.152113      8.8763881    
   1080000   0.95734209     16.808531      8.9657104    
   1081000   0.99978252     16.722585      9.0261148    
   1082000   0.97403121     16.490529      8.9041299    
   1083000   0.99885346     17.04219       8.8254328    
   1084000   1.0488528      17.430597      8.8647118    
   1085000   1.0267944      16.800056      8.9428149    
   1086000   0.98007885     16.868216      8.8691863    
   1087000   0.97886899     17.412201      8.824751     
   1088000   1.016421       17.372885      8.9865123    
   1089000   0.98284791     17.272535      8.9858512    
   1090000   1.0025231      16.312902      8.8758778    
   1091000   1.0241432      17.145059      8.9213659    
   1092000   1.0420126      16.928426      9.0687033    
   1093000   1.0157896      17.329564      9.057548     
   1094000   1.0081696      17.259999      9.0717748    
   1095000   0.99578445     17.03571       8.9764823    
   1096000   1.0264502      17.031155      8.8083674    
   1097000   0.99064148     16.505241      8.7602203    
   1098000   1.0091784      16.957624      8.6701691    
   1099000   0.98605254     17.169153      8.5977174    
   1100000   0.99689112     16.595679      8.6817046    
   1101000   1.0053171      17.515917      8.5789019    
   1102000   0.99929533     17.053323      8.5882407    
   1103000   1.0148769      17.38562       8.5063003    
   1104000   1.0068442      17.052075      8.2917532    
   1105000   0.98199467     16.63928       8.1651531    
   1106000   1.0596144      17.137068      8.0537338    
   1107000   1.0221678      17.074504      8.0193021    
   1108000   1.0045748      17.238498      7.9905863    
   1109000   0.95412318     16.981544      7.9481098    
   1110000   0.98042868     16.452417      7.9027927    
   1111000   1.0348586      17.570272      8.0853531    
   1112000   0.95577738     17.227286      7.9065384    
   1113000   0.98975582     17.20609       7.8332522    
   1114000   1.0017132      17.088293      7.8883418    
   1115000   0.98003294     17.250105      7.7708333    
   1116000   1.0043329      17.141593      7.6390211    
   1117000   0.99663679     16.423408      7.6539095    
   1118000   1.0062165      16.709558      7.5769662    
   1119000   0.98479942     16.437043      7.5507323    
   1120000   0.96553143     16.478216      7.4330162    
   1121000   0.97631713     16.860326      7.4288147    
   1122000   0.99370844     16.752897      7.1768044    
   1123000   1.0392384      17.074022      7.1460614    
   1124000   1.0429104      16.932616      7.0113253    
Fix halt condition for fix-id 3 met on step 1125000 with value 6.784206359297537 (src/fix_halt.cpp:237)
   1125000   0.99080401     16.611365      6.7842064    
Loop time of 1971.87 on 2 procs for 1025000 steps with 1101 atoms

Performance: 449116.396 tau/day, 519.811 timesteps/s
121.2% CPU use with 1 MPI tasks x 2 OpenMP threads

MPI task timing breakdown:
Section |  min time  |  avg time  |  max time  |%varavg| %total
---------------------------------------------------------------
Pair    | 318.96     | 318.96     | 318.96     |   0.0 | 16.18
Bond    | 25.064     | 25.064     | 25.064     |   0.0 |  1.27
Neigh   | 1568.5     | 1568.5     | 1568.5     |   0.0 | 79.54
Comm    | 0.42401    | 0.42401    | 0.42401    |   0.0 |  0.02
Output  | 3.0831     | 3.0831     | 3.0831     |   0.0 |  0.16
Modify  | 51.212     | 51.212     | 51.212     |   0.0 |  2.60
Other   |            | 4.642      |            |       |  0.24

Nlocal:           1101 ave        1101 max        1101 min
Histogram: 1 0 0 0 0 0 0 0 0 0
Nghost:              0 ave           0 max           0 min
Histogram: 1 0 0 0 0 0 0 0 0 0
Neighs:         253517 ave      253517 max      253517 min
Histogram: 1 0 0 0 0 0 0 0 0 0

Total # of neighbors = 253517
Ave neighs/atom = 230.26067
Ave special neighs/atom = 1.9981835
Neighbor list builds = 9516
Dangerous builds = 0

# This simulation is done
# Move onto the next one
clear
  using 2 OpenMP thread(s) per MPI task
package omp 0
using multi-threaded neighbor list subroutines
next f
jump SELF

###
# Reference paper:
# K. Kremer and G. S. Grest
# Dynamics of entangled linear polymer melts: A molecular-dynamics simulation
# J Chem Phys 92, 5057 (1990)

##################################
# MIHIR: for branched polymers
# LJ minimum first to expand and explore, then collapse
###

###
# Looping through the various plusshaped polymers to simulate,
# define variables to switch through
variable f index bb51nuc1bl25bn4d30tot100 bb101nuc1bl50bn4d30tot200 bb151nuc1bl75bn4d30tot300 bb201nuc1bl100bn4d30tot400 bb251nuc1bl125bn4d30tot500 bb301nuc1bl150bn4d30tot600 bb351nuc1bl175bn4d30tot700 bb401nuc1bl200bn4d30tot800 bb451nuc1bl225bn4d30tot900 bb501nuc1bl250bn4d30tot1000 bb551nuc1bl275bn4d30tot1100 bb601nuc1bl300bn4d30tot1200
###


###
# Box and units  (use LJ units and periodic boundaries)
###

units lj
log plusshaped/logs2/$f.log
log plusshaped/logs2/bb601nuc1bl300bn4d30tot1200.log
