#atom_style bond #no stiffness
atom_style angle #with stiffness

boundary        p p p
###
# Pair interactions require lists of neighbours to be calculated
###

#neighbor 0.3 bin
neighbor 4 bin

neigh_modify every 1 delay 1 check yes
atom_modify sort 0 0
### Generate RESTART file, SPECIAL format, not a .txt file ###
### Useful if simulation crashes ###

restart 1000000 plusshaped/restarts2/$f.restart
restart 1000000 plusshaped/restarts2/bb601nuc1bl300bn4d30tot1200.restart
#############################



### READ "start" data file ###

read_data plusshaped/$f.dat
read_data plusshaped/bb601nuc1bl300bn4d30tot1200.dat
Reading data file ...
  orthogonal box = (-1000 -1000 -1000) to (1000 1000 1000)
  1 by 1 by 1 MPI processor grid
  reading atoms ...
  1201 atoms
  scanning bonds ...
  3 = max bonds/atom
  scanning angles ...
  6 = max angles/atom
  reading bonds ...
  1200 bonds
  reading angles ...
  1202 angles
Finding 1-2 1-3 1-4 neighbors ...
  special bond factors lj:    0        0        0       
  special bond factors coul:  0        0        0       
     4 = max # of 1-2 neighbors
     4 = max # of 1-3 neighbors
     8 = max # of 1-4 neighbors
    12 = max # of special neighbors
  special bonds CPU = 0.001 seconds
  read_data CPU = 0.117 seconds

######################

### READ "REstart" data file ###

######################



###
# Define groups (atom type 1 is group 'all')
###
group all type 1
1201 atoms in group all


###
# Dump configs - "simple dumpings"
###

###
# Dump configs + box coords
###

dump   1   all   custom   1000  plusshaped/trjs2/$f.lammpstrj  id  x y z  ix iy iz
dump   1   all   custom   1000  plusshaped/trjs2/bb601nuc1bl300bn4d30tot1200.lammpstrj  id  x y z  ix iy iz
dump_modify   1   format line "%d %.5f %.5f %.5f %d %d %d"

########################################################################


###################################################################
# Stiffness term
#
# E = K * (1+cos(theta)), K>0
#
angle_style   cosine
#change this coefficient to change stiffness (e.g. 1,5,10)
angle_coeff   1 1.0
###################################################################

###################################################################
# Pair interaction between non-bonded atoms
#
#  Lennard-Jones 12-6 potential with cutoff:
#  potential E=4epsilon[ (sigma/r)^12 - (sigma/r)^6]  for r<r_cut
#
#  1.12246 = 2^(1/6) is the minimum of the potential


pair_style      lj/cut 1.12246152962189
#pair_style      lj/cut 3

#
#  pair_modify shift yes adds a constant to the potential such

#  that E(r_cut)=0. Forces remains unchanged.
#

pair_modify     shift yes

#
#  pair_coeff for lj/cut, specify 4:
#    * atom type interacting with
#    * atom type
#    * epsilon (energy units)
#    * sigma (distance units)
#

pair_coeff      1 1 1.0 1.0
###################################################################

###################################################################
# Pair interaction between non-bonded atoms
#
#  soft potential, for PUSHING apart overlapping atoms
#  potential E=A*(1 + cos(pi*r/r_c))
#
#  1.12246 = 2^(1/6) is the cut-off r_c

#pair_style     soft 1.12246152962189

#
#  pair_coeff for soft, specify 3:
#    * atom type interacting with
#    * atom type
#    * A
#
#

#pair_coeff      1 1 100.0
###################################################################

###################################################################
# Pair interaction between bonded atoms
#
# Fene potential + Lennard Jones 12-6:

#
#  E= - 0.5 K R0^2 ln[ 1- (r/R0)^2]
#     + 4epsilon[ (sigma/r)^12 - (sigma/r)^6] + epsilon
#

bond_style   fene


#
# For style fene, specify:
#   * bond type
#   * K (energy/distance^2)
#   * R0 (distance)
#   * epsilon (energy)  (LJ component)
#   * sigma (distance)  (LJ component)
#


special_bonds fene #<=== I M P O R T A N T (new command)
Finding 1-2 1-3 1-4 neighbors ...
  special bond factors lj:    0        1        1       
  special bond factors coul:  0        1        1       
     4 = max # of 1-2 neighbors
    12 = max # of special neighbors
  special bonds CPU = 0.000 seconds

bond_coeff   1   30   2   1.0   1.0


###################################################

###################################################################
# Pair interaction between bonded atoms
#
# Harmonic potential:
#
#  E= K * (R-R0)^2
#

#bond_style   harmonic

#
# For style harmonic, specify:
#   * bond type
#   * K (energy/distance^2)
#   * R0 (distance)
#

#bond_coeff   1   60.0   1.0
#bond_coeff   2   harmonic 0.1   1.0

###################################################
compute 1 all gyration
variable rog equal c_1
#compute 2 all coord/atom cutoff 1.1

#dump 2 all custom 10000 contact_number.dump id c_2


###
# Set up fixes
###
thermo_style   custom   step  temp enthalpy c_1
fix 1 all nve   ###NVE ensemble

fix 2 all   langevin   1.0 1.0 1.0  778655   ###Langevin integrator Tstart Tstop 1/friction rndseed


##### Sample thermodynamic info  (temperature, energy, pressure, etc.) #####
thermo 1000









############################################################################

###
# set timestep of integrator

timestep 0.01

###
# run integration for a number of steps
###
#run 0
#variable r equal c_1
#if "$r < 63.1" then "quit 1"

# lj potential minimum, cause molecule to explore
run 100000
Generated 0 of 0 mixed pair_coeff terms from geometric mixing rule
Last active /omp style is angle_style cosine/omp
Neighbor list info ...
  update: every = 1 steps, delay = 1 steps, check = yes
  max neighbors/atom: 2000, page size: 100000
  master list distance cutoff = 5.1224615
  ghost atom cutoff = 5.1224615
  binsize = 2.5612308, bins = 781 781 781
  1 neighbor lists, perpetual/occasional/extra = 1 0 0
  (1) pair lj/cut/omp, perpetual
      attributes: half, newton on, omp
      pair build: half/bin/newton/omp
      stencil: half/bin/3d
      bin: standard
WARNING: Communication cutoff 5.12246152962189 is shorter than a bond length based estimate of 5.455. This may lead to errors. (src/comm.cpp:723)
Per MPI rank memory allocation (min/avg/max) = 1862 | 1862 | 1862 Mbytes
   Step          Temp         Enthalpy         c_1      
         0   0              13.192671      157.58589    
      1000   1.0076864      17.592055      157.04775    
      2000   0.99148512     17.770944      156.55774    
      3000   1.0423706      17.73253       156.04868    
      4000   1.029883       18.173015      155.534      
      5000   0.99909245     18.074331      154.92581    
      6000   0.99150099     18.2056        154.448      
      7000   1.0268854      18.493591      154.03424    
      8000   0.97815179     18.158123      153.34707    
      9000   1.0331692      18.320023      152.89624    
     10000   0.96709143     17.874597      152.55497    
     11000   1.0111378      18.917454      152.16231    
     12000   1.0038068      18.655646      151.79824    
     13000   0.99130717     18.249991      151.33223    
     14000   0.97277365     18.11314       151.05913    
     15000   0.99320447     19.005581      151.00133    
     16000   1.0358733      18.737468      150.31175    
     17000   1.0041696      18.712764      149.89776    
     18000   1.0196196      18.64757       149.78332    
     19000   0.98611786     18.807291      149.4709     
     20000   1.001728       18.875115      148.98285    
     21000   1.0032706      19.156472      148.65503    
     22000   1.0022977      18.94913       148.40547    
     23000   0.96811227     18.954003      147.92367    
     24000   0.99699113     18.761334      147.43754    
     25000   1.0505276      19.151285      147.11775    
     26000   0.98429633     18.721629      146.94671    
     27000   0.96247447     18.899261      146.78799    
     28000   1.0220656      18.66731       146.41622    
     29000   0.97774146     18.641606      146.34658    
     30000   0.97757593     19.373015      146.06579    
     31000   1.005645       19.243259      145.85627    
     32000   1.0118783      18.947036      145.5517     
     33000   1.0261525      19.249176      145.27118    
     34000   0.98777499     19.109226      144.68903    
     35000   1.0218528      19.216071      144.59987    
     36000   0.98960208     19.054653      144.50792    
     37000   0.97150781     18.573418      144.31245    
     38000   0.95191263     18.851494      144.15968    
     39000   0.98862823     19.20225       143.96327    
     40000   0.98034377     19.562691      143.65334    
     41000   0.97297814     18.969478      143.26984    
     42000   0.98756477     19.345972      143.16482    
     43000   0.98108401     19.110223      143.03769    
     44000   1.0422166      19.583433      142.89857    
     45000   0.98331868     19.271798      142.64321    
     46000   0.98137268     19.333299      142.39211    
     47000   1.0272781      19.51949       142.08502    
     48000   1.0132502      19.021009      141.77634    
     49000   0.98193918     19.07048       141.40104    
     50000   1.0008305      19.664904      141.09263    
     51000   1.0483144      19.766159      140.9552     
     52000   1.0247169      19.415077      140.73504    
     53000   1.0116166      19.280691      140.38442    
     54000   0.99988268     19.253071      140.3227     
     55000   1.0357861      19.663585      140.23607    
     56000   1.0034083      19.324726      140.01165    
     57000   0.9968399      19.22542       139.6373     
     58000   0.98335101     19.303258      139.4613     
     59000   0.97911314     19.406582      139.40239    
     60000   0.99901645     19.62206       139.17786    
     61000   1.0071009      19.663047      139.07212    
     62000   0.99545961     19.970774      139.0034     
     63000   1.0063987      19.58502       138.76346    
     64000   1.0390495      19.855524      138.50715    
     65000   1.0130427      20.297965      138.21782    
     66000   0.96515642     19.644857      138.01401    
     67000   0.9595744      19.426393      137.70713    
     68000   1.0304961      19.458536      137.66379    
     69000   0.98368481     19.189975      137.56279    
     70000   1.0234095      19.321861      137.266      
     71000   0.99435106     19.361247      136.90477    
     72000   0.99940292     19.382529      136.66505    
     73000   1.0049178      19.453105      136.61736    
     74000   1.021911       19.703668      136.41536    
     75000   1.0330715      19.595269      135.93567    
     76000   0.93199733     19.92987       135.77777    
     77000   0.99625387     19.682003      135.66631    
     78000   0.99440477     19.335705      135.52478    
     79000   0.98709292     19.670133      135.25793    
     80000   0.99643536     19.796946      134.96798    
     81000   0.98792029     19.403341      134.83022    
     82000   0.97157839     19.577336      134.8001     
     83000   0.98586808     19.240035      134.96202    
     84000   1.005792       19.775351      134.46032    
     85000   1.0102235      19.932718      134.11433    
     86000   1.0093952      19.721175      133.94718    
     87000   0.97151274     20.109217      133.87355    
     88000   1.0079734      19.271035      133.61695    
     89000   0.97538526     20.1172        133.54695    
     90000   0.99198302     19.643967      133.3139     
     91000   1.0100226      19.748885      133.25043    
     92000   1.0339363      19.960616      133.14473    
     93000   0.9958305      19.982682      133.0527     
     94000   1.016431       19.703013      132.84025    
     95000   1.0205283      19.71024       132.52372    
     96000   1.0158008      19.641556      132.39216    
     97000   1.0414178      19.345311      132.23031    
     98000   1.0237139      19.911271      131.91536    
     99000   0.97081244     20.147075      131.67708    
    100000   1.0122456      19.508185      131.5582     
Loop time of 498.752 on 2 procs for 100000 steps with 1201 atoms

Performance: 173232.352 tau/day, 200.500 timesteps/s
102.2% CPU use with 1 MPI tasks x 2 OpenMP threads

MPI task timing breakdown:
Section |  min time  |  avg time  |  max time  |%varavg| %total
---------------------------------------------------------------
Pair    | 1.2094     | 1.2094     | 1.2094     |   0.0 |  0.24
Bond    | 2.5347     | 2.5347     | 2.5347     |   0.0 |  0.51
Neigh   | 488.96     | 488.96     | 488.96     |   0.0 | 98.04
Comm    | 0.042265   | 0.042265   | 0.042265   |   0.0 |  0.01
Output  | 0.32097    | 0.32097    | 0.32097    |   0.0 |  0.06
Modify  | 5.2373     | 5.2373     | 5.2373     |   0.0 |  1.05
Other   |            | 0.444      |            |       |  0.09

Nlocal:           1201 ave        1201 max        1201 min
Histogram: 1 0 0 0 0 0 0 0 0 0
Nghost:              0 ave           0 max           0 min
Histogram: 1 0 0 0 0 0 0 0 0 0
Neighs:           6472 ave        6472 max        6472 min
Histogram: 1 0 0 0 0 0 0 0 0 0

Total # of neighbors = 6472
Ave neighs/atom = 5.3888426
Ave special neighs/atom = 1.9983347
Neighbor list builds = 1098
Dangerous builds = 0

# Replace lj potential, now collapse
pair_style      lj/cut 3

# Cutoff simul when gyration under 5
# Variable created with equal requires v_ + 'name'
fix 3 all halt 1000 v_rog < 7

run 5000000
Generated 0 of 0 mixed pair_coeff terms from geometric mixing rule
Last active /omp style is angle_style cosine/omp
Per MPI rank memory allocation (min/avg/max) = 1862 | 1862 | 1862 Mbytes
   Step          Temp         Enthalpy         c_1      
    100000   1.0122456      18.964936      131.5582     
    101000   0.98715672     19.369471      131.58629    
    102000   0.96045311     19.350457      131.18125    
    103000   1.0188431      19.983065      131.01545    
    104000   1.0401124      19.194155      130.83258    
    105000   0.99493446     19.10217       130.54443    
    106000   1.002775       19.485093      130.27154    
    107000   1.0226208      19.338486      130.07288    
    108000   0.98084253     19.229856      129.877      
    109000   0.98509828     19.606154      130.01183    
    110000   0.97642358     19.427206      129.809      
    111000   1.0018646      19.636911      129.59303    
    112000   0.99563464     18.884645      129.4595     
    113000   0.99664559     19.534518      129.18171    
    114000   1.0012239      18.891844      128.91       
    115000   0.97129815     19.541164      128.54167    
    116000   0.97253914     19.472151      128.64103    
    117000   1.0051962      19.728645      128.27822    
    118000   1.0002922      19.432658      128.04031    
    119000   1.0018294      19.201079      127.8824     
    120000   1.0065356      19.492292      127.64592    
    121000   0.97948073     19.528513      127.57333    
    122000   1.0341269      18.604775      127.52778    
    123000   1.0473646      19.555744      127.49231    
    124000   1.0258901      19.187395      127.38011    
    125000   1.023743       19.336889      127.32108    
    126000   0.99688855     19.353802      127.11889    
    127000   0.99448118     19.141378      126.84425    
    128000   0.97724419     18.969813      126.45472    
    129000   0.9845539      19.231657      126.37826    
    130000   0.97669244     19.03622       126.17017    
    131000   1.0028788      19.454587      126.10368    
    132000   0.98622711     19.331276      125.9041     
    133000   0.96327179     18.905558      125.70675    
    134000   0.97899184     19.20482       125.64606    
    135000   1.0068879      19.092853      125.48741    
    136000   0.98929199     18.960377      125.23307    
    137000   0.99447435     18.955476      124.88083    
    138000   1.008548       19.263551      124.76651    
    139000   0.99688379     18.840326      124.74496    
    140000   0.97629134     18.957529      124.568      
    141000   0.9954245      19.316365      124.31726    
    142000   0.99577474     19.419556      124.2417     
    143000   1.0112978      18.858095      123.98053    
    144000   0.98898409     19.032043      123.73719    
    145000   1.0168638      19.301342      123.49293    
    146000   1.0048313      19.534376      123.44271    
    147000   0.97618682     19.285916      123.19485    
    148000   0.97661533     19.498044      123.31197    
    149000   0.99770264     19.382855      123.08457    
    150000   1.0177664      19.482535      122.99755    
    151000   0.9830069      19.122155      122.96908    
    152000   1.0470381      18.933773      122.83767    
    153000   1.0119549      19.185152      122.69078    
    154000   1.0554532      18.937442      122.64717    
    155000   1.0126009      19.416609      122.61184    
    156000   0.96582571     19.019742      122.40315    
    157000   1.0197407      18.940497      121.97804    
    158000   1.0115753      19.274306      122.04412    
    159000   0.98715428     19.292379      121.66405    
    160000   0.96909262     19.495735      121.5727     
    161000   1.0065527      19.558288      121.36825    
    162000   1.0179172      19.10147       121.27496    
    163000   1.0293843      19.330311      121.24853    
    164000   0.99588058     18.814103      121.13583    
    165000   0.98055918     18.80195       120.94637    
    166000   0.95335342     18.790361      120.82451    
    167000   0.98864456     18.353024      120.88042    
    168000   1.0389686      19.268796      120.83213    
    169000   1.0174405      19.375366      120.62266    
    170000   1.0025313      18.735447      120.38987    
    171000   1.0161376      19.09684       119.94274    
    172000   0.97612101     19.915341      119.83324    
    173000   1.0316116      19.227195      119.69543    
    174000   0.99584288     18.766055      119.5592     
    175000   1.0195583      19.147268      119.54132    
    176000   1.0299822      18.969882      119.29706    
    177000   1.0165699      18.899309      118.96684    
    178000   0.98805266     18.969541      118.8504     
    179000   0.99840565     19.19465       118.4402     
    180000   1.022428       19.679869      118.35317    
    181000   0.99605413     18.929826      118.26295    
    182000   1.0008461      18.910519      118.12576    
    183000   0.99537063     19.028212      118.07962    
    184000   0.99798873     19.419355      118.07468    
    185000   0.99638145     19.045942      117.73065    
    186000   1.0240547      19.806853      117.5724     
    187000   0.98127663     19.065406      117.37165    
    188000   0.96441057     19.123444      117.35529    
    189000   0.97764777     18.886961      117.35802    
    190000   1.0431769      18.802418      117.11321    
    191000   0.99878206     19.092281      116.86182    
    192000   0.99227754     19.180397      116.55512    
    193000   1.0175331      19.029487      116.53354    
    194000   0.99891906     19.196258      116.14278    
    195000   1.0058818      18.52584       116.17321    
    196000   0.96663822     18.757867      115.98245    
    197000   0.95766201     18.753136      115.83724    
    198000   1.0485579      18.863971      115.7214     
    199000   1.0114362      18.77518       115.3936     
    200000   0.99714138     19.364862      115.43683    
    201000   1.0187927      18.622661      115.34448    
    202000   1.0186309      19.310133      115.1696     
    203000   1.0147796      18.961913      115.03634    
    204000   1.0232492      18.590843      115.11392    
    205000   0.97967152     18.807887      115.00397    
    206000   0.98822652     19.084091      114.89737    
    207000   1.0199122      19.036271      114.59833    
    208000   0.96169975     18.751667      114.40267    
    209000   0.98644999     18.791772      114.27424    
    210000   0.9720238      19.10184       114.37158    
    211000   1.0275681      19.164085      114.22144    
    212000   1.0155153      19.212082      113.95172    
    213000   1.0161751      18.99436       113.63413    
    214000   1.0048643      18.880152      113.53202    
    215000   0.98189985     18.543549      113.28686    
    216000   0.99123569     19.249305      113.32111    
    217000   1.0226333      19.243595      113.2379     
    218000   1.0008301      19.180599      113.16105    
    219000   1.0306768      18.648681      112.99133    
    220000   0.99419061     18.517243      112.80731    
    221000   0.96909259     19.190032      112.70231    
    222000   1.0173649      19.627217      112.55104    
    223000   0.98913169     18.911022      112.41362    
    224000   0.97483777     18.812756      112.2553     
    225000   1.0088911      18.882893      112.05387    
    226000   1.0050194      18.645991      111.85359    
    227000   1.0057366      18.904589      111.80442    
    228000   1.0043426      18.99812       111.80805    
    229000   0.9518101      19.010717      111.66498    
    230000   1.0023507      18.890836      111.29843    
    231000   1.0317344      18.810272      111.20575    
    232000   1.0674312      19.29803       111.072      
    233000   1.0210715      18.936407      110.79662    
    234000   1.025676       19.18424       110.69919    
    235000   0.98734123     18.91523       110.73706    
    236000   0.97775179     19.224206      110.40676    
    237000   1.0000166      18.963597      110.28469    
    238000   0.99015008     18.835583      110.31333    
    239000   1.0039151      19.084908      110.21471    
    240000   0.98334394     18.598246      110.10703    
    241000   1.0168511      18.587683      109.82378    
    242000   0.98966834     18.049491      109.6971     
    243000   1.0133041      18.803606      109.62301    
    244000   0.96548963     18.596253      109.29733    
    245000   0.98418252     18.575338      109.30646    
    246000   0.98239348     18.338051      109.16344    
    247000   1.0272669      18.999416      109.15884    
    248000   1.0002481      19.048329      109.17404    
    249000   1.0321529      19.038846      108.93043    
    250000   1.0074857      19.158125      108.60255    
    251000   0.99771053     18.736697      108.45314    
    252000   1.0106495      19.028572      108.22253    
    253000   0.96232578     18.569082      108.07681    
    254000   1.0326959      19.088679      108.02287    
    255000   1.0223524      18.956538      107.93788    
    256000   1.0026391      18.505327      107.91932    
    257000   1.0264107      19.088741      107.86307    
    258000   1.0140994      18.903895      107.8345     
    259000   0.95744247     18.826277      107.80889    
    260000   0.96432705     19.042476      107.6518     
    261000   1.029555       18.91523       107.60057    
    262000   0.99045086     19.262889      107.23895    
    263000   0.97705676     18.864506      107.20285    
    264000   1.0170712      18.876072      107.05275    
    265000   0.98626746     18.432727      106.91977    
    266000   1.0262352      18.514039      106.68466    
    267000   1.0216068      19.058296      106.63448    
    268000   0.95803624     18.989588      106.48996    
    269000   1.0458694      19.182988      106.15252    
    270000   1.0602295      18.978404      105.94554    
    271000   0.99552146     18.709082      105.9039     
    272000   1.0047642      18.478853      105.54709    
    273000   1.037732       18.798211      105.49665    
    274000   0.98418954     18.36582       105.33713    
    275000   1.0480425      18.561865      105.0597     
    276000   0.99149014     18.715483      104.86339    
    277000   0.97740745     18.728055      104.65791    
    278000   0.97168931     19.100942      104.65594    
    279000   1.005664       19.124099      104.4883     
    280000   0.99822773     18.769136      104.55591    
    281000   1.0118437      19.079693      104.52897    
    282000   1.0076681      18.74934       104.31938    
    283000   0.98585494     18.85858       104.15587    
    284000   0.99344284     18.770399      103.80388    
    285000   0.98476454     18.412638      103.56097    
    286000   1.0324867      18.712067      103.49697    
    287000   0.99939952     18.705649      103.31548    
    288000   0.99849768     18.861857      103.28275    
    289000   1.0301122      19.427461      103.02059    
    290000   1.0180356      18.51311       102.86315    
    291000   1.0006378      19.331419      102.68681    
    292000   0.98131898     18.588136      102.70599    
    293000   1.014751       19.21987       102.56518    
    294000   1.0486401      18.840168      102.4254     
    295000   1.0259655      18.580783      102.27139    
    296000   1.0030638      19.078812      102.14597    
    297000   0.97880284     18.696426      101.82829    
    298000   0.97531785     18.852332      101.81048    
    299000   0.97135339     18.819051      101.80369    
    300000   1.0014789      18.788748      101.68247    
    301000   1.0061649      19.008336      101.5206     
    302000   1.0278859      18.883181      101.31586    
    303000   1.0194475      18.902929      101.25675    
    304000   0.97582531     18.551504      101.38936    
    305000   0.95811408     18.653264      101.32255    
    306000   1.0075583      19.304412      101.16       
    307000   1.0173868      18.609746      101.07641    
    308000   1.0195134      18.807865      101.11482    
    309000   0.99537702     18.720054      100.89992    
    310000   0.96222247     19.045312      100.63652    
    311000   1.0373041      18.78226       100.57254    
    312000   1.0039793      18.596311      100.65128    
    313000   1.0018954      19.111111      100.48235    
    314000   1.0227319      18.64458       100.37633    
    315000   1.003092       18.864908      100.33147    
    316000   0.98891426     18.602183      100.23013    
    317000   0.96749689     18.578952      100.09931    
    318000   1.0124273      18.598296      99.975434    
    319000   1.0257595      18.709805      99.962922    
    320000   1.018381       18.626754      99.861401    
    321000   1.0199652      18.704203      99.676686    
    322000   1.0155855      18.095771      99.42052     
    323000   1.0114655      19.089529      99.306972    
    324000   1.0162247      18.716579      99.154363    
    325000   0.97286183     18.847589      99.075254    
    326000   1.019029       18.630483      98.792224    
    327000   0.9877723      18.373679      98.666974    
    328000   1.0463032      18.932942      98.443397    
    329000   0.97079693     18.571719      98.324072    
    330000   0.99121955     18.570201      98.264117    
    331000   1.0080624      18.682551      98.086603    
    332000   0.99652054     18.39504       97.77035     
    333000   1.0289122      18.82581       97.568015    
    334000   1.0169241      18.57833       97.465966    
    335000   1.0119671      18.627492      97.229793    
    336000   1.0151011      18.735138      97.090191    
    337000   1.0263144      18.657232      96.959821    
    338000   1.0041992      19.045265      96.551654    
    339000   0.9752241      18.516106      96.149875    
    340000   0.99683011     18.517647      95.880976    
    341000   1.0016419      18.603022      95.770941    
    342000   1.0140989      18.820766      95.753574    
    343000   1.0170582      18.754661      95.575361    
    344000   0.98695303     19.042489      95.281977    
    345000   0.96113812     18.252734      95.096623    
    346000   1.0263845      18.363029      94.98194     
    347000   1.0228037      18.732732      95.076057    
    348000   1.056537       19.298171      95.16595     
    349000   0.98063787     18.723051      94.898372    
    350000   0.99161666     18.232169      94.81818     
    351000   0.9989376      19.248283      94.70706     
    352000   0.98408817     18.732031      94.613492    
    353000   1.0078082      18.79949       94.45082     
    354000   0.98547111     18.383946      94.256253    
    355000   1.0095543      18.480476      94.288314    
    356000   0.9961897      18.600502      94.35222     
    357000   0.95925264     18.329165      94.203196    
    358000   1.0265302      18.780797      94.177158    
    359000   1.0161039      18.637614      94.337869    
    360000   1.0487824      18.731296      94.113473    
    361000   1.0396724      18.544536      94.081254    
    362000   0.97702448     17.973351      94.055813    
    363000   0.99033881     18.423442      93.870987    
    364000   0.97683719     18.713459      93.946423    
    365000   1.016999       18.580052      93.666119    
    366000   0.97309264     18.024454      93.486613    
    367000   0.95640957     18.686272      93.40698     
    368000   0.98715466     18.263117      93.32636     
    369000   0.9552535      17.945939      93.149757    
    370000   1.0397981      19.086157      93.032472    
    371000   1.0225571      18.323089      92.996701    
    372000   1.0273297      18.804548      92.829799    
    373000   1.0240902      18.852204      92.853514    
    374000   1.0085433      18.307419      92.640334    
    375000   0.98588727     18.219099      92.465604    
    376000   1.0013089      18.53879       92.434197    
    377000   1.0391291      18.117746      92.21161     
    378000   1.0073382      18.910409      92.007382    
    379000   1.0053569      18.689205      91.89494     
    380000   1.0442219      18.647399      91.591751    
    381000   1.0085665      18.140363      91.388174    
    382000   1.0114129      18.731256      91.343921    
    383000   1.0184233      18.192211      91.015529    
    384000   0.98025796     18.432774      90.799912    
    385000   1.0110356      18.570914      90.54104     
    386000   0.99017701     18.658975      90.412179    
    387000   1.0073992      18.724304      90.414059    
    388000   1.0143664      18.669727      90.395182    
    389000   0.96980947     18.309706      90.140296    
    390000   1.0587126      19.039729      89.83135     
    391000   0.97772507     18.324063      89.672981    
    392000   1.0006068      18.593668      89.428046    
    393000   1.0508033      18.526242      89.156026    
    394000   1.0122745      18.012832      88.863545    
    395000   0.9976211      18.281173      88.705433    
    396000   0.99289664     18.785748      88.938166    
    397000   0.96888958     17.94924       88.828704    
    398000   1.0325947      18.568316      88.782504    
    399000   1.063589       18.498877      88.776683    
    400000   0.98286192     18.564705      88.662896    
    401000   0.98609269     18.456238      88.495244    
    402000   0.96966181     18.272633      88.323171    
    403000   1.0094888      18.744586      88.250352    
    404000   0.98556946     18.569354      88.120285    
    405000   0.98911056     18.430979      87.949768    
    406000   1.0325143      18.945948      87.823025    
    407000   0.94232212     18.135234      87.812311    
    408000   0.98082964     18.505478      87.644341    
    409000   1.017974       18.256622      87.683578    
    410000   1.0101447      18.519121      87.471011    
    411000   0.91881845     17.76024       87.341522    
    412000   1.0023585      18.392611      87.14604     
    413000   0.98125075     18.682423      87.156185    
    414000   0.96919899     18.334243      86.832462    
    415000   1.0093405      18.742105      86.926467    
    416000   1.0309338      18.418161      86.890356    
    417000   1.0018902      18.661453      86.625074    
    418000   1.0018012      18.435304      86.594662    
    419000   0.99230223     18.599608      86.558925    
    420000   1.0337704      19.00815       86.41623     
    421000   1.004095       18.580755      86.306004    
    422000   0.98319479     18.657701      86.060673    
    423000   0.96570307     18.168949      86.160852    
    424000   1.0079625      18.743377      86.187951    
    425000   1.0300686      18.299129      85.800151    
    426000   1.0260788      19.009014      85.430113    
    427000   0.94939707     18.52217       85.102074    
    428000   0.95620265     18.137806      84.94215     
    429000   1.0088278      18.820149      84.873807    
    430000   1.0137187      18.517686      84.762718    
    431000   1.0007369      18.798676      84.670732    
    432000   0.97111978     18.567182      84.508355    
    433000   0.98797125     18.651934      84.384185    
    434000   1.0421837      18.510226      84.138973    
    435000   1.0176129      18.391056      84.144377    
    436000   1.0065577      17.994319      83.947982    
    437000   1.0249271      18.897181      83.787009    
    438000   1.0016241      18.655151      83.838699    
    439000   1.0030442      18.661724      83.73872     
    440000   0.99756312     18.592777      83.470933    
    441000   0.98050503     18.381015      83.308926    
    442000   1.007071       18.30096       83.060142    
    443000   0.97934172     18.385991      83.130021    
    444000   0.96748417     18.443131      82.966365    
    445000   0.9752324      18.257567      82.808337    
    446000   0.99651261     18.531587      82.54604     
    447000   0.99186512     18.563526      82.505178    
    448000   1.0008304      18.230521      82.235063    
    449000   1.016056       18.812907      81.744639    
    450000   0.97383505     18.244438      81.523737    
    451000   1.0074368      18.160583      81.628319    
    452000   0.98152189     18.340923      81.41147     
    453000   0.97691098     17.951992      81.007202    
    454000   0.93958096     18.454787      80.94855     
    455000   1.001978       18.822467      80.642233    
    456000   0.99860816     18.646299      80.454772    
    457000   0.96367058     18.185588      80.352932    
    458000   1.0051147      18.365527      80.37028     
    459000   1.0409184      18.441738      80.458676    
    460000   0.99597961     18.706873      80.369635    
    461000   0.9944408      18.237265      80.532388    
    462000   1.0174241      18.430289      80.426097    
    463000   0.98135529     18.719449      80.272089    
    464000   0.99847514     18.65509       80.147038    
    465000   0.99863124     18.388276      79.88685     
    466000   0.98385401     19.025119      79.9098      
    467000   1.0432288      18.224801      79.89455     
    468000   0.99619753     18.492839      79.677173    
    469000   0.99920425     17.981269      79.6638      
    470000   0.99989463     18.118992      79.489761    
    471000   0.98981311     18.664044      79.323602    
    472000   1.0411904      18.356226      79.206807    
    473000   0.9616753      18.353308      79.222626    
    474000   0.94774073     18.71494       78.974346    
    475000   1.0021033      18.621093      78.875243    
    476000   0.97723347     17.769308      78.777959    
    477000   1.0199258      18.147768      78.509688    
    478000   0.99099228     18.55051       78.361871    
    479000   0.98589695     18.727833      78.066173    
    480000   1.0154451      18.113446      77.82064     
    481000   1.0263053      18.474173      77.802095    
    482000   1.0169375      18.78634       77.833144    
    483000   1.0047292      18.237215      77.622257    
    484000   1.0134681      18.420648      77.727632    
    485000   1.0000378      18.206972      77.559735    
    486000   1.0028719      18.414494      77.621708    
    487000   0.96184737     18.271667      77.546915    
    488000   1.0107074      18.054016      77.463816    
    489000   1.0218894      19.059063      77.450813    
    490000   0.99475517     18.742171      77.158582    
    491000   1.0168496      18.339542      77.23582     
    492000   1.0124452      18.223537      77.184649    
    493000   1.0444854      18.884878      77.022995    
    494000   1.027923       18.739926      76.841695    
    495000   0.99711562     18.347077      76.520062    
    496000   0.99256932     18.349222      76.465383    
    497000   0.96333634     18.031119      76.282642    
    498000   1.0154893      17.864184      76.170734    
    499000   0.9563904      18.199985      76.15299     
    500000   0.98282529     18.42882       76.210145    
    501000   1.0563093      18.129903      75.934151    
    502000   0.99713619     18.616513      75.638216    
    503000   1.0116844      18.923336      75.705031    
    504000   0.99774723     18.362563      75.588317    
    505000   0.96021088     18.086187      75.383962    
    506000   1.0131483      17.958926      75.1347      
    507000   1.0081851      18.197295      75.312923    
    508000   1.0202393      18.426851      75.110389    
    509000   1.00316        18.320359      75.071996    
    510000   0.98422125     17.607602      74.74601     
    511000   0.98512126     18.140331      74.554204    
    512000   0.9884277      18.261973      74.384319    
    513000   1.0342858      18.506112      74.306612    
    514000   0.99325776     18.602318      74.234405    
    515000   1.0132177      18.178255      74.115026    
    516000   1.0033171      18.30358       73.922032    
    517000   1.0028725      18.291368      73.810641    
    518000   0.99974932     18.046316      73.684236    
    519000   0.99653812     18.345304      73.54873     
    520000   0.98221696     18.283342      73.437276    
    521000   1.0084146      18.114006      73.316396    
    522000   1.0212077      18.441594      73.44195     
    523000   0.98068652     18.261552      73.479297    
    524000   0.98232059     18.10963       73.14304     
    525000   0.96521784     18.276283      72.828036    
    526000   0.99238034     18.266849      72.656836    
    527000   0.99188636     18.414352      72.39791     
    528000   1.0057667      18.384961      72.101854    
    529000   0.971943       18.398368      72.028777    
    530000   0.99470146     18.231025      71.824043    
    531000   0.96896059     18.137895      71.679428    
    532000   1.0121527      18.586077      71.598574    
    533000   1.0007673      17.941258      71.407744    
    534000   0.98621764     18.032898      71.406677    
    535000   1.0075134      18.07644       71.355386    
    536000   0.96072845     18.252751      71.272568    
    537000   0.99626437     17.963803      71.289543    
    538000   1.0294251      18.340599      71.118999    
    539000   1.0032576      18.693931      71.157155    
    540000   1.0385622      18.236032      71.1659      
    541000   1.0314034      18.057165      71.005438    
    542000   0.98067667     18.165344      70.938545    
    543000   0.98772673     18.109626      70.737137    
    544000   1.017572       17.823124      70.787768    
    545000   1.0162959      18.359532      70.711618    
    546000   1.0100485      18.126364      70.768146    
    547000   0.98578615     17.950105      70.499177    
    548000   0.97977691     17.796988      70.344325    
    549000   0.99407719     17.762584      70.15208     
    550000   1.0061793      18.819843      70.236496    
    551000   0.99349563     18.34476       70.070955    
    552000   1.0286764      18.155764      69.844795    
    553000   1.0449761      18.228192      69.676789    
    554000   0.98349803     18.304429      69.537104    
    555000   1.0334211      18.830065      69.670573    
    556000   0.99073878     18.58839       69.844679    
    557000   1.0180294      17.815827      69.701407    
    558000   1.0287033      17.774644      69.715625    
    559000   1.0489757      18.342629      69.690406    
    560000   1.0225621      18.103791      69.44769     
    561000   0.98991088     18.206551      69.522192    
    562000   1.0160715      18.066799      69.459572    
    563000   0.99382161     18.623132      69.274985    
    564000   0.98880715     17.978482      69.090145    
    565000   0.97714924     17.950417      69.041744    
    566000   0.99515383     17.955806      68.825818    
    567000   1.0074258      18.130872      68.668736    
    568000   0.98763822     18.486238      68.546487    
    569000   1.0087416      18.320188      68.330911    
    570000   0.99498308     18.441488      68.487473    
    571000   0.98178337     18.141002      68.461278    
    572000   1.0058765      17.722774      68.213359    
    573000   1.0482544      18.496497      68.063157    
    574000   0.99036648     17.853435      67.835       
    575000   1.0132508      17.955357      67.608429    
    576000   1.0111365      18.269146      67.588188    
    577000   1.000369       18.312872      67.410285    
    578000   1.0305198      17.653355      67.239806    
    579000   1.0016478      17.843086      67.162838    
    580000   0.9799122      17.617664      67.164992    
    581000   0.97221376     17.862364      67.114737    
    582000   0.96328819     17.678562      66.986874    
    583000   0.95776047     18.291171      66.809511    
    584000   0.97662421     17.907159      66.916479    
    585000   0.99528736     18.169499      66.932391    
    586000   0.98406068     18.10582       66.638561    
    587000   0.99433128     17.816705      66.483373    
    588000   1.0040955      17.930111      66.255042    
    589000   1.0122027      18.0233        66.09073     
    590000   1.0052366      18.159006      66.218712    
    591000   0.96496359     17.783546      66.208784    
    592000   1.0010853      18.34963       66.150473    
    593000   1.0183659      18.079202      65.950127    
    594000   1.0058735      18.03184       65.878259    
    595000   1.001078       18.18056       65.92624     
    596000   0.96649327     18.286973      65.611447    
    597000   1.0222767      18.364378      65.265408    
    598000   0.97688409     18.037266      65.195201    
    599000   1.0019792      17.713122      65.038316    
    600000   0.99489273     18.447414      64.812484    
    601000   0.98409488     18.185401      64.888679    
    602000   0.99697792     17.481529      64.766992    
    603000   1.0139594      18.132893      64.539397    
    604000   1.0083333      17.901728      64.458406    
    605000   0.99382823     17.604508      64.244049    
    606000   0.99305137     17.864794      63.994392    
    607000   1.0474672      17.770211      63.987515    
    608000   0.98790213     18.158451      63.875124    
    609000   0.99123141     17.890166      63.588336    
    610000   1.009637       18.665324      63.570017    
    611000   0.98167982     17.714277      63.497715    
    612000   1.0082326      18.417061      63.417299    
    613000   1.0082723      17.43458       63.215578    
    614000   1.0018285      17.527925      62.969577    
    615000   0.99059172     18.240282      62.887226    
    616000   0.99574236     18.003931      62.594138    
    617000   0.96173488     17.537413      62.592882    
    618000   0.96672831     17.624022      62.609957    
    619000   1.0262657      18.340872      62.271733    
    620000   0.99952641     18.209467      61.976549    
    621000   1.0307671      18.017355      61.882609    
    622000   1.0080352      17.692618      62.000449    
    623000   1.0168077      17.625419      61.785424    
    624000   1.031079       17.805775      61.435711    
    625000   0.94892119     18.177112      61.449412    
    626000   0.98840155     18.001721      61.587878    
    627000   0.99751625     18.655944      61.452981    
    628000   1.0078037      18.261256      61.442622    
    629000   1.0116305      17.742379      61.449789    
    630000   0.99724223     17.952164      61.413726    
    631000   0.96707242     18.02294       61.41958     
    632000   0.99446441     18.717439      61.181308    
    633000   0.98774669     18.061071      60.969663    
    634000   0.99852135     18.297784      60.798821    
    635000   0.96053435     18.058213      60.65726     
    636000   0.9866593      17.697176      60.501315    
    637000   1.0041957      17.913633      60.429688    
    638000   1.003812       18.032008      60.110724    
    639000   1.0123415      18.287142      59.826359    
    640000   1.0247914      17.803213      59.502319    
    641000   1.0192258      17.856812      59.424487    
    642000   1.0298042      17.989097      59.145165    
    643000   1.0136358      18.034229      59.039639    
    644000   1.0011436      17.92848       58.852532    
    645000   1.0122319      17.420424      58.820777    
    646000   1.0120232      17.778023      58.64694     
    647000   1.0214228      18.380636      58.567263    
    648000   0.99792867     18.245572      58.374586    
    649000   1.0206696      17.916081      58.216999    
    650000   1.0030641      17.854206      58.156932    
    651000   1.0164634      18.134114      58.060616    
    652000   1.0052679      18.027357      58.046225    
    653000   1.0050795      17.761576      57.697056    
    654000   1.0119693      17.630604      57.540346    
    655000   0.97259016     18.419852      57.62231     
    656000   0.97926897     18.082841      57.473831    
    657000   1.0046324      17.552601      57.130662    
    658000   0.9710947      17.978748      57.048302    
    659000   0.99390058     17.734773      56.871983    
    660000   1.0146704      17.545106      56.818762    
    661000   0.98556927     17.788353      56.955953    
    662000   1.0046287      17.823932      56.704078    
    663000   1.0277639      17.395548      56.80169     
    664000   1.0279255      18.079824      56.614363    
    665000   0.99492346     17.873093      56.394974    
    666000   0.98724693     17.186149      56.214883    
    667000   1.0146494      17.860391      56.087494    
    668000   1.0326261      18.129005      56.007664    
    669000   0.95929846     18.247771      55.733185    
    670000   0.98681983     17.938749      55.653298    
    671000   1.0129245      17.422644      55.538297    
    672000   1.0259357      18.30585       55.51287     
    673000   1.0004687      18.470973      55.314318    
    674000   0.97575983     18.373218      55.279945    
    675000   1.0086288      17.904211      55.301986    
    676000   1.0008111      17.695653      55.117743    
    677000   0.96833993     17.736739      54.925453    
    678000   1.0002313      17.743819      54.819917    
    679000   1.0225047      18.717288      54.819989    
    680000   0.98470437     17.93516       54.719722    
    681000   1.034178       17.614619      54.53034     
    682000   1.024349       18.024101      54.475975    
    683000   0.98824388     17.493414      54.287598    
    684000   0.99237826     17.717952      53.790864    
    685000   1.0447789      18.455962      53.665859    
    686000   1.0281695      18.413016      53.312329    
    687000   1.0335197      17.667867      53.309618    
    688000   1.057683       18.997825      53.359311    
    689000   0.98756665     17.64827       53.267069    
    690000   1.0162126      18.292899      53.232118    
    691000   0.97379517     17.55772       53.125406    
    692000   0.9643076      17.724156      53.221957    
    693000   1.0078743      17.956425      53.182711    
    694000   0.98148954     17.98305       52.979387    
    695000   1.0209873      18.610566      53.038948    
    696000   0.99146209     17.83929       52.924455    
    697000   0.99387869     17.846276      52.701879    
    698000   0.98316668     17.755807      52.48406     
    699000   0.98218798     17.81737       52.448209    
    700000   0.96848146     17.590556      52.582645    
    701000   1.0544725      17.923806      52.590842    
    702000   1.0465871      17.980839      52.439023    
    703000   0.98227413     17.667435      52.340138    
    704000   1.0321322      17.849094      52.270198    
    705000   0.96985159     17.724514      52.197972    
    706000   0.9984805      17.255735      52.008145    
    707000   1.0442224      18.453488      51.977198    
    708000   0.94798757     17.893935      51.889809    
    709000   0.99357402     17.697579      51.748012    
    710000   1.0442922      18.055178      51.792137    
    711000   0.96295047     17.744399      51.941986    
    712000   0.97695216     17.658077      51.787145    
    713000   0.98271867     18.074692      51.560854    
    714000   1.0335666      17.807156      51.252849    
    715000   1.022357       17.500041      51.248754    
    716000   0.96662219     17.6487        51.121158    
    717000   0.99767245     18.062453      50.929002    
    718000   0.97414561     17.591863      50.872777    
    719000   1.0238228      17.742184      50.684063    
    720000   0.98225752     18.27371       50.675105    
    721000   1.0181071      17.694398      50.555086    
    722000   1.0324323      17.686118      50.494806    
    723000   1.0170114      18.060111      50.412483    
    724000   0.95557458     17.238521      50.396915    
    725000   0.99462058     17.711969      50.388133    
    726000   0.97549821     17.596207      50.216672    
    727000   0.98929239     17.869693      50.230369    
    728000   0.99311199     17.902402      50.066783    
    729000   0.99490919     17.818985      50.155865    
    730000   1.0137256      17.800522      50.268275    
    731000   1.0073405      17.830504      50.371667    
    732000   0.96598717     17.968803      50.223814    
    733000   1.0002458      18.290626      50.35714     
    734000   0.97203094     17.715824      50.061741    
    735000   0.95520783     17.615813      49.946663    
    736000   0.98213924     17.689042      49.722076    
    737000   0.9897184      17.728667      49.547394    
    738000   0.95253447     17.490663      49.141674    
    739000   0.99846113     18.046569      49.159545    
    740000   1.0067907      17.763193      49.210792    
    741000   1.0020872      17.48644       48.92221     
    742000   1.0119695      17.60657       48.901031    
    743000   0.95488045     17.748354      48.790576    
    744000   0.99291461     17.809167      48.756949    
    745000   1.0180426      17.85985       48.468137    
    746000   0.99717646     17.887249      48.300293    
    747000   0.98078762     17.610822      48.02521     
    748000   1.016106       17.798237      48.020824    
    749000   0.98857462     17.180399      47.820448    
    750000   1.0299428      18.454527      47.732454    
    751000   1.0261424      18.233213      47.780634    
    752000   0.99936305     17.871203      47.854043    
    753000   1.0203264      17.703083      47.841051    
    754000   1.0229289      18.19514       47.70741     
    755000   1.0233784      17.934935      47.586996    
    756000   0.9768766      17.506441      47.326759    
    757000   0.99661292     17.886499      47.403987    
    758000   0.99508322     17.606934      47.425461    
    759000   0.99371027     17.574756      47.270498    
    760000   1.0121523      17.567253      47.319       
    761000   1.0330013      18.077878      47.158383    
    762000   0.98383593     17.549692      47.167733    
    763000   1.018426       18.316979      47.127745    
    764000   1.0105612      17.750139      47.016089    
    765000   1.0209228      17.687096      46.939759    
    766000   0.99213985     18.136258      46.925936    
    767000   1.0047036      17.715506      46.821169    
    768000   0.95751275     18.118897      46.674131    
    769000   1.0459688      18.198549      46.439098    
    770000   0.96298372     17.271411      46.302138    
    771000   1.0188607      17.727392      46.124759    
    772000   1.0074966      17.478612      45.825191    
    773000   1.0120618      17.747597      45.56163     
    774000   1.0165504      17.866491      45.523824    
    775000   1.003504       17.856163      45.382586    
    776000   1.000013       17.647746      45.118437    
    777000   1.0081179      17.523902      45.083708    
    778000   1.008252       17.383506      44.998382    
    779000   1.0079474      17.570164      44.757348    
    780000   0.99829157     18.379144      44.464488    
    781000   1.0011733      17.913617      44.391668    
    782000   0.98796693     17.701506      44.36183     
    783000   0.98485521     18.156767      44.189204    
    784000   1.0602165      17.506669      44.246609    
    785000   1.0072766      17.471208      43.919545    
    786000   0.99148753     17.73228       43.694454    
    787000   1.0183123      17.88968       43.571577    
    788000   0.98355754     18.191337      43.308586    
    789000   0.99179729     17.485267      43.178859    
    790000   1.047507       18.025427      43.272098    
    791000   1.0173356      17.843379      42.993263    
    792000   0.99548819     18.447479      42.706039    
    793000   1.0098545      17.85564       42.477815    
    794000   0.99763683     17.781378      42.373839    
    795000   1.0151129      18.472426      42.250025    
    796000   0.99472706     17.555507      42.115135    
    797000   1.0011347      17.672964      41.950387    
    798000   0.99494209     17.290529      41.987254    
    799000   1.0166305      17.654955      41.946008    
    800000   1.0013236      17.29496       41.620974    
    801000   0.93751065     17.924187      41.610933    
    802000   1.016937       17.368241      41.765759    
    803000   1.0115249      17.823511      41.67676     
    804000   1.0179624      17.846836      41.368454    
    805000   0.95281277     17.244697      41.307895    
    806000   0.99026257     17.533717      41.156864    
    807000   0.99893102     17.829196      41.066483    
    808000   1.0396477      17.910655      41.024995    
    809000   0.99022119     18.032738      40.802227    
    810000   1.0173937      17.309726      40.847011    
    811000   0.99602955     17.56502       40.74572     
    812000   0.99204512     17.734917      40.629182    
    813000   1.0235308      17.818237      40.454242    
    814000   1.0020908      17.88897       40.65466     
    815000   1.005991       17.465622      40.530552    
    816000   1.0413679      17.501085      40.290433    
    817000   1.0310671      17.548002      40.005284    
    818000   0.98541939     17.591093      39.829854    
    819000   1.0057335      18.466856      39.57395     
    820000   0.96321923     17.768329      39.396611    
    821000   0.97979043     17.514849      39.319559    
    822000   0.98314653     17.221905      39.173963    
    823000   0.99465851     17.919721      38.855106    
    824000   0.97451225     17.613966      38.800232    
    825000   1.0384743      17.883459      38.90125     
    826000   0.97692464     17.575834      38.772698    
    827000   0.99430003     17.482383      38.756787    
    828000   1.0110721      17.660991      38.654759    
    829000   0.99131889     17.536255      38.44471     
    830000   1.0249566      17.567971      38.366621    
    831000   0.9863234      17.66264       38.546167    
    832000   0.92177163     18.107602      38.626209    
    833000   0.98626592     17.580264      38.367593    
    834000   1.0017253      17.900756      38.623294    
    835000   1.0045609      17.311715      38.650082    
    836000   1.0168064      17.457508      38.587787    
    837000   0.97670835     17.787364      38.457505    
    838000   1.0261559      17.107351      38.351411    
    839000   1.0217478      17.631242      38.009331    
    840000   0.9862337      17.480153      37.972249    
    841000   0.96523014     17.257998      37.904417    
    842000   1.0326011      17.161039      37.733957    
    843000   0.9675502      17.646879      37.438259    
    844000   0.9898757      17.545476      37.271512    
    845000   1.0062631      18.034568      37.154564    
    846000   0.99959991     17.811118      37.107164    
    847000   1.0230562      17.898551      36.994015    
    848000   0.98947772     17.544648      36.847968    
    849000   0.98475143     17.467569      36.652442    
    850000   1.0175974      17.877945      36.788567    
    851000   1.0005174      17.855405      36.750156    
    852000   0.98115268     16.894541      36.94381     
    853000   1.0423222      17.817528      36.920656    
    854000   1.0341082      18.263533      36.900052    
    855000   0.97015605     17.338062      36.737737    
    856000   1.0150115      17.070861      36.696831    
    857000   0.9924905      17.244097      36.634536    
    858000   0.97591583     17.53782       36.371255    
    859000   0.98322071     17.319093      36.181969    
    860000   1.0242479      18.13857       35.934321    
    861000   0.99167714     17.568589      35.829004    
    862000   1.0427597      17.47703       35.553776    
    863000   0.99334307     16.988051      35.634755    
    864000   1.0059545      17.737372      35.57243     
    865000   1.0369318      17.965112      35.543149    
    866000   1.0063688      17.562585      35.556208    
    867000   1.0529136      17.635879      35.556218    
    868000   0.95512561     17.69888       35.391066    
    869000   0.99574922     17.647154      35.299005    
    870000   0.98406345     17.312179      35.321922    
    871000   0.96869014     17.173221      35.188283    
    872000   0.99077844     17.60914       35.355392    
    873000   0.97547851     17.485421      35.189187    
    874000   0.99779318     17.219246      35.147603    
    875000   1.0016634      17.625853      35.057217    
    876000   1.0073402      18.136641      34.675292    
    877000   1.0024677      17.647628      34.459503    
    878000   0.96432924     16.949157      34.310603    
    879000   0.99240791     17.884073      34.02359     
    880000   1.0103117      17.692801      33.931628    
    881000   0.98338836     17.783365      34.066622    
    882000   0.96064881     17.50777       33.71686     
    883000   0.96396785     17.405325      33.543959    
    884000   0.9755625      17.194686      33.547664    
    885000   0.99412769     17.225086      33.549145    
    886000   0.98156364     17.180491      33.482102    
    887000   1.024989       17.875368      33.412212    
    888000   1.0354233      17.770161      33.310257    
    889000   1.0284695      17.046995      33.005988    
    890000   1.0062657      17.545986      32.646506    
    891000   0.98232257     17.825649      32.339439    
    892000   0.98161669     17.178303      32.040584    
    893000   0.96226282     17.161192      31.976054    
    894000   1.0284286      17.264375      31.974531    
    895000   1.0119472      17.945913      31.889345    
    896000   1.016421       17.675245      31.890059    
    897000   0.99639526     17.158694      32.00444     
    898000   0.98376411     17.619802      31.872087    
    899000   0.99317598     16.733662      31.51639     
    900000   1.0035346      17.509288      31.362865    
    901000   1.0024162      17.675189      31.477561    
    902000   0.98676792     17.423593      31.305544    
    903000   0.9521738      17.637697      31.292755    
    904000   0.99395469     17.252645      31.144957    
    905000   1.0008838      17.370037      31.070599    
    906000   1.0498127      17.119029      31.084211    
    907000   0.9998973      17.898153      31.026091    
    908000   1.0341356      17.644081      31.048584    
    909000   0.9564303      17.356345      31.007536    
    910000   1.0084649      17.585543      30.745211    
    911000   1.0149576      18.046114      30.548926    
    912000   0.98971958     17.581073      30.284879    
    913000   0.98016175     16.987464      30.215335    
    914000   0.96892663     17.252947      30.241698    
    915000   1.0250608      17.466581      30.088756    
    916000   0.98985149     17.67162       29.776576    
    917000   0.99859643     16.897086      29.484015    
    918000   1.0094725      17.480842      29.390869    
    919000   1.0016203      17.24032       29.269232    
    920000   1.0000969      17.874523      29.365225    
    921000   0.99616408     17.905972      29.302325    
    922000   0.97331936     17.98754       29.173467    
    923000   0.97826329     17.345182      29.331352    
    924000   1.0193437      17.343779      29.208138    
    925000   0.97674362     17.0537        29.154373    
    926000   1.0011211      17.178383      28.916819    
    927000   1.0082684      17.047273      28.750366    
    928000   0.98771794     17.564395      28.755103    
    929000   1.00239        17.53683       28.801095    
    930000   1.0394976      17.786437      28.715564    
    931000   1.0355449      17.480141      28.777186    
    932000   0.97745209     17.250508      28.590424    
    933000   1.0029457      17.119404      28.548876    
    934000   0.97547179     17.798674      28.553517    
    935000   1.0029938      17.316923      28.290941    
    936000   0.96596999     17.491853      28.379154    
    937000   1.0164975      17.507814      28.24687     
    938000   1.0162522      17.566571      28.07881     
    939000   1.009923       17.538904      27.846023    
    940000   1.0281606      17.362406      27.624907    
    941000   0.96489632     17.348365      27.647883    
    942000   0.96174792     17.532823      27.604023    
    943000   0.98431328     17.128128      27.607707    
    944000   0.97673846     17.467992      27.675371    
    945000   1.0052542      17.305797      27.597828    
    946000   1.016961       17.93359       27.296253    
    947000   0.99921698     17.54024       27.247201    
    948000   1.0123294      17.631399      26.997148    
    949000   0.95698669     18.075338      27.005143    
    950000   0.99538909     17.812917      26.936       
    951000   1.0178292      17.538357      26.797181    
    952000   0.99110112     17.545667      26.711962    
    953000   0.97639592     17.648202      26.645679    
    954000   0.96441786     17.028529      26.618511    
    955000   1.0132264      17.71531       26.447336    
    956000   0.98496735     17.51705       26.323904    
    957000   0.96592319     17.131647      26.341217    
    958000   1.0211171      16.89576       26.285418    
    959000   0.98912878     17.310462      26.530441    
    960000   1.0502006      17.288672      26.468191    
    961000   0.99247409     17.275712      26.411977    
    962000   1.0065432      16.70413       26.377648    
    963000   1.0009354      17.696061      26.185081    
    964000   0.97534576     17.472803      26.224019    
    965000   0.98217063     17.11112       26.193957    
    966000   1.0117659      17.509108      26.251665    
    967000   1.0183013      18.209306      26.355895    
    968000   0.97562946     17.568525      26.475539    
    969000   1.0586505      17.247397      26.430274    
    970000   0.97443978     17.372096      26.29887     
    971000   0.99025666     17.486419      26.259941    
    972000   1.0035589      17.584927      26.322572    
    973000   1.0284267      17.355068      26.377262    
    974000   0.99788225     17.39481       26.226838    
    975000   0.99294264     17.195391      26.080425    
    976000   0.98390649     17.417218      26.063932    
    977000   0.97403812     16.463679      25.919856    
    978000   1.022351       16.960315      25.836002    
    979000   1.0315511      17.636577      25.746424    
    980000   1.0040226      17.244244      25.646721    
    981000   0.99646766     16.733554      25.649546    
    982000   0.9771221      17.468601      25.156565    
    983000   0.986435       17.151054      25.046983    
    984000   1.0153704      17.071249      24.911932    
    985000   1.0432593      17.322791      24.802043    
    986000   0.99002156     17.647702      24.401812    
    987000   0.99736198     17.452173      24.305217    
    988000   0.99454916     17.691106      23.975031    
    989000   0.98175588     17.949591      23.889725    
    990000   1.0355615      17.123121      23.897209    
    991000   0.99681556     16.914686      23.653248    
    992000   1.013342       16.954144      23.652054    
    993000   1.017431       17.378607      23.604923    
    994000   1.0127167      17.839336      23.401656    
    995000   0.98470369     17.434535      23.188807    
    996000   1.0372377      17.135121      23.186766    
    997000   1.0127815      16.9526        22.941568    
    998000   0.97632987     16.89688       22.628515    
    999000   1.016593       17.542553      22.569977    
   1000000   0.99609441     17.369101      22.606891    
   1001000   1.0079495      17.305914      22.464714    
   1002000   1.01644        17.469117      22.259253    
   1003000   0.96447147     17.096426      22.159801    
   1004000   0.97320926     16.975171      22.024204    
   1005000   1.0091244      17.504561      21.937414    
   1006000   0.98731047     17.359739      21.771743    
   1007000   0.98978895     17.070593      21.750534    
   1008000   0.98894514     17.43473       21.583431    
   1009000   0.93193833     17.258283      21.518186    
   1010000   0.98387495     17.15364       21.358615    
   1011000   0.99119066     17.583203      21.114809    
   1012000   0.98515014     17.075969      21.099414    
   1013000   1.0298535      16.831974      21.018676    
   1014000   0.98095718     17.558116      21.185198    
   1015000   0.97367381     16.814086      21.100857    
   1016000   0.99565793     17.061718      20.962028    
   1017000   1.0193547      17.374942      20.928815    
   1018000   0.97133425     17.031229      20.971826    
   1019000   0.98973401     17.203832      21.072137    
   1020000   1.0105458      17.029893      20.838461    
   1021000   1.0137113      17.52648       20.525948    
   1022000   1.0235783      17.250307      20.44613     
   1023000   0.98296219     16.885239      20.3419      
   1024000   1.0219151      16.962889      20.415305    
   1025000   0.96388192     16.736484      20.387696    
   1026000   0.99296686     17.191149      20.243088    
   1027000   0.94266491     17.122931      20.078733    
   1028000   0.97859397     17.422439      20.18959     
   1029000   1.0153228      17.531461      19.975747    
   1030000   0.96276021     17.518094      19.925253    
   1031000   1.0056742      17.048318      19.818872    
   1032000   1.004809       17.359126      19.771884    
   1033000   1.0001569      17.148031      19.664957    
   1034000   1.0105535      17.415541      19.479654    
   1035000   1.00422        17.302579      19.732007    
   1036000   1.0006496      17.23583       19.724076    
   1037000   1.0051548      17.220678      19.630626    
   1038000   1.0292068      17.156841      19.400801    
   1039000   0.94339967     16.87808       19.286747    
   1040000   1.0249838      16.849258      19.020701    
   1041000   1.0285758      17.597673      18.959857    
   1042000   0.97384217     17.339262      18.728398    
   1043000   1.02497        17.344135      18.636494    
   1044000   0.96988104     16.909102      18.758652    
   1045000   0.9786746      17.110414      18.771396    
   1046000   0.97003749     17.067716      18.812787    
   1047000   0.9964936      17.651249      18.579343    
   1048000   1.017214       17.269098      18.533087    
   1049000   0.96020244     16.724937      18.444439    
   1050000   0.98284055     17.01377       18.138989    
   1051000   0.98788589     16.747168      17.962887    
   1052000   1.013526       16.837601      18.081999    
   1053000   0.96392243     17.101215      17.924838    
   1054000   1.0068591      16.843525      17.670163    
   1055000   0.99549937     17.400717      17.367264    
   1056000   0.97438575     17.144376      17.19562     
   1057000   1.0216458      17.398581      17.25886     
   1058000   1.0039069      17.389352      17.164547    
   1059000   1.0248419      16.688351      17.241692    
   1060000   1.0000723      17.192651      17.21137     
   1061000   0.97849334     17.160558      17.232323    
   1062000   1.0169505      16.931519      17.130094    
   1063000   0.99056447     16.947585      17.294849    
   1064000   1.0387303      16.792409      17.255919    
   1065000   0.98936238     17.19526       17.028152    
   1066000   0.98665939     16.886746      17.047265    
   1067000   0.99206172     17.330088      16.98609     
   1068000   0.97485774     17.29061       17.041836    
   1069000   1.0164995      16.604845      16.836099    
   1070000   0.98301396     17.408165      16.647571    
   1071000   1.003145       17.247688      16.721332    
   1072000   0.99404277     16.960973      16.449984    
   1073000   0.9919554      17.487013      16.299372    
   1074000   0.96718938     16.851102      16.323631    
   1075000   0.97224429     16.82691       16.217592    
   1076000   0.96550678     16.595934      16.238334    
   1077000   0.9989305      17.186698      16.281049    
   1078000   1.0129507      17.177864      16.203209    
   1079000   1.0000774      16.397813      16.213897    
   1080000   0.98342562     16.323328      16.238813    
   1081000   0.99728905     16.893967      16.125794    
   1082000   0.9928932      16.968529      15.956391    
   1083000   0.99163218     17.07741       15.895701    
   1084000   1.0033389      17.036499      15.627311    
   1085000   1.009062       17.058595      15.612576    
   1086000   0.98299074     17.130125      15.728968    
   1087000   1.0032036      16.917321      15.747578    
   1088000   1.0340017      17.0892        15.721       
   1089000   0.99054877     17.465188      15.667426    
   1090000   0.98914288     17.315219      15.591363    
   1091000   0.99431211     17.192686      15.421895    
   1092000   0.99721278     17.06792       15.388046    
   1093000   1.0431117      17.285843      15.315422    
   1094000   0.99284533     16.885702      15.292321    
   1095000   1.0179116      16.976893      15.21043     
   1096000   1.0217936      16.729082      15.248565    
   1097000   1.006224       17.041596      15.212334    
   1098000   0.97866265     17.020722      15.020886    
   1099000   0.98594241     17.441647      14.825345    
   1100000   1.0133384      16.560223      14.953779    
   1101000   0.98936593     17.536108      14.946877    
   1102000   1.033346       16.781505      15.038286    
   1103000   0.99025445     17.115336      14.996847    
   1104000   1.0079999      16.381265      15.119988    
   1105000   1.0276902      17.115715      15.018183    
   1106000   1.0581745      17.425658      14.779871    
   1107000   0.96559064     17.079991      14.73047     
   1108000   0.93830532     17.19343       14.740476    
   1109000   0.96248198     17.42448       14.879817    
   1110000   1.0034814      16.744322      14.687599    
   1111000   1.0078127      16.593704      14.556319    
   1112000   0.99252204     16.718457      14.752934    
   1113000   1.018708       16.824052      14.707812    
   1114000   0.9648063      16.664153      14.822337    
   1115000   0.94710059     16.659512      14.505019    
   1116000   1.0176055      16.775658      14.403655    
   1117000   1.0079909      16.81656       14.429382    
   1118000   0.97689207     16.799112      14.416297    
   1119000   0.97623649     16.914797      14.428084    
   1120000   0.96397068     16.641418      14.317865    
   1121000   1.002381       17.715474      14.023864    
   1122000   1.0277221      17.457001      13.88777     
   1123000   1.0235556      16.922776      13.906884    
   1124000   1.0145161      16.177671      13.779742    
   1125000   0.93230678     17.011709      13.522151    
   1126000   0.98227079     17.015395      13.522783    
   1127000   1.0023205      16.740974      13.477278    
   1128000   0.99804684     16.790624      13.224509    
   1129000   0.97732134     16.612798      13.219355    
   1130000   1.0477065      17.044663      13.203349    
   1131000   0.95538843     16.727056      13.248875    
   1132000   1.0005983      17.539224      13.061665    
   1133000   1.0095456      17.27613       12.720638    
   1134000   1.01954        16.978751      12.698669    
   1135000   0.99026001     17.367318      12.639516    
   1136000   1.0119282      17.482935      12.728222    
   1137000   0.98512161     17.26456       12.693737    
   1138000   0.97713943     17.669533      12.777235    
   1139000   0.96689426     16.659809      12.838534    
   1140000   1.0213899      17.10337       12.825793    
   1141000   1.066445       17.248764      12.563195    
   1142000   1.0485212      17.095942      12.56698     
   1143000   0.97997117     17.195798      12.718759    
   1144000   0.99487436     16.75982       12.748034    
   1145000   0.98197415     17.391514      12.523432    
   1146000   0.98847756     17.220938      12.548905    
   1147000   0.97644777     16.841328      12.510758    
   1148000   0.9695186      16.83126       12.58572     
   1149000   0.99325659     16.597405      12.507146    
   1150000   0.99494469     16.753808      12.446312    
   1151000   1.0118403      17.195151      12.296977    
   1152000   0.98448185     16.90927       12.223398    
   1153000   0.96916259     17.053376      12.34639     
   1154000   0.9816253      17.070873      12.51787     
   1155000   1.0636089      16.557014      12.446874    
   1156000   1.0287492      17.526344      12.387562    
   1157000   1.0091002      16.895497      12.179277    
   1158000   0.99599721     16.881469      12.0419      
   1159000   1.0145144      17.243849      11.935682    
   1160000   1.0231806      17.275179      12.000927    
   1161000   1.0278033      17.337605      11.881818    
   1162000   0.98395079     17.205585      11.766527    
   1163000   1.022632       17.540343      11.627033    
   1164000   1.0033989      16.650684      11.650367    
   1165000   1.019162       17.326028      11.333461    
   1166000   0.99625843     16.85406       11.245282    
   1167000   0.97834654     17.196241      11.010601    
   1168000   0.99883486     16.891563      11.046282    
   1169000   0.94995623     17.427811      11.016691    
   1170000   1.0295614      16.191232      11.008977    
   1171000   1.0277643      16.259319      11.080156    
   1172000   0.99600252     16.566618      11.098057    
   1173000   0.97757049     16.630889      10.892309    
   1174000   0.99833447     16.480249      10.846169    
   1175000   0.99966733     16.905004      10.744619    
   1176000   1.0123667      17.017073      10.591118    
   1177000   1.0372965      16.8984        10.480508    
   1178000   1.0236616      16.646663      10.467736    
   1179000   0.98726381     16.907351      10.467769    
   1180000   1.0015209      17.155166      10.277119    
   1181000   1.0521467      17.429589      10.330944    
   1182000   1.0106075      17.03395       10.421638    
   1183000   0.98995428     16.720667      10.530837    
   1184000   1.014337       16.77147       10.579495    
   1185000   1.0441196      17.247456      10.422055    
   1186000   0.95221039     17.210367      10.298566    
   1187000   1.0092177      16.675248      10.337764    
   1188000   1.0096891      16.807498      10.397657    
   1189000   1.0231246      16.914719      10.296762    
   1190000   1.0202441      17.022628      10.172159    
   1191000   0.94146376     16.694608      10.081654    
   1192000   1.0323486      16.85357       10.005974    
   1193000   1.0381131      17.375928      9.9358308    
   1194000   0.99929693     17.172071      9.7778232    
   1195000   1.0055604      17.685298      9.6387669    
   1196000   0.97265924     16.658124      9.5065938    
   1197000   1.0223989      17.247552      9.521305     
   1198000   0.99188531     16.759397      9.4413221    
   1199000   1.0178849      17.207379      9.4595949    
   1200000   0.99279518     16.836672      9.4482999    
   1201000   0.96343586     17.253433      9.4677957    
   1202000   1.0021976      16.640572      9.481038     
   1203000   0.94848116     16.994111      9.529429     
   1204000   0.9893311      16.577798      9.472761     
   1205000   1.0108043      17.483588      9.5159142    
   1206000   1.0038249      16.965805      9.4331467    
   1207000   1.0094735      16.894419      9.3565545    
   1208000   0.96462954     16.694867      9.3358226    
   1209000   1.0286419      16.656542      9.5211812    
   1210000   1.049556       16.640227      9.6905423    
   1211000   0.98873095     16.883377      9.6233412    
   1212000   0.98606473     17.225177      9.5136245    
   1213000   0.97740013     16.937566      9.6549212    
   1214000   1.0130596      16.816016      9.7031445    
   1215000   0.98660172     16.72394       9.8202794    
   1216000   1.0171283      17.188861      9.7067133    
   1217000   1.0135329      17.100566      9.4629935    
   1218000   0.98170033     16.790103      9.4832081    
   1219000   0.9908483      16.909746      9.4382374    
   1220000   1.0076961      17.107685      9.4992459    
   1221000   0.96971645     16.903874      9.5224909    
   1222000   1.0066371      16.633329      9.2952433    
   1223000   1.02269        17.277711      9.1924596    
   1224000   1.0092525      16.725917      9.0670417    
   1225000   1.0374444      17.050652      8.9419111    
   1226000   1.0008225      16.742049      8.9642403    
   1227000   0.98040163     17.151719      8.8268861    
   1228000   1.0136467      16.929193      8.8428012    
   1229000   1.0174313      16.511981      8.6747558    
   1230000   1.0161097      15.945504      8.6622451    
   1231000   0.98088216     16.981026      8.5856539    
   1232000   1.0123506      16.750368      8.5856118    
   1233000   1.0117795      17.167529      8.4843733    
   1234000   0.98761586     17.231606      8.45359      
   1235000   0.97589687     16.907067      8.313868     
   1236000   0.99049762     16.92413       8.2750792    
   1237000   0.9911921      16.972758      8.2657631    
   1238000   0.98732319     17.008302      8.0991373    
   1239000   1.003042       16.838447      8.0431619    
   1240000   0.98069964     16.704488      7.9404234    
   1241000   1.0062015      16.910384      7.8076292    
   1242000   0.9925561      17.13228       7.8411634    
   1243000   0.98193696     17.279635      7.8770371    
   1244000   0.99777465     16.754367      7.6950967    
   1245000   1.0296448      17.217229      7.5314241    
   1246000   0.9965403      16.768925      7.3075695    
   1247000   1.0058727      16.58868       7.0995055    
   1248000   0.98646949     16.501826      7.0340918    
Fix halt condition for fix-id 3 met on step 1249000 with value 6.8558154751770575 (src/fix_halt.cpp:237)
   1249000   0.96102125     16.6164        6.8558155    
Loop time of 2309.59 on 2 procs for 1149000 steps with 1201 atoms

Performance: 429832.625 tau/day, 497.491 timesteps/s
123.0% CPU use with 1 MPI tasks x 2 OpenMP threads

MPI task timing breakdown:
Section |  min time  |  avg time  |  max time  |%varavg| %total
---------------------------------------------------------------
Pair    | 402.33     | 402.33     | 402.33     |   0.0 | 17.42
Bond    | 33.198     | 33.198     | 33.198     |   0.0 |  1.44
Neigh   | 1796.3     | 1796.3     | 1796.3     |   0.0 | 77.78
Comm    | 0.5382     | 0.5382     | 0.5382     |   0.0 |  0.02
Output  | 3.7751     | 3.7751     | 3.7751     |   0.0 |  0.16
Modify  | 67.191     | 67.191     | 67.191     |   0.0 |  2.91
Other   |            | 6.248      |            |       |  0.27

Nlocal:           1201 ave        1201 max        1201 min
Histogram: 1 0 0 0 0 0 0 0 0 0
Nghost:              0 ave           0 max           0 min
Histogram: 1 0 0 0 0 0 0 0 0 0
Neighs:         291588 ave      291588 max      291588 min
Histogram: 1 0 0 0 0 0 0 0 0 0

Total # of neighbors = 291588
Ave neighs/atom = 242.78768
Ave special neighs/atom = 1.9983347
Neighbor list builds = 10894
Dangerous builds = 0

# This simulation is done
# Move onto the next one
clear
  using 2 OpenMP thread(s) per MPI task
package omp 0
using multi-threaded neighbor list subroutines
next f
jump SELF

Total wall time: 3:39:01
