#atom_style bond #no stiffness
atom_style angle #with stiffness

boundary        p p p
###
# Pair interactions require lists of neighbours to be calculated
###

#neighbor 0.3 bin
neighbor 4 bin

neigh_modify every 1 delay 1 check yes
atom_modify sort 0 0
### Generate RESTART file, SPECIAL format, not a .txt file ###
### Useful if simulation crashes ###

restart 1000000 nuc5branch4/restarts/$f.restart
restart 1000000 nuc5branch4/restarts/bb262nuc5bl43bn4d30tot700.restart
#############################



### READ "start" data file ###

read_data nuc5branch4/$f.dat
read_data nuc5branch4/bb262nuc5bl43bn4d30tot700.dat
Reading data file ...
  orthogonal box = (-1000 -1000 -1000) to (1000 1000 1000)
  1 by 1 by 2 MPI processor grid
  reading atoms ...
  693 atoms
  scanning bonds ...
  3 = max bonds/atom
  scanning angles ...
  6 = max angles/atom
  reading bonds ...
  692 bonds
  reading angles ...
  706 angles
Finding 1-2 1-3 1-4 neighbors ...
  special bond factors lj:    0        0        0       
  special bond factors coul:  0        0        0       
     4 = max # of 1-2 neighbors
     4 = max # of 1-3 neighbors
     8 = max # of 1-4 neighbors
    12 = max # of special neighbors
  special bonds CPU = 0.001 seconds
  read_data CPU = 0.055 seconds

######################

### READ "REstart" data file ###

######################



###
# Define groups (atom type 1 is group 'all')
###
group all type 1
693 atoms in group all


###
# Dump configs - "simple dumpings"
###

###
# Dump configs + box coords
###

dump   1   all   custom   1000  nuc5branch4/trjs/$f.lammpstrj  id  x y z  ix iy iz
dump   1   all   custom   1000  nuc5branch4/trjs/bb262nuc5bl43bn4d30tot700.lammpstrj  id  x y z  ix iy iz
dump_modify   1   format line "%d %.5f %.5f %.5f %d %d %d"

########################################################################


###################################################################
# Stiffness term
#
# E = K * (1+cos(theta)), K>0
#
angle_style   cosine
#change this coefficient to change stiffness (e.g. 1,5,10)
angle_coeff   1 1.0
###################################################################

###################################################################
# Pair interaction between non-bonded atoms
#
#  Lennard-Jones 12-6 potential with cutoff:
#  potential E=4epsilon[ (sigma/r)^12 - (sigma/r)^6]  for r<r_cut
#
#  1.12246 = 2^(1/6) is the minimum of the potential


pair_style      lj/cut 1.12246152962189
#pair_style      lj/cut 3

#
#  pair_modify shift yes adds a constant to the potential such

#  that E(r_cut)=0. Forces remains unchanged.
#

pair_modify     shift yes

#
#  pair_coeff for lj/cut, specify 4:
#    * atom type interacting with
#    * atom type
#    * epsilon (energy units)
#    * sigma (distance units)
#

pair_coeff      1 1 1.0 1.0
###################################################################

###################################################################
# Pair interaction between non-bonded atoms
#
#  soft potential, for PUSHING apart overlapping atoms
#  potential E=A*(1 + cos(pi*r/r_c))
#
#  1.12246 = 2^(1/6) is the cut-off r_c

#pair_style     soft 1.12246152962189

#
#  pair_coeff for soft, specify 3:
#    * atom type interacting with
#    * atom type
#    * A
#
#

#pair_coeff      1 1 100.0
###################################################################

###################################################################
# Pair interaction between bonded atoms
#
# Fene potential + Lennard Jones 12-6:

#
#  E= - 0.5 K R0^2 ln[ 1- (r/R0)^2]
#     + 4epsilon[ (sigma/r)^12 - (sigma/r)^6] + epsilon
#

bond_style   fene


#
# For style fene, specify:
#   * bond type
#   * K (energy/distance^2)
#   * R0 (distance)
#   * epsilon (energy)  (LJ component)
#   * sigma (distance)  (LJ component)
#


special_bonds fene #<=== I M P O R T A N T (new command)
Finding 1-2 1-3 1-4 neighbors ...
  special bond factors lj:    0        1        1       
  special bond factors coul:  0        1        1       
     4 = max # of 1-2 neighbors
    12 = max # of special neighbors
  special bonds CPU = 0.000 seconds

bond_coeff   1   30   2   1.0   1.0


###################################################

###################################################################
# Pair interaction between bonded atoms
#
# Harmonic potential:
#
#  E= K * (R-R0)^2
#

#bond_style   harmonic

#
# For style harmonic, specify:
#   * bond type
#   * K (energy/distance^2)
#   * R0 (distance)
#

#bond_coeff   1   60.0   1.0
#bond_coeff   2   harmonic 0.1   1.0

###################################################
compute 1 all gyration
variable rog equal c_1
#compute 2 all coord/atom cutoff 1.1

#dump 2 all custom 10000 contact_number.dump id c_2


###
# Set up fixes
###
thermo_style   custom   step  temp enthalpy c_1
fix 1 all nve   ###NVE ensemble

fix 2 all   langevin   1.0 1.0 1.0  100103   ###Langevin integrator Tstart Tstop 1/friction rndseed


##### Sample thermodynamic info  (temperature, energy, pressure, etc.) #####
thermo 1000









############################################################################

###
# set timestep of integrator

timestep 0.01

###
# run integration for a number of steps
###
#run 0
#variable r equal c_1
#if "$r < 63.1" then "quit 1"

# lj potential minimum, cause molecule to explore
run 100000
Generated 0 of 0 mixed pair_coeff terms from geometric mixing rule
Last active /omp style is angle_style cosine/omp
Neighbor list info ...
  update: every = 1 steps, delay = 1 steps, check = yes
  max neighbors/atom: 2000, page size: 100000
  master list distance cutoff = 5.1224615
  ghost atom cutoff = 5.1224615
  binsize = 2.5612308, bins = 781 781 781
  1 neighbor lists, perpetual/occasional/extra = 1 0 0
  (1) pair lj/cut/omp, perpetual
      attributes: half, newton on, omp
      pair build: half/bin/newton/omp
      stencil: half/bin/3d
      bin: standard
WARNING: Communication cutoff 5.12246152962189 is shorter than a bond length based estimate of 5.455. This may lead to errors. (src/comm.cpp:723)
Per MPI rank memory allocation (min/avg/max) = 941.4 | 942 | 942.7 Mbytes
   Step          Temp         Enthalpy         c_1      
         0   0              13.254802      51.600201    
      1000   1.0235019      19.19667       50.82814     
      2000   0.99387932     19.449006      49.924196    
      3000   1.0039206      19.355985      49.260532    
      4000   0.98393465     19.548927      48.706987    
      5000   1.008082       19.493411      48.235088    
      6000   1.0072919      20.284238      47.799811    
      7000   0.97100306     19.876563      47.654132    
      8000   1.0360383      19.951906      47.31498     
      9000   0.95658695     20.050655      47.162357    
     10000   0.96239826     19.904348      46.917049    
     11000   1.0209416      20.278445      46.723172    
     12000   0.94946314     20.368932      46.638754    
     13000   0.95134332     20.395308      46.272445    
     14000   1.0505049      19.950934      46.016053    
     15000   0.98732116     20.448331      45.978012    
     16000   0.94366909     20.413138      45.861731    
     17000   1.0249618      20.258964      46.08311     
     18000   0.97084999     20.315871      45.9568      
     19000   1.0240261      20.630676      46.021612    
     20000   1.0299644      20.97471       45.945092    
     21000   1.0149833      19.887494      45.670789    
     22000   1.0147362      20.876579      45.422408    
     23000   0.97671472     20.561108      45.279803    
     24000   0.96728289     20.459018      44.969685    
     25000   1.0401665      20.125261      44.731196    
     26000   1.0321432      20.487276      44.531782    
     27000   0.9935124      20.331152      44.333515    
     28000   1.0431421      20.900747      44.346027    
     29000   1.0094112      20.327042      44.458655    
     30000   0.9812008      20.237782      44.268882    
     31000   1.0166142      20.229972      44.090757    
     32000   0.96354326     20.57031       43.772611    
     33000   0.96260756     20.251169      43.916116    
     34000   0.95156974     20.103413      43.798207    
     35000   1.0293651      20.366662      43.727369    
     36000   1.0011589      20.010098      43.542166    
     37000   1.0651267      20.163395      43.558541    
     38000   1.0466259      20.295401      43.587786    
     39000   1.0209185      19.942667      43.554469    
     40000   1.0117975      20.455394      43.534123    
     41000   0.99825191     20.360529      43.739787    
     42000   0.99912276     20.222992      43.491634    
     43000   1.0092974      20.140151      43.514564    
     44000   1.0536697      20.236196      43.206284    
     45000   1.0252787      20.873184      43.107864    
     46000   1.0073322      20.62127       43.085145    
     47000   0.9785978      20.552408      42.900168    
     48000   1.007643       20.290345      42.677054    
     49000   0.98664584     20.387811      42.605876    
     50000   0.97500191     20.292823      41.98902     
     51000   1.0091374      20.793931      41.852133    
     52000   0.99720634     20.053702      41.793672    
     53000   1.057113       20.452502      41.835715    
     54000   0.9701492      20.403768      41.551401    
     55000   0.97800869     20.104624      41.438165    
     56000   0.98438791     19.932186      41.133585    
     57000   1.0093452      20.955488      41.245354    
     58000   1.0087865      20.759795      41.309013    
     59000   1.0692746      20.696926      41.226723    
     60000   1.0119681      20.440225      41.338181    
     61000   0.97757474     19.975112      41.352285    
     62000   0.99347769     21.082186      41.318618    
     63000   0.99679216     19.654782      41.292705    
     64000   0.98013393     20.223472      41.038745    
     65000   1.0178436      20.96112       41.029756    
     66000   1.0216502      20.145036      41.003524    
     67000   0.98608364     19.804655      40.813256    
     68000   0.9760362      20.785064      41.092889    
     69000   0.97551125     20.358425      41.232162    
     70000   0.98972056     20.481624      41.179043    
     71000   0.9890159      20.151728      41.074246    
     72000   0.92920578     19.89338       41.11884     
     73000   0.95508758     20.591479      41.107211    
     74000   0.9762692      21.113418      41.072997    
     75000   1.0304606      20.61469       41.13387     
     76000   1.0569148      20.52046       41.177385    
     77000   1.0024435      20.367936      41.289151    
     78000   0.97242466     20.676485      41.235296    
     79000   1.0645136      20.990034      41.016542    
     80000   1.0198344      20.138251      40.874241    
     81000   1.0008321      21.353437      41.107215    
     82000   1.0027066      20.078992      41.184934    
     83000   0.95856961     20.539247      41.226642    
     84000   0.98501675     20.703767      40.921515    
     85000   0.96823603     20.850549      40.876353    
     86000   1.0527338      20.889215      40.897381    
     87000   0.94304785     20.575947      40.61712     
     88000   0.9694372      20.682915      40.436308    
     89000   1.0173659      19.746644      40.428065    
     90000   0.98919771     19.966704      40.252263    
     91000   1.0033166      20.632938      40.276358    
     92000   1.0094516      20.676719      40.167756    
     93000   1.010959       20.250184      39.9345      
     94000   0.96282944     20.420606      39.84979     
     95000   1.0210629      20.399002      39.76638     
     96000   1.0409549      20.19786       39.510904    
     97000   0.95640971     20.798227      39.229334    
     98000   1.0378681      20.457929      39.385001    
     99000   1.0081949      21.04215       39.335569    
    100000   0.98044231     19.844497      39.571053    
Loop time of 186.707 on 4 procs for 100000 steps with 693 atoms

Performance: 462758.388 tau/day, 535.600 timesteps/s
104.5% CPU use with 2 MPI tasks x 2 OpenMP threads

MPI task timing breakdown:
Section |  min time  |  avg time  |  max time  |%varavg| %total
---------------------------------------------------------------
Pair    | 0.082216   | 0.56578    | 1.0493     |  64.3 |  0.30
Bond    | 0.15597    | 0.83187    | 1.5078     |  74.1 |  0.45
Neigh   | 180.29     | 180.29     | 180.29     |   0.0 | 96.56
Comm    | 0.036751   | 0.037396   | 0.038042   |   0.3 |  0.02
Output  | 0.19687    | 0.20338    | 0.20989    |   1.4 |  0.11
Modify  | 0.23475    | 1.7707     | 3.3066     | 115.4 |  0.95
Other   |            | 3.005      |            |       |  1.61

Nlocal:          346.5 ave         693 max           0 min
Histogram: 1 0 0 0 0 0 0 0 0 1
Nghost:              0 ave           0 max           0 min
Histogram: 2 0 0 0 0 0 0 0 0 0
Neighs:           3114 ave        6228 max           0 min
Histogram: 1 0 0 0 0 0 0 0 0 1

Total # of neighbors = 6228
Ave neighs/atom = 8.987013
Ave special neighs/atom = 1.997114
Neighbor list builds = 1153
Dangerous builds = 0

# Replace lj potential, now collapse
pair_style      lj/cut 3

# Cutoff simul when gyration under 10
# Variable created with equal requires v_ + 'name'
fix 3 all halt 1000 v_rog < 7

run 3000000
Generated 0 of 0 mixed pair_coeff terms from geometric mixing rule
Last active /omp style is angle_style cosine/omp
Per MPI rank memory allocation (min/avg/max) = 941.4 | 942 | 942.7 Mbytes
   Step          Temp         Enthalpy         c_1      
    100000   0.98044231     18.943852      39.571053    
    101000   1.0042872      19.590657      39.188102    
    102000   0.94135231     18.613897      39.033673    
    103000   1.003772       19.277518      38.963005    
    104000   0.99581061     18.910761      38.779489    
    105000   1.013223       19.117002      38.692243    
    106000   0.99911089     18.725326      38.694192    
    107000   0.98893535     18.086711      38.424092    
    108000   1.0299697      19.224682      38.253446    
    109000   0.97496658     18.153195      38.18695     
    110000   0.9867305      17.580253      38.070837    
    111000   1.0211895      18.356188      38.193837    
    112000   0.97921844     18.814161      37.857146    
    113000   1.0325324      18.176372      37.868478    
    114000   1.0224023      18.35566       38.039102    
    115000   0.98328973     17.646452      38.002437    
    116000   1.0669213      18.524396      37.932126    
    117000   0.97550635     18.143154      37.769584    
    118000   1.0166215      18.443747      37.570176    
    119000   0.99323054     18.327124      37.377233    
    120000   0.99952885     16.908279      37.224261    
    121000   0.95229974     17.842635      37.224774    
    122000   0.96520106     18.120757      36.95454     
    123000   0.9873962      17.897601      36.77925     
    124000   0.99118915     18.384747      36.5159      
    125000   0.99494336     18.104742      36.548802    
    126000   1.0316988      17.970521      36.450491    
    127000   1.0002987      17.937195      36.512133    
    128000   0.98259434     18.39946       36.448383    
    129000   0.97824122     18.087386      36.298735    
    130000   0.96917137     18.193791      35.964835    
    131000   1.0192566      17.567639      35.81231     
    132000   1.0005412      17.659301      35.651633    
    133000   1.0039809      17.918058      35.249306    
    134000   1.052178       18.254303      34.871892    
    135000   1.0229204      18.344454      35.099253    
    136000   1.0163736      18.409615      34.890172    
    137000   1.0206979      18.49222       34.985277    
    138000   1.0342316      18.008984      34.623833    
    139000   1.0077338      18.28269       34.402327    
    140000   0.97026306     18.175647      34.506691    
    141000   0.97819326     17.84714       34.063556    
    142000   0.99249032     17.975672      33.885666    
    143000   0.97011374     18.570779      33.573209    
    144000   1.0195766      18.466424      33.239304    
    145000   1.0081854      18.605763      32.893754    
    146000   1.0354683      17.732349      32.817572    
    147000   1.0148089      17.625311      32.992777    
    148000   0.99826048     18.289651      32.750891    
    149000   1.0518603      19.089096      32.435462    
    150000   0.92057326     18.456696      32.261307    
    151000   1.0169932      17.905677      32.097631    
    152000   0.96525621     17.529295      31.761989    
    153000   1.0166688      17.916407      31.61553     
    154000   0.98419892     17.45009       31.467366    
    155000   1.0296794      17.906586      31.261502    
    156000   0.96283988     17.857809      31.076268    
    157000   1.0125267      18.206721      30.634718    
    158000   1.0021383      18.625148      30.2364      
    159000   1.0203369      18.389752      29.850845    
    160000   0.98510883     17.012789      29.543281    
    161000   0.99966349     17.624097      29.586336    
    162000   1.0358766      18.214231      29.708683    
    163000   0.97682662     17.934297      29.432175    
    164000   0.96787742     18.070532      29.049807    
    165000   1.0247323      17.803213      29.160513    
    166000   1.0186382      17.493942      29.056104    
    167000   1.0337707      17.968186      29.041263    
    168000   1.0063618      18.010764      28.945294    
    169000   1.0410853      18.164668      28.769513    
    170000   1.0112245      17.616852      28.897803    
    171000   1.0263428      18.719474      28.968828    
    172000   1.027675       18.016692      28.853098    
    173000   1.0192102      18.145968      28.758183    
    174000   0.98596766     17.607889      28.769318    
    175000   1.0256898      17.483848      28.624911    
    176000   0.99367155     18.468667      28.622601    
    177000   0.94457669     17.924342      28.47767     
    178000   0.97013103     17.646232      28.216852    
    179000   1.0368518      18.071421      28.184249    
    180000   1.0176493      18.152869      28.172974    
    181000   0.99614933     16.788513      28.127565    
    182000   1.0121041      17.436937      27.926985    
    183000   0.9694639      17.18336       28.138853    
    184000   1.044118       17.834543      28.197495    
    185000   1.0187466      17.539884      27.971847    
    186000   1.0163022      18.079499      27.889625    
    187000   1.0353702      17.578799      27.401881    
    188000   0.9924754      18.112901      27.087287    
    189000   1.0302085      17.647117      26.858416    
    190000   1.0266236      17.953861      26.862248    
    191000   0.94351695     17.409024      26.703444    
    192000   1.0302106      17.597175      26.505556    
    193000   0.96546375     17.649528      26.580654    
    194000   1.0349574      17.024387      26.534949    
    195000   1.0217428      18.143037      26.386637    
    196000   0.98848883     17.581576      26.604867    
    197000   0.99839472     17.73592       26.467165    
    198000   0.94669495     17.645937      26.122173    
    199000   0.98730251     17.912269      26.13018     
    200000   1.0111264      17.658397      25.892072    
    201000   1.0327178      17.92299       25.935185    
    202000   0.99831048     18.11683       26.000105    
    203000   1.0215544      17.243225      26.04974     
    204000   0.9956913      17.192216      25.978539    
    205000   1.0494024      17.763125      25.8811      
    206000   0.94998204     17.571639      26.061862    
    207000   1.0468915      17.526123      26.140866    
    208000   1.0467074      17.427171      25.935814    
    209000   0.97511441     17.593281      25.701582    
    210000   1.0375059      18.192416      25.692803    
    211000   1.0336201      17.521901      25.45649     
    212000   1.0051578      18.389624      25.276197    
    213000   0.96315885     17.11551       24.979644    
    214000   1.0201052      17.629533      25.020417    
    215000   1.0427252      17.582448      24.856429    
    216000   1.0824376      18.284198      24.704599    
    217000   0.95163709     17.500837      24.751631    
    218000   0.95349656     17.483417      24.631479    
    219000   0.98338365     17.223404      24.807791    
    220000   1.0329986      17.209502      24.599586    
    221000   1.002096       17.511642      24.645078    
    222000   1.0410884      18.152816      24.440116    
    223000   1.0556301      17.875336      24.323513    
    224000   0.98236415     17.731193      24.119966    
    225000   1.0343266      17.000383      24.274724    
    226000   0.99992553     18.404973      24.14726     
    227000   0.96330481     17.671327      24.20517     
    228000   0.9681935      17.438971      24.053535    
    229000   1.0091882      17.208112      24.091719    
    230000   1.0393719      17.456824      24.357323    
    231000   1.0265199      18.084311      24.388768    
    232000   1.0437746      17.487035      24.397857    
    233000   1.0339869      16.977007      24.183885    
    234000   1.0021566      17.726777      23.853181    
    235000   0.96381932     17.40169       23.772656    
    236000   0.95552723     17.785889      23.562793    
    237000   1.0572069      17.840434      23.620837    
    238000   1.0203364      17.939101      23.524929    
    239000   0.98147547     17.35965       23.391121    
    240000   0.96125467     17.626958      23.550082    
    241000   0.99434771     18.013046      23.696242    
    242000   0.95460128     17.940364      23.515388    
    243000   0.97793694     17.248331      23.354343    
    244000   1.0637845      17.090853      23.27925     
    245000   0.97912506     17.856149      23.195165    
    246000   0.9818769      17.564725      22.845096    
    247000   1.0058852      17.00637       22.868864    
    248000   1.0225261      17.681309      22.61898     
    249000   1.1034836      18.357218      22.45754     
    250000   1.0241301      17.519448      22.215703    
    251000   1.0137341      18.108792      21.957986    
    252000   0.97297362     17.780202      21.893186    
    253000   1.0279574      17.328647      21.867471    
    254000   0.98127029     18.006324      21.835077    
    255000   0.99350308     18.096549      21.733383    
    256000   0.97547145     16.855334      21.615351    
    257000   1.0302798      17.980626      21.37321     
    258000   1.0493857      18.051091      21.331635    
    259000   0.96524434     17.62197       21.101722    
    260000   1.0085067      16.931818      20.960095    
    261000   1.0227452      17.297809      21.158446    
    262000   1.025296       17.437667      21.193412    
    263000   0.99842671     17.536347      21.164554    
    264000   0.99544608     17.519922      20.930587    
    265000   1.0217154      17.465454      20.724773    
    266000   0.96322584     17.613649      20.86457     
    267000   1.0051828      17.15873       20.636671    
    268000   0.98865573     17.023213      20.382254    
    269000   1.0073722      17.46672       20.017468    
    270000   1.068429       17.73213       19.991866    
    271000   0.99252794     17.274279      19.748737    
    272000   0.97800135     17.038113      19.502301    
    273000   1.0651233      17.920681      19.531627    
    274000   1.0083739      17.818285      19.326079    
    275000   1.0326378      17.523489      19.273002    
    276000   1.0208586      17.190207      19.24876     
    277000   0.97309912     17.680795      18.795457    
    278000   1.0051873      17.381575      18.647737    
    279000   0.96243025     17.892528      18.655126    
    280000   1.0225067      17.654206      18.498668    
    281000   0.98822943     17.147889      18.540471    
    282000   0.98386273     16.92876       18.646197    
    283000   1.0116433      18.056898      18.158878    
    284000   1.0108957      17.975059      18.332589    
    285000   0.98139658     17.47967       18.071503    
    286000   0.98885332     18.06932       17.829984    
    287000   1.0013471      17.662491      17.875691    
    288000   0.97826055     17.975914      17.925184    
    289000   1.0424674      17.58474       17.655518    
    290000   0.99324366     17.238453      17.999599    
    291000   1.016611       18.204264      17.944266    
    292000   1.0020366      16.974674      17.945466    
    293000   0.98822145     17.75815       17.840323    
    294000   0.95875518     16.699516      17.505344    
    295000   0.98953587     17.270471      17.245209    
    296000   1.012766       17.85382       17.314913    
    297000   0.98840198     17.029869      17.232004    
    298000   0.98718728     17.373773      17.20789     
    299000   1.0251959      17.706528      17.044597    
    300000   1.0053365      17.24797       16.8975      
    301000   0.99114934     17.235119      16.738313    
    302000   0.98670075     17.08548       16.640566    
    303000   1.0086873      17.873205      16.558217    
    304000   0.98933752     17.125709      16.627695    
    305000   1.0092646      17.686297      16.593829    
    306000   1.0061906      17.55236       16.689579    
    307000   0.97893374     17.439654      16.617564    
    308000   1.0098215      17.863536      16.649403    
    309000   1.0151299      17.777968      16.353122    
    310000   1.0427144      17.655978      16.119016    
    311000   1.0029977      17.785009      16.095031    
    312000   1.0148788      17.798225      15.905103    
    313000   0.96840109     17.479805      15.727189    
    314000   0.98878386     17.460365      15.586222    
    315000   1.0424843      17.44428       15.262207    
    316000   1.0412155      18.032239      14.906768    
    317000   0.95681022     16.967372      14.698918    
    318000   0.93127407     16.894415      14.485584    
    319000   1.0378757      17.35799       14.168644    
    320000   1.0365709      17.751961      13.999313    
    321000   0.97894132     18.050957      14.109959    
    322000   1.0463586      17.252022      14.106629    
    323000   0.98230109     17.140269      13.877599    
    324000   0.98072586     17.86481       14.155704    
    325000   0.984242       17.975624      13.927567    
    326000   0.96774727     17.167827      13.780191    
    327000   1.0995524      17.553677      13.678872    
    328000   0.95480639     17.968403      13.711384    
    329000   0.96957694     18.009991      13.572321    
    330000   0.98318431     17.631383      13.524307    
    331000   0.97710143     18.227821      13.559453    
    332000   1.0086389      17.667311      13.588069    
    333000   0.97684786     16.585316      13.779693    
    334000   0.96495603     17.642486      13.829395    
    335000   0.93487737     17.081646      13.960418    
    336000   0.98536732     17.416587      13.668708    
    337000   1.0341277      17.429087      13.71842     
    338000   0.99887405     18.006641      13.809439    
    339000   1.0445028      18.141893      13.612664    
    340000   0.98362543     17.187724      13.508703    
    341000   1.0223508      17.514872      13.495674    
    342000   0.98169856     16.372494      13.585507    
    343000   1.0079004      17.154895      13.624483    
    344000   0.97346404     17.170373      13.549024    
    345000   0.98818146     17.661934      13.286389    
    346000   0.90702698     17.321882      13.392309    
    347000   0.99556483     17.716981      13.210085    
    348000   1.0137981      17.748805      13.150423    
    349000   1.0175793      17.463774      12.887841    
    350000   0.96551668     17.708697      13.163347    
    351000   0.96308959     16.570373      12.944331    
    352000   1.0698926      17.444554      12.738859    
    353000   1.0069095      17.172474      12.367929    
    354000   0.99338001     17.061483      12.247711    
    355000   0.976203       17.549192      12.306193    
    356000   0.98307686     17.717062      12.461764    
    357000   0.98072458     17.552949      12.477345    
    358000   1.0128741      16.9993        12.529386    
    359000   0.97495976     17.931478      12.629024    
    360000   0.98784699     17.012587      12.42725     
    361000   1.0099467      17.098442      12.283171    
    362000   0.95766775     17.118283      12.194182    
    363000   1.0026656      17.790717      12.138919    
    364000   0.92774018     17.260018      11.949138    
    365000   1.0094091      17.689356      11.810179    
    366000   1.0618102      17.921269      11.566972    
    367000   0.99767294     17.868437      11.378119    
    368000   0.9757481      17.194638      11.042653    
    369000   0.94664932     17.331553      10.839081    
    370000   1.0456148      17.720265      10.626797    
    371000   1.0191339      16.860638      10.278155    
    372000   0.97345864     17.274494      10.079835    
    373000   0.99214354     17.929919      9.7523495    
    374000   1.0568008      17.589454      9.726383     
    375000   0.96160113     17.542657      9.5169262    
    376000   1.0123659      18.00064       9.3949095    
    377000   0.96017619     17.623324      9.2400499    
    378000   1.0007375      17.427157      9.0594799    
    379000   0.96413208     17.469404      8.7146791    
    380000   1.0258417      17.409835      8.3139611    
    381000   0.9661875      17.587616      8.0999659    
    382000   0.97949151     17.176103      7.94676      
    383000   1.0076999      17.586036      7.7044884    
    384000   1.0117853      17.059157      7.6671413    
    385000   0.9410964      17.692137      7.2385268    
Fix halt condition for fix-id 3 met on step 386000 with value 6.917661438614105 (src/fix_halt.cpp:237)
    386000   0.99403664     17.237841      6.9176614    
Loop time of 219.984 on 4 procs for 286000 steps with 693 atoms

Performance: 1123280.749 tau/day, 1300.093 timesteps/s
135.1% CPU use with 2 MPI tasks x 2 OpenMP threads

MPI task timing breakdown:
Section |  min time  |  avg time  |  max time  |%varavg| %total
---------------------------------------------------------------
Pair    | 0.28193    | 28.756     | 57.23      | 531.0 | 13.07
Bond    | 0.48327    | 2.5869     | 4.6905     | 130.8 |  1.18
Neigh   | 146.06     | 146.06     | 146.06     |   0.0 | 66.40
Comm    | 0.12063    | 0.13021    | 0.13979    |   2.7 |  0.06
Output  | 0.59964    | 0.60818    | 0.61672    |   1.1 |  0.28
Modify  | 0.92992    | 5.4709     | 10.012     | 194.1 |  2.49
Other   |            | 36.37      |            |       | 16.53

Nlocal:          346.5 ave         693 max           0 min
Histogram: 1 0 0 0 0 0 0 0 0 1
Nghost:              0 ave           0 max           0 min
Histogram: 2 0 0 0 0 0 0 0 0 0
Neighs:          55277 ave      110554 max           0 min
Histogram: 1 0 0 0 0 0 0 0 0 1

Total # of neighbors = 110554
Ave neighs/atom = 159.52958
Ave special neighs/atom = 1.997114
Neighbor list builds = 2329
Dangerous builds = 0

# This simulation is done
# Move onto the next one
clear
  using 2 OpenMP thread(s) per MPI task
package omp 0
using multi-threaded neighbor list subroutines
next f
jump SELF

###
# Reference paper:
# K. Kremer and G. S. Grest
# Dynamics of entangled linear polymer melts: A molecular-dynamics simulation
# J Chem Phys 92, 5057 (1990)

##################################
# MIHIR: for branched polymers
# LJ minimum first to expand and explore, then collapse
###

###
# Looping through the various nuc5branch4 polymers to simulate,
# define variables to switch through
variable f index bb112nuc5bl18bn4d30tot300 bb150nuc5bl25bn4d30tot400 bb187nuc5bl31bn4d30tot500 bb225nuc5bl37bn4d30tot600 bb262nuc5bl43bn4d30tot700 bb300nuc5bl50bn4d30tot800 bb337nuc5bl56bn4d30tot900 bb375nuc5bl62bn4d30tot1000 bb412nuc5bl68bn4d30tot1100 bb450nuc5bl75bn4d30tot1200
# bb75nuc5bl12bn4d30tot200
###


###
# Box and units  (use LJ units and periodic boundaries)
###

units lj
log nuc5branch4/logs/$f.log
log nuc5branch4/logs/bb300nuc5bl50bn4d30tot800.log
