#atom_style bond #no stiffness
atom_style angle #with stiffness

boundary        p p p
###
# Pair interactions require lists of neighbours to be calculated
###

#neighbor 0.3 bin
neighbor 4 bin

neigh_modify every 1 delay 1 check yes
atom_modify sort 0 0
### Generate RESTART file, SPECIAL format, not a .txt file ###
### Useful if simulation crashes ###

restart 1000000 nuc5branch4/restarts/$f.restart
restart 1000000 nuc5branch4/restarts/bb300nuc5bl50bn4d30tot800.restart
#############################



### READ "start" data file ###

read_data nuc5branch4/$f.dat
read_data nuc5branch4/bb300nuc5bl50bn4d30tot800.dat
Reading data file ...
  orthogonal box = (-1000 -1000 -1000) to (1000 1000 1000)
  1 by 1 by 2 MPI processor grid
  reading atoms ...
  801 atoms
  scanning bonds ...
  3 = max bonds/atom
  scanning angles ...
  6 = max angles/atom
  reading bonds ...
  800 bonds
  reading angles ...
  814 angles
Finding 1-2 1-3 1-4 neighbors ...
  special bond factors lj:    0        0        0       
  special bond factors coul:  0        0        0       
     4 = max # of 1-2 neighbors
     4 = max # of 1-3 neighbors
     8 = max # of 1-4 neighbors
    12 = max # of special neighbors
  special bonds CPU = 0.001 seconds
  read_data CPU = 0.076 seconds

######################

### READ "REstart" data file ###

######################



###
# Define groups (atom type 1 is group 'all')
###
group all type 1
801 atoms in group all


###
# Dump configs - "simple dumpings"
###

###
# Dump configs + box coords
###

dump   1   all   custom   1000  nuc5branch4/trjs/$f.lammpstrj  id  x y z  ix iy iz
dump   1   all   custom   1000  nuc5branch4/trjs/bb300nuc5bl50bn4d30tot800.lammpstrj  id  x y z  ix iy iz
dump_modify   1   format line "%d %.5f %.5f %.5f %d %d %d"

########################################################################


###################################################################
# Stiffness term
#
# E = K * (1+cos(theta)), K>0
#
angle_style   cosine
#change this coefficient to change stiffness (e.g. 1,5,10)
angle_coeff   1 1.0
###################################################################

###################################################################
# Pair interaction between non-bonded atoms
#
#  Lennard-Jones 12-6 potential with cutoff:
#  potential E=4epsilon[ (sigma/r)^12 - (sigma/r)^6]  for r<r_cut
#
#  1.12246 = 2^(1/6) is the minimum of the potential


pair_style      lj/cut 1.12246152962189
#pair_style      lj/cut 3

#
#  pair_modify shift yes adds a constant to the potential such

#  that E(r_cut)=0. Forces remains unchanged.
#

pair_modify     shift yes

#
#  pair_coeff for lj/cut, specify 4:
#    * atom type interacting with
#    * atom type
#    * epsilon (energy units)
#    * sigma (distance units)
#

pair_coeff      1 1 1.0 1.0
###################################################################

###################################################################
# Pair interaction between non-bonded atoms
#
#  soft potential, for PUSHING apart overlapping atoms
#  potential E=A*(1 + cos(pi*r/r_c))
#
#  1.12246 = 2^(1/6) is the cut-off r_c

#pair_style     soft 1.12246152962189

#
#  pair_coeff for soft, specify 3:
#    * atom type interacting with
#    * atom type
#    * A
#
#

#pair_coeff      1 1 100.0
###################################################################

###################################################################
# Pair interaction between bonded atoms
#
# Fene potential + Lennard Jones 12-6:

#
#  E= - 0.5 K R0^2 ln[ 1- (r/R0)^2]
#     + 4epsilon[ (sigma/r)^12 - (sigma/r)^6] + epsilon
#

bond_style   fene


#
# For style fene, specify:
#   * bond type
#   * K (energy/distance^2)
#   * R0 (distance)
#   * epsilon (energy)  (LJ component)
#   * sigma (distance)  (LJ component)
#


special_bonds fene #<=== I M P O R T A N T (new command)
Finding 1-2 1-3 1-4 neighbors ...
  special bond factors lj:    0        1        1       
  special bond factors coul:  0        1        1       
     4 = max # of 1-2 neighbors
    12 = max # of special neighbors
  special bonds CPU = 0.000 seconds

bond_coeff   1   30   2   1.0   1.0


###################################################

###################################################################
# Pair interaction between bonded atoms
#
# Harmonic potential:
#
#  E= K * (R-R0)^2
#

#bond_style   harmonic

#
# For style harmonic, specify:
#   * bond type
#   * K (energy/distance^2)
#   * R0 (distance)
#

#bond_coeff   1   60.0   1.0
#bond_coeff   2   harmonic 0.1   1.0

###################################################
compute 1 all gyration
variable rog equal c_1
#compute 2 all coord/atom cutoff 1.1

#dump 2 all custom 10000 contact_number.dump id c_2


###
# Set up fixes
###
thermo_style   custom   step  temp enthalpy c_1
fix 1 all nve   ###NVE ensemble

fix 2 all   langevin   1.0 1.0 1.0  100103   ###Langevin integrator Tstart Tstop 1/friction rndseed


##### Sample thermodynamic info  (temperature, energy, pressure, etc.) #####
thermo 1000









############################################################################

###
# set timestep of integrator

timestep 0.01

###
# run integration for a number of steps
###
#run 0
#variable r equal c_1
#if "$r < 63.1" then "quit 1"

# lj potential minimum, cause molecule to explore
run 100000
Generated 0 of 0 mixed pair_coeff terms from geometric mixing rule
Last active /omp style is angle_style cosine/omp
Neighbor list info ...
  update: every = 1 steps, delay = 1 steps, check = yes
  max neighbors/atom: 2000, page size: 100000
  master list distance cutoff = 5.1224615
  ghost atom cutoff = 5.1224615
  binsize = 2.5612308, bins = 781 781 781
  1 neighbor lists, perpetual/occasional/extra = 1 0 0
  (1) pair lj/cut/omp, perpetual
      attributes: half, newton on, omp
      pair build: half/bin/newton/omp
      stencil: half/bin/3d
      bin: standard
WARNING: Communication cutoff 5.12246152962189 is shorter than a bond length based estimate of 5.455. This may lead to errors. (src/comm.cpp:723)
Per MPI rank memory allocation (min/avg/max) = 942.4 | 942.4 | 942.4 Mbytes
   Step          Temp         Enthalpy         c_1      
         0   0              13.259332      61.008859    
      1000   1.0123333      19.266343      60.162577    
      2000   1.0050005      18.964743      59.459601    
      3000   1.0044456      19.902851      58.901252    
      4000   0.97990026     19.421945      58.414395    
      5000   0.99596998     20.054702      58.036056    
      6000   0.99625614     19.225188      57.619996    
      7000   1.0473294      19.592377      57.036017    
      8000   1.0042256      20.02613       56.653856    
      9000   0.96211766     19.81017       56.208756    
     10000   1.0011156      20.205622      55.926289    
     11000   0.99884319     19.974829      55.586717    
     12000   1.0401131      19.986202      54.982419    
     13000   0.99648935     19.85091       54.637025    
     14000   1.031043       20.048488      54.588396    
     15000   1.0023371      20.349857      54.26335     
     16000   0.9991791      20.372902      53.96831     
     17000   1.027212       20.519024      53.60925     
     18000   0.99581909     20.803515      53.397245    
     19000   0.98659096     19.943103      53.278132    
     20000   1.036664       20.557724      53.018019    
     21000   1.0027505      20.198704      52.904422    
     22000   0.99159216     19.651178      52.649528    
     23000   1.0232126      20.601265      52.22345     
     24000   1.008679       20.646675      51.920523    
     25000   0.96028178     20.019866      51.943678    
     26000   1.0184889      20.332618      51.853259    
     27000   1.0359566      20.722346      51.74251     
     28000   0.98421229     19.992382      51.702853    
     29000   0.98645488     20.159838      51.66493     
     30000   0.98712908     20.022007      51.592343    
     31000   1.0107461      20.035163      51.500449    
     32000   1.0453717      20.390036      50.979247    
     33000   1.0475237      20.598297      50.592555    
     34000   0.97992325     20.380505      50.215127    
     35000   0.95588623     19.839622      49.906227    
     36000   1.0182089      20.613098      49.73521     
     37000   0.99331779     20.797019      49.770518    
     38000   1.0122903      20.722955      49.436617    
     39000   0.9591254      20.420278      49.196622    
     40000   0.99228143     20.003492      49.125124    
     41000   0.93098767     20.456511      48.89767     
     42000   1.0077562      20.551191      48.848707    
     43000   0.98524589     20.31295       48.685077    
     44000   1.0538818      20.766409      48.605304    
     45000   1.0126508      19.95846       48.462912    
     46000   1.0180807      20.866984      48.374515    
     47000   0.95870248     20.561859      48.222722    
     48000   0.95836526     20.598281      47.962629    
     49000   1.0231346      20.805246      47.829721    
     50000   0.96872162     20.018465      47.548469    
     51000   0.9495888      20.749117      47.266247    
     52000   1.0043493      20.410042      47.26336     
     53000   0.98026928     20.641826      47.005888    
     54000   0.9201201      20.203459      46.951369    
     55000   0.97170819     20.916848      47.009131    
     56000   1.020495       20.933633      46.850045    
     57000   0.997855       20.290435      46.763234    
     58000   1.0269668      19.939954      46.736909    
     59000   1.0153895      20.301618      46.514188    
     60000   0.97391547     20.309471      46.672966    
     61000   1.0273324      20.792824      46.547109    
     62000   1.0144637      20.548825      46.507691    
     63000   1.0070898      20.630884      46.318733    
     64000   0.98691999     20.538999      46.51681     
     65000   1.043613       21.021474      46.285151    
     66000   1.0036562      20.328285      46.186663    
     67000   0.98522462     20.543938      46.374067    
     68000   0.96481734     20.230738      46.288373    
     69000   1.0022198      20.417526      46.238122    
     70000   0.95036        19.911734      46.274828    
     71000   1.0299394      20.336677      46.372407    
     72000   0.97303568     19.836417      46.126109    
     73000   0.94447336     20.56663       46.168754    
     74000   1.0250845      19.642972      45.981004    
     75000   0.97906342     20.559459      45.650086    
     76000   1.0305776      19.928992      45.46936     
     77000   1.0034226      20.490304      45.468484    
     78000   0.97021483     20.220138      45.387598    
     79000   0.97074137     20.614068      45.530847    
     80000   1.0417023      20.650938      45.408652    
     81000   1.0026317      20.286959      45.43213     
     82000   0.99297754     20.563349      45.438067    
     83000   1.0133765      20.405675      45.554938    
     84000   1.020271       20.871321      45.394527    
     85000   1.0257489      20.061859      45.24281     
     86000   0.94994089     20.307866      45.094307    
     87000   0.99623112     20.161736      44.986816    
     88000   1.0042104      20.284807      44.69606     
     89000   0.96529756     20.256229      44.577065    
     90000   1.0422221      20.892869      44.726225    
     91000   1.0129044      20.27191       44.847211    
     92000   0.97193901     20.56965       44.804811    
     93000   1.0448351      20.588185      44.785888    
     94000   1.016725       20.695301      44.615537    
     95000   0.99745885     20.464311      44.61341     
     96000   0.98889617     20.064242      44.607982    
     97000   0.98116099     19.995497      44.597119    
     98000   0.97842052     20.496359      44.471687    
     99000   1.0451808      19.665817      44.488888    
    100000   1.0238495      20.240305      44.371019    
Loop time of 189.22 on 4 procs for 100000 steps with 801 atoms

Performance: 456610.706 tau/day, 528.485 timesteps/s
103.6% CPU use with 2 MPI tasks x 2 OpenMP threads

MPI task timing breakdown:
Section |  min time  |  avg time  |  max time  |%varavg| %total
---------------------------------------------------------------
Pair    | 0.55232    | 0.64698    | 0.74164    |  11.8 |  0.34
Bond    | 0.80204    | 0.93006    | 1.0581     |  13.3 |  0.49
Neigh   | 184.42     | 184.42     | 184.42     |   0.0 | 97.46
Comm    | 0.30631    | 0.52222    | 0.73813    |  29.9 |  0.28
Output  | 0.2024     | 0.20549    | 0.20859    |   0.7 |  0.11
Modify  | 1.6673     | 1.9583     | 2.2493     |  20.8 |  1.03
Other   |            | 0.5362     |            |       |  0.28

Nlocal:          400.5 ave         478 max         323 min
Histogram: 1 0 0 0 0 0 0 0 0 1
Nghost:           13.5 ave          17 max          10 min
Histogram: 1 0 0 0 0 0 0 0 0 1
Neighs:         3592.5 ave        4228 max        2957 min
Histogram: 1 0 0 0 0 0 0 0 0 1

Total # of neighbors = 7185
Ave neighs/atom = 8.9700375
Ave special neighs/atom = 1.9975031
Neighbor list builds = 1169
Dangerous builds = 0

# Replace lj potential, now collapse
pair_style      lj/cut 3

# Cutoff simul when gyration under 10
# Variable created with equal requires v_ + 'name'
fix 3 all halt 1000 v_rog < 7

run 3000000
Generated 0 of 0 mixed pair_coeff terms from geometric mixing rule
Last active /omp style is angle_style cosine/omp
Per MPI rank memory allocation (min/avg/max) = 942.4 | 942.4 | 942.4 Mbytes
   Step          Temp         Enthalpy         c_1      
    100000   1.0238495      19.364633      44.371019    
    101000   0.99652095     19.913363      44.330789    
    102000   1.0116848      19.469529      44.205583    
    103000   1.0140233      19.1306        43.871097    
    104000   1.0062193      19.03825       43.623136    
    105000   1.0347559      19.111964      43.354938    
    106000   0.98547295     18.740929      43.110766    
    107000   1.0320949      18.890418      43.033543    
    108000   1.0321155      18.481019      42.940945    
    109000   0.99782375     18.624004      42.918307    
    110000   0.98678437     18.508014      42.854429    
    111000   1.0492375      18.268444      42.833988    
    112000   1.0174144      17.712648      42.690353    
    113000   1.0431194      18.459354      42.411941    
    114000   1.0285854      18.381989      42.377532    
    115000   1.0331518      17.995883      42.154219    
    116000   0.99688588     18.035853      41.989017    
    117000   1.0529208      17.940099      42.051895    
    118000   0.96987687     17.815649      41.971135    
    119000   0.97398687     18.377911      41.817582    
    120000   0.98741753     18.017556      41.694955    
    121000   0.9880695      18.344831      41.577141    
    122000   0.98873365     18.296184      41.585745    
    123000   0.98838734     18.293969      41.623126    
    124000   1.0162686      17.672676      41.290471    
    125000   0.95205289     18.001624      41.255587    
    126000   0.94349073     17.892761      41.107244    
    127000   1.0070171      17.862743      41.031638    
    128000   1.0107977      18.137509      40.902685    
    129000   0.97236415     18.005409      40.723153    
    130000   0.97382498     17.656878      40.813082    
    131000   1.0283579      18.35117       40.81529     
    132000   1.0382182      17.982495      41.014811    
    133000   0.91427002     18.565075      40.920883    
    134000   1.0259743      17.585595      40.68201     
    135000   1.0383002      18.119364      40.724948    
    136000   1.0099388      17.758594      40.725298    
    137000   1.0611825      18.445923      40.424899    
    138000   1.030375       18.141452      40.394975    
    139000   1.0349848      17.413319      40.262517    
    140000   1.0248069      17.937355      40.111215    
    141000   0.98983046     18.186522      40.008403    
    142000   1.0342104      17.496789      39.918015    
    143000   1.0199037      18.198631      39.932453    
    144000   1.0235643      18.519026      39.901532    
    145000   1.012319       17.725771      39.809199    
    146000   1.030499       18.56789       39.778124    
    147000   1.0150872      18.197577      39.71159     
    148000   0.98470482     17.058953      39.850989    
    149000   1.0026756      17.872991      39.685574    
    150000   0.99554712     18.080238      39.65779     
    151000   1.014738       17.783242      39.419866    
    152000   0.9882773      17.529682      39.121924    
    153000   1.0231035      17.655517      38.929743    
    154000   0.98866545     18.001634      38.95987     
    155000   1.0424488      18.262856      38.894018    
    156000   0.95632932     17.898954      38.978032    
    157000   0.9712402      17.953165      38.973387    
    158000   0.99293728     17.899424      38.755242    
    159000   1.0368533      17.756373      38.40459     
    160000   1.0156614      17.36882       38.281399    
    161000   1.017805       17.832456      38.162184    
    162000   1.0345129      18.416587      38.232714    
    163000   0.99044539     17.982168      38.18167     
    164000   0.98008358     17.797703      38.154125    
    165000   0.95660764     17.969468      37.996285    
    166000   1.0191304      17.849576      37.818315    
    167000   0.95907803     17.802525      37.980525    
    168000   0.9712964      17.798103      37.761388    
    169000   0.97557796     18.088933      37.53799     
    170000   0.9696339      17.746828      37.525272    
    171000   1.0107322      18.090616      37.527217    
    172000   0.99227131     18.376069      37.429384    
    173000   1.0350931      18.405837      37.326656    
    174000   1.0557608      17.500849      37.167956    
    175000   1.0580961      17.686578      36.916043    
    176000   1.0137336      17.74643       37.015928    
    177000   1.0286564      17.74032       36.830919    
    178000   0.95736231     17.329693      36.845107    
    179000   1.0977417      17.473953      36.658789    
    180000   0.9991887      17.800986      36.727721    
    181000   0.97618342     18.019309      36.838181    
    182000   0.9620731      18.147141      36.599277    
    183000   1.0174627      17.529211      36.370018    
    184000   1.0134992      18.154263      36.211456    
    185000   1.0316882      18.484731      36.042424    
    186000   1.0515619      18.222436      36.029508    
    187000   1.019464       17.88789       36.042847    
    188000   0.98211809     17.858138      35.995444    
    189000   1.0467029      17.813592      35.62281     
    190000   1.00272        17.846217      35.604162    
    191000   0.98949048     18.165638      35.330833    
    192000   0.99007251     17.679084      35.115614    
    193000   1.0142775      17.837975      35.322271    
    194000   0.96661135     17.889485      35.05874     
    195000   0.94112195     17.62791       35.179209    
    196000   1.042398       17.594534      34.92867     
    197000   0.93486954     17.507569      34.713975    
    198000   0.9993729      17.983844      34.682224    
    199000   0.97821682     17.456206      34.520317    
    200000   0.99999716     18.545196      34.254691    
    201000   1.0115057      18.451922      34.052004    
    202000   1.0174948      17.877015      34.139258    
    203000   0.98094546     17.243215      34.054976    
    204000   1.0138372      18.076484      33.91115     
    205000   0.96417874     17.499629      33.691821    
    206000   0.95003404     17.098865      33.505952    
    207000   0.98735452     17.469782      33.354816    
    208000   1.008331       17.636891      33.207382    
    209000   1.0079104      18.130997      33.059038    
    210000   0.97279523     17.579714      32.791704    
    211000   1.0538879      17.310704      32.700166    
    212000   0.98445326     17.969359      32.54674     
    213000   0.99761654     17.424335      32.255594    
    214000   0.9873173      17.443571      32.017187    
    215000   1.0219092      17.600513      31.862174    
    216000   1.0154705      17.823829      31.86757     
    217000   0.98441625     17.69855       31.533599    
    218000   1.0022141      18.04704       31.245186    
    219000   1.0107198      17.528391      31.252769    
    220000   1.0046402      16.989508      31.200448    
    221000   1.0159736      17.931752      31.353502    
    222000   1.0042159      17.285754      31.474816    
    223000   0.97503046     18.064909      31.425603    
    224000   1.0057551      17.422347      31.250234    
    225000   0.9786888      17.459588      30.948508    
    226000   1.0189782      18.107785      30.819568    
    227000   0.96181192     17.856819      30.84318     
    228000   1.0011975      17.585097      30.845931    
    229000   1.036719       17.535506      30.524892    
    230000   0.97850311     17.742493      30.610358    
    231000   0.97981721     16.929681      30.635958    
    232000   0.99198501     17.813625      30.618976    
    233000   1.0151029      17.529932      30.546007    
    234000   1.0465036      17.37372       30.290322    
    235000   1.0224315      17.482556      30.265397    
    236000   1.0152012      17.903741      30.184225    
    237000   1.0447301      17.755699      30.10695     
    238000   1.0486556      18.545122      29.95238     
    239000   1.0006952      17.892966      29.719747    
    240000   0.9839979      17.407007      29.545966    
    241000   1.0592912      17.871427      29.339576    
    242000   1.0556963      18.029538      29.391979    
    243000   0.98592408     17.72922       29.137224    
    244000   0.98292307     17.356715      29.191027    
    245000   1.0205496      17.463765      29.179488    
    246000   0.98839565     17.957717      28.968279    
    247000   0.96674616     17.677962      28.90092     
    248000   0.98920965     17.274531      28.992109    
    249000   1.0534734      17.602893      28.992021    
    250000   0.96560494     17.354708      28.830069    
    251000   0.96221974     16.990626      28.818445    
    252000   1.0244412      18.18653       28.782372    
    253000   1.0186528      17.915031      28.73963     
    254000   0.99587431     17.74898       28.655566    
    255000   1.0063323      17.894786      28.567095    
    256000   1.0035556      17.29691       28.400871    
    257000   0.99527674     17.629191      28.238575    
    258000   0.97298305     17.688528      28.175259    
    259000   0.99867774     16.982752      28.083566    
    260000   1.0468057      17.706747      28.077636    
    261000   1.0104029      18.106227      28.100987    
    262000   1.0219667      17.721806      28.112523    
    263000   1.0318872      17.698878      28.071316    
    264000   0.99380328     17.884358      28.277844    
    265000   0.98692657     17.354447      28.161942    
    266000   0.98341011     17.378236      27.872286    
    267000   0.99546689     18.267201      27.811192    
    268000   0.93534598     16.623186      27.61526     
    269000   0.97665526     17.521079      27.438421    
    270000   1.0722033      17.638931      27.245687    
    271000   1.0110239      17.692935      27.258023    
    272000   0.99129578     17.761716      27.239492    
    273000   0.98116961     17.265843      27.08481     
    274000   1.0065912      17.80012       27.075316    
    275000   1.0239853      17.543008      26.943024    
    276000   1.005249       17.923371      26.985633    
    277000   0.95757029     17.271088      27.089918    
    278000   1.0033564      17.495281      26.906946    
    279000   1.0050491      17.516713      26.747238    
    280000   1.0518756      17.87094       26.859716    
    281000   1.0016504      17.281295      26.972569    
    282000   1.0008595      17.721358      26.741387    
    283000   1.0036606      18.164863      26.486115    
    284000   0.99067085     17.559342      26.385884    
    285000   1.0129719      17.853603      26.272546    
    286000   0.99388742     17.445916      26.545162    
    287000   0.99896185     17.702669      26.667108    
    288000   0.99934918     17.739395      26.612097    
    289000   1.032854       17.417311      26.598914    
    290000   1.0058044      17.711871      26.831975    
    291000   0.98838453     17.269097      26.646823    
    292000   1.057902       17.774741      26.563487    
    293000   1.0093792      18.273672      26.243975    
    294000   1.0127261      17.989976      26.049106    
    295000   0.99171125     17.32653       25.934564    
    296000   1.0356583      17.799641      25.776253    
    297000   0.97155627     17.632913      25.762211    
    298000   1.03886        17.364396      25.803074    
    299000   0.98765422     17.193305      25.843067    
    300000   1.0320262      17.698333      25.550143    
    301000   0.95434385     17.440791      25.406909    
    302000   0.98243325     17.58054       25.367511    
    303000   1.0105407      17.454619      25.397117    
    304000   0.99115039     17.475105      25.142947    
    305000   1.0536776      16.854068      25.133244    
    306000   1.0316184      17.550363      24.994448    
    307000   1.0444445      17.173979      25.023798    
    308000   1.0276452      17.380441      24.710409    
    309000   1.0012206      17.455075      24.638246    
    310000   1.024473       17.689383      24.381377    
    311000   1.0309888      18.391165      24.333374    
    312000   1.0217928      17.680832      24.123099    
    313000   0.99755575     17.313317      24.290671    
    314000   0.96583626     17.4222        23.995791    
    315000   1.0108105      18.340946      23.831116    
    316000   0.9918267      17.121828      23.882381    
    317000   1.0358532      17.952692      23.84836     
    318000   0.97747384     17.2805        23.945761    
    319000   1.0011455      17.702162      23.73198     
    320000   1.021229       17.811362      23.468685    
    321000   0.97555028     17.243325      23.25245     
    322000   1.0229097      17.032162      23.242476    
    323000   0.99725458     17.294109      23.43537     
    324000   1.0104659      18.138002      23.234542    
    325000   1.0067291      17.350798      23.169577    
    326000   0.99727655     17.376737      23.070958    
    327000   1.0100498      18.252067      22.776651    
    328000   0.98625323     17.387722      22.864001    
    329000   1.0152445      17.098789      22.680939    
    330000   0.97105645     17.847027      22.586976    
    331000   0.99762721     17.624825      22.397133    
    332000   1.0207023      17.200712      22.235325    
    333000   0.96661716     17.236253      22.012482    
    334000   0.98631456     17.078873      21.792405    
    335000   0.98426235     17.70074       21.690142    
    336000   0.98147713     16.930095      21.734893    
    337000   1.0229352      17.737728      21.918891    
    338000   0.99618601     17.840343      21.905862    
    339000   0.98468351     17.017111      21.611292    
    340000   1.0197703      17.106215      21.592234    
    341000   0.96306119     17.77945       21.140595    
    342000   0.97682623     17.703572      20.97828     
    343000   0.971893       17.371172      20.900282    
    344000   1.0164641      17.164813      20.745795    
    345000   1.0134002      17.563796      20.662521    
    346000   0.97433096     17.116127      20.643659    
    347000   0.98807094     17.079535      20.599481    
    348000   1.0214804      17.687704      20.450273    
    349000   1.031755       18.350135      20.706909    
    350000   0.9697909      17.591727      20.420758    
    351000   0.9747787      16.997387      20.324979    
    352000   0.99428568     16.938479      20.171792    
    353000   1.0356671      17.241838      20.111968    
    354000   0.97853982     17.175272      20.130808    
    355000   0.96878005     17.035132      20.096999    
    356000   1.0047019      16.992766      20.049496    
    357000   1.0385474      17.991847      19.876015    
    358000   0.96747751     17.616254      20.101477    
    359000   0.96913163     17.302287      20.111334    
    360000   0.96443939     17.663684      19.809673    
    361000   0.97300336     17.394738      19.625315    
    362000   0.9744188      17.5173        19.636369    
    363000   1.0208248      17.982245      19.695843    
    364000   1.0132047      16.599722      19.681545    
    365000   0.99385956     17.874423      19.665221    
    366000   1.027986       17.515437      19.555444    
    367000   0.97436999     17.591071      19.31297     
    368000   0.98795496     17.826436      19.112897    
    369000   1.018305       18.142621      19.112696    
    370000   1.0308175      17.884253      19.033819    
    371000   1.021649       17.641163      18.893164    
    372000   0.98409293     17.74919       18.744053    
    373000   0.96660421     17.350386      18.384309    
    374000   1.0234336      17.630285      18.307768    
    375000   1.0047389      18.154531      18.187578    
    376000   0.9857019      18.020301      18.101495    
    377000   0.96513392     17.310396      18.201489    
    378000   1.0169305      16.937818      18.010307    
    379000   1.0260811      17.742798      18.031213    
    380000   1.0278903      17.170348      18.115964    
    381000   0.97492085     17.097726      18.00076     
    382000   0.98316784     16.727828      18.046312    
    383000   1.0257188      17.956367      17.992163    
    384000   1.0051838      17.200272      17.540174    
    385000   0.97305869     17.764168      17.481834    
    386000   0.96179042     18.080018      17.288713    
    387000   0.97989821     17.290658      17.140066    
    388000   0.94864612     17.334969      16.92807     
    389000   0.96616903     16.824832      16.600068    
    390000   1.0144539      17.749223      16.51281     
    391000   0.96844492     16.92355       16.392706    
    392000   1.0135182      17.679535      16.116464    
    393000   0.98270961     17.228692      16.103915    
    394000   1.0107541      17.831646      15.788049    
    395000   0.97416976     17.875179      15.677927    
    396000   0.91873432     17.074583      15.632533    
    397000   1.0107431      17.531764      15.538916    
    398000   1.0170721      17.851636      15.562875    
    399000   0.97810049     17.872477      15.512184    
    400000   0.9982364      17.97862       15.312824    
    401000   1.0219798      16.961765      15.159363    
    402000   0.97681115     17.123701      15.030628    
    403000   0.99761436     17.151131      14.89318     
    404000   0.95780221     17.348207      14.655559    
    405000   1.0244368      17.40736       14.721629    
    406000   1.0021909      16.993384      14.633761    
    407000   0.90417277     17.485799      14.596891    
    408000   1.0123748      16.912341      14.545974    
    409000   0.98546622     17.479926      14.472608    
    410000   1.015175       17.393188      14.60137     
    411000   0.99079032     17.861674      14.354969    
    412000   0.94765198     17.188798      14.366525    
    413000   1.0355406      17.702943      14.171842    
    414000   0.97906376     17.664015      14.018699    
    415000   0.98569039     17.482065      13.871191    
    416000   1.0595039      17.461388      13.626077    
    417000   0.99824624     17.705765      13.852766    
    418000   1.0580683      17.731846      13.91176     
    419000   0.98976496     16.991067      13.72178     
    420000   1.014919       17.555131      13.680146    
    421000   1.0374163      17.557355      13.377594    
    422000   1.0523026      17.826504      13.369333    
    423000   0.97648586     17.576764      13.12731     
    424000   0.98130021     17.378443      13.015896    
    425000   0.99922044     17.710547      13.142403    
    426000   0.99061685     17.315079      13.104724    
    427000   1.0338893      17.662143      13.008491    
    428000   1.0213236      17.098389      13.046097    
    429000   1.0285404      17.6619        12.958583    
    430000   0.99892661     17.242513      12.829419    
    431000   0.94875068     17.538938      12.674266    
    432000   1.0684484      17.367826      12.576156    
    433000   0.96202251     17.641376      12.23309     
    434000   0.99911325     17.209104      12.100565    
    435000   1.0229086      17.176221      12.058955    
    436000   0.99854041     17.283323      11.953051    
    437000   1.0134023      17.297282      11.957893    
    438000   1.012286       17.071599      12.019979    
    439000   0.9314516      17.262172      11.715108    
    440000   1.0527181      17.495025      11.682138    
    441000   1.0000806      17.196627      11.474943    
    442000   1.010105       17.765954      11.494998    
    443000   1.0050098      17.265878      11.362255    
    444000   1.0354368      17.529746      11.255265    
    445000   1.0155711      17.083655      11.13718     
    446000   1.0022055      17.346701      11.215714    
    447000   1.0031261      17.166545      11.108307    
    448000   0.98745712     17.170092      11.39675     
    449000   1.0292152      17.762821      11.515805    
    450000   0.98668838     17.308803      11.717782    
    451000   1.0205832      17.85684       11.671746    
    452000   1.0373099      16.990376      11.701462    
    453000   1.0181583      17.279185      11.555333    
    454000   0.98488669     17.45454       11.387117    
    455000   0.97631687     17.701349      11.403573    
    456000   0.9907207      16.947329      11.123244    
    457000   1.007615       15.948404      10.837716    
    458000   0.96816193     17.120675      10.743136    
    459000   0.96381677     17.288863      10.725657    
    460000   0.99665903     17.140076      10.987724    
    461000   0.99911069     17.225377      11.040357    
    462000   0.99309015     17.529886      11.093698    
    463000   1.0131196      17.752641      11.009517    
    464000   1.0224582      17.521347      10.726584    
    465000   0.94682874     17.194583      10.733261    
    466000   1.0209117      17.050329      10.577632    
    467000   1.0381047      17.328868      10.632217    
    468000   1.0268101      16.656105      10.709804    
    469000   0.94042868     17.327909      10.485743    
    470000   0.99656394     17.970827      10.624411    
    471000   0.97939598     16.948158      10.726923    
    472000   0.9854884      17.142267      10.859709    
    473000   1.0144016      17.620981      10.655771    
    474000   1.0235555      17.547029      10.786623    
    475000   1.0301413      16.836815      10.592452    
    476000   0.9896321      17.333583      10.465902    
    477000   1.0257537      17.042946      10.378219    
    478000   0.96029287     17.331107      10.354438    
    479000   0.97801298     17.047869      10.231142    
    480000   1.0204629      16.697359      10.238214    
    481000   1.0365618      17.290099      10.19248     
    482000   1.0213968      17.498048      10.090851    
    483000   0.94598725     17.422069      9.941939     
    484000   0.97472906     17.107828      9.6969609    
    485000   1.0270273      16.762392      9.6903321    
    486000   0.9808337      16.753278      9.8806079    
    487000   0.94845411     16.822089      9.8374611    
    488000   0.99335788     17.329815      9.6365453    
    489000   0.97888256     17.147682      9.603517     
    490000   0.9731938      17.678029      9.6779498    
    491000   0.95458059     17.091359      9.6444168    
    492000   0.95368208     16.694277      9.486978     
    493000   1.0320346      17.849728      9.5800307    
    494000   1.0028921      17.373954      9.523014     
    495000   1.0065595      17.409196      9.4690262    
    496000   1.0356565      17.830995      9.5106784    
    497000   1.0106741      17.816465      9.4981588    
    498000   1.0329956      16.918669      9.2366922    
    499000   1.0152525      17.312973      9.0065457    
    500000   1.0226809      17.107163      9.0057182    
    501000   0.9797818      17.032277      8.7558757    
    502000   0.98638397     17.379274      8.8270501    
    503000   1.0502525      17.385045      8.7256816    
    504000   0.98813217     16.853838      8.5836042    
    505000   1.0304012      17.732544      8.7573262    
    506000   1.0087538      17.301013      8.5460356    
    507000   1.0954507      17.419895      8.4459842    
    508000   0.91964062     17.329687      8.6812663    
    509000   1.0471874      16.418415      8.6173421    
    510000   0.99902043     16.999605      8.6457694    
    511000   1.0148215      17.032937      8.581499     
    512000   1.0357499      17.882128      8.627037     
    513000   0.98559104     17.616728      8.7181434    
    514000   0.99678888     17.282439      8.6875447    
    515000   1.0099845      17.206552      8.4414083    
    516000   1.0472475      17.261496      8.4161127    
    517000   1.0208851      16.896257      8.2557591    
    518000   0.99640987     16.955024      8.3252857    
    519000   0.98109891     17.321427      8.1593262    
    520000   0.98549803     16.919927      8.1520432    
    521000   0.98099147     16.94381       8.1550887    
    522000   1.029502       17.404315      8.0191034    
    523000   0.99624927     16.86537       8.0094969    
    524000   1.0716625      16.585426      7.9990268    
    525000   0.95662132     17.162069      7.8900262    
    526000   0.99393074     17.506335      7.7716838    
    527000   1.0424849      17.40768       7.6862866    
    528000   0.97716248     16.6227        7.7096991    
    529000   1.0191271      17.368527      7.7125071    
    530000   0.96244127     16.799233      7.5664408    
    531000   1.0077708      16.736874      7.423967     
    532000   0.97591926     16.711177      7.5545969    
    533000   1.0388699      17.413848      7.5162498    
    534000   0.97727548     17.365693      7.3387064    
    535000   0.98986486     17.331196      7.1374909    
Fix halt condition for fix-id 3 met on step 536000 with value 6.929851316180188 (src/fix_halt.cpp:237)
    536000   0.97528335     18.00284       6.9298513    
Loop time of 357.186 on 4 procs for 436000 steps with 801 atoms

Performance: 1054644.581 tau/day, 1220.653 timesteps/s
138.0% CPU use with 2 MPI tasks x 2 OpenMP threads

MPI task timing breakdown:
Section |  min time  |  avg time  |  max time  |%varavg| %total
---------------------------------------------------------------
Pair    | 44.366     | 72.809     | 101.25     | 333.3 | 20.38
Bond    | 3.7033     | 5.3347     | 6.9661     |  70.6 |  1.49
Neigh   | 228.08     | 228.08     | 228.08     |   0.0 | 63.86
Comm    | 4.309      | 34.362     | 64.415     | 512.7 |  9.62
Output  | 1.0668     | 1.0807     | 1.0946     |   1.3 |  0.30
Modify  | 7.0593     | 10.437     | 13.814     | 104.5 |  2.92
Other   |            | 5.081      |            |       |  1.42

Nlocal:          400.5 ave         801 max           0 min
Histogram: 1 0 0 0 0 0 0 0 0 1
Nghost:           23.5 ave          47 max           0 min
Histogram: 1 0 0 0 0 0 0 0 0 1
Neighs:          71209 ave      142418 max           0 min
Histogram: 1 0 0 0 0 0 0 0 0 1

Total # of neighbors = 142418
Ave neighs/atom = 177.80025
Ave special neighs/atom = 1.9975031
Neighbor list builds = 3573
Dangerous builds = 0

# This simulation is done
# Move onto the next one
clear
  using 2 OpenMP thread(s) per MPI task
package omp 0
using multi-threaded neighbor list subroutines
next f
jump SELF

###
# Reference paper:
# K. Kremer and G. S. Grest
# Dynamics of entangled linear polymer melts: A molecular-dynamics simulation
# J Chem Phys 92, 5057 (1990)

##################################
# MIHIR: for branched polymers
# LJ minimum first to expand and explore, then collapse
###

###
# Looping through the various nuc5branch4 polymers to simulate,
# define variables to switch through
variable f index bb112nuc5bl18bn4d30tot300 bb150nuc5bl25bn4d30tot400 bb187nuc5bl31bn4d30tot500 bb225nuc5bl37bn4d30tot600 bb262nuc5bl43bn4d30tot700 bb300nuc5bl50bn4d30tot800 bb337nuc5bl56bn4d30tot900 bb375nuc5bl62bn4d30tot1000 bb412nuc5bl68bn4d30tot1100 bb450nuc5bl75bn4d30tot1200
# bb75nuc5bl12bn4d30tot200
###


###
# Box and units  (use LJ units and periodic boundaries)
###

units lj
log nuc5branch4/logs/$f.log
log nuc5branch4/logs/bb337nuc5bl56bn4d30tot900.log
