#atom_style bond #no stiffness
atom_style angle #with stiffness

boundary        p p p
###
# Pair interactions require lists of neighbours to be calculated
###

#neighbor 0.3 bin
neighbor 4 bin

neigh_modify every 1 delay 1 check yes
atom_modify sort 0 0
### Generate RESTART file, SPECIAL format, not a .txt file ###
### Useful if simulation crashes ###

restart 1000000 nuc5branch4/restarts/$f.restart
restart 1000000 nuc5branch4/restarts/bb375nuc5bl62bn4d30tot1000.restart
#############################



### READ "start" data file ###

read_data nuc5branch4/$f.dat
read_data nuc5branch4/bb375nuc5bl62bn4d30tot1000.dat
Reading data file ...
  orthogonal box = (-1000 -1000 -1000) to (1000 1000 1000)
  1 by 1 by 2 MPI processor grid
  reading atoms ...
  993 atoms
  scanning bonds ...
  3 = max bonds/atom
  scanning angles ...
  6 = max angles/atom
  reading bonds ...
  992 bonds
  reading angles ...
  1006 angles
Finding 1-2 1-3 1-4 neighbors ...
  special bond factors lj:    0        0        0       
  special bond factors coul:  0        0        0       
     4 = max # of 1-2 neighbors
     4 = max # of 1-3 neighbors
     8 = max # of 1-4 neighbors
    12 = max # of special neighbors
  special bonds CPU = 0.001 seconds
  read_data CPU = 0.102 seconds

######################

### READ "REstart" data file ###

######################



###
# Define groups (atom type 1 is group 'all')
###
group all type 1
993 atoms in group all


###
# Dump configs - "simple dumpings"
###

###
# Dump configs + box coords
###

dump   1   all   custom   1000  nuc5branch4/trjs/$f.lammpstrj  id  x y z  ix iy iz
dump   1   all   custom   1000  nuc5branch4/trjs/bb375nuc5bl62bn4d30tot1000.lammpstrj  id  x y z  ix iy iz
dump_modify   1   format line "%d %.5f %.5f %.5f %d %d %d"

########################################################################


###################################################################
# Stiffness term
#
# E = K * (1+cos(theta)), K>0
#
angle_style   cosine
#change this coefficient to change stiffness (e.g. 1,5,10)
angle_coeff   1 1.0
###################################################################

###################################################################
# Pair interaction between non-bonded atoms
#
#  Lennard-Jones 12-6 potential with cutoff:
#  potential E=4epsilon[ (sigma/r)^12 - (sigma/r)^6]  for r<r_cut
#
#  1.12246 = 2^(1/6) is the minimum of the potential


pair_style      lj/cut 1.12246152962189
#pair_style      lj/cut 3

#
#  pair_modify shift yes adds a constant to the potential such

#  that E(r_cut)=0. Forces remains unchanged.
#

pair_modify     shift yes

#
#  pair_coeff for lj/cut, specify 4:
#    * atom type interacting with
#    * atom type
#    * epsilon (energy units)
#    * sigma (distance units)
#

pair_coeff      1 1 1.0 1.0
###################################################################

###################################################################
# Pair interaction between non-bonded atoms
#
#  soft potential, for PUSHING apart overlapping atoms
#  potential E=A*(1 + cos(pi*r/r_c))
#
#  1.12246 = 2^(1/6) is the cut-off r_c

#pair_style     soft 1.12246152962189

#
#  pair_coeff for soft, specify 3:
#    * atom type interacting with
#    * atom type
#    * A
#
#

#pair_coeff      1 1 100.0
###################################################################

###################################################################
# Pair interaction between bonded atoms
#
# Fene potential + Lennard Jones 12-6:

#
#  E= - 0.5 K R0^2 ln[ 1- (r/R0)^2]
#     + 4epsilon[ (sigma/r)^12 - (sigma/r)^6] + epsilon
#

bond_style   fene


#
# For style fene, specify:
#   * bond type
#   * K (energy/distance^2)
#   * R0 (distance)
#   * epsilon (energy)  (LJ component)
#   * sigma (distance)  (LJ component)
#


special_bonds fene #<=== I M P O R T A N T (new command)
Finding 1-2 1-3 1-4 neighbors ...
  special bond factors lj:    0        1        1       
  special bond factors coul:  0        1        1       
     4 = max # of 1-2 neighbors
    12 = max # of special neighbors
  special bonds CPU = 0.000 seconds

bond_coeff   1   30   2   1.0   1.0


###################################################

###################################################################
# Pair interaction between bonded atoms
#
# Harmonic potential:
#
#  E= K * (R-R0)^2
#

#bond_style   harmonic

#
# For style harmonic, specify:
#   * bond type
#   * K (energy/distance^2)
#   * R0 (distance)
#

#bond_coeff   1   60.0   1.0
#bond_coeff   2   harmonic 0.1   1.0

###################################################
compute 1 all gyration
variable rog equal c_1
#compute 2 all coord/atom cutoff 1.1

#dump 2 all custom 10000 contact_number.dump id c_2


###
# Set up fixes
###
thermo_style   custom   step  temp enthalpy c_1
fix 1 all nve   ###NVE ensemble

fix 2 all   langevin   1.0 1.0 1.0  100103   ###Langevin integrator Tstart Tstop 1/friction rndseed


##### Sample thermodynamic info  (temperature, energy, pressure, etc.) #####
thermo 1000









############################################################################

###
# set timestep of integrator

timestep 0.01

###
# run integration for a number of steps
###
#run 0
#variable r equal c_1
#if "$r < 63.1" then "quit 1"

# lj potential minimum, cause molecule to explore
run 100000
Generated 0 of 0 mixed pair_coeff terms from geometric mixing rule
Last active /omp style is angle_style cosine/omp
Neighbor list info ...
  update: every = 1 steps, delay = 1 steps, check = yes
  max neighbors/atom: 2000, page size: 100000
  master list distance cutoff = 5.1224615
  ghost atom cutoff = 5.1224615
  binsize = 2.5612308, bins = 781 781 781
  1 neighbor lists, perpetual/occasional/extra = 1 0 0
  (1) pair lj/cut/omp, perpetual
      attributes: half, newton on, omp
      pair build: half/bin/newton/omp
      stencil: half/bin/3d
      bin: standard
WARNING: Communication cutoff 5.12246152962189 is shorter than a bond length based estimate of 5.455. This may lead to errors. (src/comm.cpp:723)
Per MPI rank memory allocation (min/avg/max) = 941.4 | 942.1 | 942.7 Mbytes
   Step          Temp         Enthalpy         c_1      
         0   0              13.254201      73.911025    
      1000   1.0041329      18.554888      72.989853    
      2000   0.9922615      19.301343      72.585169    
      3000   1.0231041      19.143917      72.187449    
      4000   1.0061169      19.89149       71.614141    
      5000   0.97060028     19.183171      71.006214    
      6000   1.0300255      19.561768      70.562905    
      7000   0.99843587     19.52438       70.14734     
      8000   1.0154161      19.540346      69.716638    
      9000   0.99071546     19.84046       69.618951    
     10000   1.0376671      19.302756      69.163011    
     11000   0.96195516     19.804935      68.593719    
     12000   1.0175413      19.409282      68.351088    
     13000   1.0317272      19.660225      68.04486     
     14000   0.99429631     20.114418      67.858601    
     15000   1.0315241      19.924372      67.585912    
     16000   1.0290843      19.932154      67.342734    
     17000   1.0241962      20.190598      67.281703    
     18000   1.0198689      19.308128      67.210078    
     19000   0.99171191     19.665952      66.939875    
     20000   1.0155679      20.322306      66.968967    
     21000   1.0044024      19.662182      66.994653    
     22000   1.0491383      20.296487      66.521997    
     23000   1.016017       20.47431       66.378113    
     24000   0.97054059     20.266342      66.178276    
     25000   0.98156722     20.603574      66.006783    
     26000   0.99436453     20.280206      65.774745    
     27000   1.0127599      21.111828      65.527468    
     28000   0.9987793      20.441646      65.26855     
     29000   0.93143713     20.138606      65.20532     
     30000   0.99274663     20.467493      65.000226    
     31000   0.96598916     20.753867      65.053992    
     32000   0.99463432     19.975844      64.882684    
     33000   1.0065051      20.416677      64.669114    
     34000   1.0185205      20.612029      64.729576    
     35000   1.023126       20.185791      64.720451    
     36000   1.0238127      20.354043      64.718108    
     37000   0.96357296     20.052403      64.537202    
     38000   1.0038923      20.219377      64.444506    
     39000   0.99850619     20.263134      64.443157    
     40000   0.99103602     20.331371      64.301025    
     41000   0.99628125     20.614228      64.398736    
     42000   0.98454883     20.469008      64.443163    
     43000   0.95547755     20.347413      64.526316    
     44000   0.95715709     19.896676      64.486825    
     45000   1.0134434      20.464463      64.241889    
     46000   1.0110644      20.308417      63.962517    
     47000   1.028423       20.903741      63.825657    
     48000   0.97405353     20.582703      63.732288    
     49000   1.0243422      20.150194      63.459795    
     50000   0.98677258     19.937612      63.540016    
     51000   0.98434411     20.294954      63.411504    
     52000   0.98805859     20.644414      63.15111     
     53000   0.97717106     19.66041       63.10083     
     54000   0.98760928     20.520912      63.112033    
     55000   1.029217       20.248814      63.154599    
     56000   0.99555284     20.186807      63.065137    
     57000   0.9821724      20.448461      63.118476    
     58000   1.0017614      20.793388      62.978591    
     59000   1.0038335      20.397221      62.869601    
     60000   1.0252938      20.364553      62.627937    
     61000   0.99397253     20.241973      62.568015    
     62000   0.99413949     20.221012      62.46313     
     63000   1.0175585      20.485348      62.147852    
     64000   1.0045455      20.473216      62.087959    
     65000   0.97525682     20.095972      62.047769    
     66000   0.98704115     20.634066      61.908964    
     67000   1.0046193      20.490748      61.971175    
     68000   0.99289338     20.679929      61.800085    
     69000   0.96102713     19.94422       61.747431    
     70000   0.995421       20.44519       61.607732    
     71000   1.029439       20.996097      61.400757    
     72000   1.0215107      20.267016      61.267947    
     73000   0.99895457     20.009054      61.148123    
     74000   0.97769435     20.373304      61.047079    
     75000   0.99656609     20.20881       61.058261    
     76000   1.0388483      20.622316      60.934228    
     77000   0.94950124     19.966272      60.701471    
     78000   1.0002051      20.036893      60.628215    
     79000   0.99976083     20.447015      60.553845    
     80000   1.0205327      20.58218       60.661007    
     81000   1.0110444      20.32311       60.599217    
     82000   0.9972438      20.492718      60.524879    
     83000   0.99916996     20.728422      60.281203    
     84000   0.97048398     19.931005      60.341341    
     85000   0.97520707     20.43634       60.227817    
     86000   1.0112989      20.540205      60.034128    
     87000   1.0014054      20.365547      60.173429    
     88000   0.93132269     19.565292      60.25189     
     89000   1.0332255      20.829538      60.16199     
     90000   1.0211594      20.21051       59.944405    
     91000   0.99806925     20.155017      59.917763    
     92000   0.99493466     20.835335      59.805194    
     93000   1.0045217      20.595951      59.959708    
     94000   0.99515204     20.669521      59.962118    
     95000   0.98236797     20.742185      59.963161    
     96000   0.95772739     20.215484      59.938645    
     97000   1.0039118      20.522602      59.841962    
     98000   1.0187245      20.766939      59.866271    
     99000   0.95376771     20.45994       59.920676    
    100000   1.0493254      20.826038      59.829693    
Loop time of 216.072 on 4 procs for 100000 steps with 993 atoms

Performance: 399866.408 tau/day, 462.808 timesteps/s
107.3% CPU use with 2 MPI tasks x 2 OpenMP threads

MPI task timing breakdown:
Section |  min time  |  avg time  |  max time  |%varavg| %total
---------------------------------------------------------------
Pair    | 0.13159    | 1.0732     | 2.0149     |  90.9 |  0.50
Bond    | 0.23672    | 1.6993     | 3.1619     | 112.2 |  0.79
Neigh   | 203.27     | 203.27     | 203.27     |   0.0 | 94.07
Comm    | 0.066094   | 0.068036   | 0.069978   |   0.7 |  0.03
Output  | 0.34342    | 0.35453    | 0.36564    |   1.9 |  0.16
Modify  | 0.39334    | 3.4859     | 6.5784     | 165.6 |  1.61
Other   |            | 6.121      |            |       |  2.83

Nlocal:          496.5 ave         993 max           0 min
Histogram: 1 0 0 0 0 0 0 0 0 1
Nghost:              0 ave           0 max           0 min
Histogram: 2 0 0 0 0 0 0 0 0 0
Neighs:           4489 ave        8978 max           0 min
Histogram: 1 0 0 0 0 0 0 0 0 1

Total # of neighbors = 8978
Ave neighs/atom = 9.041289
Ave special neighs/atom = 1.9979859
Neighbor list builds = 1179
Dangerous builds = 0

# Replace lj potential, now collapse
pair_style      lj/cut 3

# Cutoff simul when gyration under 10
# Variable created with equal requires v_ + 'name'
fix 3 all halt 1000 v_rog < 7

run 3000000
Generated 0 of 0 mixed pair_coeff terms from geometric mixing rule
Last active /omp style is angle_style cosine/omp
Per MPI rank memory allocation (min/avg/max) = 941.4 | 942.1 | 942.7 Mbytes
   Step          Temp         Enthalpy         c_1      
    100000   1.0493254      19.898139      59.829693    
    101000   1.0195791      19.890467      59.601804    
    102000   0.99589407     19.316658      59.628014    
    103000   1.0050979      18.79138       59.415619    
    104000   1.0032831      19.180218      59.11313     
    105000   0.99755344     18.941693      58.704223    
    106000   1.0235194      19.252632      58.437711    
    107000   0.9982664      18.39611       58.136141    
    108000   0.98685279     18.626402      58.19966     
    109000   0.97210373     18.601875      57.974149    
    110000   0.9757203      18.650752      57.730663    
    111000   1.0200118      18.39457       57.505114    
    112000   0.98415208     18.982843      57.196789    
    113000   1.0532106      18.58575       56.883188    
    114000   1.0283761      18.182897      56.638653    
    115000   1.0037841      18.728123      56.444846    
    116000   1.0225752      18.825995      56.445062    
    117000   1.0111215      18.476789      56.290636    
    118000   1.0005137      18.644105      56.104674    
    119000   1.0155435      18.377423      55.772829    
    120000   1.0377807      18.710918      55.671213    
    121000   1.0157252      18.258488      55.779795    
    122000   0.98545825     17.845056      55.616757    
    123000   0.95803476     18.858072      55.490363    
    124000   0.97599738     17.986708      55.426127    
    125000   1.0286762      17.934993      55.361882    
    126000   0.96520444     17.834531      55.319436    
    127000   0.98494898     18.048679      55.388178    
    128000   0.97422545     18.022593      55.28409     
    129000   1.0283827      18.327954      55.212247    
    130000   0.98200179     18.04505       55.108086    
    131000   1.0083192      17.836587      54.822743    
    132000   1.0256777      18.292058      54.778211    
    133000   1.0269883      17.76358       54.774505    
    134000   1.0104448      18.081371      54.793611    
    135000   0.99268609     17.637923      54.906856    
    136000   1.0139677      18.202315      54.619499    
    137000   0.98857217     17.502408      54.533411    
    138000   1.0186599      18.095724      54.522249    
    139000   1.0034632      18.223925      54.435903    
    140000   1.0334426      17.821152      54.226455    
    141000   1.0389339      18.140766      53.947224    
    142000   0.96198131     18.225874      54.006783    
    143000   0.97562664     18.773524      53.931132    
    144000   0.9933328      18.888796      53.826318    
    145000   0.99164254     17.750928      53.761632    
    146000   0.98774043     17.902726      53.551701    
    147000   1.0037666      18.067858      53.332622    
    148000   0.98305916     17.656673      53.154148    
    149000   1.0108138      17.567446      53.195445    
    150000   0.98294266     18.090581      53.235085    
    151000   1.0031163      17.866536      53.40215     
    152000   1.0041115      18.152785      53.269796    
    153000   1.0058435      18.023285      52.996271    
    154000   1.0077356      17.742954      52.818197    
    155000   0.97639387     17.521308      52.842307    
    156000   1.0241884      17.997477      52.80423     
    157000   1.0065903      18.375181      52.531591    
    158000   0.98152167     18.78752       52.357788    
    159000   0.99291934     18.729418      52.131707    
    160000   1.0166364      17.859202      52.124685    
    161000   1.0162508      17.806517      52.109441    
    162000   0.99561655     17.871626      52.115668    
    163000   0.98456214     17.893391      51.976952    
    164000   1.0240662      18.047641      51.653733    
    165000   1.0079818      17.388005      51.657511    
    166000   0.97110381     18.235677      51.549586    
    167000   1.0226016      18.586904      51.295045    
    168000   0.97593845     17.521033      51.234051    
    169000   1.0282514      18.011263      51.055126    
    170000   1.0117341      17.914133      50.941365    
    171000   0.99482926     18.077447      50.866179    
    172000   0.95116409     17.942764      50.870243    
    173000   0.94868823     17.915493      50.834131    
    174000   1.0009755      17.890014      50.72533     
    175000   1.062205       17.947565      50.409442    
    176000   1.0137063      17.899893      50.312082    
    177000   1.003082       18.123011      50.090968    
    178000   1.0552336      17.835035      50.055427    
    179000   1.0299109      17.747253      50.074167    
    180000   0.96169067     17.839009      49.806008    
    181000   1.0159699      18.005804      50.029149    
    182000   0.96598775     17.835686      50.054727    
    183000   1.0218719      17.644312      49.951477    
    184000   1.0043341      17.870482      50.021525    
    185000   0.98691015     18.120297      49.779926    
    186000   0.98275071     17.775892      49.600881    
    187000   1.0652179      18.53418       49.509722    
    188000   0.9892111      17.786426      49.190128    
    189000   1.0255537      17.485841      48.932418    
    190000   0.99600943     18.613034      48.656074    
    191000   0.994573       17.627799      48.609849    
    192000   0.96667386     17.905406      48.659302    
    193000   1.0247162      17.946804      48.4548      
    194000   1.0314719      18.066765      48.385387    
    195000   1.0162217      18.022589      48.354796    
    196000   0.98851591     17.795689      48.262384    
    197000   0.9662589      18.351202      48.106611    
    198000   1.0094145      18.546459      48.115562    
    199000   0.99510057     18.085655      47.994702    
    200000   0.97273414     18.246978      47.875056    
    201000   0.98612788     17.694423      47.537894    
    202000   0.96481225     17.345549      47.423993    
    203000   1.0212593      17.770632      47.30349     
    204000   1.0026971      18.256927      47.205841    
    205000   1.0664822      18.242746      47.041459    
    206000   0.94357372     17.903006      46.780062    
    207000   0.98939482     17.995263      46.590859    
    208000   1.0255374      18.661779      46.566092    
    209000   0.97600715     17.878141      46.401397    
    210000   0.95574309     17.687705      46.347838    
    211000   1.0043462      17.684573      46.261314    
    212000   1.0070708      18.040274      46.043911    
    213000   1.0315823      18.482155      45.984955    
    214000   0.98249145     17.690665      45.809687    
    215000   1.0065338      17.735968      45.932966    
    216000   1.0247231      17.712447      45.940017    
    217000   0.99451293     17.882269      45.719488    
    218000   0.97949938     17.968771      45.647618    
    219000   0.99559642     18.247595      45.551683    
    220000   1.0340012      18.75526       45.302761    
    221000   0.97737014     17.641932      45.279447    
    222000   0.99839967     17.706084      45.144824    
    223000   1.0068013      17.68011       45.205923    
    224000   1.007373       17.35112       44.839389    
    225000   1.056992       17.972831      44.835523    
    226000   1.0256692      17.772211      44.76175     
    227000   0.95465863     18.136901      44.635676    
    228000   0.97267308     17.586606      44.678831    
    229000   1.0862891      18.489493      44.501878    
    230000   1.0192979      18.253008      44.537898    
    231000   1.0138239      18.120779      44.42624     
    232000   1.0075808      17.447373      44.350801    
    233000   1.0246541      17.934212      44.276367    
    234000   0.97380245     17.925744      44.195067    
    235000   0.96234919     17.591866      44.035172    
    236000   1.0029084      18.101725      43.931571    
    237000   1.0507451      17.722117      43.923744    
    238000   0.97908447     17.983704      44.074116    
    239000   1.0431406      18.014525      43.959231    
    240000   1.0472829      18.025573      43.822714    
    241000   1.0126038      17.969973      43.931052    
    242000   0.99670953     17.740527      43.789326    
    243000   1.0374266      17.930636      43.573891    
    244000   0.99873058     17.811992      43.406653    
    245000   0.99847225     16.856248      43.492045    
    246000   0.9606916      18.231705      43.292951    
    247000   0.96832726     17.51041       43.055386    
    248000   1.0290524      18.085995      42.879401    
    249000   1.0048688      17.811161      42.688884    
    250000   1.0026519      18.092174      42.674097    
    251000   1.0006128      18.054841      42.392334    
    252000   0.99526878     17.870501      42.244989    
    253000   1.0035215      18.503599      42.108863    
    254000   0.99859172     17.502803      41.781174    
    255000   1.017544       17.914169      41.865591    
    256000   1.0016484      18.502182      41.53071     
    257000   1.0300595      18.004722      41.590185    
    258000   1.027975       18.222065      41.407832    
    259000   0.98261107     17.87421       41.448996    
    260000   0.99544655     17.423929      41.233721    
    261000   1.0419922      17.90676       41.073371    
    262000   1.0397022      18.151253      40.896949    
    263000   0.984429       17.148018      40.866755    
    264000   1.0024825      17.469708      40.728233    
    265000   1.0083586      17.635365      40.428338    
    266000   1.0214553      17.416511      40.296871    
    267000   1.0092008      17.98483       40.352711    
    268000   1.0035479      17.675428      40.509433    
    269000   0.99921419     18.395084      40.712019    
    270000   0.96622106     18.260427      40.646059    
    271000   0.99856023     17.70029       40.569417    
    272000   0.97746652     17.490079      40.487196    
    273000   1.0210554      17.856413      40.32157     
    274000   1.0084466      17.608396      40.154208    
    275000   1.0485064      18.004789      39.871791    
    276000   0.94753964     17.618237      39.924584    
    277000   1.0145675      18.309936      39.669558    
    278000   1.001168       17.940299      39.598506    
    279000   0.98610849     17.0353        39.609383    
    280000   1.0093625      17.794346      39.56644     
    281000   0.96261537     17.936461      39.428764    
    282000   0.98972865     17.773471      39.360398    
    283000   0.98299486     17.687981      39.29628     
    284000   1.0322632      18.187893      39.137613    
    285000   1.0486563      17.757843      38.891012    
    286000   1.0126923      17.642366      38.631056    
    287000   0.98485624     18.401015      38.49861     
    288000   1.0452062      18.26721       38.467962    
    289000   1.0354662      17.96804       38.121739    
    290000   1.0207837      17.558097      37.791221    
    291000   1.012592       17.713376      37.631308    
    292000   1.0102697      18.104771      37.457284    
    293000   1.0175418      17.822383      37.274229    
    294000   1.0362685      18.154689      37.288117    
    295000   1.0089128      17.377132      37.080168    
    296000   0.98065764     18.015528      36.857327    
    297000   0.97135239     17.240261      36.861139    
    298000   1.048092       17.659068      36.790947    
    299000   1.0139633      17.472568      36.606594    
    300000   1.0071623      17.769384      36.520612    
    301000   1.0459648      17.786275      36.60214     
    302000   0.96549944     17.406004      36.650545    
    303000   1.0255426      17.94247       36.725652    
    304000   1.021506       17.964276      36.451248    
    305000   1.0156834      18.068834      36.427678    
    306000   0.99518069     17.719997      36.26932     
    307000   1.0158797      18.151613      36.181715    
    308000   0.97531526     17.907447      35.997637    
    309000   1.0078366      17.602727      35.942483    
    310000   0.97771962     17.748942      35.944201    
    311000   0.95829716     18.054736      36.03456     
    312000   0.99203853     17.734958      36.343731    
    313000   0.98003611     18.002042      36.110956    
    314000   1.0069696      17.57459       35.861648    
    315000   0.94424301     17.246229      35.760014    
    316000   1.0005078      17.43864       35.865686    
    317000   1.0140269      17.903208      35.840108    
    318000   0.98096023     17.852124      35.707361    
    319000   0.99047642     17.623762      35.404349    
    320000   1.0376193      17.700295      35.379244    
    321000   1.0035937      17.502516      35.434131    
    322000   1.0072721      17.585871      35.311465    
    323000   0.97949555     17.825956      35.276062    
    324000   1.001164       18.273546      35.437424    
    325000   0.9905526      17.939663      35.150764    
    326000   0.99965216     17.998612      35.146869    
    327000   0.99204055     17.3917        35.339641    
    328000   1.025508       17.992207      35.205926    
    329000   1.0050337      17.272374      35.128499    
    330000   0.97992925     17.83241       35.050921    
    331000   0.97051358     17.440092      34.933065    
    332000   0.9520536      18.009254      34.739459    
    333000   0.99821149     17.857286      34.659952    
    334000   1.0135108      17.660412      34.647558    
    335000   0.96947309     17.481037      34.391827    
    336000   0.99609708     17.686674      34.178631    
    337000   1.044517       17.462315      33.870347    
    338000   0.98845156     17.667488      33.635367    
    339000   0.99320485     18.078411      33.464279    
    340000   1.0227364      17.518289      33.233014    
    341000   0.96979838     17.696611      33.340027    
    342000   1.0409031      17.697421      33.355497    
    343000   1.0375735      18.19807       33.443316    
    344000   1.0119731      17.763134      33.23237     
    345000   0.99386719     17.968877      33.287912    
    346000   1.0486064      18.241347      33.483598    
    347000   0.97779648     17.32479       33.359636    
    348000   0.94759827     17.425878      33.17677     
    349000   0.99061787     17.697696      33.305434    
    350000   1.0110109      18.24626       33.236951    
    351000   1.0433583      17.901423      33.205692    
    352000   1.003992       18.262152      32.851723    
    353000   1.0190221      17.726678      32.542641    
    354000   0.98540705     17.570277      32.344033    
    355000   1.0243539      17.568889      32.27466     
    356000   1.0294226      17.584654      32.345508    
    357000   0.97233017     17.50645       32.137387    
    358000   1.0216753      17.844203      31.957342    
    359000   0.99897715     17.92546       31.743237    
    360000   1.0302823      17.501204      31.705145    
    361000   1.005388       17.974425      31.583932    
    362000   1.0242931      17.752819      31.610193    
    363000   1.0100514      17.839821      31.664168    
    364000   1.0570258      17.278158      31.7373      
    365000   0.98559333     17.38697       31.709279    
    366000   1.0136609      17.816714      31.59547     
    367000   1.015845       17.539274      31.616113    
    368000   1.0202227      17.566629      31.594433    
    369000   1.0084534      17.295324      31.500287    
    370000   1.0401215      18.196282      31.232626    
    371000   0.99253378     17.938599      31.406744    
    372000   0.97080661     17.518866      31.340888    
    373000   0.96876951     18.044714      31.357256    
    374000   1.0153263      18.233192      30.998672    
    375000   1.0082522      18.136671      30.987394    
    376000   1.0210148      17.824081      31.055309    
    377000   0.99898349     17.371017      30.972766    
    378000   0.97476223     17.972279      30.832097    
    379000   1.0452397      17.795831      30.849666    
    380000   1.0171639      17.732045      30.714576    
    381000   0.99787113     17.56059       30.531581    
    382000   1.0080462      18.05291       30.301563    
    383000   0.97623633     17.587868      30.203263    
    384000   1.0286923      18.051009      30.006179    
    385000   1.0563611      17.476776      30.048195    
    386000   1.0124568      17.081703      30.060178    
    387000   1.010538       17.809717      29.918692    
    388000   0.98663109     17.145734      29.950492    
    389000   0.9623765      17.543487      30.027083    
    390000   1.0152832      18.205918      29.917797    
    391000   1.0139787      17.715741      29.984941    
    392000   0.99361239     17.322202      30.001852    
    393000   0.98476078     17.507071      29.864623    
    394000   1.0353511      18.226637      29.705899    
    395000   0.99793611     17.896096      29.738097    
    396000   0.96257614     17.728413      29.837787    
    397000   0.97274958     18.011215      29.796848    
    398000   1.0176659      17.58924       29.750442    
    399000   0.99919758     18.035803      29.562751    
    400000   0.99815576     17.59486       29.512093    
    401000   0.97475897     17.713107      29.396214    
    402000   1.0075875      17.563521      29.337496    
    403000   1.0557859      17.954982      29.233715    
    404000   1.0202168      17.925463      29.063125    
    405000   1.0147176      17.280257      29.172205    
    406000   1.0055005      17.859656      29.086234    
    407000   1.0244451      16.859116      29.15242     
    408000   1.0513523      17.390178      29.025637    
    409000   1.0095917      17.357885      28.732787    
    410000   1.0005976      17.384698      28.729171    
    411000   0.99183446     18.515498      28.547014    
    412000   1.0530018      17.264357      28.373552    
    413000   0.99821508     17.461839      28.50304     
    414000   0.96599696     17.596257      28.548922    
    415000   1.0131129      17.088548      28.423681    
    416000   1.0196868      17.72253       28.257325    
    417000   0.95730471     17.65567       28.443132    
    418000   1.0319973      16.885554      28.215087    
    419000   0.96759157     17.311081      28.174799    
    420000   1.0073032      17.486069      28.122358    
    421000   1.0448647      17.930405      27.794877    
    422000   1.0314005      17.348244      27.81059     
    423000   1.0093877      17.119197      27.596722    
    424000   1.0004088      17.032863      27.584592    
    425000   1.0078328      17.423884      27.591899    
    426000   1.0446076      17.554756      27.705246    
    427000   1.0478938      17.965543      27.900055    
    428000   0.95426839     17.774069      28.059672    
    429000   0.98158067     17.722065      28.203338    
    430000   1.0305171      17.887321      28.150259    
    431000   0.96790922     17.36114       28.000577    
    432000   0.99028696     17.122563      28.156182    
    433000   1.0556073      17.829937      27.867465    
    434000   0.98488609     17.114876      27.850624    
    435000   0.99701095     18.359528      27.910042    
    436000   1.0355678      17.435866      27.868992    
    437000   0.99621133     17.729962      27.603212    
    438000   0.99268792     16.695414      27.321764    
    439000   1.0317729      17.885188      27.253873    
    440000   1.0208244      17.195494      27.186611    
    441000   1.0061616      17.47412       26.935541    
    442000   0.98389103     17.137167      26.973262    
    443000   0.9965653      17.254354      27.130458    
    444000   0.99459444     16.797686      27.107821    
    445000   0.99965575     16.935855      26.7022      
    446000   1.0127385      17.275801      26.706129    
    447000   0.98984941     17.670959      26.513871    
    448000   1.005548       17.536518      26.527192    
    449000   0.98239532     17.34175       26.579793    
    450000   0.98307129     17.258806      26.586464    
    451000   0.96040287     17.24587       26.491009    
    452000   0.97962476     17.513627      26.66208     
    453000   1.0325042      17.47553       26.84495     
    454000   1.000416       17.189214      26.961201    
    455000   0.96783025     17.479847      26.680935    
    456000   1.0545295      17.4956        26.808805    
    457000   0.97348433     17.735899      26.450473    
    458000   1.0119108      18.063503      26.346363    
    459000   1.0378062      17.965821      26.339033    
    460000   1.0278474      17.304202      26.210306    
    461000   1.0020948      17.355007      25.983947    
    462000   0.98812628     17.284642      26.021069    
    463000   0.94031766     17.092859      25.698401    
    464000   1.0074568      17.215365      25.643725    
    465000   1.0308469      17.90158       25.55825     
    466000   1.0174643      17.729748      25.378546    
    467000   0.98309178     17.410607      25.595667    
    468000   0.95578362     17.411918      25.645715    
    469000   0.97141416     17.71298       25.615002    
    470000   0.98575784     17.388737      25.303275    
    471000   1.0208158      17.41958       25.067272    
    472000   1.0263991      17.126622      24.901932    
    473000   0.99981751     17.269602      24.810059    
    474000   1.0216011      17.450697      24.879465    
    475000   0.93726753     17.23062       24.696394    
    476000   1.0623218      17.769694      24.700022    
    477000   1.0265558      17.312564      24.642291    
    478000   1.0288381      17.221034      24.473885    
    479000   0.96907302     17.579148      24.329626    
    480000   1.0143124      16.834431      24.388746    
    481000   0.93327649     17.77559       24.210113    
    482000   0.96344002     17.269017      24.472684    
    483000   0.9584013      17.975781      24.294227    
    484000   1.014597       17.511654      24.303469    
    485000   1.0359619      17.366578      24.36585     
    486000   0.97150488     17.598216      24.172394    
    487000   0.97809297     17.510912      24.310529    
    488000   0.99443872     17.596631      24.130742    
    489000   0.95967158     17.112092      24.089145    
    490000   1.035566       17.543284      24.083563    
    491000   0.99617308     17.415062      24.170359    
    492000   0.98359436     16.873211      24.162281    
    493000   1.0784647      17.654745      24.113605    
    494000   0.97898859     17.419407      23.934086    
    495000   0.99969517     17.215647      24.002018    
    496000   1.0154835      17.639177      23.735793    
    497000   0.99254462     17.173023      23.68594     
    498000   1.0233113      17.243818      23.529683    
    499000   1.010339       16.933301      23.392266    
    500000   0.9833185      16.788308      23.280057    
    501000   1.0021424      17.466163      23.144645    
    502000   1.0346417      17.167274      23.230251    
    503000   1.0263633      17.294733      23.388209    
    504000   0.99102775     17.645519      23.466914    
    505000   1.0061706      17.139173      23.427735    
    506000   1.0040261      17.43624       23.543966    
    507000   0.97783802     17.194249      23.455606    
    508000   0.99989715     17.371456      23.239641    
    509000   1.0187917      17.723269      23.534848    
    510000   1.0177228      17.369879      23.351981    
    511000   0.98996046     17.833784      23.26183     
    512000   0.98975571     17.155906      23.223459    
    513000   1.0143032      17.527825      22.978216    
    514000   1.0240001      16.855468      23.034848    
    515000   1.0271505      17.83771       22.814273    
    516000   1.0023614      17.48576       22.564445    
    517000   1.0199796      17.732691      22.606377    
    518000   0.98945043     17.404565      22.515574    
    519000   0.97967276     17.313998      22.618956    
    520000   0.95614491     17.502301      22.422075    
    521000   1.0230501      16.83166       22.105999    
    522000   1.0200578      17.264193      21.976711    
    523000   1.0210334      17.539219      21.821636    
    524000   1.023979       17.297723      21.703413    
    525000   0.96668088     17.363744      21.410613    
    526000   0.98504549     16.930435      21.478575    
    527000   0.981655       17.065366      21.342368    
    528000   1.0038308      17.207594      21.382078    
    529000   1.0420661      17.646457      21.325912    
    530000   0.98750523     16.940455      21.34583     
    531000   0.98200011     17.170415      21.245251    
    532000   0.98581462     16.927431      21.182743    
    533000   1.0072611      17.148397      20.901157    
    534000   0.98756862     17.091035      20.533532    
    535000   0.9533199      16.855065      20.44525     
    536000   1.0400043      18.078889      20.255592    
    537000   0.99933254     17.809518      20.130493    
    538000   0.98150814     17.02037       20.136102    
    539000   1.0313072      17.60147       20.161003    
    540000   1.041338       16.845442      20.219934    
    541000   0.98594813     16.411486      20.061243    
    542000   1.0068303      17.511136      19.868644    
    543000   1.0214884      17.435545      20.021563    
    544000   0.97463949     17.242204      19.867371    
    545000   1.0677573      17.590482      19.916494    
    546000   1.0061507      16.965661      19.857997    
    547000   1.0455264      17.568055      19.71307     
    548000   1.0025338      17.515695      19.604684    
    549000   1.0372721      17.315207      19.346925    
    550000   1.0096393      17.138508      18.960825    
    551000   0.97675434     17.610926      18.876781    
    552000   1.0183587      17.188687      18.694292    
    553000   1.0669431      16.783818      18.723284    
    554000   0.9980563      17.72403       18.497335    
    555000   1.0250184      17.701021      18.186228    
    556000   1.0428798      16.744995      18.124254    
    557000   1.0151189      17.98839       18.104376    
    558000   1.0110524      17.609652      17.952366    
    559000   0.98312054     17.200025      18.018413    
    560000   0.97726522     16.987967      17.894109    
    561000   1.007233       17.067619      17.524878    
    562000   1.0328669      17.175974      17.449199    
    563000   1.0145675      17.776162      17.395252    
    564000   0.99636645     17.064402      17.366       
    565000   0.97448215     16.919131      17.237455    
    566000   1.0469383      17.326278      17.182232    
    567000   0.96295421     17.368863      17.111084    
    568000   1.0507979      18.149523      16.911375    
    569000   0.95884865     17.27294       16.970496    
    570000   0.97186706     17.076291      16.906916    
    571000   1.0011289      17.136468      16.742127    
    572000   0.97421583     17.519457      16.757698    
    573000   1.0170294      17.200703      16.700096    
    574000   0.98686165     17.405291      16.5777      
    575000   0.98253513     16.943533      16.588487    
    576000   0.96430652     16.325021      16.384179    
    577000   0.98215855     17.398229      16.17145     
    578000   0.99097824     17.040291      16.108353    
    579000   0.98773435     17.229151      16.285968    
    580000   0.97662435     17.293805      16.253959    
    581000   1.0082763      17.137292      16.345519    
    582000   1.0413648      16.904622      16.283676    
    583000   1.0260441      18.129273      16.297405    
    584000   1.002667       17.42443       16.315331    
    585000   0.97438062     17.915298      16.333904    
    586000   1.0022255      16.959653      16.38992     
    587000   0.99250457     17.076668      16.36558     
    588000   1.0053491      17.338118      16.331223    
    589000   1.0118646      17.290797      16.198491    
    590000   0.99852699     17.425548      15.961492    
    591000   1.0445444      17.284518      15.950537    
    592000   0.98968699     17.613297      15.970127    
    593000   0.95094943     17.508937      15.822129    
    594000   1.0306655      17.312208      15.685819    
    595000   1.0139356      17.163602      15.843415    
    596000   0.98796905     17.26519       15.830547    
    597000   0.99114355     16.875249      15.631638    
    598000   1.0138226      16.481642      15.485797    
    599000   0.97503199     16.874273      15.028627    
    600000   1.0329997      16.982884      14.985832    
    601000   1.0103546      17.234196      14.845977    
    602000   1.0164825      17.344586      14.81796     
    603000   1.0362129      17.725496      14.956665    
    604000   1.0049033      17.060252      14.812845    
    605000   1.0206074      17.171166      14.917497    
    606000   1.0311441      17.056587      14.9445      
    607000   1.012379       16.941688      14.876016    
    608000   1.0115591      17.130692      15.07132     
    609000   1.0009786      16.667143      14.747474    
    610000   1.005913       17.182865      14.600713    
    611000   1.017087       17.232933      14.60881     
    612000   1.0051129      16.987595      14.505937    
    613000   1.0204479      17.182573      14.578464    
    614000   0.96922081     17.440962      14.68303     
    615000   1.0342831      16.933961      14.701044    
    616000   1.0019682      17.135363      14.778356    
    617000   1.0225304      17.67829       14.544692    
    618000   0.99648629     17.529139      14.514198    
    619000   1.0307117      16.842936      14.560188    
    620000   1.0021736      17.368795      14.325079    
    621000   0.97448186     17.543373      14.267658    
    622000   0.95106945     16.657497      14.013953    
    623000   0.99219374     16.709668      14.158855    
    624000   1.0091641      16.876232      13.968089    
    625000   1.0083919      17.391636      13.986465    
    626000   1.0065477      17.176737      13.851152    
    627000   0.98946769     17.554194      13.860813    
    628000   1.0142491      17.078237      13.869132    
    629000   0.99940552     17.268722      13.869416    
    630000   1.0162202      17.448183      13.840189    
    631000   0.97878697     16.746598      13.781059    
    632000   0.98418314     16.709104      13.650031    
    633000   0.97495214     17.336143      13.437602    
    634000   0.99119531     16.518927      13.024718    
    635000   0.97409738     17.351882      12.949246    
    636000   0.97614646     16.621379      12.822493    
    637000   0.99576418     16.805807      12.696121    
    638000   1.0435301      17.2909        12.538906    
    639000   0.97382364     17.242045      12.228049    
    640000   1.0019043      16.853975      12.168309    
    641000   1.0154746      17.648805      12.140669    
    642000   1.0134583      17.27973       12.148866    
    643000   0.97632307     16.780058      12.064403    
    644000   0.99197488     16.726957      12.040887    
    645000   0.99645363     16.260992      12.092697    
    646000   1.0257165      17.418096      11.87165     
    647000   0.98816384     17.064712      11.830621    
    648000   0.96616949     16.943206      11.723034    
    649000   0.99380709     17.519481      11.54367     
    650000   1.0158959      17.189011      11.378912    
    651000   0.97195328     17.003752      11.377509    
    652000   0.99617614     17.353611      11.397618    
    653000   0.96879656     17.180825      11.266206    
    654000   0.98702083     16.824011      11.28432     
    655000   0.99771371     16.954935      11.13362     
    656000   1.0188927      16.585823      11.24964     
    657000   0.96224415     17.275617      10.959788    
    658000   1.0047241      17.186579      11.025727    
    659000   0.98352029     17.177754      10.904085    
    660000   0.94237408     17.169088      10.96703     
    661000   1.0152705      17.452283      10.996637    
    662000   1.0392948      16.767554      10.953617    
    663000   0.98687657     17.142573      10.905231    
    664000   0.93769636     17.060307      10.70945     
    665000   1.0050644      16.795757      10.713951    
    666000   0.99486275     17.005251      10.678081    
    667000   1.0231876      17.519538      10.674389    
    668000   0.95934871     17.497863      10.658824    
    669000   1.053197       17.622834      10.571892    
    670000   0.99701944     17.255482      10.351895    
    671000   1.0702839      18.060007      10.49103     
    672000   0.94342543     17.27941       10.298205    
    673000   1.0181549      17.771092      10.317398    
    674000   0.96368989     16.94012       10.423526    
    675000   1.0007132      16.688423      10.350913    
    676000   0.98117315     17.270036      10.454356    
    677000   1.0032424      16.503932      10.343025    
    678000   1.008392       17.477406      10.121342    
    679000   1.0059349      17.494344      10.159124    
    680000   1.0208691      16.922043      9.9539487    
    681000   1.022171       17.263286      9.9512404    
    682000   0.9742196      16.852654      9.8014025    
    683000   1.0234159      16.766397      9.4965972    
    684000   0.99722179     16.942848      9.5249033    
    685000   1.0009339      16.8901        9.411353     
    686000   0.99625672     16.698442      9.2407644    
    687000   1.0245607      17.439214      9.2561475    
    688000   0.99224355     17.334702      9.0111578    
    689000   1.0018816      16.500205      8.9356651    
    690000   1.0811335      17.294819      8.9653658    
    691000   1.026418       17.080645      8.8147546    
    692000   0.99875921     17.239626      8.9454607    
    693000   0.98249346     16.557953      9.0520649    
    694000   1.0090279      16.886656      8.9106268    
    695000   1.0009334      16.971024      8.7224005    
    696000   0.95452821     16.954581      8.5707725    
    697000   1.0280768      16.68005       8.5875456    
    698000   0.98825405     16.82781       8.5376611    
    699000   1.0069103      17.499915      8.3363382    
    700000   1.0161932      17.587597      8.5175863    
    701000   0.99644455     17.287829      8.3612467    
    702000   0.94141546     16.768418      8.2307994    
    703000   0.96466687     17.392565      8.1299884    
    704000   0.98549355     17.255013      7.9421964    
    705000   0.95066319     16.851981      7.7198706    
    706000   1.0023855      16.544744      7.6697012    
    707000   0.9795702      16.903309      7.5940068    
    708000   1.0061229      17.368032      7.6539777    
    709000   1.0063368      17.188834      7.759077     
    710000   1.0163982      16.930394      7.8497981    
    711000   1.0226354      17.16076       7.7744905    
    712000   1.0203658      17.476078      7.5868938    
    713000   1.0175214      16.979128      7.71721      
    714000   1.0069734      16.699259      7.5848648    
    715000   0.9956603      17.033552      7.2523775    
    716000   0.97520819     16.774379      7.0412345    
Fix halt condition for fix-id 3 met on step 717000 with value 6.883972411269069 (src/fix_halt.cpp:237)
    717000   1.0339118      17.392465      6.8839724    
Loop time of 724.235 on 4 procs for 617000 steps with 993 atoms

Performance: 736070.890 tau/day, 851.934 timesteps/s
152.1% CPU use with 2 MPI tasks x 2 OpenMP threads

MPI task timing breakdown:
Section |  min time  |  avg time  |  max time  |%varavg| %total
---------------------------------------------------------------
Pair    | 1.0237     | 148.97     | 296.91     |1212.1 | 20.57
Bond    | 1.5582     | 11.01      | 20.463     | 284.9 |  1.52
Neigh   | 357.92     | 357.93     | 357.94     |   0.0 | 49.42
Comm    | 0.5216     | 0.53988    | 0.55815    |   2.5 |  0.07
Output  | 2.177      | 2.1993     | 2.2217     |   1.5 |  0.30
Modify  | 3.7265     | 22.303     | 40.88      | 393.4 |  3.08
Other   |            | 181.3      |            |       | 25.03

Nlocal:          496.5 ave         993 max           0 min
Histogram: 1 0 0 0 0 0 0 0 0 1
Nghost:              0 ave           0 max           0 min
Histogram: 2 0 0 0 0 0 0 0 0 0
Neighs:         104424 ave      208848 max           0 min
Histogram: 1 0 0 0 0 0 0 0 0 1

Total # of neighbors = 208848
Ave neighs/atom = 210.32024
Ave special neighs/atom = 1.9979859
Neighbor list builds = 5214
Dangerous builds = 0

# This simulation is done
# Move onto the next one
clear
  using 2 OpenMP thread(s) per MPI task
package omp 0
using multi-threaded neighbor list subroutines
next f
jump SELF

###
# Reference paper:
# K. Kremer and G. S. Grest
# Dynamics of entangled linear polymer melts: A molecular-dynamics simulation
# J Chem Phys 92, 5057 (1990)

##################################
# MIHIR: for branched polymers
# LJ minimum first to expand and explore, then collapse
###

###
# Looping through the various nuc5branch4 polymers to simulate,
# define variables to switch through
variable f index bb112nuc5bl18bn4d30tot300 bb150nuc5bl25bn4d30tot400 bb187nuc5bl31bn4d30tot500 bb225nuc5bl37bn4d30tot600 bb262nuc5bl43bn4d30tot700 bb300nuc5bl50bn4d30tot800 bb337nuc5bl56bn4d30tot900 bb375nuc5bl62bn4d30tot1000 bb412nuc5bl68bn4d30tot1100 bb450nuc5bl75bn4d30tot1200
# bb75nuc5bl12bn4d30tot200
###


###
# Box and units  (use LJ units and periodic boundaries)
###

units lj
log nuc5branch4/logs/$f.log
log nuc5branch4/logs/bb412nuc5bl68bn4d30tot1100.log
