#atom_style bond #no stiffness
atom_style angle #with stiffness

boundary        p p p
###
# Pair interactions require lists of neighbours to be calculated
###

#neighbor 0.3 bin
neighbor 4 bin

neigh_modify every 1 delay 1 check yes
atom_modify sort 0 0
### Generate RESTART file, SPECIAL format, not a .txt file ###
### Useful if simulation crashes ###

restart 1000000 linear/restarts3/$f.restart
restart 1000000 linear/restarts3/bb1000nuc0bl0bn0d30tot1000.restart
#############################



### READ "start" data file ###

read_data linear/$f.dat
read_data linear/bb1000nuc0bl0bn0d30tot1000.dat
Reading data file ...
  orthogonal box = (-1000 -1000 -1000) to (1000 1000 1000)
  1 by 1 by 1 MPI processor grid
  reading atoms ...
  1000 atoms
  scanning bonds ...
  1 = max bonds/atom
  scanning angles ...
  1 = max angles/atom
  reading bonds ...
  999 bonds
  reading angles ...
  998 angles
Finding 1-2 1-3 1-4 neighbors ...
  special bond factors lj:    0        0        0       
  special bond factors coul:  0        0        0       
     2 = max # of 1-2 neighbors
     2 = max # of 1-3 neighbors
     4 = max # of 1-4 neighbors
     6 = max # of special neighbors
  special bonds CPU = 0.001 seconds
  read_data CPU = 0.066 seconds

######################

### READ "REstart" data file ###

######################



###
# Define groups (atom type 1 is group 'all')
###
group all type 1
1000 atoms in group all


###
# Dump configs - "simple dumpings"
###

###
# Dump configs + box coords
###

dump   1   all   custom   1000  linear/trjs3/$f.lammpstrj  id  x y z  ix iy iz
dump   1   all   custom   1000  linear/trjs3/bb1000nuc0bl0bn0d30tot1000.lammpstrj  id  x y z  ix iy iz
dump_modify   1   format line "%d %.5f %.5f %.5f %d %d %d"

########################################################################


###################################################################
# Stiffness term
#
# E = K * (1+cos(theta)), K>0
#
angle_style   cosine
#change this coefficient to change stiffness (e.g. 1,5,10)
angle_coeff   1 1.0
###################################################################

###################################################################
# Pair interaction between non-bonded atoms
#
#  Lennard-Jones 12-6 potential with cutoff:
#  potential E=4epsilon[ (sigma/r)^12 - (sigma/r)^6]  for r<r_cut
#
#  1.12246 = 2^(1/6) is the minimum of the potential


pair_style      lj/cut 1.12246152962189
#pair_style      lj/cut 3

#
#  pair_modify shift yes adds a constant to the potential such

#  that E(r_cut)=0. Forces remains unchanged.
#

pair_modify     shift yes

#
#  pair_coeff for lj/cut, specify 4:
#    * atom type interacting with
#    * atom type
#    * epsilon (energy units)
#    * sigma (distance units)
#

pair_coeff      1 1 1.0 1.0
###################################################################

###################################################################
# Pair interaction between non-bonded atoms
#
#  soft potential, for PUSHING apart overlapping atoms
#  potential E=A*(1 + cos(pi*r/r_c))
#
#  1.12246 = 2^(1/6) is the cut-off r_c

#pair_style     soft 1.12246152962189

#
#  pair_coeff for soft, specify 3:
#    * atom type interacting with
#    * atom type
#    * A
#
#

#pair_coeff      1 1 100.0
###################################################################

###################################################################
# Pair interaction between bonded atoms
#
# Fene potential + Lennard Jones 12-6:

#
#  E= - 0.5 K R0^2 ln[ 1- (r/R0)^2]
#     + 4epsilon[ (sigma/r)^12 - (sigma/r)^6] + epsilon
#

bond_style   fene


#
# For style fene, specify:
#   * bond type
#   * K (energy/distance^2)
#   * R0 (distance)
#   * epsilon (energy)  (LJ component)
#   * sigma (distance)  (LJ component)
#


special_bonds fene #<=== I M P O R T A N T (new command)
Finding 1-2 1-3 1-4 neighbors ...
  special bond factors lj:    0        1        1       
  special bond factors coul:  0        1        1       
     2 = max # of 1-2 neighbors
     6 = max # of special neighbors
  special bonds CPU = 0.000 seconds

bond_coeff   1   30   2   1.0   1.0


###################################################

###################################################################
# Pair interaction between bonded atoms
#
# Harmonic potential:
#
#  E= K * (R-R0)^2
#

#bond_style   harmonic

#
# For style harmonic, specify:
#   * bond type
#   * K (energy/distance^2)
#   * R0 (distance)
#

#bond_coeff   1   60.0   1.0
#bond_coeff   2   harmonic 0.1   1.0

###################################################
compute 1 all gyration
variable rog equal c_1
#compute 2 all coord/atom cutoff 1.1

#dump 2 all custom 10000 contact_number.dump id c_2


###
# Set up fixes
###
thermo_style   custom   step  temp enthalpy c_1
fix 1 all nve   ###NVE ensemble

fix 2 all   langevin   1.0 1.0 1.0  158102   ###Langevin integrator Tstart Tstop 1/friction rndseed


##### Sample thermodynamic info  (temperature, energy, pressure, etc.) #####
thermo 1000









############################################################################

###
# set timestep of integrator

timestep 0.01

###
# run integration for a number of steps
###
#run 0
#variable r equal c_1
#if "$r < 63.1" then "quit 1"

# lj potential minimum, cause molecule to explore
run 100000
Generated 0 of 0 mixed pair_coeff terms from geometric mixing rule
Last active /omp style is angle_style cosine/omp
Neighbor list info ...
  update: every = 1 steps, delay = 1 steps, check = yes
  max neighbors/atom: 2000, page size: 100000
  master list distance cutoff = 5.1224615
  ghost atom cutoff = 5.1224615
  binsize = 2.5612308, bins = 781 781 781
  1 neighbor lists, perpetual/occasional/extra = 1 0 0
  (1) pair lj/cut/omp, perpetual
      attributes: half, newton on, omp
      pair build: half/bin/newton/omp
      stencil: half/bin/3d
      bin: standard
WARNING: Communication cutoff 5.12246152962189 is shorter than a bond length based estimate of 5.455. This may lead to errors. (src/comm.cpp:723)
Per MPI rank memory allocation (min/avg/max) = 1860 | 1860 | 1860 Mbytes
   Step          Temp         Enthalpy         c_1      
         0   0              13.413297      250.00023    
      1000   0.93712122     18.431633      249.75594    
      2000   0.9496488      18.763852      249.631      
      3000   1.0023728      18.72656       249.53154    
      4000   1.0050233      18.612528      249.38626    
      5000   0.9814861      18.701852      249.11763    
      6000   1.0350884      19.182255      249.0628     
      7000   1.0172502      19.171966      248.87619    
      8000   1.0649611      19.033628      248.65628    
      9000   1.0284751      18.873358      248.70188    
     10000   0.96880011     18.941673      248.51645    
     11000   0.96417618     18.687285      248.36247    
     12000   0.93513765     19.486124      247.95832    
     13000   1.021142       18.894638      247.84015    
     14000   0.98932992     19.032506      247.62642    
     15000   0.97235929     18.673275      247.5912     
     16000   1.003956       18.728128      247.28915    
     17000   1.0205123      19.104605      246.9469     
     18000   1.0247594      18.56677       246.65939    
     19000   0.946558       18.831037      246.33609    
     20000   1.0030165      18.890784      246.32431    
     21000   0.97322505     19.407925      246.23106    
     22000   1.0032845      18.667707      245.90766    
     23000   1.047873       19.197943      245.72599    
     24000   0.98925204     19.245535      245.42537    
     25000   0.99404714     19.061011      245.07361    
     26000   0.98755062     18.866575      244.99879    
     27000   1.0118063      19.222632      244.82137    
     28000   0.98705257     19.150174      244.45575    
     29000   0.9519664      18.834788      244.52716    
     30000   1.0268743      18.97981       244.60918    
     31000   1.0422041      19.296694      244.36717    
     32000   0.98859937     18.882992      244.43382    
     33000   0.97428837     18.909236      244.14101    
     34000   0.98920096     19.038917      243.91533    
     35000   1.0132367      19.165006      243.77343    
     36000   1.012687       19.168313      243.41322    
     37000   0.98313911     18.798535      243.20469    
     38000   1.0068917      19.005403      243.07415    
     39000   1.0188557      19.074224      243.05994    
     40000   1.0084501      19.433864      242.90031    
     41000   0.98314852     19.269254      242.71316    
     42000   0.97765935     19.275424      242.54558    
     43000   1.0042716      19.000549      242.28407    
     44000   1.0071129      18.99345       242.1712     
     45000   0.98770448     19.195463      242.13044    
     46000   0.99628487     18.55158       241.87642    
     47000   0.99205762     19.130858      241.91985    
     48000   1.0116147      19.031207      241.73194    
     49000   0.99486789     19.075889      241.49349    
     50000   0.98358609     19.625902      241.18716    
     51000   0.98402324     18.979405      241.13346    
     52000   0.99781704     19.164884      241.00072    
     53000   1.0122712      18.944376      240.94791    
     54000   0.95384517     19.204324      241.05639    
     55000   0.94456137     18.768037      240.70929    
     56000   1.0080843      19.090551      240.56937    
     57000   1.0448944      19.540775      240.39089    
     58000   1.0141643      19.433755      240.50989    
     59000   0.99635133     19.573774      240.33599    
     60000   1.0068764      19.237241      240.00769    
     61000   1.0299617      19.42516       240.03305    
     62000   1.0129891      19.707747      239.80152    
     63000   0.95943182     19.400676      239.75827    
     64000   0.97447622     18.84608       239.35685    
     65000   1.0094031      19.293103      239.36046    
     66000   0.97149102     19.161513      239.09871    
     67000   1.0277596      19.438733      238.86892    
     68000   1.006155       19.282552      238.62387    
     69000   1.0109106      19.844702      238.14655    
     70000   1.0062892      19.84428       237.86728    
     71000   0.97681285     19.52377       237.44716    
     72000   0.98764111     19.105954      237.38944    
     73000   1.0647108      19.798373      237.3321     
     74000   1.029631       19.732474      237.37634    
     75000   1.0011913      19.430611      237.4278     
     76000   0.99289374     19.757015      237.24704    
     77000   0.96407444     19.182286      236.90103    
     78000   1.0301364      19.497563      236.81654    
     79000   0.97965807     19.247208      236.71628    
     80000   0.99967426     19.40485       236.60794    
     81000   1.0196577      19.467663      236.4574     
     82000   1.0286414      19.859244      236.28177    
     83000   1.0132691      20.012214      236.32838    
     84000   1.0233553      19.342318      236.32357    
     85000   0.96136778     19.325405      236.1746     
     86000   1.0003504      19.994879      236.10327    
     87000   0.99935796     19.682387      235.92534    
     88000   0.94719337     19.596307      235.88717    
     89000   1.0513884      19.700679      235.64935    
     90000   0.96243756     19.013357      235.57102    
     91000   0.99489249     19.344581      235.43117    
     92000   1.0519186      19.800887      235.28462    
     93000   0.9930132      19.258161      235.15672    
     94000   0.99066044     19.453248      234.92824    
     95000   1.0209603      19.437362      234.88848    
     96000   0.98934721     19.043176      234.81992    
     97000   1.0554286      19.673827      235.11386    
     98000   0.99323289     19.792139      235.03176    
     99000   1.0012433      19.17082       235.03736    
    100000   1.0064939      19.933349      234.74119    
Loop time of 329.475 on 2 procs for 100000 steps with 1000 atoms

Performance: 262235.437 tau/day, 303.513 timesteps/s
102.6% CPU use with 1 MPI tasks x 2 OpenMP threads

MPI task timing breakdown:
Section |  min time  |  avg time  |  max time  |%varavg| %total
---------------------------------------------------------------
Pair    | 0.81152    | 0.81152    | 0.81152    |   0.0 |  0.25
Bond    | 1.8708     | 1.8708     | 1.8708     |   0.0 |  0.57
Neigh   | 322.11     | 322.11     | 322.11     |   0.0 | 97.77
Comm    | 0.028639   | 0.028639   | 0.028639   |   0.0 |  0.01
Output  | 0.22459    | 0.22459    | 0.22459    |   0.0 |  0.07
Modify  | 4.1414     | 4.1414     | 4.1414     |   0.0 |  1.26
Other   |            | 0.2842     |            |       |  0.09

Nlocal:           1000 ave        1000 max        1000 min
Histogram: 1 0 0 0 0 0 0 0 0 0
Nghost:              0 ave           0 max           0 min
Histogram: 1 0 0 0 0 0 0 0 0 0
Neighs:           4839 ave        4839 max        4839 min
Histogram: 1 0 0 0 0 0 0 0 0 0

Total # of neighbors = 4839
Ave neighs/atom = 4.839
Ave special neighs/atom = 1.998
Neighbor list builds = 1056
Dangerous builds = 0

# Replace lj potential, now collapse
pair_style      lj/cut 3

# Cutoff simul when gyration under 5
# Variable created with equal requires v_ + 'name'
fix 3 all halt 1000 v_rog < 7

run 5000000
Generated 0 of 0 mixed pair_coeff terms from geometric mixing rule
Last active /omp style is angle_style cosine/omp
Per MPI rank memory allocation (min/avg/max) = 1860 | 1860 | 1860 Mbytes
   Step          Temp         Enthalpy         c_1      
    100000   1.0064939      19.500688      234.74119    
    101000   1.0606654      19.331655      234.68523    
    102000   1.0033759      19.497756      234.42771    
    103000   1.0162416      18.735425      234.33788    
    104000   0.99982589     18.606355      234.15843    
    105000   1.0397015      19.088524      234.01289    
    106000   0.9751234      19.041509      233.91636    
    107000   1.0276469      19.200086      233.5896     
    108000   0.98085335     18.955187      233.40641    
    109000   1.0140055      19.259254      233.21656    
    110000   1.0222748      18.865427      233.08882    
    111000   1.0119262      18.662485      233.19952    
    112000   1.0040921      19.102405      232.91028    
    113000   0.99483274     19.031592      232.71774    
    114000   1.0485598      19.186229      232.56522    
    115000   0.98592605     19.162893      232.17851    
    116000   0.98264162     18.926003      232.08812    
    117000   1.0017566      18.855941      232.19482    
    118000   1.0045261      18.918425      232.12857    
    119000   1.0186861      18.987026      232.02926    
    120000   0.97878612     18.865176      231.82476    
    121000   0.97923436     18.810466      231.59894    
    122000   0.99069332     19.333527      231.38281    
    123000   1.0088733      19.11492       231.49581    
    124000   1.0229583      19.176381      231.23507    
    125000   0.98988957     19.194791      231.30282    
    126000   1.042875       19.433552      231.08047    
    127000   0.99895867     18.470354      230.91755    
    128000   1.0121432      19.63057       230.85608    
    129000   1.0034455      18.869435      230.67672    
    130000   1.0144316      18.96621       230.448      
    131000   1.0813082      19.150901      230.23437    
    132000   1.011553       19.370476      230.10102    
    133000   1.0025883      19.29509       229.75965    
    134000   0.96141243     18.974359      229.71704    
    135000   0.98210802     19.540309      229.85735    
    136000   1.0377687      19.163012      229.7239     
    137000   0.99187778     18.788007      229.43589    
    138000   1.030522       19.206161      229.4986     
    139000   0.97428093     19.336805      229.20309    
    140000   0.94588697     18.507187      229.0774     
    141000   1.0219706      19.250176      228.86204    
    142000   1.0097062      18.278782      228.91416    
    143000   0.99216718     19.172478      228.56192    
    144000   1.0052679      18.819522      228.32612    
    145000   1.0186106      18.722325      228.17924    
    146000   0.98980595     18.724577      228.26603    
    147000   1.0464431      18.850112      228.02679    
    148000   0.96316183     19.192488      227.89733    
    149000   1.0168735      18.641376      227.73004    
    150000   0.98754343     18.506339      227.58345    
    151000   1.0057325      19.819523      227.44407    
    152000   0.99529747     18.892213      227.27208    
    153000   0.97698637     18.989839      227.3194     
    154000   0.96467846     18.677286      227.3034     
    155000   1.0012561      18.885309      227.07439    
    156000   1.0055701      18.792816      226.74122    
    157000   0.9958824      18.94961       226.63008    
    158000   1.0460552      19.033574      226.41181    
    159000   0.99517386     19.235625      225.99424    
    160000   0.99370234     19.5316        225.71072    
    161000   0.97111534     18.934152      225.62684    
    162000   1.0404719      19.34494       225.45165    
    163000   1.0203453      19.331751      225.26942    
    164000   0.96934576     18.788008      225.19292    
    165000   0.99935902     18.770901      224.98491    
    166000   1.0335507      19.239804      224.67342    
    167000   1.0070594      18.922132      224.46798    
    168000   1.0077051      19.173412      224.59726    
    169000   0.99800849     18.864115      224.37528    
    170000   0.96807945     18.85846       224.30017    
    171000   1.0272619      19.01244       224.15593    
    172000   0.9940964      19.305157      223.94154    
    173000   1.0160797      19.145069      223.73521    
    174000   0.98976712     18.678527      223.80045    
    175000   1.0251358      18.547692      223.59893    
    176000   1.0175408      18.837294      223.34746    
    177000   1.0269762      19.259745      223.04764    
    178000   0.97723812     18.942688      223.19661    
    179000   0.96235929     18.407025      223.02421    
    180000   0.96868069     18.879614      222.82696    
    181000   0.98677268     18.416916      222.80311    
    182000   0.98198905     18.836237      222.98274    
    183000   0.99240717     18.760579      222.91369    
    184000   1.023131       18.825322      222.80294    
    185000   1.0093171      19.481975      222.82688    
    186000   0.98982066     19.258197      222.71652    
    187000   0.99424084     19.164668      222.53795    
    188000   1.0144202      19.232757      222.48771    
    189000   1.0128358      18.876844      222.38289    
    190000   1.0301516      18.988631      222.2714     
    191000   0.99194202     18.82578       222.01078    
    192000   0.99430864     19.189927      221.92158    
    193000   0.99174436     19.127545      221.76647    
    194000   1.0083896      18.862777      221.75727    
    195000   0.99740714     18.955849      221.63881    
    196000   0.9809201      19.120167      221.31033    
    197000   1.0304274      18.726101      221.2416     
    198000   0.98428399     19.382286      220.95469    
    199000   0.97781699     19.099317      220.74518    
    200000   0.96720258     19.534985      220.64316    
    201000   0.98052454     19.354523      220.73712    
    202000   0.99645516     19.274545      220.64028    
    203000   1.0118652      18.765406      220.61697    
    204000   1.0179751      18.989672      220.32185    
    205000   0.95988957     18.98397       220.03822    
    206000   1.0409238      19.346103      220.11463    
    207000   0.99882228     19.483296      219.8774     
    208000   1.0364209      19.176419      219.7535     
    209000   1.0581294      19.397211      219.70436    
    210000   1.0215302      18.813755      219.64961    
    211000   1.020325       19.658026      219.5671     
    212000   1.0651173      18.452429      219.6694     
    213000   0.96093209     18.351192      219.55892    
    214000   0.99698485     18.852679      219.40365    
    215000   0.97866325     18.732097      219.18547    
    216000   1.0035223      18.910605      218.9432     
    217000   1.0346732      19.090547      219.11763    
    218000   0.99104785     19.232477      218.89917    
    219000   0.99591762     19.079829      218.7147     
    220000   0.99241283     18.565907      218.47438    
    221000   1.0082895      18.4894        218.29861    
    222000   1.0195586      18.970967      218.22418    
    223000   1.0186328      18.646484      218.16835    
    224000   0.97809447     19.308898      218.06307    
    225000   1.0216729      18.748503      218.12092    
    226000   1.0449509      19.058254      217.85527    
    227000   0.97267862     18.87548       217.65081    
    228000   0.97830195     18.888649      217.40161    
    229000   0.96599845     18.891215      217.24665    
    230000   1.0199627      18.694494      217.08513    
    231000   0.99284043     19.744287      216.88564    
    232000   0.9734872      19.697222      216.63362    
    233000   0.9835154      19.251205      216.49605    
    234000   0.97382066     19.362893      216.47024    
    235000   0.96072218     18.774386      216.57608    
    236000   1.0024812      18.579378      216.61716    
    237000   1.0121158      18.655574      216.74905    
    238000   1.0225297      19.999063      216.57588    
    239000   0.9497536      19.150989      216.64296    
    240000   1.022835       19.05822       216.61255    
    241000   1.0128698      19.249971      216.64862    
    242000   0.99752516     19.333131      216.49072    
    243000   0.99217157     19.271371      216.47395    
    244000   1.0184114      18.801102      216.37473    
    245000   1.0462878      19.203878      215.98191    
    246000   0.97308753     19.097838      215.73088    
    247000   0.99820614     18.837144      215.6584     
    248000   1.0222799      19.064879      215.57389    
    249000   0.99959715     19.019801      215.19112    
    250000   0.99016305     18.637111      215.30974    
    251000   0.9642872      18.964803      215.15333    
    252000   1.0008979      18.67184       214.8464     
    253000   1.0138244      18.822655      214.87363    
    254000   0.97414465     18.744003      214.94732    
    255000   1.0029116      18.69946       214.78482    
    256000   0.99347963     18.503786      214.78628    
    257000   1.0167939      19.168786      214.80594    
    258000   0.99747216     19.570777      214.74509    
    259000   1.0293026      19.001188      214.49261    
    260000   0.95156382     19.177143      214.43119    
    261000   0.99674623     18.728089      214.4302     
    262000   1.0130698      19.108237      214.39525    
    263000   0.99986404     19.361601      214.17178    
    264000   0.98085741     18.945886      213.98999    
    265000   1.0158226      19.613091      213.85058    
    266000   1.0495655      19.362477      213.84353    
    267000   1.0482855      18.949447      213.77359    
    268000   1.014502       19.09001       213.79464    
    269000   0.97261875     18.458144      213.84471    
    270000   0.98787434     18.145003      213.58805    
    271000   1.01068        18.978659      213.40245    
    272000   1.0299741      19.004573      213.35436    
    273000   0.97559964     19.171043      213.24322    
    274000   1.0466589      19.287884      213.15056    
    275000   0.98263647     19.0487        212.68419    
    276000   1.0106441      18.763789      212.50051    
    277000   0.99163144     19.019962      212.4248     
    278000   0.99201388     19.418546      212.25452    
    279000   0.99485615     19.117385      212.24782    
    280000   1.0088827      19.068394      212.22307    
    281000   0.97366757     18.840092      211.74108    
    282000   1.0227883      18.822439      211.31539    
    283000   0.99058086     19.629582      211.17439    
    284000   1.0027773      18.856951      211.14862    
    285000   1.003089       19.03189       211.17535    
    286000   0.99855115     18.902547      211.10963    
    287000   0.98698585     18.924687      210.93649    
    288000   0.98773749     18.821818      210.68586    
    289000   1.0001971      19.345825      210.5557     
    290000   0.99136544     18.992704      210.52551    
    291000   1.0328887      19.038205      210.47811    
    292000   1.0063507      18.95574       210.29757    
    293000   0.99852002     19.04593       210.09096    
    294000   1.0218328      18.876378      210.07255    
    295000   0.98224199     18.888545      210.02069    
    296000   0.97545287     19.091708      209.94264    
    297000   1.0243281      18.965026      209.90167    
    298000   0.96587745     19.294522      209.66442    
    299000   1.01047        19.019938      209.61285    
    300000   0.98777151     19.462873      209.63939    
    301000   0.9825549      18.100472      209.57841    
    302000   0.95390438     18.736158      209.46796    
    303000   0.99993009     19.618849      209.2849     
    304000   0.99694067     19.23039       209.28234    
    305000   0.97770528     18.706825      209.14423    
    306000   0.9847842      18.613791      209.17823    
    307000   1.0017537      18.698966      209.22916    
    308000   0.96391643     18.80609       208.99655    
    309000   0.98998852     19.309293      208.93195    
    310000   1.0272318      19.017665      209.00249    
    311000   0.95443392     18.616047      208.9612     
    312000   1.0241328      18.985052      208.77253    
    313000   1.017914       19.119433      208.75133    
    314000   0.98484439     19.215284      208.74506    
    315000   0.99858363     19.150236      208.49404    
    316000   0.99453884     19.161969      208.40537    
    317000   1.0248501      19.041206      208.32357    
    318000   0.98359393     19.164392      208.34791    
    319000   1.0336683      19.175453      208.15802    
    320000   1.0339937      19.084776      208.20788    
    321000   0.97227628     19.120185      208.31612    
    322000   1.0307913      19.046653      208.25629    
    323000   1.0049716      18.918394      208.06615    
    324000   1.0480424      19.044553      207.66703    
    325000   0.97398366     19.108155      207.63245    
    326000   0.99941009     18.921902      207.54426    
    327000   1.0049939      19.271893      207.38018    
    328000   0.97407135     19.072401      207.47744    
    329000   1.0519346      19.604138      207.52111    
    330000   0.96635255     19.189381      207.59788    
    331000   1.0345129      19.377059      207.53016    
    332000   1.0240322      19.240266      207.60141    
    333000   1.0521665      18.809412      207.47636    
    334000   0.98624973     19.049228      207.4613     
    335000   0.95957235     18.59842       207.34299    
    336000   0.95106545     18.945837      207.12484    
    337000   1.0170328      19.047921      206.83544    
    338000   0.94832222     19.045408      206.7791     
    339000   1.0070808      18.704836      206.69405    
    340000   0.97872803     18.783578      206.69747    
    341000   1.0082772      19.679394      206.58274    
    342000   1.0042777      19.304917      206.38542    
    343000   0.9966062      18.489313      206.24472    
    344000   0.94819216     19.375217      206.29901    
    345000   0.99082021     19.242068      206.2133     
    346000   1.0127594      19.075358      206.07533    
    347000   1.0197744      18.657791      206.00851    
    348000   1.0226806      19.070832      205.90301    
    349000   0.99542718     19.130549      205.71114    
    350000   1.0181633      19.200396      205.51775    
    351000   0.97478187     18.623891      205.42706    
    352000   0.96939625     18.816838      205.50332    
    353000   0.97848158     18.917923      205.66195    
    354000   1.0063995      18.774968      205.45624    
    355000   1.0094575      18.842672      205.21416    
    356000   1.0211592      18.74662       205.29429    
    357000   0.99037313     18.986424      205.24835    
    358000   0.99726355     19.655913      205.15261    
    359000   0.988181       18.885894      204.92818    
    360000   1.0202071      18.454505      204.87824    
    361000   1.0000958      19.20833       204.8364     
    362000   1.0186451      19.204156      204.64821    
    363000   0.96834741     19.524976      204.48319    
    364000   1.0403535      19.063371      204.36232    
    365000   0.98473533     19.119214      204.29952    
    366000   0.98177243     18.970468      204.07819    
    367000   0.99175674     18.884416      203.81207    
    368000   1.03257        18.947221      203.61528    
    369000   0.97644706     18.652946      203.47732    
    370000   1.0635519      18.73698       203.32164    
    371000   1.0246717      19.194528      203.18804    
    372000   0.96167942     18.879252      203.04878    
    373000   0.98181994     18.742918      203.09404    
    374000   1.0276967      19.291957      203.03614    
    375000   1.0316227      18.974702      202.831      
    376000   1.0331368      19.653336      202.7352     
    377000   1.0279067      18.315088      202.60139    
    378000   1.0140812      19.040586      202.6471     
    379000   0.9988491      19.26675       202.51379    
    380000   1.0168333      18.559257      202.56946    
    381000   1.0173083      18.944928      202.38201    
    382000   0.97584793     18.559645      202.33389    
    383000   1.0017018      19.096679      202.18508    
    384000   1.0030001      19.019826      202.12296    
    385000   1.0381039      18.609071      202.02546    
    386000   1.0258829      18.457322      201.84163    
    387000   1.0133172      18.622722      201.74479    
    388000   1.0244724      18.868331      201.59082    
    389000   0.96135846     18.529033      201.27011    
    390000   0.98889145     19.191505      201.43248    
    391000   1.0326139      18.988219      201.41368    
    392000   1.0489825      19.12696       201.42813    
    393000   1.0011806      18.847823      201.28537    
    394000   1.0139638      19.506348      201.23912    
    395000   0.98553196     18.918734      201.25017    
    396000   0.98203144     18.871078      201.031      
    397000   0.97377348     18.727875      200.62723    
    398000   1.01178        19.236855      200.47732    
    399000   1.0116404      18.732648      200.42915    
    400000   1.0061788      18.614612      200.33446    
    401000   1.0100906      19.163976      200.3749     
    402000   1.0049178      18.288574      200.45076    
    403000   0.96220501     18.779319      200.43536    
    404000   0.97378531     18.594426      200.31814    
    405000   1.0272499      19.156092      200.09029    
    406000   0.98095486     18.581627      199.88573    
    407000   0.99943073     19.364804      199.91218    
    408000   1.00285        18.567141      199.69326    
    409000   1.0388014      19.170855      199.76834    
    410000   1.0696776      18.827179      199.61948    
    411000   1.0098987      19.078048      199.42046    
    412000   0.96296892     18.637951      199.34144    
    413000   0.96879218     18.703965      199.31745    
    414000   1.0139103      18.925715      199.23294    
    415000   0.99130931     19.084371      199.03098    
    416000   0.96793962     18.726012      199.14634    
    417000   0.98013445     19.05868       199.1708     
    418000   0.95304392     19.334186      199.05555    
    419000   1.023165       18.390189      199.12798    
    420000   0.99639633     18.669829      199.03627    
    421000   0.99405067     18.74928       198.77673    
    422000   1.0101416      18.614663      198.90738    
    423000   0.98556195     18.794694      198.58434    
    424000   0.99425979     18.421596      198.3731     
    425000   0.99400538     18.732681      198.11967    
    426000   1.0357463      19.338203      197.91045    
    427000   0.98262346     19.252301      197.92342    
    428000   0.98675234     19.012423      197.68668    
    429000   1.0017862      18.772203      197.68342    
    430000   0.9508518      19.009274      197.64042    
    431000   1.0395894      18.920808      197.41012    
    432000   0.98328612     19.183257      197.30658    
    433000   1.0368625      18.879806      197.21516    
    434000   1.0350684      19.104948      197.19314    
    435000   0.98989071     18.975394      197.24811    
    436000   1.0236077      19.097544      197.28319    
    437000   1.0426079      18.778324      197.08421    
    438000   1.02714        19.106627      196.85881    
    439000   0.9539796      18.638819      197.13435    
    440000   0.99663665     18.766829      197.01072    
    441000   0.98989125     18.704746      196.77224    
    442000   0.99449176     18.686839      196.55418    
    443000   1.0302427      19.834848      196.34802    
    444000   0.96967645     18.377123      196.11707    
    445000   1.0418627      19.335494      196.06981    
    446000   1.0461353      18.848455      195.71357    
    447000   1.0422867      19.0175        195.80344    
    448000   0.99505609     18.815172      195.62836    
    449000   1.0272149      18.867844      195.42687    
    450000   1.0123289      18.757487      195.23127    
    451000   1.006053       18.916495      195.0807     
    452000   1.0111508      18.442337      194.73441    
    453000   0.98144981     18.407369      194.4426     
    454000   0.96835715     19.276037      194.3669     
    455000   1.0167584      18.689919      194.378      
    456000   1.0100252      19.494167      194.28747    
    457000   1.0053962      19.11726       194.25356    
    458000   0.96438521     19.286019      194.11926    
    459000   1.0093423      18.656747      194.24003    
    460000   0.96312197     18.478642      193.95157    
    461000   0.98998816     18.969741      193.81497    
    462000   0.9581682      18.783702      193.66268    
    463000   0.99237949     19.550931      193.65311    
    464000   0.98677848     19.006129      193.7123     
    465000   0.98092587     18.708756      193.64307    
    466000   1.0027049      18.996598      193.54196    
    467000   1.0470898      19.082734      193.30339    
    468000   1.0339674      18.808459      193.21414    
    469000   1.0493151      18.860668      193.13509    
    470000   1.042281       19.333813      192.9801     
    471000   0.95509462     19.290914      193.01366    
    472000   1.0027427      19.134804      192.99793    
    473000   0.9893619      18.960054      192.97929    
    474000   1.0041338      18.658788      192.96651    
    475000   1.0231202      19.13796       192.60492    
    476000   1.0111962      18.998798      192.54739    
    477000   1.0066518      19.277174      192.71838    
    478000   0.99078581     18.707008      192.44729    
    479000   1.0086585      18.296635      192.31871    
    480000   0.96548736     18.140397      192.24507    
    481000   1.0326993      19.167509      192.1005     
    482000   0.99401036     18.909307      192.03404    
    483000   1.065866       19.042516      191.91603    
    484000   0.97242621     19.306142      191.91944    
    485000   0.99460805     18.82358       191.90237    
    486000   1.0119782      18.281926      191.82304    
    487000   1.0143891      19.458757      191.49595    
    488000   0.94921213     19.215316      191.39592    
    489000   1.0052417      18.355081      191.20672    
    490000   1.0389211      19.043887      191.11552    
    491000   0.99295193     18.904577      191.04702    
    492000   1.0120297      18.579045      191.08751    
    493000   0.95862917     18.484975      190.96797    
    494000   0.96279269     18.468827      190.78218    
    495000   0.9694582      18.594124      190.51107    
    496000   0.96238534     18.350267      190.24557    
    497000   1.0093637      18.585618      189.91882    
    498000   1.0052898      18.410072      189.82261    
    499000   1.0092118      18.739345      189.67669    
    500000   0.95544088     18.931938      189.45741    
    501000   1.0258931      18.550375      189.34737    
    502000   0.9793773      19.320731      189.0719     
    503000   0.98947716     18.991296      189.09302    
    504000   1.0038458      18.700869      188.88369    
    505000   1.0352956      19.344895      188.60669    
    506000   1.0154921      18.924494      188.38529    
    507000   0.95186228     18.626731      188.53101    
    508000   1.0067704      18.839923      188.64305    
    509000   0.95534599     18.687744      188.65232    
    510000   0.98610668     18.974293      188.82156    
    511000   1.0147169      18.623826      188.7425     
    512000   0.97432893     18.92861       188.44968    
    513000   1.0007859      19.131559      188.46414    
    514000   1.0251634      18.909184      188.59484    
    515000   0.95201508     18.830216      188.46279    
    516000   0.97356461     18.940598      188.12616    
    517000   1.0041104      18.714347      188.14412    
    518000   1.0163017      19.037596      188.06311    
    519000   1.0226137      18.759731      188.02887    
    520000   0.93633658     18.338713      187.95392    
    521000   1.048756       19.041124      187.97395    
    522000   1.0027976      19.102257      187.95378    
    523000   0.97037792     18.624245      187.95742    
    524000   1.0036602      18.553856      187.73823    
    525000   1.0238972      18.844003      187.782      
    526000   1.0141473      18.76952       187.5895     
    527000   1.0354465      18.547931      187.31232    
    528000   0.97147609     19.12026       187.12891    
    529000   1.0110681      19.203879      187.08321    
    530000   1.0297654      18.202718      187.05655    
    531000   1.0121732      18.820564      186.63761    
    532000   0.9969351      18.352142      186.25049    
    533000   1.0110643      18.843618      186.40535    
    534000   0.98244132     19.050708      186.36947    
    535000   1.0304183      18.988908      186.34041    
    536000   1.0079904      19.12895       186.1407     
    537000   0.98248398     18.790223      186.07757    
    538000   1.0283813      18.840332      186.0429     
    539000   0.98615473     19.257898      185.77359    
    540000   0.96708079     19.209385      185.74719    
    541000   0.96716393     18.763326      185.56525    
    542000   0.9764385      18.93201       185.48071    
    543000   1.0075301      18.857143      185.56984    
    544000   1.0129634      19.063413      185.44028    
    545000   0.99518188     18.748482      185.10393    
    546000   0.98856149     18.641952      184.85581    
    547000   0.99208391     18.989857      184.70751    
    548000   0.9916         18.511299      184.60127    
    549000   1.0126313      18.968902      184.5221     
    550000   1.0322215      19.157551      184.32997    
    551000   0.98851378     18.629751      184.09005    
    552000   0.97098189     19.13602       184.09747    
    553000   0.97195402     19.03255       184.08277    
    554000   1.0283435      18.984303      183.97313    
    555000   0.97243804     18.864857      183.75049    
    556000   0.996137       19.135788      183.5946     
    557000   1.0458539      18.896109      183.38116    
    558000   0.99429901     18.69641       183.18157    
    559000   1.0130599      19.009885      183.08972    
    560000   1.0043952      18.27236       182.92428    
    561000   1.0083854      19.557378      182.89689    
    562000   0.95185872     18.987496      182.97415    
    563000   0.97093433     18.853197      182.88823    
    564000   0.96867214     19.201233      182.80301    
    565000   0.98609507     18.466734      182.68756    
    566000   1.0289931      18.578019      182.70764    
    567000   0.97980932     19.898993      182.77983    
    568000   1.0220674      18.449294      182.7231     
    569000   1.0269783      18.784244      182.77062    
    570000   1.0308528      18.931283      182.71439    
    571000   1.0238196      18.644905      182.58528    
    572000   1.0190066      18.71719       182.40423    
    573000   1.0254269      19.006409      182.12268    
    574000   0.99576208     18.556098      181.77143    
    575000   0.98464934     19.240089      181.41082    
    576000   1.0348975      18.95086       181.32249    
    577000   1.0031259      19.001067      181.14115    
    578000   0.98145572     19.110422      180.97666    
    579000   1.0588929      19.220503      180.80473    
    580000   0.99928088     18.522271      180.39469    
    581000   0.97301701     18.576218      180.58429    
    582000   1.0348143      18.458048      180.44209    
    583000   1.032367       18.925283      180.38004    
    584000   1.001702       18.717266      180.49235    
    585000   1.0050656      18.675025      180.31555    
    586000   0.97063875     18.40457       180.33061    
    587000   1.0039726      19.289576      180.25909    
    588000   0.98365746     18.630158      180.10781    
    589000   0.947523       18.757203      180.10716    
    590000   0.99600262     18.678798      180.0608     
    591000   0.98719183     18.609485      179.95658    
    592000   0.97607839     19.103494      179.86527    
    593000   0.97726241     18.623234      179.48973    
    594000   1.0023905      19.150427      179.45736    
    595000   1.014553       18.586832      179.45397    
    596000   1.0270595      19.073839      179.23767    
    597000   1.0086401      18.575019      179.08176    
    598000   0.99176964     18.852656      178.98248    
    599000   1.0185533      19.144969      178.61379    
    600000   1.0241554      19.157765      178.54331    
    601000   1.0365004      18.306605      178.31693    
    602000   0.98902851     19.049751      178.47954    
    603000   0.96476287     18.951524      178.45544    
    604000   1.0122527      18.871026      178.19799    
    605000   0.97464372     18.905245      178.201      
    606000   1.0235809      18.75279       178.05627    
    607000   1.0552393      18.949327      177.8989     
    608000   0.99648843     19.05719       177.91659    
    609000   1.002318       18.830028      177.97633    
    610000   0.93625308     18.65651       177.69773    
    611000   1.0367325      18.873919      177.82285    
    612000   1.0404127      19.231446      177.82332    
    613000   0.9825046      18.70048       177.85269    
    614000   0.98613253     18.576342      177.84366    
    615000   0.99530652     18.852104      178.00364    
    616000   0.99470461     18.681206      178.04358    
    617000   1.008408       18.708259      178.17939    
    618000   0.95709767     18.104735      178.17937    
    619000   0.98312061     19.543641      178.04152    
    620000   1.0219588      18.736236      177.93258    
    621000   0.98364763     18.800323      178.14176    
    622000   0.97820126     18.673577      178.00851    
    623000   1.0081963      18.596256      177.98856    
    624000   1.0609144      18.857565      177.78416    
    625000   1.0419263      18.749497      177.55051    
    626000   1.0073983      18.949966      177.27839    
    627000   1.0128397      18.956478      177.1418     
    628000   0.99565784     19.124625      176.97392    
    629000   1.0179258      19.238355      176.79151    
    630000   1.0283165      18.80068       176.54455    
    631000   0.98126189     18.406954      176.52638    
    632000   0.97814225     19.02385       176.40323    
    633000   0.992462       18.861731      176.1889     
    634000   0.99502953     18.705171      175.87633    
    635000   1.0327293      18.682714      176.00186    
    636000   1.0348321      18.451366      175.9164     
    637000   1.0087319      18.895832      176.07939    
    638000   0.98240268     18.610019      175.99147    
    639000   0.98553173     17.918397      176.17583    
    640000   1.0121798      18.610628      176.33621    
    641000   0.97426268     18.338815      176.27713    
    642000   1.0013016      18.930605      176.13279    
    643000   1.0339681      19.207291      175.90191    
    644000   0.99025205     18.675307      176.10572    
    645000   1.023854       18.921843      176.26217    
    646000   0.97093514     18.044231      176.01568    
    647000   0.9895708      19.230262      175.72225    
    648000   1.0226493      18.81356       175.57593    
    649000   0.97932045     18.828253      175.51473    
    650000   0.96641165     18.315604      175.25396    
    651000   0.9951919      18.938238      175.08838    
    652000   1.0185064      18.547922      174.87327    
    653000   0.97590119     19.167103      174.95583    
    654000   1.0168553      18.784554      174.89121    
    655000   1.0035672      18.938235      174.59592    
    656000   0.9901193      19.931674      174.41534    
    657000   0.96810047     18.442052      174.07562    
    658000   0.99928548     18.945767      173.82578    
    659000   1.0282597      18.999812      173.86079    
    660000   1.0199051      19.059492      173.93246    
    661000   1.0495164      18.647082      174.01087    
    662000   0.96328612     18.507899      174.13319    
    663000   0.98355148     18.593867      174.07796    
    664000   1.0212079      18.928203      174.13303    
    665000   0.96313261     19.267785      173.90189    
    666000   1.059619       18.561217      173.87958    
    667000   0.99301142     19.150822      173.73083    
    668000   0.97450963     18.216091      173.41614    
    669000   1.0430302      19.198872      173.33676    
    670000   1.0033846      18.605964      173.18785    
    671000   0.99962429     18.57196       173.21923    
    672000   1.0277764      18.48637       173.27375    
    673000   0.97171392     18.434094      172.99761    
    674000   0.94295749     18.653354      173.22973    
    675000   0.95635238     17.857651      173.18865    
    676000   1.0083736      19.049624      172.93978    
    677000   0.94735004     18.617352      172.97459    
    678000   1.0094327      18.328795      172.74215    
    679000   1.0270956      18.937258      172.67077    
    680000   1.0517169      18.806495      172.90643    
    681000   0.97472562     18.270007      172.94352    
    682000   1.0582223      19.425838      172.79889    
    683000   1.0369149      18.904154      172.73618    
    684000   1.007895       18.752521      173.02983    
    685000   1.0176988      18.97699       172.85497    
    686000   1.0202257      18.596833      172.75773    
    687000   1.0124895      18.921574      172.84625    
    688000   0.99271923     18.50697       172.97011    
    689000   1.0015681      18.814831      173.03812    
    690000   1.0258666      18.886647      172.88255    
    691000   0.97825836     19.024535      173.00919    
    692000   1.0346187      19.382558      172.94334    
    693000   1.0577325      18.957759      172.829      
    694000   1.0678694      18.771923      172.56993    
    695000   0.99544581     18.569066      172.66474    
    696000   0.98317248     18.976958      172.85129    
    697000   1.0079605      18.784936      172.6023     
    698000   0.95163237     18.313381      172.34085    
    699000   1.0606841      19.302342      172.10277    
    700000   1.0069193      18.52392       171.98615    
    701000   0.97554373     18.822453      171.84147    
    702000   0.99692644     18.40001       171.72148    
    703000   0.98766343     18.587464      171.61536    
    704000   0.97754092     18.21397       171.63073    
    705000   0.99502548     18.624321      171.70741    
    706000   1.021036       18.736638      171.6884     
    707000   0.99145773     18.706583      171.70326    
    708000   0.95481467     18.485537      171.55417    
    709000   1.0258732      18.48642       171.33381    
    710000   0.9568522      17.865869      171.18382    
    711000   1.0076473      18.711136      170.94187    
    712000   0.99498009     18.760261      170.92867    
    713000   1.0268211      18.668091      170.85149    
    714000   1.0345257      18.459916      170.6777     
    715000   0.98207692     18.737339      170.65165    
    716000   1.0121925      18.593353      170.56828    
    717000   0.99794479     18.811732      170.30936    
    718000   1.0052692      18.562834      170.18321    
    719000   0.99356886     18.503616      170.28303    
    720000   1.015025       18.883979      170.28595    
    721000   0.99681924     18.941448      170.3047     
    722000   0.98816902     18.52786       170.28471    
    723000   0.96783259     18.789142      170.01944    
    724000   0.98822022     18.783327      170.03362    
    725000   1.0554485      18.699689      169.84322    
    726000   0.99562254     18.601018      169.75706    
    727000   0.9874673      18.571865      169.78276    
    728000   0.97758664     18.850691      169.63717    
    729000   0.99554966     18.682451      169.48339    
    730000   0.97439112     18.563793      169.47179    
    731000   0.99657332     18.341455      169.31267    
    732000   1.0144444      18.075795      169.33242    
    733000   1.0040572      18.539204      169.21623    
    734000   0.99539786     18.612219      169.26807    
    735000   1.0220324      18.736336      169.26567    
    736000   1.0254983      19.087875      169.16026    
    737000   0.9819502      18.529161      169.16515    
    738000   1.0213338      18.388515      169.2184     
    739000   1.0268737      18.625525      169.08076    
    740000   1.0563085      18.759889      168.81376    
    741000   0.99249395     18.649883      168.89152    
    742000   0.99078224     18.49047       168.83018    
    743000   0.96695074     18.522446      168.85533    
    744000   1.0033935      18.40414       168.94766    
    745000   1.0308742      18.497449      168.69562    
    746000   1.0164886      18.594334      168.58549    
    747000   0.98045655     18.614457      168.27263    
    748000   1.0154699      18.914928      168.1783     
    749000   1.0179468      18.938592      167.96511    
    750000   1.0091364      18.879699      167.89689    
    751000   0.97074611     18.541185      167.93393    
    752000   1.0131857      18.811231      167.85689    
    753000   0.97580881     18.966151      167.75626    
    754000   1.0314289      18.945334      167.59041    
    755000   1.0372721      18.673063      167.39379    
    756000   0.97822484     18.785306      167.38079    
    757000   1.0141079      18.236847      167.41702    
    758000   0.9791197      18.569764      167.30008    
    759000   1.0383334      17.855271      167.37549    
    760000   1.0206563      19.066356      167.15368    
    761000   0.96958743     18.46936       167.00676    
    762000   0.96115344     18.398597      167.0254     
    763000   0.98852473     18.786637      166.7451     
    764000   1.0028617      18.349267      166.66494    
    765000   1.0100616      18.463141      166.62764    
    766000   1.0017312      18.589123      166.60176    
    767000   0.99878005     18.332191      166.32958    
    768000   0.98827753     18.711255      166.33746    
    769000   1.0337009      18.622146      166.3178     
    770000   0.99870071     18.793657      166.3213     
    771000   1.0139872      18.74978       166.29743    
    772000   1.0584948      18.719885      166.34487    
    773000   1.0006325      19.118421      166.19764    
    774000   1.0049518      18.707432      166.05278    
    775000   0.9548602      18.211845      165.89907    
    776000   1.0047962      18.735333      165.81918    
    777000   0.98977565     18.956503      165.89361    
    778000   0.98644375     18.182374      165.70995    
    779000   1.0464692      18.971194      165.69701    
    780000   1.0452261      19.217624      165.45958    
    781000   0.99374617     18.455678      165.37161    
    782000   0.98335174     18.21734       165.5223     
    783000   0.96134282     18.361559      165.35931    
    784000   0.98113545     18.732649      165.16275    
    785000   1.0010487      18.673568      165.13622    
    786000   1.0475269      18.764285      165.17406    
    787000   0.98978976     19.007415      164.85391    
    788000   1.0075011      18.838201      164.8489     
    789000   1.0359325      19.046148      164.96694    
    790000   0.96583496     18.704078      164.93568    
    791000   1.0181141      18.03402       164.73552    
    792000   0.98376437     18.608538      164.85384    
    793000   0.99988028     18.578246      164.50484    
    794000   0.99283169     17.957885      164.14643    
    795000   0.9909922      18.390991      164.2128     
    796000   1.0032681      18.400109      163.98501    
    797000   1.0303939      18.211794      164.00553    
    798000   0.97497094     18.178891      164.13969    
    799000   1.073886       18.620322      163.81135    
    800000   1.0277645      18.496534      163.95346    
    801000   0.99307274     18.607262      163.77015    
    802000   1.0108921      19.027959      163.49662    
    803000   1.0085966      18.439093      163.3921     
    804000   0.96731913     18.676575      163.24568    
    805000   0.97850117     18.304081      163.11766    
    806000   1.0347473      19.31853       163.05523    
    807000   1.0211035      18.739902      162.98508    
    808000   1.0030599      18.443227      162.71842    
    809000   0.99455838     18.469667      162.47873    
    810000   0.97124794     18.519835      162.61037    
    811000   1.0039611      18.84878       162.51284    
    812000   1.0045106      18.458758      162.54456    
    813000   0.9873777      18.291513      162.2733     
    814000   1.019112       18.681977      162.09878    
    815000   1.0064804      18.460553      162.08433    
    816000   0.93988621     18.544061      162.24121    
    817000   1.0505329      18.887043      162.42464    
    818000   0.98237894     18.415319      162.37571    
    819000   0.99306817     18.259009      162.31548    
    820000   0.98590455     19.301158      162.16383    
    821000   1.0313867      19.494407      162.12903    
    822000   1.0332691      19.142987      162.09682    
    823000   1.0065091      18.654827      162.09304    
    824000   0.97871199     18.468399      161.85761    
    825000   0.98361318     18.424732      161.5436     
    826000   1.0203442      18.438431      161.6324     
    827000   0.96416145     18.275358      161.67632    
    828000   1.0126862      19.068908      161.68985    
    829000   1.0102526      18.278398      161.66116    
    830000   1.0138324      18.528192      161.59876    
    831000   0.99737705     18.230847      161.5714     
    832000   1.0187603      18.974733      161.40897    
    833000   0.99561648     18.76714       161.31656    
    834000   0.95346991     18.522274      161.32318    
    835000   1.0009589      18.632332      161.40164    
    836000   1.0181434      18.52097       161.48362    
    837000   1.0190072      18.494244      161.48449    
    838000   1.0394933      18.766661      161.34773    
    839000   0.98206567     18.379721      161.32373    
    840000   0.98897491     18.548751      161.1102     
    841000   1.0073754      18.302211      161.28514    
    842000   1.0052636      18.390387      161.02472    
    843000   0.99975091     19.117431      160.77688    
    844000   1.0151382      19.122874      160.45937    
    845000   0.95798813     18.169628      160.46091    
    846000   1.0326085      18.485366      160.34357    
    847000   0.97101696     18.174666      160.35783    
    848000   1.0229338      18.728901      160.28551    
    849000   1.0105795      18.712389      160.16526    
    850000   1.030792       19.084073      160.02888    
    851000   1.0296436      18.844284      159.97041    
    852000   1.0246279      18.692717      159.86955    
    853000   0.99456938     18.882029      159.86915    
    854000   1.0166294      19.382706      159.6076     
    855000   0.98151374     18.431624      159.85045    
    856000   1.0416099      18.834208      159.57929    
    857000   1.014234       19.121971      159.68328    
    858000   1.0119388      18.283998      159.7112     
    859000   1.0039383      18.735473      159.68723    
    860000   0.99467994     18.649919      159.66939    
    861000   1.0119894      18.637358      159.76519    
    862000   1.0072252      18.983139      159.58629    
    863000   1.0336194      18.741301      159.87642    
    864000   1.0075059      18.78638       159.85371    
    865000   0.96780517     18.735866      159.8968     
    866000   0.97402402     18.850874      159.79959    
    867000   1.0334912      19.08479       159.85874    
    868000   1.0370526      18.722198      159.90337    
    869000   0.98978931     18.709445      159.6942     
    870000   0.94439739     18.565683      159.29359    
    871000   0.96752123     18.483553      159.13515    
    872000   1.0073653      18.458023      159.0842     
    873000   0.97969076     18.201759      159.11111    
    874000   0.99768241     18.70693       158.98515    
    875000   0.96684066     18.365654      158.95804    
    876000   0.97994427     18.784701      159.05966    
    877000   0.9665578      18.683512      158.93896    
    878000   0.97539816     18.746613      158.9052     
    879000   0.97630097     18.527602      158.73479    
    880000   0.93954357     18.205609      158.76757    
    881000   1.0275043      18.439509      158.61113    
    882000   1.0059628      18.50959       158.53199    
    883000   0.99357283     18.590911      158.35475    
    884000   1.0638245      18.911673      158.10128    
    885000   1.0050659      18.426277      157.85947    
    886000   0.97487759     18.192147      157.59197    
    887000   0.98873234     18.331056      157.4617     
    888000   1.008657       18.310623      157.3358     
    889000   0.98828848     18.995943      157.11639    
    890000   1.0241218      18.093533      157.01115    
    891000   0.98510684     18.528579      157.06006    
    892000   0.97069081     18.511495      157.0402     
    893000   0.99979303     18.296209      156.60261    
    894000   0.99085888     18.212439      156.41802    
    895000   0.98541346     18.38166       155.94075    
    896000   1.0082249      18.689027      155.6757     
    897000   1.0541948      18.082696      155.68776    
    898000   0.97184677     18.333729      155.82146    
    899000   1.0184048      18.504405      155.7084     
    900000   0.98977214     18.247337      155.42784    
    901000   1.0232625      18.712202      155.40898    
    902000   1.036047       18.380849      155.29911    
    903000   0.97655672     18.090198      155.24555    
    904000   1.0255659      18.741555      155.06694    
    905000   0.97519925     18.456351      155.11247    
    906000   0.96111532     18.42948       155.08644    
    907000   1.0454153      18.25482       154.95115    
    908000   1.0302845      18.664266      154.86837    
    909000   1.0339289      18.759744      154.67046    
    910000   1.0478597      18.389391      154.5629     
    911000   0.96531644     18.809819      154.4574     
    912000   1.0006857      18.489641      154.64364    
    913000   1.0245271      18.656097      154.33116    
    914000   1.0069035      19.283547      154.28643    
    915000   1.0508589      18.836946      153.99099    
    916000   0.99838922     18.522993      153.62422    
    917000   0.98476961     18.515295      153.48653    
    918000   1.0225901      18.583775      153.39668    
    919000   1.0018377      18.908736      153.51936    
    920000   1.0102991      18.51105       153.5512     
    921000   1.03217        18.086062      153.30751    
    922000   1.0391473      18.863277      153.33422    
    923000   1.0429659      18.088078      153.23161    
    924000   0.98931683     19.196945      153.24881    
    925000   1.0084908      18.592983      153.10026    
    926000   1.0350727      18.715291      153.13284    
    927000   1.0036864      18.664697      153.20965    
    928000   1.0009821      18.545469      153.3343     
    929000   0.9909512      18.598691      153.45357    
    930000   0.97142419     18.543591      153.18787    
    931000   1.0183309      18.653108      153.06775    
    932000   0.9970466      18.562809      152.98381    
    933000   0.98040833     18.751992      152.92659    
    934000   0.9644246      18.683271      152.84845    
    935000   1.027526       18.40169       152.77004    
    936000   1.064568       18.538107      152.82214    
    937000   1.0252923      18.726766      152.59301    
    938000   1.0151512      19.091587      152.40781    
    939000   1.0165575      18.851368      152.07749    
    940000   0.9551461      18.351602      152.01691    
    941000   0.97633097     18.920398      151.89161    
    942000   0.9689738      18.944382      151.85234    
    943000   0.97470831     18.655301      151.90575    
    944000   0.9874399      18.708103      151.70404    
    945000   1.0323089      18.623401      151.40199    
    946000   1.0151095      18.749942      151.4761     
    947000   1.0459077      18.589451      151.30723    
    948000   1.0405572      18.570949      151.20886    
    949000   0.97775485     18.338061      151.34692    
    950000   1.0409275      18.892881      151.39633    
    951000   1.0078438      18.5611        151.29262    
    952000   1.0178026      18.649815      151.10627    
    953000   0.96899823     18.914609      151.11062    
    954000   1.0030583      18.40972       151.13472    
    955000   0.99992527     18.998799      151.09257    
    956000   1.0140238      18.860106      150.76251    
    957000   1.0150158      18.426734      150.52052    
    958000   1.0277415      18.415556      150.38383    
    959000   1.0782752      18.28152       150.25359    
    960000   1.0029762      18.47759       150.20412    
    961000   0.95115692     18.400034      149.95187    
    962000   1.0459994      18.673952      149.8487     
    963000   1.0032331      18.384155      149.54331    
    964000   0.9553663      18.493161      149.53467    
    965000   1.0257097      18.527826      149.54106    
    966000   0.98475109     18.4695        149.2868     
    967000   1.0313577      18.809098      149.27059    
    968000   1.0300806      18.428007      148.87347    
    969000   1.0553542      18.766512      148.40234    
    970000   1.0018878      18.883175      148.26776    
    971000   1.0298994      18.59535       148.20081    
    972000   1.0020803      18.790812      148.32041    
    973000   0.96815856     18.817719      148.43674    
    974000   1.0300946      18.153164      148.42667    
    975000   0.98685484     18.310042      148.39578    
    976000   1.0560865      18.934352      148.27429    
    977000   0.99995663     18.981628      148.06103    
    978000   1.0024905      18.836473      147.90654    
    979000   0.99405222     18.286241      147.74148    
    980000   0.98708149     18.842905      147.66547    
    981000   1.0107885      18.677515      147.55055    
    982000   1.009056       18.594731      147.72007    
    983000   1.0156054      18.933969      147.59655    
    984000   1.0087127      18.306163      147.47446    
    985000   1.0106996      18.264084      147.17441    
    986000   1.0256895      18.614336      147.09788    
    987000   1.0023912      18.46207       147.13873    
    988000   0.98220137     18.77842       146.57202    
    989000   0.99590766     18.09179       146.44508    
    990000   1.0315681      18.539802      146.40205    
    991000   1.0203399      18.614037      146.3538     
    992000   1.0018987      17.921962      146.33386    
    993000   1.0147519      18.577854      146.48219    
    994000   1.0456356      18.473312      146.24729    
    995000   1.0295028      18.774825      145.97488    
    996000   1.0064505      19.16201       145.97536    
    997000   0.96498908     18.11203       146.1805     
    998000   1.0182194      18.54211       146.0763     
    999000   1.0270303      18.733346      145.97862    
   1000000   1.0047772      18.416902      145.79126    
   1001000   1.0036778      18.426491      145.70817    
   1002000   0.97647857     18.616164      145.46441    
   1003000   0.97233117     18.455122      145.41546    
   1004000   0.99570314     17.799916      145.28325    
   1005000   1.0523355      18.505616      145.21163    
   1006000   0.97513012     18.42565       145.18118    
   1007000   1.0065307      18.659765      145.29502    
   1008000   1.0265669      18.613158      145.1943     
   1009000   0.94518132     17.896718      145.04959    
   1010000   0.98334993     17.888911      145.12098    
   1011000   1.0196053      18.620377      144.95708    
   1012000   1.0171484      18.036265      144.87001    
   1013000   1.0125515      18.621148      144.88205    
   1014000   0.99301436     18.681791      144.84479    
   1015000   0.98721065     18.499329      144.73641    
   1016000   1.0005067      18.174329      144.52835    
   1017000   1.0301241      18.490878      144.55622    
   1018000   0.97338816     17.935258      144.20781    
   1019000   0.99277914     18.69207       143.88442    
   1020000   0.96410922     17.939638      143.69102    
   1021000   0.98032068     18.3121        143.49598    
   1022000   1.0092375      18.554743      143.21398    
   1023000   0.91717372     18.229008      143.12868    
   1024000   1.0505641      18.155001      143.09549    
   1025000   1.0119391      18.488645      142.81078    
   1026000   0.97810758     18.456189      142.81413    
   1027000   0.9987165      18.086452      142.6611     
   1028000   0.99252716     18.133968      142.93682    
   1029000   1.0097128      17.911184      142.89492    
   1030000   0.93045476     18.05079       142.98816    
   1031000   0.9933534      19.378232      143.02005    
   1032000   0.96212589     18.693933      142.92559    
   1033000   1.0252403      18.606262      142.96856    
   1034000   0.99265441     18.922552      142.96304    
   1035000   1.050652       18.335813      142.93402    
   1036000   0.96901717     18.38174       142.79444    
   1037000   1.0433889      17.988358      142.88376    
   1038000   1.0002543      18.662371      142.91052    
   1039000   0.99346366     18.455541      142.75722    
   1040000   0.94921595     18.199817      142.86201    
   1041000   0.969652       18.191159      143.03477    
   1042000   0.98887716     18.601612      143.21509    
   1043000   0.96696508     18.371675      143.28232    
   1044000   1.0395371      18.949544      143.13568    
   1045000   0.95923989     18.423541      143.11565    
   1046000   0.98658602     18.105467      142.87448    
   1047000   0.96194248     17.948573      142.70321    
   1048000   0.99464642     17.92164       142.64624    
   1049000   1.006442       18.862023      142.36614    
   1050000   0.97274663     18.736154      142.35564    
   1051000   1.0245557      18.693572      142.30538    
   1052000   1.0119246      18.4981        142.36875    
   1053000   1.015322       17.92707       142.59457    
   1054000   0.98184789     17.980179      142.64584    
   1055000   1.0045068      18.510326      142.3217     
   1056000   1.0050613      18.584362      142.25232    
   1057000   1.0262275      18.76171       142.07425    
   1058000   0.94997229     18.429984      142.13056    
   1059000   1.0187137      19.034889      141.91593    
   1060000   1.0157414      18.53418       141.70789    
   1061000   0.93216404     18.569192      141.59186    
   1062000   0.99813541     18.775984      141.57413    
   1063000   0.99664746     18.375823      141.52004    
   1064000   0.98584181     18.318811      141.72933    
   1065000   0.99976311     18.235752      141.62191    
   1066000   0.9708932      18.222611      141.68618    
   1067000   1.0088653      18.685992      141.88852    
   1068000   1.0128623      18.195045      141.77909    
   1069000   0.99727282     18.235474      141.47054    
   1070000   0.97572678     18.327905      141.44034    
   1071000   0.98895241     18.451198      141.32677    
   1072000   1.0487026      18.364493      141.06798    
   1073000   0.99592412     18.140974      141.04114    
   1074000   1.0103014      18.56547       141.08849    
   1075000   0.97638044     18.783755      141.09698    
   1076000   1.0026289      18.08252       140.98708    
   1077000   0.94771341     17.883125      140.84584    
   1078000   1.0012355      18.222111      140.77883    
   1079000   0.99179635     18.399216      140.49684    
   1080000   0.9561582      18.601297      140.18184    
   1081000   1.005006       18.473437      140.04632    
   1082000   0.9926575      17.915654      139.80871    
   1083000   1.0440713      18.30117       139.75363    
   1084000   1.0400305      18.97812       139.9143     
   1085000   1.0634322      18.837127      139.92176    
   1086000   1.023758       18.337376      139.83022    
   1087000   0.9820188      18.252333      139.83853    
   1088000   1.0089434      18.705762      139.74964    
   1089000   0.99170522     18.53992       139.64878    
   1090000   1.005852       18.130068      139.49267    
   1091000   1.0260932      18.531216      139.44931    
   1092000   0.99826512     17.676683      139.32053    
   1093000   1.046838       18.343487      139.18743    
   1094000   1.0091777      18.360729      139.09939    
   1095000   0.9869653      18.462993      139.14051    
   1096000   1.0145231      17.999296      139.25524    
   1097000   0.99136593     18.675026      138.94275    
   1098000   0.99532814     18.056607      138.8442     
   1099000   0.99387383     17.909417      138.90589    
   1100000   0.9669618      18.16725       138.96906    
   1101000   1.0106293      18.151986      138.89978    
   1102000   1.0334725      18.014905      138.81631    
   1103000   1.0239828      18.282611      138.86529    
   1104000   1.0421951      18.52507       138.71904    
   1105000   1.0028381      18.471651      138.73219    
   1106000   1.0225091      18.1304        138.67059    
   1107000   0.98256015     18.452249      138.54105    
   1108000   0.98437701     18.323641      138.31085    
   1109000   0.96590816     18.803833      138.14624    
   1110000   0.99244101     18.176874      137.93182    
   1111000   1.0316113      18.587927      137.69836    
   1112000   0.97552505     18.141899      137.66266    
   1113000   0.99957352     18.433349      137.6446     
   1114000   0.98975519     18.07625       137.49596    
   1115000   1.0221179      18.498588      137.37814    
   1116000   1.033683       19.295837      136.99945    
   1117000   0.95155618     18.29948       136.70252    
   1118000   0.9889219      18.380793      136.59881    
   1119000   1.0284493      18.101388      136.52805    
   1120000   1.0205936      18.348982      136.57458    
   1121000   0.9991692      18.352303      136.68124    
   1122000   1.0534002      18.316259      136.52649    
   1123000   0.97827394     18.275723      136.26454    
   1124000   0.96754026     18.119932      136.37347    
   1125000   1.005538       18.573826      136.36548    
   1126000   1.0459458      18.387257      136.33594    
   1127000   1.0145747      17.957456      136.08907    
   1128000   1.0032564      18.6221        135.9219     
   1129000   1.0020828      18.698713      135.91364    
   1130000   1.0330005      18.48336       136.004      
   1131000   0.98376654     18.569669      136.12398    
   1132000   1.0092939      18.671702      136.14115    
   1133000   0.97608577     18.163107      136.03807    
   1134000   1.002658       18.020025      135.99449    
   1135000   0.99773092     18.187062      135.86217    
   1136000   1.0053731      18.648709      135.60967    
   1137000   1.0066875      18.711342      135.26109    
   1138000   0.9372835      18.153554      134.98923    
   1139000   1.0129555      18.062411      134.7811     
   1140000   0.94974492     18.518761      134.77192    
   1141000   1.0408473      18.081762      134.48729    
   1142000   0.97456541     18.29762       134.37507    
   1143000   0.98599366     18.175202      134.42771    
   1144000   1.0104007      18.485127      134.36882    
   1145000   1.002106       18.71095       134.17129    
   1146000   0.95515078     18.181751      134.17376    
   1147000   0.99395016     18.900972      134.27639    
   1148000   1.0128946      18.111456      134.23541    
   1149000   1.0369614      17.904906      134.25604    
   1150000   0.99147699     18.342923      134.38391    
   1151000   0.99833135     18.054436      134.4138     
   1152000   1.0065474      18.080959      134.39505    
   1153000   0.9636037      18.366431      134.33208    
   1154000   1.0208106      17.894866      134.17053    
   1155000   0.96434916     17.702849      134.09185    
   1156000   0.9747551      17.826247      133.60017    
   1157000   1.0069018      18.62064       133.64308    
   1158000   0.98631118     18.146142      133.596      
   1159000   0.97160207     18.245869      133.72965    
   1160000   1.0391892      18.374654      133.55966    
   1161000   0.97327668     17.83951       133.45034    
   1162000   1.0033967      17.897852      133.37832    
   1163000   1.0021826      18.411626      133.24382    
   1164000   0.98612445     18.70485       133.27605    
   1165000   1.0098844      18.569191      133.30787    
   1166000   0.97111098     17.945299      133.09015    
   1167000   0.9788645      17.877405      133.04747    
   1168000   1.0079689      18.57212       133.08964    
   1169000   0.99143011     18.586882      133.09646    
   1170000   1.0169275      18.131955      133.08125    
   1171000   0.98025951     17.920379      133.09953    
   1172000   1.0304847      18.761637      133.09621    
   1173000   1.0024213      18.110987      133.04751    
   1174000   1.0089548      18.221476      132.89694    
   1175000   1.0083459      18.007243      132.66564    
   1176000   1.0298034      18.564734      132.76558    
   1177000   1.040027       18.803155      132.74631    
   1178000   1.0076259      18.266319      132.56813    
   1179000   1.0180734      18.704122      132.47708    
   1180000   1.0120137      17.662291      132.29569    
   1181000   1.0149041      18.225872      132.52665    
   1182000   1.018813       17.779697      132.41453    
   1183000   1.0448346      17.896262      132.27495    
   1184000   0.99586332     18.182922      132.16054    
   1185000   0.98931271     18.405381      131.8041     
   1186000   1.0177406      18.495337      131.66252    
   1187000   0.99399064     18.514413      131.79584    
   1188000   0.97433382     18.427627      131.69436    
   1189000   0.984046       18.26835       131.74956    
   1190000   1.0348337      18.07484       131.95555    
   1191000   1.0409307      18.296757      131.80659    
   1192000   0.96264765     18.107192      131.60715    
   1193000   1.0066774      18.244948      131.62646    
   1194000   0.98204589     18.2912        131.41977    
   1195000   1.0710534      18.032482      131.43336    
   1196000   1.0289234      18.951414      131.57219    
   1197000   1.0096835      18.565002      131.43676    
   1198000   1.0048567      18.947002      131.30264    
   1199000   1.0099927      18.545827      131.25516    
   1200000   0.97618913     18.002774      131.16682    
   1201000   1.0124288      18.523108      131.02895    
   1202000   1.003981       18.588806      130.92686    
   1203000   0.98929574     17.904087      130.81722    
   1204000   0.94315975     18.000628      130.83949    
   1205000   0.99210257     18.22924       130.83068    
   1206000   0.95351127     18.627095      130.76629    
   1207000   1.0171739      18.644265      130.73904    
   1208000   0.94923247     18.747667      130.70075    
   1209000   1.0196527      18.25111       130.67367    
   1210000   0.96768974     18.028763      130.54305    
   1211000   0.99280938     18.723106      130.28491    
   1212000   0.96336919     18.391969      130.17344    
   1213000   1.0163502      18.590295      130.34143    
   1214000   1.0144284      18.508835      130.25689    
   1215000   1.0276312      17.983056      129.95299    
   1216000   0.99199658     18.00948       129.84302    
   1217000   0.96274559     18.111245      129.84867    
   1218000   0.97506608     17.508066      129.8764     
   1219000   1.0002526      18.711972      129.67897    
   1220000   1.0001596      18.478174      129.46743    
   1221000   0.98924618     18.073338      129.3822     
   1222000   1.0230142      18.405565      129.27747    
   1223000   1.0049802      17.901026      129.13448    
   1224000   1.0003123      18.075842      129.00014    
   1225000   0.96209222     18.580862      129.02074    
   1226000   1.009683       18.164919      129.23515    
   1227000   0.99380109     18.030009      129.19565    
   1228000   1.0492912      18.54204       129.04497    
   1229000   1.0317349      18.386412      128.98046    
   1230000   1.0212074      18.037395      128.92033    
   1231000   0.96783239     18.541696      129.16105    
   1232000   1.047661       18.069209      129.29526    
   1233000   0.98312946     18.062661      129.16622    
   1234000   1.0185727      18.249054      128.97336    
   1235000   0.97746027     18.414952      128.7546     
   1236000   1.0264749      18.347422      128.84114    
   1237000   1.0134078      18.201379      128.4685     
   1238000   0.99300641     17.489822      128.45056    
   1239000   0.99875495     18.356689      128.42712    
   1240000   1.0289903      17.693474      128.09945    
   1241000   1.0255613      18.003841      127.91589    
   1242000   0.99173182     18.356456      128.01108    
   1243000   1.0148977      18.213049      127.96626    
   1244000   0.98614682     17.988045      127.79403    
   1245000   1.0170931      18.531444      127.79157    
   1246000   0.99821222     18.57982       127.59672    
   1247000   1.0022937      18.443286      127.27921    
   1248000   1.0344303      17.893378      127.08196    
   1249000   0.99764541     17.989707      127.00448    
   1250000   0.94706685     17.983712      126.80044    
   1251000   0.98909204     17.897197      126.46544    
   1252000   0.97509529     18.567728      126.35355    
   1253000   0.99790994     18.458204      126.46783    
   1254000   0.99380925     18.488866      126.48426    
   1255000   1.010593       18.102509      126.41978    
   1256000   0.98889519     18.30409       126.40439    
   1257000   1.0319253      18.157958      126.50141    
   1258000   0.97772859     18.004105      126.252      
   1259000   1.04824        18.864786      125.96035    
   1260000   0.99228465     18.306838      125.79161    
   1261000   1.0072177      18.230753      125.57826    
   1262000   0.93998125     17.876495      125.5978     
   1263000   1.0062159      17.702749      125.41548    
   1264000   0.98685303     18.339524      125.42628    
   1265000   1.0031899      18.068969      125.2828     
   1266000   1.0704057      18.512627      125.23823    
   1267000   0.97546276     18.043251      125.12522    
   1268000   0.98242882     18.140997      124.88723    
   1269000   0.96993802     18.192519      124.85126    
   1270000   1.0252446      18.428762      124.93695    
   1271000   0.99241934     18.807496      124.6338     
   1272000   1.0312271      18.355472      124.69812    
   1273000   0.99772494     18.322235      124.34761    
   1274000   0.94579958     17.947477      124.16066    
   1275000   1.0284364      18.558872      124.04854    
   1276000   0.99718651     17.988187      124.01183    
   1277000   1.0145048      17.653135      123.78283    
   1278000   0.97904801     18.441252      123.52144    
   1279000   1.0096993      17.834529      123.41734    
   1280000   1.0080446      18.081748      123.44742    
   1281000   1.0113305      18.044661      123.33806    
   1282000   1.0085895      18.014755      123.29377    
   1283000   1.0164026      18.659352      123.16515    
   1284000   1.0333912      18.166462      123.11584    
   1285000   0.990113       18.649848      123.24615    
   1286000   1.0276922      18.217889      123.27225    
   1287000   1.0212546      17.785783      123.23708    
   1288000   0.98959987     18.772149      123.39244    
   1289000   1.0078445      18.18814       123.18951    
   1290000   0.96173275     17.917026      123.09683    
   1291000   0.9709237      18.015936      122.9597     
   1292000   0.98340927     17.810638      123.09569    
   1293000   1.018038       18.37973       123.12443    
   1294000   0.95821383     18.553934      123.23032    
   1295000   0.97262212     17.677451      123.05808    
   1296000   1.0269454      18.370122      123.00324    
   1297000   0.97793155     18.036911      122.80502    
   1298000   0.92708101     17.971461      122.53818    
   1299000   1.0321952      18.295309      122.49038    
   1300000   0.98848282     17.919946      122.41464    
   1301000   1.0550734      18.620836      122.36064    
   1302000   0.98280215     18.602841      122.32623    
   1303000   0.97754767     18.37978       122.19731    
   1304000   1.0095367      18.191507      122.0918     
   1305000   1.0204322      17.738602      121.91923    
   1306000   0.97596675     17.717565      121.77846    
   1307000   1.0194842      18.713763      121.88586    
   1308000   0.96271471     17.9518        121.71445    
   1309000   0.98990117     18.916326      121.79434    
   1310000   0.98599859     18.201439      121.75288    
   1311000   1.0318976      18.334505      121.72786    
   1312000   0.98625484     18.257081      121.74386    
   1313000   0.99944518     18.393937      121.69291    
   1314000   0.9198916      17.754436      121.69353    
   1315000   0.98436896     18.498917      121.55106    
   1316000   1.0297218      18.392502      121.46605    
   1317000   1.0093909      18.446769      121.37346    
   1318000   0.96303398     18.057459      121.34907    
   1319000   0.99290078     18.655555      121.3075     
   1320000   0.99126515     18.183379      121.05293    
   1321000   0.98943832     18.534544      120.9131     
   1322000   1.0395484      18.255698      120.96315    
   1323000   0.96729907     18.137792      120.95337    
   1324000   1.0499563      18.404495      120.98164    
   1325000   0.95437959     17.928966      120.97134    
   1326000   1.0210395      18.098292      120.91751    
   1327000   1.011042       18.647796      120.80167    
   1328000   1.0098499      17.951406      121.04608    
   1329000   0.9954753      17.70142       120.96831    
   1330000   1.0218411      18.542522      120.97908    
   1331000   1.0255658      17.797972      120.84703    
   1332000   0.98207237     17.991703      120.71569    
   1333000   1.0347868      18.890574      120.97216    
   1334000   1.0292268      17.849422      120.94719    
   1335000   1.015423       18.237379      120.54008    
   1336000   0.97801667     18.025341      120.33912    
   1337000   1.0103837      18.297439      120.42307    
   1338000   1.0250122      18.114502      120.14816    
   1339000   0.998892       17.767616      120.00302    
   1340000   0.9853356      18.194872      119.80558    
   1341000   1.0099298      18.32313       119.72534    
   1342000   1.0171535      18.133146      119.62388    
   1343000   1.0226891      18.501214      119.63876    
   1344000   0.98172095     18.187449      119.58322    
   1345000   1.0390019      18.163784      119.47347    
   1346000   0.95407714     18.701193      119.42822    
   1347000   1.0068266      18.237088      119.41519    
   1348000   1.002054       18.311897      119.27268    
   1349000   0.96036672     17.951749      119.37431    
   1350000   0.96661006     18.172709      119.30625    
   1351000   0.9666398      19.032502      119.20279    
   1352000   0.97620417     18.514129      119.30313    
   1353000   1.0107726      18.484903      119.25128    
   1354000   1.0275846      19.115221      119.2187     
   1355000   1.0218756      18.529919      119.23087    
   1356000   1.0155981      18.654335      118.95873    
   1357000   0.96744898     18.58572       118.75055    
   1358000   1.017038       18.246877      118.74459    
   1359000   1.0094558      18.267538      118.68345    
   1360000   0.97328289     18.146048      118.4024     
   1361000   0.94787292     17.754884      118.40378    
   1362000   0.97947929     17.613118      118.13224    
   1363000   1.0106695      18.624692      118.03244    
   1364000   1.0022677      18.263525      118.01282    
   1365000   1.0263865      17.807726      117.99874    
   1366000   1.0062205      18.105369      117.87968    
   1367000   0.99917088     18.010265      118.03778    
   1368000   0.97064065     17.284527      118.04845    
   1369000   0.96938477     18.11234       118.21131    
   1370000   1.0220325      18.210731      118.19263    
   1371000   0.99930397     18.284406      118.07225    
   1372000   0.97599059     17.681745      118.05678    
   1373000   0.96915424     18.203142      117.71106    
   1374000   1.0368369      17.790968      117.73948    
   1375000   0.97236732     18.769573      117.61503    
   1376000   1.0308303      18.281045      117.48035    
   1377000   0.98761397     17.950443      117.33235    
   1378000   1.0034193      18.676018      117.3248     
   1379000   0.99788914     18.519459      117.30922    
   1380000   1.0138036      18.281578      117.34342    
   1381000   0.95317719     18.333173      117.48223    
   1382000   0.96360495     18.042329      117.56649    
   1383000   1.0254065      18.242748      117.54138    
   1384000   1.013748       18.301893      117.42562    
   1385000   1.0316048      17.776619      117.19818    
   1386000   0.98692497     17.644602      117.13135    
   1387000   1.0021322      18.280306      117.21898    
   1388000   0.97085044     17.749718      117.24964    
   1389000   1.0259709      17.990861      117.18085    
   1390000   0.95517862     17.502203      117.26093    
   1391000   0.95795134     17.412125      117.31915    
   1392000   1.0181129      18.406674      117.39456    
   1393000   1.0037196      17.897675      117.18223    
   1394000   0.97635791     18.063965      117.30382    
   1395000   1.028154       18.600966      117.13546    
   1396000   1.0024103      17.725757      117.15597    
   1397000   0.99758887     18.193667      117.34841    
   1398000   0.98923324     18.027244      117.29574    
   1399000   1.0470166      18.524315      117.34614    
   1400000   1.024249       17.726494      117.37841    
   1401000   0.98817089     17.755862      117.46251    
   1402000   0.95454865     17.647266      117.45296    
   1403000   0.97026365     17.881077      117.56431    
   1404000   0.97103762     18.120062      117.51654    
   1405000   0.97247142     17.605223      117.79075    
   1406000   1.0268899      18.144635      117.81086    
   1407000   0.97817111     18.245215      117.81008    
   1408000   1.0276875      17.294709      117.52001    
   1409000   0.99987044     18.153022      117.53404    
   1410000   0.9931411      18.037761      117.5804     
   1411000   1.0039673      18.050632      117.62193    
   1412000   1.0117849      17.831467      117.41217    
   1413000   0.99158438     18.180102      117.22512    
   1414000   0.99367547     17.893947      117.04172    
   1415000   1.0107126      18.055052      117.03695    
   1416000   0.95762296     17.837259      116.83075    
   1417000   1.0421056      18.327195      116.82557    
   1418000   0.97230431     17.828526      116.8206     
   1419000   0.99602076     18.049555      117.13472    
   1420000   0.98526755     18.060577      116.9021     
   1421000   0.99425872     18.726115      116.74633    
   1422000   0.97369867     17.55653       116.66161    
   1423000   1.0321597      17.661649      116.70037    
   1424000   1.0176411      17.683749      116.87254    
   1425000   1.0152101      17.730575      117.05302    
   1426000   0.9944264      17.731278      116.81679    
   1427000   0.99523898     17.430774      116.71939    
   1428000   0.98702313     17.985156      116.79981    
   1429000   0.96050728     17.791308      116.57474    
   1430000   0.97508353     17.750279      116.55354    
   1431000   1.0114433      18.351343      116.59175    
   1432000   1.0146609      18.013958      116.65665    
   1433000   0.97922021     17.804949      116.57992    
   1434000   0.95566784     18.020383      116.50436    
   1435000   0.99525886     18.24531       116.49061    
   1436000   0.96197414     17.798463      116.48982    
   1437000   0.97402896     18.195026      116.6286     
   1438000   1.0055765      18.614304      116.62878    
   1439000   1.033633       18.756694      116.56567    
   1440000   1.01922        18.471985      116.6015     
   1441000   1.0547069      18.312249      116.65266    
   1442000   1.0353765      18.910104      116.34125    
   1443000   0.99028651     18.023557      116.29943    
   1444000   1.006491       18.302985      116.01387    
   1445000   0.98446732     18.154678      115.82698    
   1446000   1.0476677      18.235484      115.75135    
   1447000   1.0081123      18.0868        115.75511    
   1448000   1.0044046      17.818215      115.74222    
   1449000   0.95619482     17.662314      115.42142    
   1450000   1.0614091      18.420666      115.41415    
   1451000   1.0042278      18.300388      115.28906    
   1452000   0.99896676     17.927083      115.17714    
   1453000   0.99047334     18.052393      115.19825    
   1454000   1.0154342      18.510459      115.02687    
   1455000   1.0359527      17.655178      115.00739    
   1456000   0.9950003      17.906998      115.06948    
   1457000   0.98706769     17.860385      115.06243    
   1458000   0.99713257     17.840039      114.90576    
   1459000   1.0052373      17.855461      115.13068    
   1460000   0.98898864     18.191711      115.05853    
   1461000   1.0109558      18.248324      114.97423    
   1462000   0.98205895     17.485615      114.6484     
   1463000   0.99822974     17.906887      114.48459    
   1464000   0.96433361     17.999815      114.47541    
   1465000   1.0085497      17.795563      114.42803    
   1466000   1.0227824      18.722714      114.15111    
   1467000   1.0035769      18.354441      114.05724    
   1468000   1.0067159      17.823088      114.00231    
   1469000   0.99727974     18.562877      113.82174    
   1470000   0.99274167     17.958755      113.80988    
   1471000   0.99653696     18.25032       113.6654     
   1472000   1.0173409      17.6579        113.57628    
   1473000   1.0114122      17.771886      113.43274    
   1474000   1.0367203      18.330997      113.15173    
   1475000   1.0061956      18.681688      113.08462    
   1476000   0.99922657     18.105309      113.13739    
   1477000   1.0248493      18.586986      112.98624    
   1478000   0.98511526     17.747142      113.0078     
   1479000   0.9565493      18.319766      113.01677    
   1480000   1.0136517      18.295936      112.88097    
   1481000   1.0337868      18.058444      112.60994    
   1482000   1.0146962      18.828329      112.57079    
   1483000   0.9812985      17.646816      112.49407    
   1484000   0.98752372     18.250567      112.39173    
   1485000   1.0215282      18.386345      112.30987    
   1486000   0.99254944     17.733514      112.12862    
   1487000   0.98871271     18.078368      112.10272    
   1488000   0.98109342     17.882288      112.24687    
   1489000   1.0123854      17.684784      112.12057    
   1490000   0.95570671     18.199488      112.02119    
   1491000   1.0409659      18.637986      111.9695     
   1492000   0.98738298     17.886785      111.93094    
   1493000   0.9869894      18.118191      111.98247    
   1494000   1.0054464      17.893475      112.21187    
   1495000   0.98032989     17.927162      112.16578    
   1496000   1.0001899      18.046292      112.13188    
   1497000   0.99542155     18.539937      112.1817     
   1498000   0.97036374     18.060659      112.12454    
   1499000   0.97686148     18.061723      111.86456    
   1500000   1.0217191      18.238338      111.7113     
   1501000   0.95986008     18.002715      111.59901    
   1502000   1.000527       17.834693      111.653      
   1503000   0.94920216     17.737321      111.76091    
   1504000   0.98249272     17.293968      111.90446    
   1505000   1.0073035      18.199442      112.07097    
   1506000   1.0125735      18.242074      112.24485    
   1507000   0.9562217      17.660782      112.04676    
   1508000   1.028018       18.155325      111.84747    
   1509000   1.0029787      18.322669      111.87914    
   1510000   0.99795498     18.41037       111.59816    
   1511000   0.9852323      18.185495      111.59536    
   1512000   0.98729712     18.217394      111.58815    
   1513000   0.99934312     18.414907      111.21945    
   1514000   1.0278427      18.408064      111.2008     
   1515000   1.0167025      18.183934      111.05241    
   1516000   1.0016859      17.539422      110.72709    
   1517000   1.0270182      18.162158      110.71296    
   1518000   1.0021341      17.893305      110.50337    
   1519000   1.0237205      18.353412      110.21259    
   1520000   1.0635188      18.104751      109.9612     
   1521000   1.0039446      17.822863      109.68887    
   1522000   1.0130733      17.981833      109.60331    
   1523000   0.94794897     18.36101       109.52225    
   1524000   0.98387322     17.956731      109.48466    
   1525000   1.0210598      17.83062       109.52757    
   1526000   1.0083762      17.889634      109.67963    
   1527000   1.0017488      18.349033      109.71929    
   1528000   0.98804121     17.95052       109.5137     
   1529000   0.98726904     17.888482      109.5722     
   1530000   1.0225169      18.140918      109.41097    
   1531000   0.9755097      17.242666      109.46654    
   1532000   1.009628       18.323904      109.247      
   1533000   0.95221578     17.680991      109.16153    
   1534000   1.0192685      18.096561      109.17943    
   1535000   1.0141752      18.399383      109.0688     
   1536000   0.97791068     18.462026      109.03798    
   1537000   1.0310809      18.470114      109.0011     
   1538000   0.9466717      17.859793      108.9027     
   1539000   0.98295233     17.927558      108.65246    
   1540000   1.0179368      17.675522      108.64848    
   1541000   0.98933245     18.056008      108.42702    
   1542000   0.9871372      17.420466      108.20387    
   1543000   1.0049845      18.187474      107.9786     
   1544000   0.97960683     18.431612      107.71999    
   1545000   0.99396947     17.629773      107.61097    
   1546000   1.0139198      17.968504      107.62025    
   1547000   0.97640916     17.399532      107.48537    
   1548000   1.0240372      18.120222      107.50066    
   1549000   1.037197       17.991606      107.28372    
   1550000   1.0429941      17.945568      107.04169    
   1551000   0.94840947     18.801695      107.11288    
   1552000   0.96031506     17.415379      107.21977    
   1553000   1.0308401      18.411107      107.15218    
   1554000   0.99598427     17.8044        107.33974    
   1555000   0.98429796     18.16974       107.26009    
   1556000   0.98372625     18.633183      107.08547    
   1557000   1.0051118      18.12618       107.09164    
   1558000   1.0154392      18.110985      107.00472    
   1559000   1.0320114      18.152752      106.87825    
   1560000   1.0276815      18.572113      106.7768     
   1561000   0.98418461     17.950516      106.70051    
   1562000   1.007592       17.89178       106.43639    
   1563000   1.0333079      18.389268      106.5088     
   1564000   0.97880929     18.184704      106.61122    
   1565000   1.049633       18.329888      106.65474    
   1566000   1.0045427      18.16278       106.83338    
   1567000   0.9906078      18.453267      106.7503     
   1568000   0.98126394     18.22589       106.51794    
   1569000   0.98881163     17.946059      106.5773     
   1570000   0.99410409     18.396791      106.60675    
   1571000   1.00525        17.923535      106.60954    
   1572000   1.0129345      18.102312      106.37928    
   1573000   1.0034213      18.220006      105.68962    
   1574000   1.0251545      18.253008      105.67373    
   1575000   1.0039474      18.027609      105.76082    
   1576000   0.98669525     17.109127      105.73121    
   1577000   1.008941       17.945732      105.46859    
   1578000   1.0300467      18.218201      105.46752    
   1579000   0.95931847     17.603234      105.28985    
   1580000   1.0342665      18.701289      105.21236    
   1581000   1.0378327      18.07967       105.39335    
   1582000   1.0116921      17.785479      105.19619    
   1583000   1.0207905      17.795351      105.1615     
   1584000   1.0013081      17.710282      104.84764    
   1585000   1.0200993      18.118098      104.666      
   1586000   0.98036942     18.615176      104.75676    
   1587000   0.98682702     18.140643      104.7022     
   1588000   1.0284126      17.696932      104.75572    
   1589000   0.99017762     17.94288       104.72764    
   1590000   0.97801531     17.866608      104.71375    
   1591000   0.96331887     18.026896      104.70236    
   1592000   0.9819515      18.404007      104.28563    
   1593000   1.0333466      18.325721      104.31032    
   1594000   0.98621554     18.099152      104.00605    
   1595000   1.0267234      18.167826      103.83211    
   1596000   1.0075759      17.935771      103.58416    
   1597000   1.0070716      17.961189      103.59776    
   1598000   1.0075883      18.156209      103.79252    
   1599000   0.98398796     18.210283      103.73832    
   1600000   1.0165563      18.103988      103.80192    
   1601000   0.99643799     18.154488      103.69011    
   1602000   1.082698       18.334573      103.69412    
   1603000   1.0181183      18.071649      103.39938    
   1604000   0.99427447     17.816154      103.5508     
   1605000   0.96942376     17.873174      103.40292    
   1606000   0.99098213     18.27717       103.25678    
   1607000   1.0122473      17.966975      103.26677    
   1608000   1.0260445      18.150405      103.22865    
   1609000   0.98851263     17.872713      103.04852    
   1610000   1.0387934      18.067149      103.00355    
   1611000   1.0581041      18.186217      103.04667    
   1612000   0.98649538     17.153665      102.91808    
   1613000   0.96335531     17.990992      102.63373    
   1614000   1.024378       18.121847      102.50392    
   1615000   1.0084016      17.458271      102.35306    
   1616000   1.0189124      17.888551      102.14589    
   1617000   0.98895014     18.011834      102.10152    
   1618000   1.0361487      18.135334      101.75101    
   1619000   0.96711919     17.499263      101.65321    
   1620000   1.0216199      18.067095      101.60587    
   1621000   1.0380185      17.632229      101.63803    
   1622000   1.0180705      18.370125      101.5545     
   1623000   1.0085521      17.55151       101.37244    
   1624000   1.0115471      17.841196      101.15853    
   1625000   0.94549209     17.78827       101.02186    
   1626000   1.0307144      18.252206      100.89704    
   1627000   1.0171022      18.16928       100.70243    
   1628000   1.0008625      17.786475      100.69859    
   1629000   1.0035696      17.655837      100.69662    
   1630000   1.0022878      17.954193      100.66087    
   1631000   0.98977265     17.387435      100.62533    
   1632000   1.0061577      18.110445      100.68677    
   1633000   0.97815469     17.845672      100.61278    
   1634000   1.0576816      18.264175      100.61066    
   1635000   1.0573868      17.940863      100.65065    
   1636000   1.0353381      17.719843      100.56635    
   1637000   1.0305237      17.795117      100.61204    
   1638000   1.0390673      18.163226      100.62336    
   1639000   0.98668748     17.840483      100.65474    
   1640000   0.94769909     17.518007      100.77234    
   1641000   1.0351675      18.11319       100.70306    
   1642000   1.0020865      18.098873      100.54106    
   1643000   1.016611       17.918427      100.26664    
   1644000   1.011704       18.493323      100.28403    
   1645000   0.97983295     17.821729      100.18574    
   1646000   0.99149344     17.861489      100.16714    
   1647000   1.0242965      18.142404      99.985197    
   1648000   1.0262356      18.350557      100.05202    
   1649000   1.0109154      17.919073      100.12035    
   1650000   0.99287961     17.881641      100.02561    
   1651000   0.97718044     17.940148      99.872315    
   1652000   0.99221905     17.630901      99.831801    
   1653000   1.0326786      17.899202      99.689103    
   1654000   0.98136428     18.070781      99.432281    
   1655000   1.0196748      18.169973      99.231362    
   1656000   0.98862768     17.874769      99.16756     
   1657000   1.0410862      18.222761      99.209685    
   1658000   0.98151557     18.296461      99.306401    
   1659000   1.0046854      18.351785      99.408037    
   1660000   0.96169302     17.383571      99.19363     
   1661000   0.98428027     18.097724      99.001158    
   1662000   1.0194698      17.792924      99.012089    
   1663000   1.021992       17.595303      99.225433    
   1664000   0.96641209     17.624331      99.129382    
   1665000   1.0364699      17.955629      98.911167    
   1666000   1.0217357      17.626321      99.077091    
   1667000   0.98649331     17.445856      98.958419    
   1668000   1.0321351      17.964271      98.973656    
   1669000   1.0015458      17.743751      98.886856    
   1670000   0.97650381     17.76157       98.781836    
   1671000   0.98981132     17.533985      98.910292    
   1672000   0.97914133     18.069329      98.79409     
   1673000   1.0286735      18.154291      98.776716    
   1674000   1.0141983      17.76588       98.6953      
   1675000   1.009415       17.809216      98.701643    
   1676000   1.045099       18.002993      98.646798    
   1677000   1.014934       18.14953       98.597668    
   1678000   0.95796375     18.043887      98.408888    
   1679000   1.0319812      17.742159      98.078781    
   1680000   1.0381287      18.352328      97.97956     
   1681000   1.0229564      17.748482      97.874271    
   1682000   0.95777776     18.131825      97.771864    
   1683000   1.0073693      17.759403      97.529552    
   1684000   0.9909591      17.635301      97.341032    
   1685000   0.96168062     17.669233      97.445775    
   1686000   1.0139468      18.140762      97.449484    
   1687000   1.0205027      18.631513      97.48358     
   1688000   1.0264172      17.652934      97.586985    
   1689000   1.0130478      18.059824      97.599465    
   1690000   1.0042211      17.750151      97.711964    
   1691000   1.011676       18.037638      97.760288    
   1692000   1.0168864      17.744587      97.688169    
   1693000   0.98820307     18.109024      97.599521    
   1694000   1.0086971      17.934204      97.566373    
   1695000   1.0032888      17.877436      97.306732    
   1696000   1.013126       17.442189      97.353966    
   1697000   0.98914379     17.730011      97.510453    
   1698000   1.0015504      17.843165      97.369485    
   1699000   0.99769095     17.32788       97.477128    
   1700000   1.0455736      17.887345      97.457828    
   1701000   1.0072495      18.157836      97.235121    
   1702000   0.97451252     18.039635      97.040958    
   1703000   0.99226303     18.511954      97.186599    
   1704000   1.0117352      18.183074      97.250724    
   1705000   0.95851209     18.05945       97.178347    
   1706000   0.97575002     17.75656       97.166506    
   1707000   1.0384726      18.291797      96.904717    
   1708000   0.97126569     17.536482      96.819994    
   1709000   1.0405101      17.970148      96.710199    
   1710000   1.0290552      18.134392      96.740794    
   1711000   1.0206024      17.751268      96.768053    
   1712000   0.99318118     17.866376      96.640339    
   1713000   0.95806852     17.999509      96.717266    
   1714000   1.0194404      17.658941      96.699776    
   1715000   1.0202473      17.244044      96.534669    
   1716000   0.98385908     18.675115      96.443981    
   1717000   0.99364098     18.009596      96.40096     
   1718000   1.0056295      18.007254      96.545024    
   1719000   1.0064597      17.60326       96.407619    
   1720000   1.0000923      17.06796       96.366352    
   1721000   1.0151647      17.93857       96.268896    
   1722000   0.97721357     17.847539      95.999527    
   1723000   0.98935647     17.7827        95.976089    
   1724000   1.0046835      17.682135      95.912124    
   1725000   1.0234766      17.275943      95.863104    
   1726000   0.9975462      17.680897      95.874097    
   1727000   0.98031509     18.233772      95.759785    
   1728000   1.0028994      17.795774      95.516769    
   1729000   0.96170187     18.568323      95.39995     
   1730000   0.97710302     17.717577      95.330221    
   1731000   1.0041817      17.767448      95.438369    
   1732000   0.9968168      18.034208      95.482988    
   1733000   1.0076727      17.368631      95.125488    
   1734000   1.0144545      18.014991      95.042829    
   1735000   1.003252       17.667786      94.784287    
   1736000   1.0065037      18.3438        94.578582    
   1737000   0.99751709     17.630237      94.333747    
   1738000   1.0000702      17.823462      94.336165    
   1739000   1.0437771      17.808014      94.360092    
   1740000   0.98193922     18.008177      94.467562    
   1741000   0.97092188     17.368455      94.239179    
   1742000   1.0585143      18.27804       94.031186    
   1743000   0.95444864     17.711403      94.044422    
   1744000   0.98655947     17.538247      93.850633    
   1745000   1.0156046      17.777971      93.664605    
   1746000   1.0236035      17.971442      93.510958    
   1747000   0.98070489     17.502478      93.320867    
   1748000   1.0084471      17.981999      93.123232    
   1749000   0.99364402     17.776241      93.2145      
   1750000   0.99470425     17.486638      93.271234    
   1751000   0.98601984     18.040777      93.426013    
   1752000   0.96340732     17.38051       93.170866    
   1753000   1.0280942      18.335208      93.042716    
   1754000   0.97400869     17.529974      92.95034     
   1755000   1.0263334      18.194242      92.905725    
   1756000   1.0208137      18.089886      92.780566    
   1757000   0.99382577     17.661185      92.595932    
   1758000   0.9840507      18.261998      92.47848     
   1759000   0.99176887     18.05908       92.185382    
   1760000   1.030989       17.643675      91.933663    
   1761000   0.98854802     17.153647      91.700237    
   1762000   0.94701347     17.802488      91.533725    
   1763000   0.96659887     17.583988      91.355061    
   1764000   0.97093184     17.10686       91.132393    
   1765000   1.0324867      17.805801      91.102924    
   1766000   1.028691       18.020767      90.842515    
   1767000   0.98424237     17.869051      90.720152    
   1768000   0.95895592     17.871064      90.668998    
   1769000   0.98359457     17.807818      90.806804    
   1770000   1.0020165      17.434283      90.762996    
   1771000   1.0218205      17.962372      90.917411    
   1772000   0.97740242     17.512009      90.798352    
   1773000   0.99024279     18.418744      90.877299    
   1774000   0.9658089      18.140825      90.862485    
   1775000   0.96817096     17.382759      90.622676    
   1776000   0.9644667      17.671755      90.487493    
   1777000   1.0395183      17.851413      90.512101    
   1778000   1.0139432      17.691527      90.415831    
   1779000   1.0189106      17.320057      90.360354    
   1780000   1.0246578      18.242583      90.520914    
   1781000   1.0220946      17.974184      90.562657    
   1782000   0.99681834     18.007351      90.513807    
   1783000   0.97530016     17.476136      90.484129    
   1784000   0.97822441     17.28372       90.349566    
   1785000   0.99131561     17.393281      90.334474    
   1786000   0.98912848     17.913415      90.467102    
   1787000   0.9877042      17.949809      90.637599    
   1788000   0.9805318      18.059238      90.389326    
   1789000   0.96386336     17.763415      90.344112    
   1790000   0.99893478     17.440518      90.44028     
   1791000   1.0116412      18.477032      90.093203    
   1792000   1.006096       18.457836      90.211259    
   1793000   1.0069265      17.545223      90.370424    
   1794000   1.0259783      17.526007      90.25245     
   1795000   1.0399478      17.800266      90.204365    
   1796000   0.99687991     17.713875      90.012531    
   1797000   1.0080659      18.100312      89.798739    
   1798000   1.0137425      17.758105      89.934026    
   1799000   1.0052075      17.954171      89.774896    
   1800000   1.0013985      17.40075       89.823014    
   1801000   1.0210306      18.179585      89.818157    
   1802000   0.99222904     17.939779      89.695139    
   1803000   1.0512237      17.688765      89.550099    
   1804000   0.97769579     17.84779       89.505531    
   1805000   1.0133728      18.180026      89.535995    
   1806000   0.96285786     17.161407      89.534591    
   1807000   0.97220629     17.541341      89.587951    
   1808000   1.0499628      18.269033      89.634582    
   1809000   0.98106949     17.609932      89.803702    
   1810000   0.99565427     17.927133      89.85931     
   1811000   0.96649233     17.496694      89.75794     
   1812000   1.0213037      17.530164      89.782626    
   1813000   0.98001172     17.406105      89.622706    
   1814000   0.99630765     17.589262      89.449266    
   1815000   0.98819635     17.248183      89.318714    
   1816000   0.97056647     17.565365      89.214915    
   1817000   1.0005294      17.887689      89.080601    
   1818000   0.96740274     17.654574      89.191083    
   1819000   1.0396363      18.522871      89.235248    
   1820000   1.0027352      18.538327      89.068758    
   1821000   1.0591503      18.334773      89.218921    
   1822000   1.0295907      18.280976      89.254969    
   1823000   0.98539831     17.823784      89.375001    
   1824000   0.9854494      17.85212       89.114864    
   1825000   1.0057573      17.445413      88.920151    
   1826000   1.0139707      18.25527       88.692977    
   1827000   0.99178426     17.771257      88.854465    
   1828000   1.0138127      18.11692       88.964248    
   1829000   1.0008856      17.610892      88.890427    
   1830000   0.96862795     18.162966      88.846064    
   1831000   1.0023644      17.384724      88.906562    
   1832000   0.97767781     17.972865      88.790758    
   1833000   1.0135238      18.473363      88.627156    
   1834000   0.98676234     17.955291      88.276849    
   1835000   1.0495297      17.787477      88.118727    
   1836000   1.0100004      17.581309      88.016851    
   1837000   1.0131479      17.661443      87.980222    
   1838000   0.94969569     18.260947      87.846411    
   1839000   0.99629706     17.119805      87.645898    
   1840000   1.0054935      18.109493      87.789749    
   1841000   0.99067852     17.74419       87.542326    
   1842000   1.0122456      17.674442      87.252252    
   1843000   1.0252836      17.653673      87.276498    
   1844000   0.96843304     18.036598      87.386238    
   1845000   0.96069885     17.995714      87.428665    
   1846000   0.98404832     18.409439      87.416149    
   1847000   0.97470179     17.897958      87.404974    
   1848000   1.0191209      17.324636      87.341629    
   1849000   0.99278897     17.921621      87.187008    
   1850000   1.0015292      18.32538       86.902033    
   1851000   0.99787837     17.840609      86.793546    
   1852000   1.0001817      17.564925      86.755573    
   1853000   1.0308806      18.33668       86.586554    
   1854000   0.99361811     18.045317      86.725897    
   1855000   0.99403501     17.828973      86.918095    
   1856000   0.97732832     17.477763      86.815854    
   1857000   0.99788456     18.104703      86.554128    
   1858000   1.0288025      17.811796      86.378781    
   1859000   1.0131052      17.851683      86.375722    
   1860000   1.0115378      17.766672      86.294692    
   1861000   1.0433946      17.743554      86.252945    
   1862000   0.97895569     17.356292      86.031291    
   1863000   1.0052034      17.248973      86.244204    
   1864000   0.9787823      17.440892      86.140112    
   1865000   1.0030626      17.88172       86.18358     
   1866000   1.0390553      17.528274      86.240606    
   1867000   1.0236955      17.962898      86.16135     
   1868000   1.0727137      17.856562      86.033676    
   1869000   0.9929781      18.182884      85.802821    
   1870000   1.0022416      17.732522      85.667741    
   1871000   1.0290433      17.647388      85.39379     
   1872000   0.99636406     17.930131      85.362911    
   1873000   1.0327199      18.121902      85.49484     
   1874000   1.0179798      17.711912      85.374355    
   1875000   1.0052625      17.723077      85.532849    
   1876000   0.98495088     17.686351      85.72771     
   1877000   0.99491474     17.618795      85.852414    
   1878000   0.97708109     17.749682      85.76034     
   1879000   1.0102493      17.924685      85.702985    
   1880000   1.0251735      17.432555      85.778655    
   1881000   0.97942063     17.30348       85.617348    
   1882000   0.97352012     17.602063      85.51043     
   1883000   0.97252356     17.975842      85.357461    
   1884000   0.98895727     17.376075      85.193614    
   1885000   1.0048577      17.780527      85.13938     
   1886000   1.0118216      17.374749      85.315866    
   1887000   0.96742916     17.802308      85.37036     
   1888000   0.98623532     17.37997       85.035584    
   1889000   0.98840488     17.818725      85.073449    
   1890000   0.993161       17.402929      84.990591    
   1891000   1.02019        18.287499      84.824717    
   1892000   1.0303699      17.506524      84.787305    
   1893000   1.039834       17.848074      84.806696    
   1894000   1.0145361      17.430738      84.787366    
   1895000   0.98617757     17.458653      84.689175    
   1896000   1.021138       17.701845      84.42511     
   1897000   0.98020694     17.526876      84.299806    
   1898000   1.0425893      18.022072      84.179656    
   1899000   0.993889       17.70229       83.964122    
   1900000   1.0105201      18.065686      83.55857     
   1901000   0.97517626     17.961903      83.61801     
   1902000   1.0203113      17.620683      83.4965      
   1903000   1.0115113      17.722998      83.276402    
   1904000   0.9882723      17.435925      82.988182    
   1905000   1.0215789      17.740318      82.831606    
   1906000   0.99916508     17.339179      82.924678    
   1907000   1.0177304      17.407934      82.969149    
   1908000   1.0107709      17.593014      82.995794    
   1909000   0.99618023     17.96005       82.834218    
   1910000   0.98915256     17.636838      82.7429      
   1911000   0.97121467     17.29217       82.519961    
   1912000   1.0137888      18.102525      82.639794    
   1913000   1.0378253      17.637667      82.586054    
   1914000   0.9934575      17.35976       82.471417    
   1915000   1.0198017      17.808817      82.325869    
   1916000   1.0498928      17.802267      82.112674    
   1917000   1.0061114      18.115931      81.943042    
   1918000   0.95861273     17.459859      81.830546    
   1919000   1.0245719      17.948929      81.778584    
   1920000   0.97725925     17.991355      81.722404    
   1921000   0.99144232     17.658472      81.438978    
   1922000   1.0220165      17.796339      81.274983    
   1923000   1.0193484      17.849788      81.154737    
   1924000   1.0166881      18.19114       80.981134    
   1925000   0.94394447     17.733428      80.868099    
   1926000   0.98408056     17.796499      80.733728    
   1927000   1.0298263      17.733878      80.895852    
   1928000   0.99065196     17.807322      80.739033    
   1929000   0.98677207     17.580639      80.707424    
   1930000   1.0601369      16.985979      80.648997    
   1931000   1.0127006      17.576623      80.678087    
   1932000   0.99332493     17.474434      80.23198     
   1933000   0.96349147     17.560974      80.311274    
   1934000   1.0630149      17.831922      80.504649    
   1935000   0.97056354     16.749906      80.531566    
   1936000   1.0037506      17.702449      80.275394    
   1937000   0.97956372     17.90328       79.893691    
   1938000   1.0083717      17.874066      80.010553    
   1939000   0.98480411     17.192478      79.782538    
   1940000   0.98003569     17.694729      79.70558     
   1941000   0.95128352     17.715483      79.495075    
   1942000   1.0107612      17.569595      79.638243    
   1943000   1.0283953      17.485229      79.707931    
   1944000   1.0001976      18.372667      79.749547    
   1945000   1.0214606      17.171697      79.708066    
   1946000   1.0158323      17.491345      79.515984    
   1947000   1.0053257      17.771535      79.524278    
   1948000   0.96604332     17.682915      79.528776    
   1949000   1.0333533      18.306825      79.538069    
   1950000   0.97516484     18.145483      79.3706      
   1951000   0.98934075     18.032624      79.204442    
   1952000   0.97843817     17.592429      79.22316     
   1953000   0.992214       17.710449      79.05639     
   1954000   1.002952       17.723281      79.146494    
   1955000   0.99734713     17.929315      79.193999    
   1956000   1.0197339      17.664896      79.088301    
   1957000   1.0199966      17.890644      78.991874    
   1958000   0.97339714     17.230641      78.925845    
   1959000   1.0316583      18.162583      78.816309    
   1960000   1.0296812      17.608131      78.955089    
   1961000   0.99841322     17.699138      79.000659    
   1962000   0.98720425     16.881088      78.776947    
   1963000   0.98677711     17.406067      78.715628    
   1964000   1.0130486      17.867923      78.719664    
   1965000   0.94136235     17.560114      78.663461    
   1966000   0.99447476     17.418497      78.758402    
   1967000   0.96754106     17.49588       78.624636    
   1968000   1.0002475      17.962325      78.567511    
   1969000   0.97517813     17.344642      78.295251    
   1970000   1.0012413      18.397042      78.186428    
   1971000   0.97095215     17.497746      78.154602    
   1972000   1.0028234      17.930404      77.723989    
   1973000   0.95465289     17.357885      77.695187    
   1974000   0.99691599     17.576642      77.600876    
   1975000   1.050042       17.978937      77.451872    
   1976000   0.96571478     17.426295      77.514898    
   1977000   0.99829938     18.00381       77.495776    
   1978000   1.0832378      17.945723      77.493748    
   1979000   0.9825665      17.566352      77.541493    
   1980000   0.98752257     18.000105      77.496638    
   1981000   1.0115145      17.560239      77.403221    
   1982000   0.97673183     17.474657      77.17084     
   1983000   1.0050258      17.616548      77.041089    
   1984000   0.96652226     18.271492      77.123772    
   1985000   0.95194267     17.785713      76.872178    
   1986000   0.99895293     17.031686      76.711915    
   1987000   0.9749938      17.257594      76.815206    
   1988000   0.99180204     17.394413      76.77941     
   1989000   0.99518476     17.671956      76.551087    
   1990000   0.98269457     17.258558      76.452109    
   1991000   1.0323709      18.028151      76.437844    
   1992000   0.99706239     17.586765      76.39603     
   1993000   1.0185039      17.860131      76.487963    
   1994000   0.99417688     17.527576      76.295346    
   1995000   0.99851818     17.362913      76.110469    
   1996000   1.0120414      17.482039      76.062615    
   1997000   1.0405928      17.807546      75.900219    
   1998000   0.97536847     16.900961      75.777673    
   1999000   1.0189224      17.567121      75.838557    
   2000000   1.0271593      18.093797      75.640959    
   2001000   0.98242253     17.430185      75.630192    
   2002000   0.98023256     17.486827      75.561736    
   2003000   1.0088307      17.748668      75.57163     
   2004000   1.0053212      17.693721      75.335573    
   2005000   0.9963938      17.620794      75.551367    
   2006000   1.0316913      17.101599      75.582303    
   2007000   1.0384045      17.850131      75.59392     
   2008000   0.94463825     17.250073      75.58883     
   2009000   0.98258649     17.6983        75.589007    
   2010000   0.92602438     17.429899      75.421309    
   2011000   1.0145363      17.636455      75.516343    
   2012000   1.0129404      17.502307      75.456626    
   2013000   1.0181986      17.869466      75.320431    
   2014000   1.0158384      17.402121      75.186709    
   2015000   0.9417486      17.67504       75.002639    
   2016000   0.98034331     17.987146      75.306438    
   2017000   1.0242197      17.034081      75.435474    
   2018000   0.9846845      17.228682      75.510333    
   2019000   0.98810538     17.574732      75.520652    
   2020000   0.97920163     17.778459      75.182091    
   2021000   0.95044948     17.174002      75.278141    
   2022000   1.0210627      17.427438      75.046037    
   2023000   1.0224218      17.50964       74.859629    
   2024000   1.0345949      17.503192      74.764061    
   2025000   1.0129006      18.574278      74.630503    
   2026000   0.96618053     17.291947      74.28194     
   2027000   0.94891427     18.179592      74.414237    
   2028000   0.96233792     17.192639      74.425813    
   2029000   1.0243723      17.517981      74.211953    
   2030000   0.99856328     18.123041      73.963817    
   2031000   1.0441127      17.933265      73.964575    
   2032000   0.96742589     17.33471       73.766139    
   2033000   0.97775881     18.036046      73.826486    
   2034000   1.0058377      17.358681      73.628591    
   2035000   1.0130502      17.310485      73.570842    
   2036000   1.013537       17.556494      73.537417    
   2037000   0.99615757     17.704907      73.593484    
   2038000   0.98750739     17.956047      73.608159    
   2039000   0.97959192     17.57142       73.447358    
   2040000   0.99927943     17.982353      73.346336    
   2041000   0.98010516     17.685793      73.542082    
   2042000   1.0111386      17.794244      73.213661    
   2043000   0.99150416     17.854782      72.998404    
   2044000   0.99645002     17.725525      72.954581    
   2045000   1.0038961      17.461546      72.986107    
   2046000   0.96020921     17.899092      72.857181    
   2047000   1.0003898      17.004573      72.771691    
   2048000   0.98283618     17.199014      72.661752    
   2049000   1.0365254      18.315578      72.840013    
   2050000   1.0198333      17.790747      72.766179    
   2051000   0.9678652      17.732225      72.691773    
   2052000   0.97456026     17.596569      72.472203    
   2053000   0.98756078     17.824516      72.331833    
   2054000   0.99028043     17.934948      72.335233    
   2055000   1.0178038      17.509442      72.199604    
   2056000   1.0033802      17.428811      72.055479    
   2057000   0.98046468     18.128747      72.012828    
   2058000   1.0027693      18.414774      71.746103    
   2059000   0.99852277     17.110847      71.656055    
   2060000   1.0255992      17.893509      71.297769    
   2061000   1.0150563      17.611424      71.124611    
   2062000   1.0229759      17.765213      71.028244    
   2063000   0.9811598      17.880421      71.016926    
   2064000   0.9743293      17.82892       70.833625    
   2065000   0.98864817     17.685892      70.730386    
   2066000   1.0117767      17.312674      70.727903    
   2067000   1.0202162      17.397341      70.762508    
   2068000   1.0206635      18.229276      70.774499    
   2069000   0.99620223     17.248872      70.709041    
   2070000   0.95421812     16.859755      70.771019    
   2071000   1.0175231      17.958958      70.558627    
   2072000   1.0000366      17.351833      70.585352    
   2073000   0.96913222     17.727069      70.490147    
   2074000   0.97031525     17.551018      70.346854    
   2075000   1.0468993      17.866537      70.064063    
   2076000   0.99526326     17.620089      70.041217    
   2077000   0.99837141     17.675471      70.224153    
   2078000   1.0047247      18.278085      70.302329    
   2079000   1.0035421      17.655957      70.192974    
   2080000   0.977052       17.52987       70.240345    
   2081000   1.0526839      17.507673      70.084397    
   2082000   0.98498198     17.836982      69.994973    
   2083000   1.0469013      17.914897      70.042388    
   2084000   1.0075539      17.850888      69.865037    
   2085000   1.0347231      18.507104      69.807527    
   2086000   0.99775322     17.641722      69.740263    
   2087000   1.0086146      17.774972      69.710227    
   2088000   1.0160927      18.020355      69.647517    
   2089000   1.0199496      17.111846      69.366523    
   2090000   0.99132997     17.780727      69.237055    
   2091000   1.0112901      17.506174      69.25097     
   2092000   1.0129807      17.735033      69.206727    
   2093000   0.98086521     17.262988      68.999927    
   2094000   0.94520309     17.220118      68.722862    
   2095000   1.0071687      17.754933      68.767995    
   2096000   0.97273962     18.000068      68.898376    
   2097000   1.0333541      17.004698      68.863703    
   2098000   1.0644449      17.919462      68.678135    
   2099000   1.0079927      17.631708      68.689496    
   2100000   1.0049531      17.330143      68.8656      
   2101000   0.99795429     18.166723      68.713004    
   2102000   1.0022467      17.577625      68.688507    
   2103000   1.0009953      17.488312      68.466541    
   2104000   1.0177738      17.690013      68.44222     
   2105000   0.98589161     17.352831      68.37947     
   2106000   1.0093962      17.447133      68.258244    
   2107000   0.97701534     17.338128      68.178623    
   2108000   1.0063414      17.839322      67.875072    
   2109000   1.0203553      17.187671      67.62382     
   2110000   0.97914958     17.481261      67.526097    
   2111000   1.0384443      17.805126      67.488543    
   2112000   1.0184845      18.037245      67.546059    
   2113000   0.96415737     17.779185      67.484896    
   2114000   0.99589535     17.813532      67.48038     
   2115000   1.0354922      17.204702      67.437232    
   2116000   0.97311078     17.693942      67.346346    
   2117000   0.97841054     17.574631      67.389417    
   2118000   0.98484629     17.265623      67.459623    
   2119000   1.0034059      17.493514      67.489479    
   2120000   1.0156905      18.051827      67.663354    
   2121000   1.0202362      18.044541      67.42726     
   2122000   1.0033732      17.73853       67.228183    
   2123000   0.98908536     17.278525      66.929102    
   2124000   1.003171       17.752695      66.88495     
   2125000   0.98975018     17.217285      66.858765    
   2126000   1.0407963      17.845997      66.903938    
   2127000   1.0033406      18.374125      67.087218    
   2128000   1.0461501      17.532255      66.861385    
   2129000   0.9758819      17.688618      66.775163    
   2130000   1.0352231      17.484681      66.603921    
   2131000   1.016586       17.034924      66.405678    
   2132000   0.99572052     17.749168      66.235033    
   2133000   0.999807       17.489458      66.351894    
   2134000   0.9583982      17.608992      66.069785    
   2135000   1.0274937      17.520798      66.026649    
   2136000   1.001539       17.709631      66.06108     
   2137000   1.0167225      17.478758      65.720001    
   2138000   1.015297       17.541013      65.598434    
   2139000   1.0389429      17.995861      65.473462    
   2140000   0.99958822     17.422584      65.346288    
   2141000   0.99091449     17.998645      65.377682    
   2142000   0.99566843     18.100601      65.518747    
   2143000   1.0316703      17.365031      65.623421    
   2144000   1.0282643      17.515138      65.493363    
   2145000   0.99068177     17.511403      65.52161     
   2146000   0.99407153     18.231541      65.536071    
   2147000   1.023282       17.867211      65.469883    
   2148000   1.007856       17.981015      65.391788    
   2149000   0.99973658     17.298422      65.374598    
   2150000   0.95492922     17.407575      65.162441    
   2151000   0.99051311     17.454995      64.982929    
   2152000   0.9683774      17.581238      64.686483    
   2153000   0.99205011     17.149341      64.317553    
   2154000   1.0535525      17.258721      64.242584    
   2155000   0.9972193      17.781798      64.227921    
   2156000   1.0030942      18.051973      63.761908    
   2157000   1.0145632      17.161542      63.668131    
   2158000   1.0373287      17.106166      63.614795    
   2159000   1.000153       17.283071      63.658344    
   2160000   1.0342066      18.202994      63.655312    
   2161000   0.99366906     17.715998      63.56938     
   2162000   1.0109538      17.465667      63.574962    
   2163000   0.9849996      17.779047      63.532361    
   2164000   1.0348758      18.017278      63.425773    
   2165000   0.99827463     18.098888      63.347046    
   2166000   0.98555851     17.561921      63.226511    
   2167000   0.98644061     17.462614      63.011795    
   2168000   0.9867463      17.380275      63.042533    
   2169000   1.0014185      17.290417      62.846432    
   2170000   1.0049114      17.552461      62.968831    
   2171000   0.99431978     17.568942      62.924562    
   2172000   1.0263899      17.797329      62.733729    
   2173000   1.0117552      17.36134       62.50367     
   2174000   0.99770737     17.003272      62.386009    
   2175000   0.97203282     17.557789      62.310593    
   2176000   0.99159869     16.941893      62.225523    
   2177000   1.0034953      17.611884      61.976754    
   2178000   0.97804286     17.580284      61.786943    
   2179000   1.0063443      16.813564      61.890501    
   2180000   0.97074988     17.255394      61.710513    
   2181000   0.9951911      17.225351      61.595953    
   2182000   1.0123213      17.770048      61.548905    
   2183000   1.0177187      17.678848      61.433368    
   2184000   0.99044209     17.30148       61.177879    
   2185000   1.0338982      18.113347      61.281777    
   2186000   0.99893663     17.456877      61.206116    
   2187000   0.99522279     16.779028      61.347148    
   2188000   1.016848       17.637555      61.121142    
   2189000   0.9865385      17.393111      61.010346    
   2190000   1.0122992      17.683172      61.010056    
   2191000   1.0106559      16.826184      60.821728    
   2192000   0.96351962     16.92195       60.901379    
   2193000   0.99133356     18.028214      60.819965    
   2194000   1.0269784      17.531828      60.547567    
   2195000   0.99103388     17.161407      60.471617    
   2196000   0.97353733     17.521858      60.442977    
   2197000   1.0089319      17.97623       60.235053    
   2198000   1.020675       18.114741      60.216677    
   2199000   0.99868065     17.612348      60.315133    
   2200000   1.0299109      17.534117      60.212711    
   2201000   1.048351       17.695764      60.209612    
   2202000   0.98095309     17.683439      60.265168    
   2203000   1.0068445      17.863913      60.231883    
   2204000   0.96871539     17.961067      60.068664    
   2205000   1.0270503      17.506067      60.009817    
   2206000   0.98280387     17.421101      59.91311     
   2207000   1.0284897      18.128973      59.748642    
   2208000   1.0532136      17.421628      59.688131    
   2209000   0.95815507     17.444369      59.645057    
   2210000   1.0289134      17.536189      59.619275    
   2211000   0.97477969     17.170514      59.396903    
   2212000   1.0330101      17.616209      59.218124    
   2213000   0.96742143     17.085701      59.104189    
   2214000   0.98525493     17.302315      59.324258    
   2215000   1.0278928      17.663037      59.376292    
   2216000   0.97312095     17.216799      59.326462    
   2217000   1.0227123      17.352613      59.523078    
   2218000   0.99424702     17.925769      59.424161    
   2219000   0.97034076     16.850391      59.459383    
   2220000   0.99731665     18.228387      59.454679    
   2221000   1.0007374      17.870604      59.224267    
   2222000   0.94815124     17.4608        59.035838    
   2223000   1.0161331      17.798641      58.730623    
   2224000   0.97106004     17.506118      58.700402    
   2225000   0.97668816     17.136472      58.61705     
   2226000   0.95620202     17.152884      58.533033    
   2227000   0.95928514     17.23975       58.355234    
   2228000   1.0138894      17.125838      58.31971     
   2229000   0.96090728     17.176955      58.189682    
   2230000   1.0355238      17.432641      58.007941    
   2231000   0.97987072     17.277123      57.956534    
   2232000   1.0406441      17.778161      57.877965    
   2233000   0.95340434     16.912422      57.739235    
   2234000   1.0174348      17.398097      57.678224    
   2235000   1.0135816      17.967459      57.723074    
   2236000   1.0003193      17.956804      57.627928    
   2237000   1.0220484      17.395848      57.542639    
   2238000   1.0324566      17.695244      57.4096      
   2239000   1.040268       17.463996      57.423641    
   2240000   0.97830854     17.073505      57.534861    
   2241000   1.0370823      17.159037      57.479872    
   2242000   1.0353663      17.629052      57.38184     
   2243000   0.96571514     17.694644      57.068686    
   2244000   0.97784953     17.460115      56.817357    
   2245000   0.99066047     17.53605       56.540172    
   2246000   0.99968624     17.836131      56.531113    
   2247000   1.0019644      17.463651      56.466932    
   2248000   0.97284465     17.685078      56.454512    
   2249000   0.99827999     17.494113      56.393035    
   2250000   1.0122024      18.036178      56.463303    
   2251000   0.96022692     17.574547      56.561649    
   2252000   1.022451       17.959375      56.606451    
   2253000   0.98959784     17.684092      56.418361    
   2254000   1.0214742      17.405926      56.27764     
   2255000   1.0149808      17.233874      56.298587    
   2256000   1.0114456      17.723093      56.137794    
   2257000   0.97785194     17.115796      55.862888    
   2258000   1.0100773      17.653187      55.824652    
   2259000   1.0290074      17.566455      55.622311    
   2260000   1.0278641      17.69579       55.941775    
   2261000   1.000716       17.411276      55.886802    
   2262000   0.95875958     17.688549      55.813539    
   2263000   1.0101309      17.588553      55.482964    
   2264000   1.0364721      18.216589      55.245443    
   2265000   0.99592521     16.668426      55.339054    
   2266000   1.0009315      17.263566      55.256327    
   2267000   1.0083354      17.614956      55.057       
   2268000   1.0050097      17.736622      55.022235    
   2269000   1.0064939      17.165603      54.940504    
   2270000   1.0310125      17.929993      54.876585    
   2271000   1.039542       17.301155      54.878394    
   2272000   0.97842147     17.029103      54.55804     
   2273000   1.0422117      17.423282      54.509723    
   2274000   0.9752184      17.434896      54.347081    
   2275000   0.97569329     17.399034      54.338856    
   2276000   1.0260695      17.702885      54.33187     
   2277000   1.0400998      17.335529      54.237358    
   2278000   1.0240952      17.4524        53.985036    
   2279000   1.0020079      17.392426      54.061594    
   2280000   1.0257997      17.169076      53.924834    
   2281000   0.98566441     17.355575      53.886907    
   2282000   1.0227639      18.26263       53.686595    
   2283000   1.0126825      17.637951      53.981813    
   2284000   0.99276903     17.123921      54.208713    
   2285000   0.96126844     17.400156      54.126148    
   2286000   0.98432035     17.380833      54.092794    
   2287000   0.97860948     17.464456      54.275758    
   2288000   0.98649416     16.88369       54.189802    
   2289000   1.0041881      18.210762      54.174099    
   2290000   1.0455883      17.547208      54.157048    
   2291000   1.0099317      17.493384      54.132009    
   2292000   1.0134451      17.588853      53.986159    
   2293000   1.0096329      17.005383      53.542068    
   2294000   0.98903358     17.548883      53.461645    
   2295000   0.99034628     17.306492      53.493958    
   2296000   0.98849911     16.992116      53.398536    
   2297000   1.0290914      16.854221      53.0636      
   2298000   1.009395       17.28453       52.996263    
   2299000   1.0071365      17.115671      53.041185    
   2300000   1.0315251      17.770009      53.097382    
   2301000   0.9844692      17.488417      53.010984    
   2302000   0.99769465     17.823405      52.911062    
   2303000   1.0334878      18.134009      52.851793    
   2304000   1.0522621      17.369117      53.122742    
   2305000   1.0524063      17.786596      53.135609    
   2306000   1.0317858      17.621548      53.087118    
   2307000   1.0024009      17.54183       53.112813    
   2308000   1.0022315      17.68098       53.045016    
   2309000   1.0298255      17.344792      53.166337    
   2310000   0.94595458     17.402932      53.168866    
   2311000   0.99876133     16.907716      53.017752    
   2312000   1.032057       17.049291      52.996864    
   2313000   0.95238542     17.235535      52.972636    
   2314000   0.98595353     17.251836      52.852846    
   2315000   0.9781887      17.625281      52.766104    
   2316000   1.049256       17.449108      52.876612    
   2317000   0.94989159     17.033068      52.781007    
   2318000   1.0225222      17.177912      52.66393     
   2319000   1.038379       17.528622      52.501033    
   2320000   1.007248       17.80116       52.321933    
   2321000   0.99150791     17.256528      52.192029    
   2322000   0.97490644     17.510893      52.144388    
   2323000   1.0007147      17.523143      52.104321    
   2324000   0.97828627     17.16949       52.316466    
   2325000   0.96881327     17.832689      52.239221    
   2326000   1.0059391      17.700149      52.092025    
   2327000   1.0176474      16.952477      52.049205    
   2328000   1.0245249      17.78511       52.040539    
   2329000   0.9875957      16.720468      52.032207    
   2330000   1.0812705      17.816166      52.085736    
   2331000   1.0137145      18.052002      52.33788     
   2332000   0.98790811     17.681988      52.580466    
   2333000   0.96729103     17.626329      52.420882    
   2334000   0.98504086     17.801193      52.306818    
   2335000   1.0000452      17.548993      52.137286    
   2336000   1.0287435      16.99534       51.98113     
   2337000   1.0193192      17.306205      51.693458    
   2338000   1.0143428      17.578598      51.715031    
   2339000   0.98408012     17.416991      51.597133    
   2340000   0.97745908     17.35914       51.375404    
   2341000   0.9619025      17.535238      51.293016    
   2342000   1.0214284      17.824714      51.157159    
   2343000   1.0208574      17.136002      50.898225    
   2344000   1.0069751      18.028976      50.962159    
   2345000   1.0111107      17.241963      50.862561    
   2346000   1.0326437      18.005649      50.704738    
   2347000   0.98285182     16.815485      51.023084    
   2348000   1.0363646      17.861862      51.085284    
   2349000   0.98098552     17.61413       50.970447    
   2350000   0.98528078     17.528562      50.787085    
   2351000   1.0020117      17.657823      50.705418    
   2352000   1.0220443      17.466486      50.525664    
   2353000   0.96348982     17.688373      50.484897    
   2354000   1.0057283      17.429041      50.457513    
   2355000   0.99985595     17.486097      50.336715    
   2356000   0.9951153      16.960871      50.350829    
   2357000   0.95566047     17.584158      50.065531    
   2358000   0.99276291     17.300242      50.008169    
   2359000   0.96759396     17.250521      49.912709    
   2360000   0.97123663     17.575579      49.90026     
   2361000   1.036408       18.041678      49.800868    
   2362000   1.0093157      17.713282      49.89707     
   2363000   1.0020942      17.76086       49.773228    
   2364000   0.95872445     17.06271       49.6555      
   2365000   0.99834883     17.853918      49.778115    
   2366000   0.95302519     17.255514      49.568187    
   2367000   1.0007456      17.810018      49.265258    
   2368000   1.0048595      17.767302      49.259235    
   2369000   0.96441851     17.901966      49.157467    
   2370000   1.0101413      18.168033      49.250208    
   2371000   1.011581       17.823154      49.237355    
   2372000   0.96282734     17.198445      49.074114    
   2373000   0.97856827     18.304018      49.060011    
   2374000   1.0516514      17.396485      49.13842     
   2375000   1.0092436      17.931521      48.93467     
   2376000   1.0155764      17.177565      48.89971     
   2377000   0.98353476     17.788739      48.909165    
   2378000   0.97683163     17.297371      48.826604    
   2379000   1.0388406      17.0506        48.73224     
   2380000   1.0009499      17.299951      48.727704    
   2381000   0.99427472     16.933313      48.799982    
   2382000   0.99367546     17.759474      48.783845    
   2383000   1.005048       17.78969       48.738513    
   2384000   0.98290096     17.346593      48.848499    
   2385000   1.0050195      17.218836      48.822607    
   2386000   1.0181482      17.37524       48.797387    
   2387000   0.99485197     17.807917      48.704137    
   2388000   0.9903504      17.763465      48.682155    
   2389000   1.0114373      17.342343      48.822362    
   2390000   1.0027206      17.808005      48.533683    
   2391000   1.0148301      17.534989      48.318888    
   2392000   0.95100783     17.364729      48.156484    
   2393000   0.97783464     17.270192      48.26507     
   2394000   1.0094807      17.675882      48.340367    
   2395000   1.0241989      17.055933      48.271046    
   2396000   0.91904565     17.360038      48.308324    
   2397000   0.994951       17.871211      48.163514    
   2398000   0.99300273     17.924967      47.911693    
   2399000   1.0399272      17.670369      47.903891    
   2400000   0.99161746     17.368324      47.768338    
   2401000   0.98689994     17.498485      47.805016    
   2402000   1.0563526      18.148761      47.934787    
   2403000   0.98070276     17.020043      47.997296    
   2404000   0.95637517     16.656338      47.863887    
   2405000   1.0053508      17.374685      47.835028    
   2406000   1.0173203      17.991935      47.745645    
   2407000   0.9797776      17.171636      47.623141    
   2408000   0.97733864     17.358202      47.563284    
   2409000   0.95755168     17.547456      47.355776    
   2410000   0.98997747     17.258917      47.30388     
   2411000   1.0093311      17.40843       47.210371    
   2412000   0.95318346     17.202784      47.171378    
   2413000   1.0090981      17.318603      47.195102    
   2414000   1.0433757      17.724428      47.103887    
   2415000   0.98841729     17.321104      46.962273    
   2416000   0.98531702     17.765944      46.973364    
   2417000   1.0300645      17.67817       46.9703      
   2418000   1.0216335      17.684071      46.883594    
   2419000   0.99024002     17.265239      46.892234    
   2420000   0.98956378     17.36512       46.795333    
   2421000   1.0053024      17.911951      46.743111    
   2422000   1.0219822      17.528021      46.686644    
   2423000   0.97659838     17.302479      46.72316     
   2424000   0.98388916     17.193475      46.693376    
   2425000   1.0151479      17.730448      46.558823    
   2426000   1.0747042      18.009178      46.42251     
   2427000   0.96654361     17.383595      46.324853    
   2428000   0.99909844     17.242986      46.106236    
   2429000   1.0106009      17.221248      46.051886    
   2430000   0.96650799     17.350183      46.132749    
   2431000   1.0221052      18.011713      46.230283    
   2432000   1.007243       17.331654      46.202421    
   2433000   0.95345132     17.60961       46.109415    
   2434000   0.98008548     17.449636      45.97345     
   2435000   0.93555341     17.159135      45.895456    
   2436000   1.0097546      17.514101      45.810437    
   2437000   1.0124295      17.322121      45.9428      
   2438000   0.96804321     17.651317      45.987236    
   2439000   1.0210498      17.736049      45.912892    
   2440000   1.0353052      17.424273      45.831406    
   2441000   0.97001019     17.833171      45.932272    
   2442000   0.95249154     16.718959      45.982753    
   2443000   1.0016266      17.71114       45.893148    
   2444000   0.99832594     17.308185      45.83617     
   2445000   0.99263968     17.814749      45.981801    
   2446000   0.97613783     17.431107      46.078482    
   2447000   0.96057883     18.019345      45.869924    
   2448000   1.0135617      17.235256      45.600232    
   2449000   1.0321581      17.912963      45.299803    
   2450000   1.0542498      17.446008      45.214944    
   2451000   1.027635       17.654616      45.174423    
   2452000   0.94692134     17.154385      45.368193    
   2453000   0.99226098     17.558523      45.326883    
   2454000   0.97450393     17.201236      45.194018    
   2455000   0.99419812     16.926389      45.503498    
   2456000   0.95392112     16.995318      45.441752    
   2457000   0.99774873     16.506688      44.90686     
   2458000   1.0259709      17.634157      44.821535    
   2459000   1.006585       17.330822      44.979311    
   2460000   1.0524456      17.359902      45.024882    
   2461000   0.96031538     17.040579      44.865407    
   2462000   0.97187603     17.706104      44.986003    
   2463000   1.0084896      17.652779      44.819303    
   2464000   1.0219607      17.790904      44.979264    
   2465000   1.0661758      17.609658      44.858324    
   2466000   1.0166217      17.929119      44.73541     
   2467000   0.9875791      17.650185      44.688488    
   2468000   1.0196294      17.346565      44.716635    
   2469000   0.99778722     17.667392      44.766259    
   2470000   0.99180352     17.850004      44.450432    
   2471000   1.0054125      16.794661      44.332321    
   2472000   0.99196766     17.639741      44.473861    
   2473000   1.0256445      17.031604      44.363074    
   2474000   1.0611868      17.464223      44.205423    
   2475000   0.97168028     18.151297      44.199757    
   2476000   0.96384403     17.398385      43.98991     
   2477000   0.99433096     17.040578      43.84608     
   2478000   1.0025335      16.951255      43.764795    
   2479000   1.0116605      17.863865      43.900411    
   2480000   1.0752101      17.627756      44.076351    
   2481000   0.96796995     17.287274      43.988135    
   2482000   0.99989901     17.967693      43.969828    
   2483000   1.0022154      17.467465      43.851623    
   2484000   1.0792362      17.371286      43.908467    
   2485000   0.99969448     16.996266      44.189177    
   2486000   1.0207195      17.773883      44.136933    
   2487000   0.98509601     17.595173      43.924813    
   2488000   0.97140022     17.145475      43.975627    
   2489000   0.98688907     17.493526      43.950854    
   2490000   1.0002266      17.498021      44.081077    
   2491000   1.0313518      17.312544      44.244079    
   2492000   0.9789617      17.16164       44.132896    
   2493000   0.99735671     17.66747       43.992453    
   2494000   1.0341465      17.537833      43.892475    
   2495000   1.0135031      17.675074      43.848197    
   2496000   0.9548344      17.721172      43.84202     
   2497000   0.99030174     17.0191        43.741142    
   2498000   1.0035907      17.587929      43.588894    
   2499000   1.0107828      17.236221      43.5483      
   2500000   1.0380303      17.271579      43.540784    
   2501000   1.0475214      17.252033      43.501064    
   2502000   1.0075541      17.802381      43.38442     
   2503000   1.0056168      17.510049      43.14602     
   2504000   0.99618104     16.98035       42.897707    
   2505000   1.069283       17.419993      42.829988    
   2506000   0.9855475      17.188661      42.614956    
   2507000   1.0385764      17.085996      42.436399    
   2508000   1.0102448      17.520673      42.220152    
   2509000   1.0664361      17.419845      42.099834    
   2510000   1.015115       17.132609      42.128991    
   2511000   1.0457052      17.465309      42.342714    
   2512000   0.99745601     17.349232      42.082875    
   2513000   1.0298233      17.595409      41.794648    
   2514000   1.0358291      18.051224      41.707214    
   2515000   0.99063951     18.037541      41.509729    
   2516000   1.0508861      17.840589      41.387672    
   2517000   1.0035968      17.565676      41.280083    
   2518000   1.0083735      18.145973      41.273188    
   2519000   1.0268537      16.810331      41.176246    
   2520000   0.99137062     17.213998      40.99302     
   2521000   0.98993136     17.279716      40.841322    
   2522000   0.9950909      17.04214       40.758414    
   2523000   1.0307137      17.478128      40.766772    
   2524000   1.033145       17.711577      40.624834    
   2525000   0.98639679     17.06158       40.766342    
   2526000   0.9872873      17.516272      40.561973    
   2527000   1.0186845      17.183489      40.600216    
   2528000   1.0045392      17.413811      40.399333    
   2529000   0.99900737     17.365761      40.186454    
   2530000   1.0042595      17.515615      39.884934    
   2531000   1.0400193      16.963184      40.106461    
   2532000   1.0354085      17.486528      39.966792    
   2533000   1.02272        17.786541      39.793855    
   2534000   1.0061502      16.685797      39.668517    
   2535000   0.97767684     17.666115      39.308733    
   2536000   1.0104815      17.644209      39.155384    
   2537000   0.9873362      17.088841      39.080343    
   2538000   0.99867581     17.548267      38.700022    
   2539000   0.97951942     17.468294      38.641464    
   2540000   1.0028313      17.165463      38.556553    
   2541000   0.99048256     17.362662      38.417957    
   2542000   0.93537611     17.623682      38.441576    
   2543000   1.0387627      17.690645      38.179091    
   2544000   1.0193889      17.268678      38.267115    
   2545000   1.0123505      17.717061      38.146298    
   2546000   1.0026147      17.457981      37.895633    
   2547000   1.0312717      17.535292      37.987926    
   2548000   0.99658585     17.445424      38.03781     
   2549000   0.98514802     17.475945      38.04282     
   2550000   0.97159171     17.039758      38.025859    
   2551000   0.96228588     17.074608      37.832282    
   2552000   1.0220722      17.426448      37.853077    
   2553000   1.0212516      17.284923      37.648992    
   2554000   0.97152365     17.789225      37.411049    
   2555000   1.011762       17.652237      37.474097    
   2556000   1.0111488      17.238814      37.412098    
   2557000   1.0016266      17.009323      37.478047    
   2558000   1.0631709      17.857548      37.320822    
   2559000   1.0121784      17.180387      37.162409    
   2560000   0.96079365     17.850401      37.224502    
   2561000   1.026957       17.180755      37.021738    
   2562000   0.99909946     17.657865      36.899844    
   2563000   0.98140694     16.633049      36.894284    
   2564000   1.0174552      16.952415      36.82203     
   2565000   1.0191053      17.896025      36.548268    
   2566000   1.0380468      17.974053      36.377444    
   2567000   0.97749247     17.121623      36.263685    
   2568000   1.0293879      17.73526       36.467937    
   2569000   0.99674234     17.797901      36.40363     
   2570000   0.99736529     16.976536      36.537522    
   2571000   0.97021162     17.161116      36.378371    
   2572000   1.0435961      17.966812      36.265312    
   2573000   1.038657       17.217654      36.110414    
   2574000   1.0162795      17.172801      35.840016    
   2575000   1.0135801      17.336799      35.611211    
   2576000   1.0526676      17.402324      35.569167    
   2577000   1.0273856      17.500503      35.456291    
   2578000   1.0050032      17.675466      35.529176    
   2579000   1.0173272      17.39488       35.548307    
   2580000   1.0123357      18.04816       35.546034    
   2581000   0.96925619     17.397879      35.650738    
   2582000   1.0397877      17.443632      35.568176    
   2583000   1.0192022      17.353702      35.339595    
   2584000   0.99034741     17.246185      35.254151    
   2585000   0.98583781     17.835055      35.06492     
   2586000   0.9508169      17.335841      34.949916    
   2587000   1.014581       17.375291      35.027119    
   2588000   1.068973       17.34761       34.73451     
   2589000   1.0115056      17.63105       34.62644     
   2590000   1.0086861      17.66541       34.352884    
   2591000   1.003395       17.269291      34.470625    
   2592000   0.97754615     17.490716      34.290582    
   2593000   0.95901645     17.61287       34.471282    
   2594000   1.0011473      16.727544      34.351595    
   2595000   1.0493128      17.889746      34.353587    
   2596000   1.0132755      17.437038      34.305925    
   2597000   1.0049723      17.475007      34.108461    
   2598000   0.96225741     16.895475      34.058428    
   2599000   0.986437       17.231277      33.881861    
   2600000   1.0130777      17.470113      33.879028    
   2601000   0.9943252      17.072059      33.815892    
   2602000   1.0184575      17.758221      33.797021    
   2603000   1.0012115      16.980211      33.855006    
   2604000   1.0253932      17.701516      33.578252    
   2605000   0.98968845     17.133533      33.422872    
   2606000   1.0124277      17.040555      33.358731    
   2607000   1.0317918      17.037028      33.254776    
   2608000   1.0199899      17.217159      33.093791    
   2609000   0.95601683     17.328649      32.911613    
   2610000   0.99037805     16.982278      32.949606    
   2611000   1.018382       17.474399      32.626786    
   2612000   0.99196758     17.379615      32.454541    
   2613000   1.022758       17.368982      32.51313     
   2614000   1.0591565      17.847926      32.266825    
   2615000   1.0100417      17.051172      32.282537    
   2616000   1.0086694      17.39315       32.217028    
   2617000   1.027629       17.966066      32.180943    
   2618000   0.98902406     16.520786      32.253383    
   2619000   0.98836386     17.409195      32.306466    
   2620000   1.0222437      17.208205      32.2249      
   2621000   1.0496378      17.798587      32.212115    
   2622000   1.0019812      17.729865      32.23172     
   2623000   1.0203543      17.562665      32.066235    
   2624000   1.026291       17.401612      32.041407    
   2625000   0.99287636     17.44568       32.011773    
   2626000   1.0085571      17.072379      32.04153     
   2627000   1.013411       17.667301      31.960923    
   2628000   0.99402219     17.406665      31.740031    
   2629000   0.96814928     17.284784      31.664293    
   2630000   0.95719929     17.218792      31.621084    
   2631000   1.0342261      16.903133      31.8383      
   2632000   1.0134614      17.456873      31.988392    
   2633000   1.0170123      17.374809      31.88404     
   2634000   0.99604228     16.759073      31.806362    
   2635000   1.0022027      16.83892       31.733378    
   2636000   0.99180045     17.212987      31.756376    
   2637000   0.99999545     17.439791      31.433279    
   2638000   1.0586042      17.338742      31.219221    
   2639000   0.99224221     17.483825      31.133443    
   2640000   0.98717803     16.43718       31.285574    
   2641000   1.0038879      17.585001      31.258675    
   2642000   0.97510896     17.462161      31.285007    
   2643000   1.0172054      17.779463      30.942963    
   2644000   0.97844977     17.216129      30.62073     
   2645000   1.0355468      17.370575      30.709369    
   2646000   1.0448457      17.515505      30.670433    
   2647000   0.99525202     17.526591      30.420075    
   2648000   0.972131       16.927852      30.491203    
   2649000   0.97346149     18.292861      30.223696    
   2650000   0.98897467     17.367703      30.145207    
   2651000   0.97953274     17.089972      30.102214    
   2652000   0.98289425     16.991379      29.954559    
   2653000   1.0275058      17.383049      29.875824    
   2654000   0.97832502     17.082915      29.899051    
   2655000   0.97848853     16.998451      29.668627    
   2656000   1.0290776      17.147926      29.463575    
   2657000   0.96002023     17.633694      29.20518     
   2658000   1.0381014      17.388606      28.939527    
   2659000   1.0298686      17.453414      28.755772    
   2660000   1.0317759      17.278548      28.664972    
   2661000   1.0155801      17.420525      28.741893    
   2662000   1.0000716      17.308441      28.778575    
   2663000   1.0222114      17.776448      28.672324    
   2664000   1.0146037      17.46972       28.484057    
   2665000   1.0285658      17.141628      28.406687    
   2666000   1.0070056      16.854578      28.246651    
   2667000   0.97741211     17.780518      28.297772    
   2668000   1.0030534      16.911466      28.088088    
   2669000   0.98206873     17.359106      27.846786    
   2670000   0.98555445     16.828921      28.068366    
   2671000   0.96854542     17.153977      27.991263    
   2672000   1.0066343      17.539918      27.917467    
   2673000   0.99620664     17.322711      27.921408    
   2674000   1.0381847      17.353557      27.896124    
   2675000   0.99307917     17.285188      28.012132    
   2676000   0.99828154     17.366338      27.94764     
   2677000   1.0092025      17.184596      27.717409    
   2678000   1.0045078      17.7133        27.701741    
   2679000   1.033541       17.598509      27.646484    
   2680000   0.96904536     16.808493      27.766746    
   2681000   1.0221771      17.054766      27.787388    
   2682000   1.003918       17.811986      27.799094    
   2683000   0.97529988     17.404802      27.912348    
   2684000   1.0032776      17.423358      28.001952    
   2685000   0.99771787     17.216384      27.971654    
   2686000   1.0181791      17.751383      27.942017    
   2687000   1.0381864      17.205345      27.906417    
   2688000   0.9884949      17.060685      27.761215    
   2689000   0.96627007     17.3124        27.572663    
   2690000   1.0219273      17.347371      27.235387    
   2691000   0.95851897     17.352928      26.960565    
   2692000   1.0256225      17.623178      26.873759    
   2693000   0.99863235     16.742706      26.793474    
   2694000   1.0037616      17.396953      26.794371    
   2695000   0.99657457     17.242432      26.708957    
   2696000   1.0223014      17.516065      26.530655    
   2697000   1.0496666      17.451063      26.372648    
   2698000   0.99871216     17.103368      26.348873    
   2699000   0.95025377     17.209635      26.444495    
   2700000   0.97425762     18.040337      26.158796    
   2701000   1.0541899      17.352758      26.049791    
   2702000   0.97759856     17.319082      25.993321    
   2703000   1.01656        17.805458      25.88496     
   2704000   1.0093094      16.740954      25.85612     
   2705000   1.022819       17.259675      25.716371    
   2706000   0.98196345     17.074401      25.739734    
   2707000   0.98681936     17.226038      25.811543    
   2708000   0.99264757     17.406485      25.886048    
   2709000   1.0034436      17.308788      25.922586    
   2710000   1.0237314      17.503109      25.892725    
   2711000   0.99495327     16.77999       25.768724    
   2712000   1.0352054      17.413662      25.909007    
   2713000   0.9688899      16.603873      25.773683    
   2714000   1.0075733      17.370164      25.77594     
   2715000   1.0264598      17.681741      25.548066    
   2716000   1.0241611      17.454431      25.333321    
   2717000   0.98298774     17.182695      25.359256    
   2718000   1.0249571      17.403382      25.244325    
   2719000   1.0273763      17.177091      25.140493    
   2720000   0.94012294     17.508869      25.33758     
   2721000   1.0068071      17.44622       25.351025    
   2722000   1.0137379      17.29368       25.237135    
   2723000   0.96484206     16.991169      25.140439    
   2724000   1.0233447      16.491703      25.17912     
   2725000   0.99358906     17.374438      24.953008    
   2726000   1.0639837      17.317388      24.795006    
   2727000   1.001474       16.735374      24.505221    
   2728000   1.0110814      17.29371       24.512036    
   2729000   0.97377808     17.513443      24.473387    
   2730000   0.9700748      18.183313      24.709675    
   2731000   1.0184063      17.340871      24.679513    
   2732000   0.97827094     17.697161      24.899951    
   2733000   1.0108197      17.47304       24.935214    
   2734000   0.99538119     17.663434      24.730691    
   2735000   1.0196087      17.068246      24.671369    
   2736000   1.0025817      16.978029      24.583599    
   2737000   1.0217119      17.205527      24.477729    
   2738000   1.032578       17.490122      24.463892    
   2739000   0.99308621     16.368962      24.207449    
   2740000   1.0103642      17.468264      24.22736     
   2741000   1.0040606      17.152484      24.265053    
   2742000   0.96026385     17.151739      24.247922    
   2743000   0.97635016     17.278062      24.077676    
   2744000   1.0293747      17.515319      24.062618    
   2745000   1.0258449      17.322486      23.648715    
   2746000   1.0409425      17.817074      23.440308    
   2747000   1.0440258      17.380817      23.24178     
   2748000   0.96000707     17.46012       23.04623     
   2749000   1.0244479      17.139834      23.012108    
   2750000   1.0153914      16.894186      23.05941     
   2751000   0.97224492     16.865097      22.975523    
   2752000   1.0079572      17.50243       22.998631    
   2753000   1.0124702      17.30834       22.96482     
   2754000   0.99047499     17.510248      22.717238    
   2755000   0.94612387     17.363187      22.562205    
   2756000   0.99895909     17.449363      22.540782    
   2757000   1.0411163      17.017496      22.269383    
   2758000   0.9916452      16.803833      22.011163    
   2759000   1.0156457      17.766051      21.964012    
   2760000   1.0908936      17.519064      21.732276    
   2761000   0.96105293     16.511083      21.733951    
   2762000   1.0217494      17.186947      21.598754    
   2763000   0.99995494     16.936912      21.512963    
   2764000   0.9575646      17.750699      21.705048    
   2765000   1.0603628      17.140362      22.030738    
   2766000   1.0487277      17.729887      21.977393    
   2767000   0.98460348     17.365964      21.890687    
   2768000   1.0044601      17.77728       21.731837    
   2769000   1.0116869      17.617941      21.7649      
   2770000   0.94860571     17.835497      21.820204    
   2771000   0.99749729     17.381987      21.595034    
   2772000   0.99040253     17.707586      21.711439    
   2773000   1.0215932      17.294675      21.47482     
   2774000   1.0385869      18.363162      21.454499    
   2775000   0.97379865     16.851029      21.318144    
   2776000   0.97678868     17.266575      21.159933    
   2777000   1.0529261      17.898233      20.926584    
   2778000   1.0152817      17.006074      20.658483    
   2779000   1.0321853      17.255372      20.658642    
   2780000   0.95860993     17.207315      20.850182    
   2781000   1.0230354      16.976393      21.177779    
   2782000   0.98472718     17.321175      21.070899    
   2783000   0.98113714     16.848072      21.095778    
   2784000   1.0187067      17.288166      21.127423    
   2785000   0.98058551     17.370966      20.99697     
   2786000   0.99510406     17.159683      21.048641    
   2787000   0.99185239     17.200504      21.175064    
   2788000   1.0176976      16.701252      20.904313    
   2789000   1.0034938      17.647123      20.89588     
   2790000   1.0371582      17.393987      20.970815    
   2791000   1.0153487      17.641601      20.866505    
   2792000   0.99703616     17.418511      20.874635    
   2793000   0.94892482     17.180773      20.930621    
   2794000   1.0160621      17.272425      20.93737     
   2795000   1.0017021      17.240968      20.681693    
   2796000   0.98906591     16.962075      20.375157    
   2797000   0.99915075     16.703716      20.141471    
   2798000   1.0143722      17.191205      20.262596    
   2799000   0.9883242      17.214871      20.103776    
   2800000   1.0342503      17.352916      20.06632     
   2801000   1.0109925      17.08157       20.198935    
   2802000   1.012475       17.658657      20.060427    
   2803000   0.96409408     17.448844      20.109982    
   2804000   0.98917327     16.87698       19.786965    
   2805000   1.0312594      17.248195      19.795278    
   2806000   1.0185403      17.015586      19.740809    
   2807000   1.0250071      17.25887       19.815518    
   2808000   1.0185606      16.746126      19.681059    
   2809000   1.0135785      17.432594      19.624478    
   2810000   1.0205987      17.481717      19.509025    
   2811000   1.0306117      17.359446      19.47555     
   2812000   0.96187392     16.923967      19.336667    
   2813000   1.0122645      16.960408      19.202202    
   2814000   1.003302       17.160252      19.275456    
   2815000   1.0138107      16.978304      19.004935    
   2816000   0.97251473     16.836552      18.799162    
   2817000   0.99516347     17.026295      18.715757    
   2818000   1.0003052      16.757846      18.46785     
   2819000   0.99663299     16.895353      18.297141    
   2820000   0.99739549     17.020737      18.399188    
   2821000   1.0452546      17.010243      18.227262    
   2822000   1.0081132      17.590741      18.071772    
   2823000   1.0483082      17.573447      18.270447    
   2824000   0.94664003     16.83553       18.351641    
   2825000   1.0444217      17.347645      18.327333    
   2826000   0.9887531      17.038378      18.198125    
   2827000   0.98846441     17.463828      18.249679    
   2828000   0.9669115      17.191254      18.01605     
   2829000   0.99045017     17.23173       17.990874    
   2830000   1.0307768      17.525923      17.86134     
   2831000   1.0157161      16.825         18.143932    
   2832000   1.0518606      16.97676       18.247       
   2833000   1.0078259      16.812151      18.2241      
   2834000   1.0219459      17.065056      18.369483    
   2835000   1.0323618      17.300282      18.448262    
   2836000   0.98503394     17.859202      18.409027    
   2837000   0.94957155     17.033896      18.281811    
   2838000   0.98298013     17.512614      18.26683     
   2839000   1.0151313      17.098355      18.043939    
   2840000   1.033584       17.304812      17.871115    
   2841000   0.98618338     16.998539      17.854534    
   2842000   1.0161606      16.787759      17.656056    
   2843000   0.99665922     16.718184      17.716663    
   2844000   0.96702454     16.566133      17.458372    
   2845000   0.95722282     17.626434      17.285312    
   2846000   1.0071696      17.023594      17.160648    
   2847000   1.0227775      17.351294      17.065168    
   2848000   0.99020281     17.262458      17.123065    
   2849000   1.0028738      17.839786      16.939562    
   2850000   1.0148474      17.535263      17.044059    
   2851000   0.98240579     17.795503      17.053214    
   2852000   0.99759466     17.450347      16.999114    
   2853000   1.0137579      16.689201      16.895836    
   2854000   0.99067412     17.732861      16.894721    
   2855000   0.95410934     17.076507      16.740005    
   2856000   0.99315015     16.65697       16.86762     
   2857000   1.0152595      17.341843      16.795072    
   2858000   0.94884836     16.724712      16.88998     
   2859000   1.0253598      16.371905      16.496375    
   2860000   0.9944806      17.205819      16.557863    
   2861000   0.98038272     17.056703      16.456706    
   2862000   1.0120174      17.435788      16.463442    
   2863000   1.0123016      16.88369       16.559813    
   2864000   0.979139       17.54157       16.261283    
   2865000   0.93924605     17.077848      16.312889    
   2866000   0.99818811     16.942198      16.361576    
   2867000   0.96992614     16.883268      16.318721    
   2868000   0.96240064     17.519393      16.324161    
   2869000   0.99540683     16.805696      16.245326    
   2870000   1.0192844      16.674414      16.175767    
   2871000   0.99357602     17.186393      15.767219    
   2872000   1.02489        17.811776      15.678911    
   2873000   1.0204046      17.280885      15.708602    
   2874000   0.98753364     17.040627      15.833318    
   2875000   1.0427787      17.630258      15.710535    
   2876000   1.0059365      17.740967      15.782126    
   2877000   1.0272011      17.140623      15.913464    
   2878000   0.96370302     17.057694      16.008148    
   2879000   1.0320268      17.386287      16.015974    
   2880000   0.99084389     16.747921      15.772711    
   2881000   1.0300494      17.525005      15.747211    
   2882000   1.0267625      16.412329      15.78866     
   2883000   1.0496402      17.068102      15.75122     
   2884000   1.0477979      17.65171       15.408271    
   2885000   0.99384252     17.426177      15.10212     
   2886000   1.0099482      16.890662      15.144835    
   2887000   0.99919078     16.98356       14.91703     
   2888000   0.99165185     17.688159      14.838889    
   2889000   0.98091661     17.134758      14.794428    
   2890000   0.97887444     16.816059      14.784606    
   2891000   1.0019927      17.482308      14.598035    
   2892000   0.99167697     16.852529      14.569473    
   2893000   0.98780438     17.027165      14.51602     
   2894000   0.98025596     17.469594      14.347824    
   2895000   0.99749294     16.638642      14.3138      
   2896000   0.99079666     16.925965      14.240183    
   2897000   1.0009744      16.710254      14.229909    
   2898000   0.98546237     17.50481       14.124207    
   2899000   1.0287803      16.920798      13.94147     
   2900000   1.0060667      16.279828      13.98153     
   2901000   1.0039664      17.219865      13.847481    
   2902000   1.0022309      17.376439      13.950952    
   2903000   1.0401648      17.328867      13.727634    
   2904000   1.0196745      17.001714      13.718859    
   2905000   1.0177271      16.754626      13.697268    
   2906000   1.0012558      16.745083      13.567091    
   2907000   0.94891031     16.90408       13.390831    
   2908000   1.009458       17.316196      13.194406    
   2909000   0.97480847     16.979717      13.217793    
   2910000   1.0185398      17.856467      13.039617    
   2911000   0.97883978     17.082853      13.034504    
   2912000   1.0082335      17.492995      13.071827    
   2913000   1.0397564      17.413793      13.088836    
   2914000   1.0791848      17.758479      13.086609    
   2915000   1.0316157      17.189839      13.155375    
   2916000   1.0486814      17.261932      13.002091    
   2917000   0.98182128     16.689868      12.766829    
   2918000   1.0044082      17.462611      12.500626    
   2919000   1.0074355      17.291241      12.643633    
   2920000   0.98288182     17.645705      12.50717     
   2921000   0.9997906      17.334743      12.209906    
   2922000   0.97817545     17.388645      11.926782    
   2923000   0.97125216     17.057587      11.994294    
   2924000   0.97755118     17.36387       11.95797     
   2925000   0.99900811     16.407632      12.035687    
   2926000   1.0051401      17.699807      12.202011    
   2927000   1.0007179      17.109623      12.157757    
   2928000   0.95848851     17.742029      12.143761    
   2929000   1.0362706      17.154869      12.154965    
   2930000   1.0224873      17.085149      12.004597    
   2931000   1.0104297      16.92335       11.99758     
   2932000   0.97339506     16.71322       11.931813    
   2933000   0.97722864     17.112604      11.907125    
   2934000   1.0000874      16.728165      11.745982    
   2935000   1.0052789      17.381765      11.612427    
   2936000   0.97964864     17.257457      11.50561     
   2937000   1.0237562      16.549291      11.45853     
   2938000   0.97693292     17.331668      11.451503    
   2939000   0.99336185     17.560464      11.270483    
   2940000   1.0119899      17.393237      11.151495    
   2941000   1.0244985      17.3897        11.247223    
   2942000   0.9515531      16.492554      11.27869     
   2943000   1.008086       17.142872      11.154197    
   2944000   1.0380376      17.345168      10.930071    
   2945000   0.96759664     17.241786      10.831102    
   2946000   0.99294189     16.523435      10.89788     
   2947000   1.0100087      17.154708      10.774719    
   2948000   0.98748051     16.933484      10.704917    
   2949000   0.99021563     16.828218      10.703426    
   2950000   0.96747042     16.65811       10.476885    
   2951000   0.97865531     17.546619      10.427681    
   2952000   1.0252861      17.304419      10.182627    
   2953000   1.0181293      17.329746      10.187872    
   2954000   1.0068322      17.325569      10.117115    
   2955000   1.023323       17.090993      9.9981489    
   2956000   1.0048473      16.718382      9.9315884    
   2957000   1.037676       17.147903      9.8158939    
   2958000   0.97283599     17.363979      9.7621582    
   2959000   1.0242777      17.181052      9.8323714    
   2960000   0.97189869     16.838129      9.6720084    
   2961000   0.98548859     17.293557      9.3808166    
   2962000   1.0198579      16.857638      9.1949554    
   2963000   1.008871       17.425791      9.0299946    
   2964000   0.9725816      17.047023      8.7208453    
   2965000   0.97214901     16.830265      8.6394272    
   2966000   0.99189141     16.993253      8.5529328    
   2967000   1.0114265      16.930535      8.5829336    
   2968000   1.0254515      17.026936      8.6184527    
   2969000   0.98948558     17.32391       8.3774844    
   2970000   0.99092914     16.768263      8.2204886    
   2971000   0.99376083     16.670464      8.0916072    
   2972000   0.99913778     17.836422      8.2061801    
   2973000   1.0003851      17.461293      8.0724447    
   2974000   0.98708879     17.783206      7.8053243    
   2975000   1.0247365      17.309066      7.7060013    
   2976000   1.0174999      17.184454      7.5415987    
   2977000   1.0264185      16.436007      7.3696916    
   2978000   0.98881679     17.193938      7.2353335    
Fix halt condition for fix-id 3 met on step 2979000 with value 6.915946432090048 (src/fix_halt.cpp:237)
   2979000   0.99367193     17.609058      6.9159464    
Loop time of 4459.69 on 2 procs for 2879000 steps with 1000 atoms

Performance: 557763.987 tau/day, 645.560 timesteps/s
121.2% CPU use with 1 MPI tasks x 2 OpenMP threads

MPI task timing breakdown:
Section |  min time  |  avg time  |  max time  |%varavg| %total
---------------------------------------------------------------
Pair    | 704.62     | 704.62     | 704.62     |   0.0 | 15.80
Bond    | 58.953     | 58.953     | 58.953     |   0.0 |  1.32
Neigh   | 3552       | 3552       | 3552       |   0.0 | 79.65
Comm    | 1.0509     | 1.0509     | 1.0509     |   0.0 |  0.02
Output  | 6.667      | 6.667      | 6.667      |   0.0 |  0.15
Modify  | 126.41     | 126.41     | 126.41     |   0.0 |  2.83
Other   |            | 10.01      |            |       |  0.22

Nlocal:           1000 ave        1000 max        1000 min
Histogram: 1 0 0 0 0 0 0 0 0 0
Nghost:              0 ave           0 max           0 min
Histogram: 1 0 0 0 0 0 0 0 0 0
Neighs:         211244 ave      211244 max      211244 min
Histogram: 1 0 0 0 0 0 0 0 0 0

Total # of neighbors = 211244
Ave neighs/atom = 211.244
Ave special neighs/atom = 1.998
Neighbor list builds = 27953
Dangerous builds = 0

# This simulation is done
# Move onto the next one
clear
  using 2 OpenMP thread(s) per MPI task
package omp 0
using multi-threaded neighbor list subroutines
next f
jump SELF

###
# Reference paper:
# K. Kremer and G. S. Grest
# Dynamics of entangled linear polymer melts: A molecular-dynamics simulation
# J Chem Phys 92, 5057 (1990)

##################################
# MIHIR: for branched polymers
# LJ minimum first to expand and explore, then collapse
###

###
# Looping through the various linear polymers to simulate,
# define variables to switch through
# variable f index bb100nuc0bl0bn0d30tot100 bb200nuc0bl0bn0d30tot200 bb300nuc0bl0bn0d30tot300 bb400nuc0bl0bn0d30tot400 bb500nuc0bl0bn0d30tot500 bb600nuc0bl0bn0d30tot600 bb700nuc0bl0bn0d30tot700 bb800nuc0bl0bn0d30tot800 bb900nuc0bl0bn0d30tot900 bb1000nuc0bl0bn0d30tot1000 bb1100nuc0bl0bn0d30tot1100 bb1200nuc0bl0bn0d30tot1200
variable f index bb800nuc0bl0bn0d30tot800 bb900nuc0bl0bn0d30tot900 bb1000nuc0bl0bn0d30tot1000 bb1100nuc0bl0bn0d30tot1100 bb1200nuc0bl0bn0d30tot1200
###


###
# Box and units  (use LJ units and periodic boundaries)
###

units lj
log linear/logs3/$f.log
log linear/logs3/bb1100nuc0bl0bn0d30tot1100.log
