#atom_style bond #no stiffness
atom_style angle #with stiffness

boundary        p p p
###
# Pair interactions require lists of neighbours to be calculated
###

#neighbor 0.3 bin
neighbor 4 bin

neigh_modify every 1 delay 1 check yes
atom_modify sort 0 0
### Generate RESTART file, SPECIAL format, not a .txt file ###
### Useful if simulation crashes ###

restart 1000000 linear/restarts3/$f.restart
restart 1000000 linear/restarts3/bb300nuc0bl0bn0d30tot300.restart
#############################



### READ "start" data file ###

read_data linear/$f.dat
read_data linear/bb300nuc0bl0bn0d30tot300.dat
Reading data file ...
  orthogonal box = (-1000 -1000 -1000) to (1000 1000 1000)
  1 by 1 by 1 MPI processor grid
  reading atoms ...
  300 atoms
  scanning bonds ...
  1 = max bonds/atom
  scanning angles ...
  1 = max angles/atom
  reading bonds ...
  299 bonds
  reading angles ...
  298 angles
Finding 1-2 1-3 1-4 neighbors ...
  special bond factors lj:    0        0        0       
  special bond factors coul:  0        0        0       
     2 = max # of 1-2 neighbors
     2 = max # of 1-3 neighbors
     4 = max # of 1-4 neighbors
     6 = max # of special neighbors
  special bonds CPU = 0.001 seconds
  read_data CPU = 0.059 seconds

######################

### READ "REstart" data file ###

######################



###
# Define groups (atom type 1 is group 'all')
###
group all type 1
300 atoms in group all


###
# Dump configs - "simple dumpings"
###

###
# Dump configs + box coords
###

dump   1   all   custom   1000  linear/trjs3/$f.lammpstrj  id  x y z  ix iy iz
dump   1   all   custom   1000  linear/trjs3/bb300nuc0bl0bn0d30tot300.lammpstrj  id  x y z  ix iy iz
dump_modify   1   format line "%d %.5f %.5f %.5f %d %d %d"

########################################################################


###################################################################
# Stiffness term
#
# E = K * (1+cos(theta)), K>0
#
angle_style   cosine
#change this coefficient to change stiffness (e.g. 1,5,10)
angle_coeff   1 1.0
###################################################################

###################################################################
# Pair interaction between non-bonded atoms
#
#  Lennard-Jones 12-6 potential with cutoff:
#  potential E=4epsilon[ (sigma/r)^12 - (sigma/r)^6]  for r<r_cut
#
#  1.12246 = 2^(1/6) is the minimum of the potential


pair_style      lj/cut 1.12246152962189
#pair_style      lj/cut 3

#
#  pair_modify shift yes adds a constant to the potential such

#  that E(r_cut)=0. Forces remains unchanged.
#

pair_modify     shift yes

#
#  pair_coeff for lj/cut, specify 4:
#    * atom type interacting with
#    * atom type
#    * epsilon (energy units)
#    * sigma (distance units)
#

pair_coeff      1 1 1.0 1.0
###################################################################

###################################################################
# Pair interaction between non-bonded atoms
#
#  soft potential, for PUSHING apart overlapping atoms
#  potential E=A*(1 + cos(pi*r/r_c))
#
#  1.12246 = 2^(1/6) is the cut-off r_c

#pair_style     soft 1.12246152962189

#
#  pair_coeff for soft, specify 3:
#    * atom type interacting with
#    * atom type
#    * A
#
#

#pair_coeff      1 1 100.0
###################################################################

###################################################################
# Pair interaction between bonded atoms
#
# Fene potential + Lennard Jones 12-6:

#
#  E= - 0.5 K R0^2 ln[ 1- (r/R0)^2]
#     + 4epsilon[ (sigma/r)^12 - (sigma/r)^6] + epsilon
#

bond_style   fene


#
# For style fene, specify:
#   * bond type
#   * K (energy/distance^2)
#   * R0 (distance)
#   * epsilon (energy)  (LJ component)
#   * sigma (distance)  (LJ component)
#


special_bonds fene #<=== I M P O R T A N T (new command)
Finding 1-2 1-3 1-4 neighbors ...
  special bond factors lj:    0        1        1       
  special bond factors coul:  0        1        1       
     2 = max # of 1-2 neighbors
     6 = max # of special neighbors
  special bonds CPU = 0.000 seconds

bond_coeff   1   30   2   1.0   1.0


###################################################

###################################################################
# Pair interaction between bonded atoms
#
# Harmonic potential:
#
#  E= K * (R-R0)^2
#

#bond_style   harmonic

#
# For style harmonic, specify:
#   * bond type
#   * K (energy/distance^2)
#   * R0 (distance)
#

#bond_coeff   1   60.0   1.0
#bond_coeff   2   harmonic 0.1   1.0

###################################################
compute 1 all gyration
variable rog equal c_1
#compute 2 all coord/atom cutoff 1.1

#dump 2 all custom 10000 contact_number.dump id c_2


###
# Set up fixes
###
thermo_style   custom   step  temp enthalpy c_1
fix 1 all nve   ###NVE ensemble

fix 2 all   langevin   1.0 1.0 1.0  158102   ###Langevin integrator Tstart Tstop 1/friction rndseed


##### Sample thermodynamic info  (temperature, energy, pressure, etc.) #####
thermo 1000









############################################################################

###
# set timestep of integrator

timestep 0.01

###
# run integration for a number of steps
###
#run 0
#variable r equal c_1
#if "$r < 63.1" then "quit 1"

# lj potential minimum, cause molecule to explore
run 100000
Generated 0 of 0 mixed pair_coeff terms from geometric mixing rule
Last active /omp style is angle_style cosine/omp
Neighbor list info ...
  update: every = 1 steps, delay = 1 steps, check = yes
  max neighbors/atom: 2000, page size: 100000
  master list distance cutoff = 5.1224615
  ghost atom cutoff = 5.1224615
  binsize = 2.5612308, bins = 781 781 781
  1 neighbor lists, perpetual/occasional/extra = 1 0 0
  (1) pair lj/cut/omp, perpetual
      attributes: half, newton on, omp
      pair build: half/bin/newton/omp
      stencil: half/bin/3d
      bin: standard
WARNING: Communication cutoff 5.12246152962189 is shorter than a bond length based estimate of 5.455. This may lead to errors. (src/comm.cpp:723)
Per MPI rank memory allocation (min/avg/max) = 1860 | 1860 | 1860 Mbytes
   Step          Temp         Enthalpy         c_1      
         0   0              13.379946      75.000771    
      1000   1.082834       19.410068      74.79656     
      2000   1.0807063      19.399292      74.424727    
      3000   1.1043452      18.887265      73.886989    
      4000   1.0051682      19.033813      73.368678    
      5000   0.98663408     19.747188      72.902414    
      6000   0.92597016     18.957001      72.588848    
      7000   0.95548149     18.997528      71.964776    
      8000   0.94154051     18.812979      71.666065    
      9000   1.0692569      20.406527      71.363384    
     10000   0.99099503     18.739118      71.11394     
     11000   0.96955893     19.439804      70.379039    
     12000   0.91032937     19.169154      69.721301    
     13000   0.98346686     18.970694      68.93228     
     14000   1.0167361      20.99104       68.657963    
     15000   0.9812272      19.686857      68.246995    
     16000   1.04323        20.066852      67.734828    
     17000   1.0119095      20.563269      67.686203    
     18000   1.0019884      20.288952      67.042696    
     19000   1.0602606      19.812027      66.694026    
     20000   1.0124085      19.462306      66.316005    
     21000   0.94330054     19.05832       66.022512    
     22000   0.9051647      20.435285      65.733123    
     23000   0.99063658     19.524273      65.424209    
     24000   1.0414793      20.724158      65.103621    
     25000   0.98968782     19.634697      64.845439    
     26000   1.024816       20.946055      64.413138    
     27000   1.0268166      20.41301       64.067499    
     28000   0.94884131     20.447662      63.699863    
     29000   0.98130015     19.441896      63.818926    
     30000   0.99666942     19.900361      63.764692    
     31000   0.99885728     20.163251      63.561277    
     32000   0.96059544     19.579839      63.819793    
     33000   0.96069193     18.726611      63.862046    
     34000   0.91971931     20.284338      63.703581    
     35000   0.96962791     20.058136      63.413017    
     36000   1.0077412      20.684135      63.212354    
     37000   0.99797373     20.590855      63.065707    
     38000   0.97865096     19.433291      62.581291    
     39000   1.0046103      19.396807      62.689546    
     40000   1.0161313      19.37065       62.088049    
     41000   0.99763415     19.609415      62.103805    
     42000   1.0057377      20.106761      61.782036    
     43000   0.98778366     19.300251      61.886844    
     44000   0.98070365     20.365149      61.199501    
     45000   1.0400194      20.474146      60.504757    
     46000   1.0324575      19.460909      59.971102    
     47000   1.0212564      20.723939      60.060416    
     48000   0.97028413     20.399871      60.05797     
     49000   0.93217078     20.21925       60.196786    
     50000   0.9322033      20.272877      59.373455    
     51000   0.97909042     19.799301      59.28011     
     52000   0.92665929     20.177401      59.054283    
     53000   0.94931867     19.77547       58.83638     
     54000   0.95655639     19.569177      58.971412    
     55000   0.96831724     20.746351      58.813125    
     56000   1.0300405      20.361879      58.121595    
     57000   0.98179716     21.638389      57.925587    
     58000   1.0258829      19.413155      57.947019    
     59000   0.95415721     19.90153       57.954102    
     60000   1.0034316      20.224159      57.647084    
     61000   1.0442688      21.039023      57.418393    
     62000   0.9900744      19.585482      57.108361    
     63000   0.98824659     20.821407      57.271126    
     64000   0.9484849      21.263925      57.547291    
     65000   0.98210229     20.243366      57.202153    
     66000   0.92024566     20.472384      57.458517    
     67000   0.979862       20.493143      57.47444     
     68000   0.93785603     19.536844      56.98358     
     69000   1.0536194      21.184915      57.074356    
     70000   1.0329646      19.113814      56.558013    
     71000   1.0736339      20.231326      56.559294    
     72000   0.98993091     19.474244      56.389419    
     73000   1.1332287      19.882203      55.925449    
     74000   0.98111138     20.096709      55.958685    
     75000   1.0012046      21.184737      55.540834    
     76000   1.1519324      20.343423      55.574       
     77000   0.92440341     19.660299      55.221658    
     78000   1.0626333      20.253756      55.167098    
     79000   1.0066619      20.110553      55.056606    
     80000   1.12407        19.608575      55.065382    
     81000   0.94754748     20.285694      54.914052    
     82000   1.0155316      20.7706        54.637879    
     83000   0.98745406     20.535254      54.790747    
     84000   1.0947301      20.635814      54.414952    
     85000   0.9689812      20.815352      54.362066    
     86000   0.93792254     20.225155      54.33847     
     87000   0.99389876     20.235897      53.882104    
     88000   0.90305762     21.097238      54.065141    
     89000   0.92630598     19.936983      54.186368    
     90000   1.0052186      20.582264      54.241582    
     91000   1.017431       20.134081      54.214562    
     92000   0.97161383     19.998642      54.356716    
     93000   1.0102751      19.842528      54.322771    
     94000   0.99870024     19.946195      54.00684     
     95000   1.0872863      20.220251      53.924792    
     96000   1.0314314      20.38531       53.813669    
     97000   0.96122214     20.027054      53.604319    
     98000   1.0007417      20.742198      53.514952    
     99000   1.0485662      20.410813      52.937899    
    100000   1.0360361      21.125695      52.730536    
Loop time of 573.834 on 2 procs for 100000 steps with 300 atoms

Performance: 150566.250 tau/day, 174.266 timesteps/s
101.1% CPU use with 1 MPI tasks x 2 OpenMP threads

MPI task timing breakdown:
Section |  min time  |  avg time  |  max time  |%varavg| %total
---------------------------------------------------------------
Pair    | 0.61688    | 0.61688    | 0.61688    |   0.0 |  0.11
Bond    | 1.244      | 1.244      | 1.244      |   0.0 |  0.22
Neigh   | 569.05     | 569.05     | 569.05     |   0.0 | 99.17
Comm    | 0.03446    | 0.03446    | 0.03446    |   0.0 |  0.01
Output  | 0.21746    | 0.21746    | 0.21746    |   0.0 |  0.04
Modify  | 2.451      | 2.451      | 2.451      |   0.0 |  0.43
Other   |            | 0.2152     |            |       |  0.04

Nlocal:            300 ave         300 max         300 min
Histogram: 1 0 0 0 0 0 0 0 0 0
Nghost:              0 ave           0 max           0 min
Histogram: 1 0 0 0 0 0 0 0 0 0
Neighs:           1792 ave        1792 max        1792 min
Histogram: 1 0 0 0 0 0 0 0 0 0

Total # of neighbors = 1792
Ave neighs/atom = 5.9733333
Ave special neighs/atom = 1.9933333
Neighbor list builds = 990
Dangerous builds = 0

# Replace lj potential, now collapse
pair_style      lj/cut 3

# Cutoff simul when gyration under 5
# Variable created with equal requires v_ + 'name'
fix 3 all halt 1000 v_rog < 7

run 5000000
Generated 0 of 0 mixed pair_coeff terms from geometric mixing rule
Last active /omp style is angle_style cosine/omp
Per MPI rank memory allocation (min/avg/max) = 1860 | 1860 | 1860 Mbytes
   Step          Temp         Enthalpy         c_1      
    100000   1.0360361      20.447814      52.730536    
    101000   1.018343       19.094849      52.296238    
    102000   0.96583226     19.341099      52.3062      
    103000   0.99078316     19.409265      51.946179    
    104000   1.0485381      19.63973       51.828546    
    105000   1.0569425      19.812663      51.582481    
    106000   0.98717407     19.867766      51.525904    
    107000   0.96063022     20.520813      51.119586    
    108000   1.0437988      20.492572      50.454777    
    109000   1.0335111      19.74356       50.396884    
    110000   0.98242893     18.775444      50.202434    
    111000   0.9746376      19.86009       50.263535    
    112000   0.97614326     18.281477      50.314536    
    113000   1.0742147      19.635508      50.200886    
    114000   1.000051       19.63199       49.958541    
    115000   1.0035557      19.326434      49.543372    
    116000   0.9468589      18.946404      48.870495    
    117000   1.0574031      19.591438      48.78902     
    118000   0.92059947     19.703561      48.952059    
    119000   1.0327219      19.965791      48.566256    
    120000   0.95628605     19.278554      48.544647    
    121000   1.0250677      19.335295      48.507291    
    122000   0.97825495     19.302617      48.464359    
    123000   1.0329751      19.0555        48.219114    
    124000   1.0392772      19.761468      48.215279    
    125000   1.0191953      19.664642      47.884767    
    126000   0.98150541     20.015105      47.764327    
    127000   1.0306442      19.46298       47.266028    
    128000   0.94832721     19.4712        47.122284    
    129000   1.0677429      19.812865      46.64094     
    130000   0.92041581     18.674571      46.429363    
    131000   1.0110338      19.439877      46.275832    
    132000   0.97744709     19.728311      46.131249    
    133000   0.97355986     18.95555       46.10297     
    134000   0.88912345     18.953305      45.562278    
    135000   0.95840833     19.023814      45.446586    
    136000   1.0514558      19.191065      45.271694    
    137000   1.0427972      19.650138      45.195231    
    138000   1.0065249      18.553611      45.123264    
    139000   0.97416564     18.330409      44.470921    
    140000   0.96888075     19.545449      44.237642    
    141000   0.96734365     19.690813      43.61366     
    142000   1.0876524      19.758081      43.066281    
    143000   0.92338703     18.500804      42.893174    
    144000   0.99088244     18.892318      42.882054    
    145000   0.97615624     19.290038      42.45053     
    146000   1.0693825      20.004276      42.341183    
    147000   0.97867753     19.052443      42.028346    
    148000   1.0211539      19.290179      41.752436    
    149000   0.99649642     18.553823      41.936961    
    150000   1.0432061      19.579979      41.789493    
    151000   1.0072829      19.400174      41.615589    
    152000   0.95405829     19.780155      41.872598    
    153000   1.0490201      18.263886      41.733387    
    154000   1.0137383      19.199449      41.330937    
    155000   1.019495       18.220955      41.03535     
    156000   1.0788383      18.576279      40.858453    
    157000   1.0478897      18.955121      40.168725    
    158000   1.0223092      18.606652      39.848038    
    159000   1.008854       18.557775      40.11804     
    160000   1.0143362      19.509921      39.634124    
    161000   1.0236245      19.498956      39.500125    
    162000   1.0399623      19.040523      39.207526    
    163000   0.97476925     19.354807      39.369212    
    164000   0.99178663     17.368144      39.461987    
    165000   0.94554789     18.746383      39.467268    
    166000   1.0031921      18.846551      39.159416    
    167000   0.99160037     18.496797      39.075378    
    168000   0.98354859     19.087767      38.61541     
    169000   1.0622461      19.523104      38.508419    
    170000   0.93469913     19.55499       38.370418    
    171000   0.96541618     18.360979      38.052406    
    172000   0.99404276     18.984305      37.910504    
    173000   1.0464539      20.047194      37.511301    
    174000   1.04052        18.344653      37.331858    
    175000   1.0639383      18.930719      37.486081    
    176000   0.94695716     18.843529      36.992691    
    177000   0.95269887     18.289456      36.603892    
    178000   1.0085791      18.49075       36.158585    
    179000   0.9064297      18.683395      36.083312    
    180000   0.91969867     18.129481      35.789866    
    181000   1.0702604      18.899378      36.012788    
    182000   1.0245482      18.819009      35.846127    
    183000   1.0006794      18.974619      35.458454    
    184000   1.1136655      19.180142      35.124359    
    185000   0.98745426     18.740578      34.746366    
    186000   1.0323894      19.528434      34.844229    
    187000   0.95234773     18.626639      34.704633    
    188000   1.0191946      18.355232      34.564566    
    189000   0.99378323     18.179088      34.487045    
    190000   0.99433614     18.448858      34.137566    
    191000   0.95755181     17.997728      33.723089    
    192000   0.9526155      18.213237      33.726931    
    193000   0.95429543     18.615604      33.622745    
    194000   1.0205324      19.205572      33.577433    
    195000   0.98599703     17.663434      33.39374     
    196000   0.99075922     18.415468      33.492481    
    197000   1.0115542      18.338141      33.636079    
    198000   0.97337652     18.991865      33.594582    
    199000   1.1123928      18.628853      33.367707    
    200000   1.1137983      19.246974      33.23992     
    201000   0.9716821      18.410691      33.552612    
    202000   1.0790771      19.159945      33.276777    
    203000   1.0413705      17.840388      32.910769    
    204000   0.96909966     17.510768      33.072473    
    205000   0.99953825     18.058798      32.696375    
    206000   1.0077415      18.859635      32.597615    
    207000   0.99796763     18.715066      32.099839    
    208000   0.97020887     17.795722      31.903308    
    209000   0.96364474     18.427713      31.611961    
    210000   0.94401927     18.361665      31.349727    
    211000   1.0096839      18.52876       30.966539    
    212000   1.0359049      18.859665      30.716749    
    213000   1.0045126      18.936502      30.506807    
    214000   0.9735151      18.391331      30.332164    
    215000   0.99338912     19.718478      30.52065     
    216000   0.99421309     18.635369      30.089071    
    217000   1.0014425      18.862662      30.038139    
    218000   1.0207751      18.589846      29.887628    
    219000   0.96867524     18.308336      29.857908    
    220000   1.0666218      18.571715      29.846656    
    221000   1.0078415      19.029188      29.699013    
    222000   1.0018137      18.595442      29.807694    
    223000   0.93703891     17.364323      29.681505    
    224000   1.0226399      19.223813      29.323948    
    225000   0.97986087     17.961298      28.944445    
    226000   0.98148592     17.851624      29.163655    
    227000   0.95684703     17.518676      28.784074    
    228000   0.96563879     18.400638      28.257084    
    229000   1.0292918      17.679911      28.440124    
    230000   1.0711724      17.912405      28.262118    
    231000   0.97444688     18.860405      28.293329    
    232000   1.0397773      17.592436      28.095715    
    233000   1.0154819      18.095988      27.979656    
    234000   1.0504107      18.893171      27.912466    
    235000   0.99033447     18.711199      27.612831    
    236000   1.0014616      19.745211      27.495605    
    237000   0.98703561     19.413786      27.394568    
    238000   0.98162131     18.600794      27.215312    
    239000   0.96004245     18.063608      26.81341     
    240000   0.99840085     17.732522      25.820772    
    241000   0.99291522     16.791962      25.746207    
    242000   0.97384754     17.394899      25.634895    
    243000   1.0541163      18.138356      25.345337    
    244000   1.1059005      18.923939      24.824026    
    245000   1.0514268      18.277873      24.563526    
    246000   1.0969         19.54895       24.895293    
    247000   1.1070716      18.591096      25.05487     
    248000   1.0407521      17.696782      24.27155     
    249000   1.0551389      18.86349       24.219384    
    250000   0.89981219     19.164142      24.257055    
    251000   0.94987216     17.707722      23.964301    
    252000   1.0123299      17.896461      23.590916    
    253000   1.0066733      17.046405      23.29792     
    254000   0.99281888     17.554984      23.495307    
    255000   0.96167509     18.27777       23.427248    
    256000   1.0665693      18.768418      23.382293    
    257000   1.0147322      18.082793      23.271788    
    258000   1.0385762      17.935585      23.354642    
    259000   0.94367861     16.716613      23.436206    
    260000   1.0258866      18.613142      23.633703    
    261000   1.0090304      18.606226      23.209054    
    262000   0.92670217     18.562474      22.785232    
    263000   1.0079249      17.598328      22.594507    
    264000   1.0028253      18.311287      22.215472    
    265000   1.0350146      18.388023      22.111143    
    266000   0.98936055     17.549825      21.78351     
    267000   0.94722704     17.908301      21.762279    
    268000   0.93528468     17.710301      22.041539    
    269000   1.0920082      17.887565      21.691969    
    270000   1.0156021      18.288417      21.385409    
    271000   1.0097515      16.863603      21.372       
    272000   1.0204851      18.099187      21.435154    
    273000   1.0035765      18.322773      21.31126     
    274000   1.0164958      17.157002      21.272599    
    275000   1.0298683      17.092619      20.794283    
    276000   0.96680082     16.521779      20.904885    
    277000   1.0325735      18.657217      20.66554     
    278000   0.97323145     18.07556       20.399594    
    279000   0.99821847     18.2658        19.971112    
    280000   1.0170768      17.591022      19.788614    
    281000   0.98616841     17.086861      19.551114    
    282000   1.0654798      18.474378      18.986204    
    283000   0.92817306     17.00874       18.955291    
    284000   1.0146237      18.38154       18.552982    
    285000   1.029637       18.683465      18.292189    
    286000   0.993363       18.890071      17.408908    
    287000   1.0065356      17.793497      17.020399    
    288000   0.96077328     18.047765      17.006237    
    289000   0.97238992     17.391301      16.638419    
    290000   0.97861728     18.162567      16.498882    
    291000   0.98698614     17.961267      15.946988    
    292000   1.0523254      18.367349      15.791324    
    293000   1.0161152      17.517589      15.369222    
    294000   0.99659633     17.837641      15.553252    
    295000   1.0386177      18.592323      15.333486    
    296000   0.85771041     17.633602      15.070358    
    297000   0.92833537     17.148445      14.710335    
    298000   0.91790351     17.65256       14.023374    
    299000   0.95386671     18.601129      14.232379    
    300000   0.96348834     17.989328      14.034611    
    301000   0.93564578     16.661139      13.653067    
    302000   1.0410445      17.69149       13.869745    
    303000   0.93324644     17.232093      13.753822    
    304000   0.9387397      17.313525      13.746731    
    305000   0.98132192     16.974061      13.759922    
    306000   1.0060825      17.838847      13.582698    
    307000   1.0165119      17.724056      13.282725    
    308000   1.0166815      17.025077      12.989489    
    309000   0.99300623     18.601917      13.09331     
    310000   1.0975056      18.027773      12.815716    
    311000   0.97411571     17.119584      12.401012    
    312000   1.013139       18.423319      12.097838    
    313000   0.95969851     17.222458      12.066677    
    314000   0.99276565     18.211914      11.934068    
    315000   0.92015533     17.957114      11.609985    
    316000   1.0456907      17.401236      11.566603    
    317000   0.98132458     18.334992      11.13801     
    318000   0.97446008     17.499588      10.911314    
    319000   1.0451687      18.24625       10.851114    
    320000   1.0563458      16.985855      10.541683    
    321000   1.1291282      18.346695      10.124714    
    322000   0.97143721     17.931518      9.7205894    
    323000   0.94422609     17.613909      9.6201503    
    324000   1.1007385      18.529127      9.3304782    
    325000   0.87576253     17.675947      9.1393198    
    326000   0.98967563     17.236545      8.8635723    
    327000   1.0468931      17.867888      8.4909677    
    328000   0.96756201     17.87141       8.4712133    
    329000   1.0575997      18.15808       8.115655     
    330000   1.0804851      17.305583      8.0082462    
    331000   0.98405012     16.897881      7.6812423    
    332000   1.1271028      17.391532      7.643347     
    333000   1.0219445      18.030665      7.3573994    
Fix halt condition for fix-id 3 met on step 334000 with value 6.864119479057254 (src/fix_halt.cpp:237)
    334000   1.0515797      17.541695      6.8641195    
Loop time of 473.43 on 2 procs for 234000 steps with 300 atoms

Performance: 427045.337 tau/day, 494.265 timesteps/s
105.9% CPU use with 1 MPI tasks x 2 OpenMP threads

MPI task timing breakdown:
Section |  min time  |  avg time  |  max time  |%varavg| %total
---------------------------------------------------------------
Pair    | 14.506     | 14.506     | 14.506     |   0.0 |  3.06
Bond    | 3.0517     | 3.0517     | 3.0517     |   0.0 |  0.64
Neigh   | 448.95     | 448.95     | 448.95     |   0.0 | 94.83
Comm    | 0.086865   | 0.086865   | 0.086865   |   0.0 |  0.02
Output  | 0.48899    | 0.48899    | 0.48899    |   0.0 |  0.10
Modify  | 5.7889     | 5.7889     | 5.7889     |   0.0 |  1.22
Other   |            | 0.5559     |            |       |  0.12

Nlocal:            300 ave         300 max         300 min
Histogram: 1 0 0 0 0 0 0 0 0 0
Nghost:              0 ave           0 max           0 min
Histogram: 1 0 0 0 0 0 0 0 0 0
Neighs:          21908 ave       21908 max       21908 min
Histogram: 1 0 0 0 0 0 0 0 0 0

Total # of neighbors = 21908
Ave neighs/atom = 73.026667
Ave special neighs/atom = 1.9933333
Neighbor list builds = 1965
Dangerous builds = 0

# This simulation is done
# Move onto the next one
clear
  using 2 OpenMP thread(s) per MPI task
package omp 0
using multi-threaded neighbor list subroutines
next f
jump SELF

###
# Reference paper:
# K. Kremer and G. S. Grest
# Dynamics of entangled linear polymer melts: A molecular-dynamics simulation
# J Chem Phys 92, 5057 (1990)

##################################
# MIHIR: for branched polymers
# LJ minimum first to expand and explore, then collapse
###

###
# Looping through the various linear polymers to simulate,
# define variables to switch through
variable f index bb100nuc0bl0bn0d30tot100 bb200nuc0bl0bn0d30tot200 bb300nuc0bl0bn0d30tot300 bb400nuc0bl0bn0d30tot400 bb500nuc0bl0bn0d30tot500 bb600nuc0bl0bn0d30tot600 bb700nuc0bl0bn0d30tot700 bb800nuc0bl0bn0d30tot800 bb900nuc0bl0bn0d30tot900 bb1000nuc0bl0bn0d30tot1000 bb1100nuc0bl0bn0d30tot1100 bb1200nuc0bl0bn0d30tot1200
###


###
# Box and units  (use LJ units and periodic boundaries)
###

units lj
log linear/logs3/$f.log
log linear/logs3/bb400nuc0bl0bn0d30tot400.log
