#atom_style bond #no stiffness
atom_style angle #with stiffness

boundary        p p p
###
# Pair interactions require lists of neighbours to be calculated
###

#neighbor 0.3 bin
neighbor 4 bin

neigh_modify every 1 delay 1 check yes
atom_modify sort 0 0
### Generate RESTART file, SPECIAL format, not a .txt file ###
### Useful if simulation crashes ###

restart 1000000 linear/restarts3/$f.restart
restart 1000000 linear/restarts3/bb400nuc0bl0bn0d30tot400.restart
#############################



### READ "start" data file ###

read_data linear/$f.dat
read_data linear/bb400nuc0bl0bn0d30tot400.dat
Reading data file ...
  orthogonal box = (-1000 -1000 -1000) to (1000 1000 1000)
  1 by 1 by 1 MPI processor grid
  reading atoms ...
  400 atoms
  scanning bonds ...
  1 = max bonds/atom
  scanning angles ...
  1 = max angles/atom
  reading bonds ...
  399 bonds
  reading angles ...
  398 angles
Finding 1-2 1-3 1-4 neighbors ...
  special bond factors lj:    0        0        0       
  special bond factors coul:  0        0        0       
     2 = max # of 1-2 neighbors
     2 = max # of 1-3 neighbors
     4 = max # of 1-4 neighbors
     6 = max # of special neighbors
  special bonds CPU = 0.001 seconds
  read_data CPU = 0.061 seconds

######################

### READ "REstart" data file ###

######################



###
# Define groups (atom type 1 is group 'all')
###
group all type 1
400 atoms in group all


###
# Dump configs - "simple dumpings"
###

###
# Dump configs + box coords
###

dump   1   all   custom   1000  linear/trjs3/$f.lammpstrj  id  x y z  ix iy iz
dump   1   all   custom   1000  linear/trjs3/bb400nuc0bl0bn0d30tot400.lammpstrj  id  x y z  ix iy iz
dump_modify   1   format line "%d %.5f %.5f %.5f %d %d %d"

########################################################################


###################################################################
# Stiffness term
#
# E = K * (1+cos(theta)), K>0
#
angle_style   cosine
#change this coefficient to change stiffness (e.g. 1,5,10)
angle_coeff   1 1.0
###################################################################

###################################################################
# Pair interaction between non-bonded atoms
#
#  Lennard-Jones 12-6 potential with cutoff:
#  potential E=4epsilon[ (sigma/r)^12 - (sigma/r)^6]  for r<r_cut
#
#  1.12246 = 2^(1/6) is the minimum of the potential


pair_style      lj/cut 1.12246152962189
#pair_style      lj/cut 3

#
#  pair_modify shift yes adds a constant to the potential such

#  that E(r_cut)=0. Forces remains unchanged.
#

pair_modify     shift yes

#
#  pair_coeff for lj/cut, specify 4:
#    * atom type interacting with
#    * atom type
#    * epsilon (energy units)
#    * sigma (distance units)
#

pair_coeff      1 1 1.0 1.0
###################################################################

###################################################################
# Pair interaction between non-bonded atoms
#
#  soft potential, for PUSHING apart overlapping atoms
#  potential E=A*(1 + cos(pi*r/r_c))
#
#  1.12246 = 2^(1/6) is the cut-off r_c

#pair_style     soft 1.12246152962189

#
#  pair_coeff for soft, specify 3:
#    * atom type interacting with
#    * atom type
#    * A
#
#

#pair_coeff      1 1 100.0
###################################################################

###################################################################
# Pair interaction between bonded atoms
#
# Fene potential + Lennard Jones 12-6:

#
#  E= - 0.5 K R0^2 ln[ 1- (r/R0)^2]
#     + 4epsilon[ (sigma/r)^12 - (sigma/r)^6] + epsilon
#

bond_style   fene


#
# For style fene, specify:
#   * bond type
#   * K (energy/distance^2)
#   * R0 (distance)
#   * epsilon (energy)  (LJ component)
#   * sigma (distance)  (LJ component)
#


special_bonds fene #<=== I M P O R T A N T (new command)
Finding 1-2 1-3 1-4 neighbors ...
  special bond factors lj:    0        1        1       
  special bond factors coul:  0        1        1       
     2 = max # of 1-2 neighbors
     6 = max # of special neighbors
  special bonds CPU = 0.000 seconds

bond_coeff   1   30   2   1.0   1.0


###################################################

###################################################################
# Pair interaction between bonded atoms
#
# Harmonic potential:
#
#  E= K * (R-R0)^2
#

#bond_style   harmonic

#
# For style harmonic, specify:
#   * bond type
#   * K (energy/distance^2)
#   * R0 (distance)
#

#bond_coeff   1   60.0   1.0
#bond_coeff   2   harmonic 0.1   1.0

###################################################
compute 1 all gyration
variable rog equal c_1
#compute 2 all coord/atom cutoff 1.1

#dump 2 all custom 10000 contact_number.dump id c_2


###
# Set up fixes
###
thermo_style   custom   step  temp enthalpy c_1
fix 1 all nve   ###NVE ensemble

fix 2 all   langevin   1.0 1.0 1.0  158102   ###Langevin integrator Tstart Tstop 1/friction rndseed


##### Sample thermodynamic info  (temperature, energy, pressure, etc.) #####
thermo 1000









############################################################################

###
# set timestep of integrator

timestep 0.01

###
# run integration for a number of steps
###
#run 0
#variable r equal c_1
#if "$r < 63.1" then "quit 1"

# lj potential minimum, cause molecule to explore
run 100000
Generated 0 of 0 mixed pair_coeff terms from geometric mixing rule
Last active /omp style is angle_style cosine/omp
Neighbor list info ...
  update: every = 1 steps, delay = 1 steps, check = yes
  max neighbors/atom: 2000, page size: 100000
  master list distance cutoff = 5.1224615
  ghost atom cutoff = 5.1224615
  binsize = 2.5612308, bins = 781 781 781
  1 neighbor lists, perpetual/occasional/extra = 1 0 0
  (1) pair lj/cut/omp, perpetual
      attributes: half, newton on, omp
      pair build: half/bin/newton/omp
      stencil: half/bin/3d
      bin: standard
WARNING: Communication cutoff 5.12246152962189 is shorter than a bond length based estimate of 5.455. This may lead to errors. (src/comm.cpp:723)
Per MPI rank memory allocation (min/avg/max) = 1860 | 1860 | 1860 Mbytes
   Step          Temp         Enthalpy         c_1      
         0   0              13.391857      100.00058    
      1000   1.0346303      18.64749       99.787395    
      2000   1.0200186      19.51383       99.268106    
      3000   1.06359        19.233723      98.685524    
      4000   1.006822       19.371118      98.428704    
      5000   1.0680194      19.366592      97.818807    
      6000   0.97348713     18.991733      97.487568    
      7000   1.0494848      19.552947      96.591552    
      8000   1.1210387      19.665289      96.242525    
      9000   0.96023842     19.384568      95.976076    
     10000   1.0008806      19.25844       95.797318    
     11000   1.0326335      19.783618      95.447183    
     12000   1.0094655      19.314563      95.333809    
     13000   1.0389179      18.693749      94.894471    
     14000   0.99787384     20.036522      94.562952    
     15000   1.0728827      19.451754      94.284055    
     16000   1.0066268      19.274067      93.800071    
     17000   0.99636286     19.790707      93.186883    
     18000   0.98079066     19.777786      92.663514    
     19000   1.0126825      18.787105      92.449341    
     20000   0.97512024     19.287139      92.270843    
     21000   0.90754473     18.695368      91.95967     
     22000   1.004069       19.435592      91.540112    
     23000   0.98964881     19.36725       91.386549    
     24000   0.98695703     20.214388      90.847561    
     25000   0.96352209     20.142458      90.565924    
     26000   0.99456801     20.071564      90.33118     
     27000   0.98853936     19.249021      90.099149    
     28000   1.0609208      19.167788      89.884942    
     29000   0.98824634     20.205192      89.683085    
     30000   0.9784547      19.478595      89.904627    
     31000   1.0217489      20.333451      89.951019    
     32000   1.0389729      19.988007      89.672363    
     33000   1.0331047      20.408618      89.283228    
     34000   0.95096572     19.43463       88.986291    
     35000   1.0082045      19.941307      88.395256    
     36000   1.0384355      19.55931       88.217738    
     37000   0.92947023     19.694741      87.862025    
     38000   1.011414       19.665683      87.352148    
     39000   0.97263827     19.519028      87.246011    
     40000   0.91648248     19.120027      87.02335     
     41000   1.0048057      20.036721      86.507492    
     42000   0.9560136      19.784256      86.256557    
     43000   0.9794242      19.370786      86.042955    
     44000   1.0528618      20.051386      85.649217    
     45000   1.018251       19.53273       85.473539    
     46000   0.98364775     19.413844      85.066806    
     47000   1.00482        20.044514      84.910672    
     48000   1.0490854      20.305291      84.657967    
     49000   0.96809995     20.168079      84.347286    
     50000   0.99416287     19.730383      84.010271    
     51000   0.96594793     20.505283      83.518867    
     52000   1.0196514      20.166446      83.444319    
     53000   0.91248164     20.219261      83.361172    
     54000   0.94281861     19.241787      83.245147    
     55000   1.0123162      19.470015      83.12728     
     56000   0.99774393     20.184623      82.409243    
     57000   1.0034935      19.920015      82.789548    
     58000   0.93766164     19.725736      82.785725    
     59000   1.0387857      20.563857      82.464997    
     60000   1.0077464      20.292663      82.333735    
     61000   1.0452015      20.854744      82.215403    
     62000   0.99738025     19.927687      81.818568    
     63000   1.0304142      20.266623      81.790577    
     64000   0.98921196     19.682956      81.643846    
     65000   1.027303       20.399607      81.247217    
     66000   0.96721733     19.89472       80.850007    
     67000   0.96288632     20.383487      80.608786    
     68000   0.96788876     19.832171      80.226535    
     69000   0.96849349     19.905851      80.286377    
     70000   0.94214029     19.23575       80.106684    
     71000   1.0210015      19.326153      79.440991    
     72000   0.92608485     18.986566      79.52273     
     73000   0.97352231     20.645987      79.331535    
     74000   0.94591417     20.301367      79.304223    
     75000   1.0617513      20.107226      79.356918    
     76000   0.93156911     19.122789      79.481909    
     77000   0.98410306     19.752352      79.442467    
     78000   0.98608633     19.616292      78.989794    
     79000   1.0175457      20.09248       79.303447    
     80000   1.058472       19.86282       79.056311    
     81000   1.0093949      19.990933      78.957476    
     82000   1.0110737      20.227347      79.152628    
     83000   0.97735909     20.100279      79.204102    
     84000   1.0345199      20.27873       79.356081    
     85000   0.92091928     20.097725      79.32699     
     86000   1.0288793      20.684472      79.039347    
     87000   1.0018878      19.960417      78.874109    
     88000   1.0113778      21.142145      78.427012    
     89000   1.031904       20.698748      78.108347    
     90000   1.0017258      20.096607      77.726113    
     91000   1.0261843      19.319447      77.648564    
     92000   0.97064066     19.973786      77.445821    
     93000   1.0179622      20.300006      77.245143    
     94000   0.95518617     20.594872      77.388695    
     95000   0.97818641     20.387173      77.295015    
     96000   1.0455459      20.61282       77.288934    
     97000   1.0239064      19.945869      77.787772    
     98000   0.99901415     20.566732      78.223619    
     99000   0.9979478      20.820286      77.925958    
    100000   1.0158193      20.622456      77.75712     
Loop time of 649.13 on 2 procs for 100000 steps with 400 atoms

Performance: 133101.147 tau/day, 154.052 timesteps/s
101.0% CPU use with 1 MPI tasks x 2 OpenMP threads

MPI task timing breakdown:
Section |  min time  |  avg time  |  max time  |%varavg| %total
---------------------------------------------------------------
Pair    | 0.68896    | 0.68896    | 0.68896    |   0.0 |  0.11
Bond    | 1.4238     | 1.4238     | 1.4238     |   0.0 |  0.22
Neigh   | 643.81     | 643.81     | 643.81     |   0.0 | 99.18
Comm    | 0.03602    | 0.03602    | 0.03602    |   0.0 |  0.01
Output  | 0.21612    | 0.21612    | 0.21612    |   0.0 |  0.03
Modify  | 2.683      | 2.683      | 2.683      |   0.0 |  0.41
Other   |            | 0.2696     |            |       |  0.04

Nlocal:            400 ave         400 max         400 min
Histogram: 1 0 0 0 0 0 0 0 0 0
Nghost:              0 ave           0 max           0 min
Histogram: 1 0 0 0 0 0 0 0 0 0
Neighs:           2347 ave        2347 max        2347 min
Histogram: 1 0 0 0 0 0 0 0 0 0

Total # of neighbors = 2347
Ave neighs/atom = 5.8675
Ave special neighs/atom = 1.995
Neighbor list builds = 1009
Dangerous builds = 0

# Replace lj potential, now collapse
pair_style      lj/cut 3

# Cutoff simul when gyration under 5
# Variable created with equal requires v_ + 'name'
fix 3 all halt 1000 v_rog < 7

run 5000000
Generated 0 of 0 mixed pair_coeff terms from geometric mixing rule
Last active /omp style is angle_style cosine/omp
Per MPI rank memory allocation (min/avg/max) = 1860 | 1860 | 1860 Mbytes
   Step          Temp         Enthalpy         c_1      
    100000   1.0158193      19.937533      77.75712     
    101000   0.94633629     19.821369      77.524147    
    102000   0.96479478     19.705823      77.333893    
    103000   0.99432947     19.793663      77.37369     
    104000   1.015824       19.918636      77.162143    
    105000   0.94557232     18.995734      76.985494    
    106000   0.96329267     19.269971      76.839043    
    107000   1.0437297      19.528353      76.679858    
    108000   0.97293295     19.336741      76.407305    
    109000   1.080003       19.762423      76.098987    
    110000   1.0188846      20.045626      75.95566     
    111000   0.99702941     19.598426      75.820804    
    112000   0.96537105     19.563526      75.565234    
    113000   1.0562332      19.477118      75.575678    
    114000   1.0657649      19.939256      75.452325    
    115000   1.0086295      19.366037      75.104691    
    116000   0.98250653     19.369412      74.903512    
    117000   0.96041163     19.470132      74.708521    
    118000   1.0534573      18.237509      74.501288    
    119000   1.0046426      19.829985      74.037661    
    120000   0.99991002     19.506087      73.970471    
    121000   0.99090532     18.799439      74.113728    
    122000   0.96303986     18.880313      73.505393    
    123000   1.0036619      19.525062      73.041458    
    124000   0.98252357     18.832697      72.950789    
    125000   0.9539984      19.663579      73.037654    
    126000   1.029067       19.659631      73.087855    
    127000   1.0357662      19.091027      72.914767    
    128000   1.0010406      18.897723      72.691697    
    129000   0.9635443      19.202613      72.291191    
    130000   0.96530015     19.368476      72.005932    
    131000   0.90533092     18.876539      71.675101    
    132000   0.98654712     18.940318      70.838092    
    133000   0.98748757     19.272992      70.283218    
    134000   0.96447026     19.542255      70.087689    
    135000   1.0121161      19.04438       69.92855     
    136000   1.0135919      18.483111      69.896776    
    137000   0.98141385     18.710111      69.500064    
    138000   1.0020692      18.441275      69.482033    
    139000   1.0725517      19.567575      69.874452    
    140000   1.0228171      19.183071      69.305066    
    141000   1.0057802      19.800033      69.15894     
    142000   0.97294762     19.393907      69.07387     
    143000   1.0306955      18.40247       68.817375    
    144000   1.0577682      18.754424      68.792201    
    145000   0.97980167     19.285342      68.490438    
    146000   1.0527143      19.597139      68.069015    
    147000   1.0149556      19.230774      67.619211    
    148000   0.97716529     17.95201       67.761535    
    149000   1.0404602      19.502393      67.708998    
    150000   0.92994305     18.668608      67.393023    
    151000   0.96329574     18.534067      67.219306    
    152000   0.95975514     18.895079      67.246123    
    153000   1.0067684      19.418082      67.17925     
    154000   1.0663743      18.780882      66.828143    
    155000   0.99056077     19.222826      66.588912    
    156000   0.95310584     18.33324       66.158259    
    157000   1.0535451      19.232827      66.064996    
    158000   0.99208526     19.166859      65.729704    
    159000   0.98072925     19.183002      65.35477     
    160000   0.94435159     18.337059      65.3042      
    161000   0.97673523     18.764475      65.440651    
    162000   1.0940048      19.787186      65.116377    
    163000   1.0528895      19.095476      65.29351     
    164000   1.0013213      18.372966      65.434888    
    165000   0.92502495     18.730188      65.24103     
    166000   1.0214569      19.097819      65.129723    
    167000   0.98759347     19.162458      65.124692    
    168000   1.0414447      19.67623       65.334759    
    169000   0.98272144     19.669297      65.728793    
    170000   1.0176313      18.03969       65.838083    
    171000   1.0239273      19.470328      65.473048    
    172000   1.0593428      18.970003      65.100478    
    173000   0.94722401     18.344792      65.138233    
    174000   1.0109882      17.919054      65.383253    
    175000   1.0371007      18.865902      65.278359    
    176000   0.95850991     19.540603      64.939128    
    177000   0.99580516     19.494093      64.684275    
    178000   0.99577627     19.406795      64.612696    
    179000   1.0414808      19.316561      64.151938    
    180000   0.94413798     18.216906      63.737524    
    181000   1.0740957      18.724631      63.624247    
    182000   1.0013753      18.933621      63.652296    
    183000   0.96015764     18.388343      64.015325    
    184000   1.0609346      18.378194      63.713252    
    185000   1.0297331      18.504141      63.461539    
    186000   0.93869537     18.055446      63.704257    
    187000   0.99994148     19.714609      63.328466    
    188000   1.0573094      19.217001      63.362089    
    189000   0.99861929     18.879692      63.061344    
    190000   1.0168781      19.882291      63.078985    
    191000   1.0530023      19.320441      63.033725    
    192000   1.0198416      18.349991      62.564897    
    193000   1.0660641      19.768989      62.317258    
    194000   0.98070519     19.363864      62.202968    
    195000   1.0025595      18.737834      62.099343    
    196000   1.0323224      18.790831      61.976531    
    197000   0.91991873     18.163011      61.690687    
    198000   1.0061984      18.877264      61.380924    
    199000   0.99478753     18.017263      61.275736    
    200000   0.97239084     17.717306      61.126004    
    201000   0.96949314     19.074295      60.822844    
    202000   1.0063005      19.104019      60.451349    
    203000   1.056418       18.762567      60.566115    
    204000   1.056113       19.211479      60.541828    
    205000   1.0617424      19.168467      60.667474    
    206000   1.0526632      18.222488      60.311653    
    207000   1.0435349      19.395593      60.229843    
    208000   0.99253034     19.178966      60.292856    
    209000   0.98432318     18.932187      60.578267    
    210000   0.99005548     18.976916      60.287033    
    211000   0.96555047     18.446913      60.102395    
    212000   0.91599712     18.460516      59.900696    
    213000   1.0089616      18.272102      59.426159    
    214000   1.0525077      18.923166      59.539286    
    215000   1.0200489      18.600864      59.673513    
    216000   0.93028776     18.864687      59.058453    
    217000   1.008712       17.943526      58.782506    
    218000   1.0006751      19.225207      58.387042    
    219000   1.0091647      18.781425      58.276019    
    220000   0.96070111     18.875789      58.665439    
    221000   0.95122945     18.630029      58.589419    
    222000   1.0879513      18.819373      58.296304    
    223000   0.96404672     19.189834      58.205559    
    224000   0.98664009     18.943158      57.781124    
    225000   0.98807515     18.412913      57.083763    
    226000   0.97943838     18.770045      56.905965    
    227000   1.0292237      18.735121      56.827408    
    228000   1.0060149      18.373764      56.536757    
    229000   1.0687251      18.127205      56.653656    
    230000   0.98016469     18.18582       56.526619    
    231000   0.98094309     18.693364      55.905242    
    232000   1.0554543      19.016693      55.418515    
    233000   1.0189139      19.389387      55.065506    
    234000   1.0536387      18.806152      54.915147    
    235000   0.93490197     18.994866      54.807904    
    236000   0.91183166     18.148162      54.608261    
    237000   1.002111       18.261095      54.390243    
    238000   1.0203632      19.382725      54.47917     
    239000   1.0005364      18.968438      54.373402    
    240000   1.0105989      18.277135      54.292876    
    241000   1.028814       18.144803      54.142244    
    242000   0.99217838     18.661729      53.974329    
    243000   0.95898072     19.238443      53.811352    
    244000   1.0184369      18.760964      53.711117    
    245000   1.0365752      18.587039      53.454401    
    246000   0.96079302     18.078774      53.560499    
    247000   1.0101575      18.119086      53.675705    
    248000   0.94594364     18.816964      53.651685    
    249000   1.0618717      18.651094      53.654221    
    250000   1.0641924      18.123787      54.004241    
    251000   1.0725135      18.663425      53.295306    
    252000   1.0078001      19.032668      52.984448    
    253000   1.0482547      19.021605      52.758985    
    254000   0.9738014      18.140099      52.910078    
    255000   0.95297771     18.280005      52.78171     
    256000   0.98242226     18.505126      52.720882    
    257000   0.99746263     18.225989      52.562219    
    258000   1.062796       18.014224      52.229476    
    259000   0.9416852      18.13375       51.986942    
    260000   1.0107532      18.952372      52.247476    
    261000   0.94801042     18.762935      52.27163     
    262000   1.0467503      18.737011      51.934235    
    263000   1.0080385      19.200606      51.740974    
    264000   1.0033209      18.781811      51.52434     
    265000   1.0485067      17.834382      51.430904    
    266000   0.96394825     18.520768      50.968057    
    267000   0.9990121      18.665219      50.945838    
    268000   1.0209438      18.443013      51.111844    
    269000   0.92746425     18.024293      50.939604    
    270000   1.007105       18.517231      50.908611    
    271000   0.95580179     18.704351      50.704989    
    272000   1.0675186      19.016376      50.564839    
    273000   0.94017106     17.476742      50.293589    
    274000   1.0369081      18.624109      50.120902    
    275000   1.0267995      18.216299      50.064748    
    276000   1.0400092      19.026442      49.622068    
    277000   1.0239054      18.533411      49.433836    
    278000   1.0342689      18.393362      49.239037    
    279000   0.97646491     18.12726       49.06587     
    280000   0.98126515     18.763948      49.050677    
    281000   1.0819486      18.935667      48.793348    
    282000   0.98409267     18.696765      48.530997    
    283000   1.0692058      18.657088      48.198101    
    284000   0.94373901     18.835056      48.275469    
    285000   0.99492191     18.557648      48.374951    
    286000   0.96759139     17.994923      47.90211     
    287000   0.9945247      18.614011      47.401803    
    288000   1.004825       17.956157      47.468685    
    289000   0.9696903      18.676375      47.190243    
    290000   1.0051633      18.897839      47.028664    
    291000   1.0377768      18.489608      47.113637    
    292000   1.0151188      18.977694      47.100617    
    293000   1.0467742      19.102786      46.925398    
    294000   1.0452009      18.361946      46.367611    
    295000   1.0171216      18.652001      46.212864    
    296000   0.97509929     18.769282      45.991729    
    297000   1.0217804      19.360975      45.739913    
    298000   0.99568575     18.387244      45.611269    
    299000   1.0181123      18.720666      45.501755    
    300000   1.0237639      19.094535      45.422574    
    301000   0.98472471     18.230337      45.246025    
    302000   0.96826638     17.977541      45.170267    
    303000   0.99704935     18.675745      44.994138    
    304000   0.92303563     18.231079      44.903143    
    305000   0.92934094     18.285836      44.594329    
    306000   1.0193987      19.149011      44.366701    
    307000   1.0919285      19.520003      43.950561    
    308000   0.98760393     18.277426      43.702719    
    309000   0.97318945     18.316358      43.65569     
    310000   1.0569367      18.513926      43.538239    
    311000   1.0192302      18.42148       43.307456    
    312000   0.94464666     17.940805      43.175878    
    313000   0.95363847     17.719529      43.096065    
    314000   0.96551234     18.903169      42.918354    
    315000   1.0717748      18.198265      42.901601    
    316000   1.0455614      19.431645      42.515188    
    317000   1.0356427      18.766605      42.276842    
    318000   1.0162633      18.031929      41.981818    
    319000   0.9645556      17.79306       42.160246    
    320000   0.91968111     18.819212      42.02333     
    321000   0.97449102     18.660227      42.018285    
    322000   0.97924126     18.114051      42.263811    
    323000   1.0156463      18.561298      42.544219    
    324000   1.0016995      18.397978      42.424504    
    325000   1.0704167      17.917846      42.249686    
    326000   1.0289992      17.457927      42.156087    
    327000   1.0217106      18.11852       41.862554    
    328000   1.0364667      18.956992      41.685712    
    329000   1.0636073      18.796419      41.407547    
    330000   0.96329938     18.226045      41.594699    
    331000   1.0223367      18.48072       41.26105     
    332000   1.0071335      18.813718      41.349696    
    333000   1.0522583      18.550123      41.320735    
    334000   0.96154924     17.500038      41.275919    
    335000   1.0461701      18.637323      41.052948    
    336000   1.0205058      17.928185      40.807757    
    337000   0.95607224     18.487037      40.583288    
    338000   0.97630001     18.125749      40.404915    
    339000   0.95655093     17.738941      40.405937    
    340000   1.0097802      17.925336      39.785671    
    341000   1.0163182      17.72037       39.562861    
    342000   1.0063456      18.831092      39.387457    
    343000   1.0585757      18.551087      39.218055    
    344000   1.0400865      18.814242      39.233631    
    345000   1.0308254      18.205023      39.231273    
    346000   1.0043227      18.18731       39.016062    
    347000   1.014355       18.92899       38.853314    
    348000   0.96386412     19.480054      38.328544    
    349000   0.95782097     18.125606      37.924225    
    350000   1.006259       17.477423      37.441281    
    351000   0.99352501     18.053989      37.25674     
    352000   1.0214177      18.654774      36.90686     
    353000   1.0051334      18.012238      36.569498    
    354000   0.99727549     18.434916      36.742218    
    355000   0.93983008     17.597817      36.477256    
    356000   0.98195417     19.016714      36.329063    
    357000   0.97168675     18.107942      36.519627    
    358000   0.9911453      17.531419      36.319334    
    359000   0.99010564     18.417567      36.442111    
    360000   0.98755209     18.398699      36.440041    
    361000   1.0561368      17.966361      36.39421     
    362000   1.0478041      17.881265      36.111258    
    363000   1.0169679      18.714569      35.649825    
    364000   0.97514005     18.453503      35.22728     
    365000   1.0358377      18.065325      35.081172    
    366000   0.98670169     17.48472       35.006192    
    367000   1.0793652      18.426624      35.086017    
    368000   1.0390826      19.27553       34.762178    
    369000   0.99826551     18.5741        34.38678     
    370000   0.97572278     17.355392      34.345667    
    371000   1.0391023      17.558879      34.121317    
    372000   0.9359298      19.335054      33.97044     
    373000   1.0449896      18.051546      33.861324    
    374000   1.0019354      18.457837      33.579519    
    375000   0.97353808     18.202344      33.257966    
    376000   1.0541135      17.626777      33.134887    
    377000   0.96517266     18.657251      33.010884    
    378000   1.01157        18.492571      32.783559    
    379000   0.98911062     18.501394      32.563378    
    380000   1.01648        18.057625      32.58799     
    381000   0.98747718     19.177636      32.60679     
    382000   1.0117523      17.960007      32.42471     
    383000   0.9799875      18.677427      32.359533    
    384000   1.0068205      18.439564      32.091339    
    385000   1.0466175      17.992262      31.72807     
    386000   1.0512174      18.012007      31.299129    
    387000   1.0576841      18.464292      31.032203    
    388000   1.0477591      18.263964      30.753157    
    389000   0.9981012      18.410072      30.703959    
    390000   0.99722112     18.263899      30.43906     
    391000   1.0125721      17.408521      30.4667      
    392000   0.93217729     18.435584      30.287537    
    393000   0.94333053     18.268282      30.54198     
    394000   1.0426437      18.079771      30.424644    
    395000   0.95006284     17.473413      30.132608    
    396000   0.96756369     17.947863      29.745733    
    397000   0.9576511      17.60622       29.795419    
    398000   1.0228464      18.595571      29.598145    
    399000   0.98779233     17.973541      29.635586    
    400000   1.0284837      16.988854      29.685807    
    401000   0.95990549     17.645789      29.906151    
    402000   0.93853448     18.155409      29.51075     
    403000   1.0472397      18.049479      29.074623    
    404000   0.94633713     16.909769      28.822051    
    405000   0.99600294     18.936945      28.696656    
    406000   1.0097347      18.68612       28.881407    
    407000   0.939806       16.862649      28.639232    
    408000   0.94630943     18.902717      28.334435    
    409000   0.99147383     17.38539       27.836263    
    410000   1.0319933      18.487434      27.651765    
    411000   1.059491       17.261817      27.587209    
    412000   0.96505729     17.952344      27.097182    
    413000   1.0219571      17.959673      26.784847    
    414000   1.1021623      18.725785      26.266475    
    415000   0.99382335     17.769487      26.282433    
    416000   1.0049521      18.639219      26.270132    
    417000   0.94879449     18.348443      25.949913    
    418000   0.98310623     17.692242      25.617348    
    419000   1.1263877      18.731576      25.621272    
    420000   1.0120115      17.111785      25.424977    
    421000   1.0804826      18.293654      25.14497     
    422000   1.0060161      17.319138      24.599646    
    423000   0.9464439      18.091375      24.444387    
    424000   1.0150419      17.559783      24.705388    
    425000   1.001851       18.748526      24.315438    
    426000   0.95562503     18.286466      24.480463    
    427000   0.93397592     17.601037      24.39032     
    428000   1.066949       17.886628      24.363103    
    429000   1.0341861      18.158653      24.127184    
    430000   0.95207959     17.310945      23.651368    
    431000   1.0114242      17.42333       23.401958    
    432000   1.0246305      17.680661      23.006002    
    433000   0.95897575     17.192354      22.782871    
    434000   1.0008993      18.243505      22.581762    
    435000   0.95015699     17.877167      22.377819    
    436000   1.0297491      18.526134      22.187793    
    437000   0.94537898     17.762731      21.888082    
    438000   0.95317154     18.285345      21.773599    
    439000   1.0266738      18.747157      21.786207    
    440000   0.98920539     17.148135      21.591556    
    441000   0.9549705      18.630274      21.677327    
    442000   1.0268583      18.507409      21.351931    
    443000   1.0241985      17.516668      21.30888     
    444000   0.9833743      17.090285      21.044369    
    445000   1.0884714      18.851046      20.863728    
    446000   1.059863       18.10903       20.879521    
    447000   1.1019735      18.431094      20.645941    
    448000   1.0429052      17.920036      20.59471     
    449000   0.98655251     18.180001      20.56382     
    450000   0.98046152     17.241632      20.397562    
    451000   1.0597092      18.456649      20.087764    
    452000   0.98248956     17.57901       19.53309     
    453000   0.97941502     17.555287      19.40156     
    454000   0.93978859     18.13008       19.494119    
    455000   1.0370937      18.371356      19.062932    
    456000   1.0681195      18.802588      18.886701    
    457000   1.0058186      18.323612      18.759438    
    458000   1.1025107      18.271768      18.584326    
    459000   1.0260704      17.834013      18.617122    
    460000   1.0468874      18.29486       18.585216    
    461000   0.94419494     17.45426       18.330795    
    462000   1.0125061      18.545455      18.187993    
    463000   1.0349526      18.006882      17.813054    
    464000   0.98188053     16.996933      17.120618    
    465000   1.0341368      17.215042      16.95388     
    466000   0.99742529     17.402838      16.33887     
    467000   1.0428377      17.938292      16.165966    
    468000   1.0487886      18.08759       16.170961    
    469000   1.0270081      17.606124      16.033533    
    470000   0.9743719      17.306235      15.940216    
    471000   1.012761       18.044978      15.444919    
    472000   1.0714562      17.66599       15.795876    
    473000   1.057823       17.962727      15.876878    
    474000   0.98929251     17.072986      15.564564    
    475000   0.92364052     16.973088      15.287695    
    476000   1.0945786      18.416821      15.044774    
    477000   1.0038493      17.650054      14.963326    
    478000   0.93699468     18.009323      14.804391    
    479000   1.006902       17.028539      14.723361    
    480000   1.0018112      17.598769      14.5049      
    481000   1.0026079      17.477069      14.064727    
    482000   1.0371708      17.597378      14.071454    
    483000   0.96287045     18.147203      14.158134    
    484000   1.0235636      18.150074      14.068522    
    485000   0.98447166     18.081806      13.765322    
    486000   1.0060729      17.340986      13.557511    
    487000   1.0443598      18.003204      13.192542    
    488000   1.0815165      17.229842      12.863484    
    489000   1.0190712      17.007114      12.582992    
    490000   1.0400532      18.467559      12.442589    
    491000   1.0190175      18.228316      12.230609    
    492000   0.96250062     17.772444      12.037778    
    493000   1.0246128      17.393366      12.136332    
    494000   1.014348       17.490867      11.698217    
    495000   0.93917048     16.952841      11.50779     
    496000   1.0177279      17.316798      11.21771     
    497000   1.001908       17.204363      10.90262     
    498000   0.99045842     17.279229      10.793194    
    499000   0.97298296     18.295506      10.658668    
    500000   0.98608095     17.452369      10.515994    
    501000   1.0551309      18.352504      10.156854    
    502000   1.1217379      18.680174      10.254952    
    503000   0.97241744     17.262481      9.9840725    
    504000   0.97874715     18.026618      9.7733893    
    505000   1.0988694      18.057249      9.670835     
    506000   0.96208174     16.851568      9.154996     
    507000   0.96492601     16.7343        9.0584291    
    508000   1.013525       18.019579      9.0348708    
    509000   1.0195848      17.502687      8.8036553    
    510000   0.99471326     18.204613      8.5507249    
    511000   1.0380645      16.567065      8.3773483    
    512000   0.99209504     17.02585       8.4854513    
    513000   0.99398063     17.270262      8.5606772    
    514000   1.0190785      17.64087       8.4428388    
    515000   1.0616081      19.290171      8.0134114    
    516000   0.94597245     16.714155      7.6642248    
    517000   1.0479939      17.748222      7.4149769    
    518000   1.0013797      17.678324      7.5535271    
    519000   0.99594417     18.607801      7.3125446    
    520000   1.0228569      17.466166      7.2631477    
    521000   1.026627       17.451012      7.2580468    
Fix halt condition for fix-id 3 met on step 522000 with value 6.8377353073059615 (src/fix_halt.cpp:237)
    522000   1.0613732      18.24223       6.8377353    
Loop time of 905.844 on 2 procs for 422000 steps with 400 atoms

Performance: 402506.588 tau/day, 465.864 timesteps/s
105.8% CPU use with 1 MPI tasks x 2 OpenMP threads

MPI task timing breakdown:
Section |  min time  |  avg time  |  max time  |%varavg| %total
---------------------------------------------------------------
Pair    | 30.335     | 30.335     | 30.335     |   0.0 |  3.35
Bond    | 5.4301     | 5.4301     | 5.4301     |   0.0 |  0.60
Neigh   | 858.01     | 858.01     | 858.01     |   0.0 | 94.72
Comm    | 0.14155    | 0.14155    | 0.14155    |   0.0 |  0.02
Output  | 0.89691    | 0.89691    | 0.89691    |   0.0 |  0.10
Modify  | 9.977      | 9.977      | 9.977      |   0.0 |  1.10
Other   |            | 1.049      |            |       |  0.12

Nlocal:            400 ave         400 max         400 min
Histogram: 1 0 0 0 0 0 0 0 0 0
Nghost:              0 ave           0 max           0 min
Histogram: 1 0 0 0 0 0 0 0 0 0
Neighs:          39099 ave       39099 max       39099 min
Histogram: 1 0 0 0 0 0 0 0 0 0

Total # of neighbors = 39099
Ave neighs/atom = 97.7475
Ave special neighs/atom = 1.995
Neighbor list builds = 3702
Dangerous builds = 0

# This simulation is done
# Move onto the next one
clear
  using 2 OpenMP thread(s) per MPI task
package omp 0
using multi-threaded neighbor list subroutines
next f
jump SELF

###
# Reference paper:
# K. Kremer and G. S. Grest
# Dynamics of entangled linear polymer melts: A molecular-dynamics simulation
# J Chem Phys 92, 5057 (1990)

##################################
# MIHIR: for branched polymers
# LJ minimum first to expand and explore, then collapse
###

###
# Looping through the various linear polymers to simulate,
# define variables to switch through
variable f index bb100nuc0bl0bn0d30tot100 bb200nuc0bl0bn0d30tot200 bb300nuc0bl0bn0d30tot300 bb400nuc0bl0bn0d30tot400 bb500nuc0bl0bn0d30tot500 bb600nuc0bl0bn0d30tot600 bb700nuc0bl0bn0d30tot700 bb800nuc0bl0bn0d30tot800 bb900nuc0bl0bn0d30tot900 bb1000nuc0bl0bn0d30tot1000 bb1100nuc0bl0bn0d30tot1100 bb1200nuc0bl0bn0d30tot1200
###


###
# Box and units  (use LJ units and periodic boundaries)
###

units lj
log linear/logs3/$f.log
log linear/logs3/bb500nuc0bl0bn0d30tot500.log
