#atom_style bond #no stiffness
atom_style angle #with stiffness

boundary        p p p
###
# Pair interactions require lists of neighbours to be calculated
###

#neighbor 0.3 bin
neighbor 4 bin

neigh_modify every 1 delay 1 check yes
atom_modify sort 0 0
### Generate RESTART file, SPECIAL format, not a .txt file ###
### Useful if simulation crashes ###

restart 1000000 linear/restarts3/$f.restart
restart 1000000 linear/restarts3/bb500nuc0bl0bn0d30tot500.restart
#############################



### READ "start" data file ###

read_data linear/$f.dat
read_data linear/bb500nuc0bl0bn0d30tot500.dat
Reading data file ...
  orthogonal box = (-1000 -1000 -1000) to (1000 1000 1000)
  1 by 1 by 1 MPI processor grid
  reading atoms ...
  500 atoms
  scanning bonds ...
  1 = max bonds/atom
  scanning angles ...
  1 = max angles/atom
  reading bonds ...
  499 bonds
  reading angles ...
  498 angles
Finding 1-2 1-3 1-4 neighbors ...
  special bond factors lj:    0        0        0       
  special bond factors coul:  0        0        0       
     2 = max # of 1-2 neighbors
     2 = max # of 1-3 neighbors
     4 = max # of 1-4 neighbors
     6 = max # of special neighbors
  special bonds CPU = 0.001 seconds
  read_data CPU = 0.049 seconds

######################

### READ "REstart" data file ###

######################



###
# Define groups (atom type 1 is group 'all')
###
group all type 1
500 atoms in group all


###
# Dump configs - "simple dumpings"
###

###
# Dump configs + box coords
###

dump   1   all   custom   1000  linear/trjs3/$f.lammpstrj  id  x y z  ix iy iz
dump   1   all   custom   1000  linear/trjs3/bb500nuc0bl0bn0d30tot500.lammpstrj  id  x y z  ix iy iz
dump_modify   1   format line "%d %.5f %.5f %.5f %d %d %d"

########################################################################


###################################################################
# Stiffness term
#
# E = K * (1+cos(theta)), K>0
#
angle_style   cosine
#change this coefficient to change stiffness (e.g. 1,5,10)
angle_coeff   1 1.0
###################################################################

###################################################################
# Pair interaction between non-bonded atoms
#
#  Lennard-Jones 12-6 potential with cutoff:
#  potential E=4epsilon[ (sigma/r)^12 - (sigma/r)^6]  for r<r_cut
#
#  1.12246 = 2^(1/6) is the minimum of the potential


pair_style      lj/cut 1.12246152962189
#pair_style      lj/cut 3

#
#  pair_modify shift yes adds a constant to the potential such

#  that E(r_cut)=0. Forces remains unchanged.
#

pair_modify     shift yes

#
#  pair_coeff for lj/cut, specify 4:
#    * atom type interacting with
#    * atom type
#    * epsilon (energy units)
#    * sigma (distance units)
#

pair_coeff      1 1 1.0 1.0
###################################################################

###################################################################
# Pair interaction between non-bonded atoms
#
#  soft potential, for PUSHING apart overlapping atoms
#  potential E=A*(1 + cos(pi*r/r_c))
#
#  1.12246 = 2^(1/6) is the cut-off r_c

#pair_style     soft 1.12246152962189

#
#  pair_coeff for soft, specify 3:
#    * atom type interacting with
#    * atom type
#    * A
#
#

#pair_coeff      1 1 100.0
###################################################################

###################################################################
# Pair interaction between bonded atoms
#
# Fene potential + Lennard Jones 12-6:

#
#  E= - 0.5 K R0^2 ln[ 1- (r/R0)^2]
#     + 4epsilon[ (sigma/r)^12 - (sigma/r)^6] + epsilon
#

bond_style   fene


#
# For style fene, specify:
#   * bond type
#   * K (energy/distance^2)
#   * R0 (distance)
#   * epsilon (energy)  (LJ component)
#   * sigma (distance)  (LJ component)
#


special_bonds fene #<=== I M P O R T A N T (new command)
Finding 1-2 1-3 1-4 neighbors ...
  special bond factors lj:    0        1        1       
  special bond factors coul:  0        1        1       
     2 = max # of 1-2 neighbors
     6 = max # of special neighbors
  special bonds CPU = 0.000 seconds

bond_coeff   1   30   2   1.0   1.0


###################################################

###################################################################
# Pair interaction between bonded atoms
#
# Harmonic potential:
#
#  E= K * (R-R0)^2
#

#bond_style   harmonic

#
# For style harmonic, specify:
#   * bond type
#   * K (energy/distance^2)
#   * R0 (distance)
#

#bond_coeff   1   60.0   1.0
#bond_coeff   2   harmonic 0.1   1.0

###################################################
compute 1 all gyration
variable rog equal c_1
#compute 2 all coord/atom cutoff 1.1

#dump 2 all custom 10000 contact_number.dump id c_2


###
# Set up fixes
###
thermo_style   custom   step  temp enthalpy c_1
fix 1 all nve   ###NVE ensemble

fix 2 all   langevin   1.0 1.0 1.0  158102   ###Langevin integrator Tstart Tstop 1/friction rndseed


##### Sample thermodynamic info  (temperature, energy, pressure, etc.) #####
thermo 1000









############################################################################

###
# set timestep of integrator

timestep 0.01

###
# run integration for a number of steps
###
#run 0
#variable r equal c_1
#if "$r < 63.1" then "quit 1"

# lj potential minimum, cause molecule to explore
run 100000
Generated 0 of 0 mixed pair_coeff terms from geometric mixing rule
Last active /omp style is angle_style cosine/omp
Neighbor list info ...
  update: every = 1 steps, delay = 1 steps, check = yes
  max neighbors/atom: 2000, page size: 100000
  master list distance cutoff = 5.1224615
  ghost atom cutoff = 5.1224615
  binsize = 2.5612308, bins = 781 781 781
  1 neighbor lists, perpetual/occasional/extra = 1 0 0
  (1) pair lj/cut/omp, perpetual
      attributes: half, newton on, omp
      pair build: half/bin/newton/omp
      stencil: half/bin/3d
      bin: standard
WARNING: Communication cutoff 5.12246152962189 is shorter than a bond length based estimate of 5.455. This may lead to errors. (src/comm.cpp:723)
Per MPI rank memory allocation (min/avg/max) = 1860 | 1860 | 1860 Mbytes
   Step          Temp         Enthalpy         c_1      
         0   0              13.399004      125.00046    
      1000   0.96314827     19.041628      124.83547    
      2000   0.99848132     18.979472      124.48568    
      3000   0.9500991      18.974057      124.3751     
      4000   1.0532785      19.291234      124.11647    
      5000   1.0380241      19.139995      123.77558    
      6000   0.96531271     19.705125      123.59788    
      7000   0.942881       19.098151      123.22579    
      8000   1.0070274      19.273921      122.83712    
      9000   1.0127949      19.031156      122.42236    
     10000   0.99720535     19.11124       121.85164    
     11000   1.0225442      19.162035      121.74268    
     12000   1.01478        18.852157      121.66621    
     13000   1.0671101      19.470659      121.00806    
     14000   1.0145056      19.69553       120.77131    
     15000   0.98503228     19.44903       120.18589    
     16000   1.0279046      18.567199      119.99512    
     17000   1.0285393      19.649078      119.67147    
     18000   1.0568814      19.31402       119.67142    
     19000   0.9565027      18.47351       119.52692    
     20000   0.94901918     18.682945      119.30574    
     21000   1.0375011      18.759215      119.16152    
     22000   0.99739861     19.109864      118.30822    
     23000   1.0208992      20.091624      117.99267    
     24000   0.96287045     20.006716      117.87073    
     25000   1.011898       18.792801      117.67639    
     26000   1.0330025      19.233908      117.69063    
     27000   0.99142492     19.579051      117.56445    
     28000   1.0000096      19.120855      117.655      
     29000   0.99719842     19.154528      117.53057    
     30000   0.99899363     19.244959      117.13693    
     31000   1.0992178      19.494245      116.82712    
     32000   0.93581412     19.869054      116.66444    
     33000   1.0123952      19.755171      116.44937    
     34000   0.98998589     19.72058       116.4838     
     35000   1.1178052      20.174731      116.08032    
     36000   0.99917595     19.502886      115.96255    
     37000   0.98160121     18.742639      115.87851    
     38000   1.0445982      19.575793      115.60525    
     39000   0.92142526     18.435933      115.32151    
     40000   1.0059012      19.363663      115.31962    
     41000   1.008912       18.970817      115.10535    
     42000   1.0453549      19.683835      114.75707    
     43000   0.99183817     19.59654       114.56871    
     44000   0.97121482     18.633481      114.42312    
     45000   1.0030429      20.533333      113.87019    
     46000   1.0052704      20.255494      113.7362     
     47000   0.96041229     19.086469      113.57665    
     48000   1.0929902      20.671657      113.33518    
     49000   0.99722772     20.013399      112.83956    
     50000   0.98998648     19.551386      112.49619    
     51000   1.0314215      19.875063      112.30298    
     52000   1.0132924      19.392019      111.99025    
     53000   1.0243405      19.595074      111.63441    
     54000   0.99790198     19.828333      111.35166    
     55000   0.99429966     20.103699      110.8717     
     56000   0.94093672     19.638095      110.57893    
     57000   0.96039199     19.589295      110.46188    
     58000   1.0267941      19.68234       110.39538    
     59000   1.029615       20.52518       110.09813    
     60000   0.94335446     19.707751      109.93073    
     61000   0.98445697     20.155661      109.39213    
     62000   1.0498729      20.728745      109.36898    
     63000   1.046336       19.969905      109.31883    
     64000   0.94214126     19.832451      109.0771     
     65000   1.0163696      19.914752      109.06347    
     66000   1.0352036      19.64339       108.62284    
     67000   1.0505543      18.955476      108.50764    
     68000   0.97907026     19.845058      108.15169    
     69000   1.0040007      19.906979      108.02059    
     70000   1.0226148      20.132935      107.82383    
     71000   1.0002891      19.934993      107.58746    
     72000   1.0086964      19.677486      107.41522    
     73000   0.99703345     19.733519      107.29628    
     74000   0.94888202     19.960976      107.31627    
     75000   0.93144028     19.53946       107.02395    
     76000   0.99541976     20.469894      106.95148    
     77000   1.0607402      20.20086       107.02525    
     78000   0.9788027      19.495236      106.88269    
     79000   0.97182362     20.929515      106.56431    
     80000   1.0075915      19.344961      106.35695    
     81000   1.0457347      20.762186      106.19471    
     82000   1.008299       20.276026      106.08793    
     83000   0.96420438     20.231954      106.1426     
     84000   0.92668109     19.493792      105.84162    
     85000   1.0372095      20.419696      105.46863    
     86000   0.96660194     18.989691      105.33507    
     87000   0.9951314      19.694376      105.43768    
     88000   0.94725942     20.002949      105.35332    
     89000   0.94052925     19.884866      105.1653     
     90000   0.99615843     19.81582       105.13125    
     91000   0.97177573     20.060869      104.56996    
     92000   0.97543087     20.151316      104.61131    
     93000   1.0148957      19.929157      104.62937    
     94000   1.0507843      20.116122      104.65565    
     95000   1.0209652      19.956861      104.4187     
     96000   1.0021504      20.248132      104.204      
     97000   1.0284845      20.450236      103.83689    
     98000   1.0098508      20.604204      103.2524     
     99000   0.98436144     19.950229      103.03288    
    100000   1.0086462      20.113658      102.93731    
Loop time of 606.54 on 2 procs for 100000 steps with 500 atoms

Performance: 142447.334 tau/day, 164.870 timesteps/s
101.1% CPU use with 1 MPI tasks x 2 OpenMP threads

MPI task timing breakdown:
Section |  min time  |  avg time  |  max time  |%varavg| %total
---------------------------------------------------------------
Pair    | 0.65126    | 0.65126    | 0.65126    |   0.0 |  0.11
Bond    | 1.3979     | 1.3979     | 1.3979     |   0.0 |  0.23
Neigh   | 601.4      | 601.4      | 601.4      |   0.0 | 99.15
Comm    | 0.034266   | 0.034266   | 0.034266   |   0.0 |  0.01
Output  | 0.20076    | 0.20076    | 0.20076    |   0.0 |  0.03
Modify  | 2.6054     | 2.6054     | 2.6054     |   0.0 |  0.43
Other   |            | 0.2462     |            |       |  0.04

Nlocal:            500 ave         500 max         500 min
Histogram: 1 0 0 0 0 0 0 0 0 0
Nghost:              0 ave           0 max           0 min
Histogram: 1 0 0 0 0 0 0 0 0 0
Neighs:           2841 ave        2841 max        2841 min
Histogram: 1 0 0 0 0 0 0 0 0 0

Total # of neighbors = 2841
Ave neighs/atom = 5.682
Ave special neighs/atom = 1.996
Neighbor list builds = 1025
Dangerous builds = 0

# Replace lj potential, now collapse
pair_style      lj/cut 3

# Cutoff simul when gyration under 5
# Variable created with equal requires v_ + 'name'
fix 3 all halt 1000 v_rog < 7

run 5000000
Generated 0 of 0 mixed pair_coeff terms from geometric mixing rule
Last active /omp style is angle_style cosine/omp
Per MPI rank memory allocation (min/avg/max) = 1860 | 1860 | 1860 Mbytes
   Step          Temp         Enthalpy         c_1      
    100000   1.0086462      19.503942      102.93731    
    101000   0.96129411     19.46587       102.55198    
    102000   1.0328143      20.060067      102.4394     
    103000   0.98409196     19.290253      101.96991    
    104000   1.02109        19.634151      101.75648    
    105000   0.97221986     19.186389      101.44246    
    106000   1.0724516      19.801125      101.34998    
    107000   0.98280394     19.218302      101.30914    
    108000   0.97497268     19.278368      101.35599    
    109000   0.96021107     19.021597      101.02434    
    110000   1.0247765      18.943518      101.0162     
    111000   1.0624367      19.434878      100.51295    
    112000   1.0772615      19.105194      100.37648    
    113000   0.97627487     19.739994      100.17316    
    114000   1.0253217      19.3161        100.11704    
    115000   0.94571721     18.626184      100.03727    
    116000   0.93934731     18.831705      100.06557    
    117000   0.97700471     19.277762      99.720459    
    118000   1.0300748      19.252082      99.449034    
    119000   0.98287145     19.431695      99.076247    
    120000   1.0925784      20.270585      98.80413     
    121000   1.0318028      19.163769      98.612857    
    122000   1.0022993      19.866906      98.553127    
    123000   0.95968374     19.278159      98.449137    
    124000   1.0282837      19.016155      98.722802    
    125000   0.96867916     19.850881      98.635496    
    126000   0.96181359     19.63701       98.341932    
    127000   1.0146292      19.537676      98.553383    
    128000   1.024695       19.666078      98.105587    
    129000   0.94112688     18.681855      97.774179    
    130000   1.0705732      18.823823      97.603405    
    131000   0.92317306     19.214018      97.614053    
    132000   1.0079397      19.700626      97.408646    
    133000   0.94842582     19.090732      97.242857    
    134000   1.0301764      18.700104      96.831358    
    135000   0.97243716     18.071013      96.429727    
    136000   1.0325114      19.262916      96.147896    
    137000   0.94061051     19.484649      95.677508    
    138000   1.0269121      19.442659      95.452049    
    139000   0.94085551     18.928335      95.449001    
    140000   1.0175707      18.745642      95.250974    
    141000   1.0607351      19.522624      94.776639    
    142000   0.98569678     18.85448       94.591377    
    143000   1.0180589      20.027214      94.476035    
    144000   1.0104228      19.070975      94.127263    
    145000   0.99304075     18.510643      93.909541    
    146000   1.0501155      19.235906      93.657729    
    147000   1.0157488      19.055231      93.812327    
    148000   0.93984739     19.107939      93.51326     
    149000   0.98459995     19.186603      93.30439     
    150000   1.0482328      19.431279      93.062293    
    151000   1.0203433      19.089714      92.8047      
    152000   1.0261274      19.669595      92.832253    
    153000   0.98981532     19.537382      92.71747     
    154000   1.04912        19.21268       92.376783    
    155000   0.98094542     19.125097      92.106356    
    156000   0.94691655     18.770947      92.12183     
    157000   1.0341197      19.721576      91.769752    
    158000   0.94591138     19.351324      91.894055    
    159000   1.0414113      19.235986      91.770909    
    160000   1.0653192      19.002457      91.498706    
    161000   1.0042776      19.155742      91.434278    
    162000   1.0431374      19.075527      91.340415    
    163000   1.0198207      19.133182      91.464934    
    164000   1.0245239      19.320444      91.002104    
    165000   1.0112155      18.541522      90.912117    
    166000   1.004107       19.275462      90.870943    
    167000   1.0212579      19.91802       90.671845    
    168000   1.0082334      19.638763      90.463585    
    169000   1.0444051      18.011596      90.498206    
    170000   1.0225513      19.200584      90.472576    
    171000   1.0026395      19.300035      90.298034    
    172000   0.99211836     18.405924      90.496724    
    173000   0.99886885     18.792128      90.364661    
    174000   0.99890162     18.396439      90.135918    
    175000   1.0077777      18.615762      89.93747     
    176000   1.0894552      18.739662      89.791358    
    177000   0.98336259     19.277483      89.619241    
    178000   0.97457762     19.527026      89.488527    
    179000   1.0113146      19.796136      89.422785    
    180000   1.041501       19.615506      89.428733    
    181000   0.94793111     18.847914      89.11258     
    182000   1.0735203      19.265838      89.225076    
    183000   1.0080402      18.332492      89.14453     
    184000   1.0202551      19.836909      88.921092    
    185000   0.99798526     19.12665       88.994686    
    186000   1.0396842      18.905666      88.844403    
    187000   0.96624664     18.731692      88.644058    
    188000   1.0216442      18.945629      88.58298     
    189000   1.0579082      19.021294      88.313564    
    190000   0.99859708     18.988237      88.145762    
    191000   0.93287722     18.873981      88.021696    
    192000   0.97449531     19.217983      87.837446    
    193000   0.9711492      18.955329      87.966619    
    194000   0.9756315      19.617028      87.60297     
    195000   0.96494143     18.883456      87.54928     
    196000   1.0135256      18.284815      87.317192    
    197000   0.96004912     18.55425       87.122873    
    198000   1.0136612      19.134244      87.092919    
    199000   1.0343466      19.481353      87.120142    
    200000   1.0094832      19.103605      86.929392    
    201000   1.0090411      18.286835      87.122115    
    202000   1.0584181      18.720735      87.083996    
    203000   0.9850857      18.450264      86.652687    
    204000   0.96884823     19.679995      86.451795    
    205000   1.0748681      19.641411      86.023682    
    206000   0.9721464      18.915617      85.981692    
    207000   1.0493653      18.869478      86.061298    
    208000   0.96411335     19.036         85.795246    
    209000   0.9591265      18.179238      85.347765    
    210000   0.97720706     19.273537      85.058247    
    211000   1.0100447      19.077899      84.769934    
    212000   0.99529105     19.073755      84.623264    
    213000   1.025921       19.326507      84.5139      
    214000   0.99136081     18.544589      84.069117    
    215000   0.97730512     18.747806      83.876784    
    216000   0.9936542      19.589345      83.711177    
    217000   1.0219135      18.897157      83.592153    
    218000   1.0237593      19.318585      83.472086    
    219000   0.98114288     19.499882      82.977929    
    220000   1.0162133      19.082331      82.842018    
    221000   1.0433309      18.905991      82.752466    
    222000   0.97114312     19.030652      82.649065    
    223000   0.99814807     19.196558      82.595376    
    224000   1.0432879      19.443014      82.528417    
    225000   1.003447       18.830362      82.205804    
    226000   0.99906907     18.782313      82.209847    
    227000   0.99337138     18.866681      81.906942    
    228000   1.0306126      19.49341       81.563582    
    229000   0.95613473     18.52157       81.508274    
    230000   0.91162817     19.142447      81.271535    
    231000   1.0280434      18.740251      81.098796    
    232000   0.89476511     17.956627      80.910135    
    233000   0.94415757     18.010184      81.431629    
    234000   0.97641445     19.038523      81.130664    
    235000   0.99382864     18.71931       81.208616    
    236000   0.98891807     18.591539      81.257208    
    237000   0.94340559     18.139609      81.317442    
    238000   1.0000908      18.772622      80.766825    
    239000   0.92605938     19.092033      80.251406    
    240000   1.0327186      19.665038      80.097441    
    241000   1.0346125      18.727298      79.657959    
    242000   1.0000924      19.275487      79.796046    
    243000   1.0077791      19.25407       79.519772    
    244000   1.0870298      19.253769      79.680747    
    245000   0.9690916      18.021569      79.579602    
    246000   1.0515306      18.877717      79.990101    
    247000   0.96178476     18.733041      79.714549    
    248000   0.94687952     19.351518      79.79074     
    249000   0.97415121     18.476958      80.008212    
    250000   1.0196652      18.529092      80.251731    
    251000   0.98245721     18.208895      80.335705    
    252000   1.0041715      19.284672      80.239244    
    253000   0.98795097     19.595996      80.177383    
    254000   0.96980869     18.624059      80.030673    
    255000   1.0181664      19.209444      79.822763    
    256000   1.0163738      18.298466      79.845046    
    257000   0.99053945     18.915182      79.544309    
    258000   1.0165612      18.139989      79.291844    
    259000   0.97491672     19.287802      79.207387    
    260000   1.0208785      18.755753      79.29294     
    261000   1.066547       19.086223      79.000041    
    262000   0.99912996     17.949483      78.714258    
    263000   0.9823417      18.747233      78.435757    
    264000   1.0601103      19.240732      78.381451    
    265000   1.0456013      18.649851      78.089717    
    266000   0.96047175     18.536625      77.761227    
    267000   0.95601471     19.071878      78.073395    
    268000   0.94411319     18.622874      77.815643    
    269000   0.95907885     18.467746      77.973825    
    270000   0.99885151     18.920905      77.750053    
    271000   0.9613242      18.954167      77.451489    
    272000   0.99197306     18.606869      77.310299    
    273000   1.004801       18.611574      76.884156    
    274000   1.0387908      18.781924      76.771615    
    275000   0.95405478     18.409543      76.881113    
    276000   1.026676       18.252705      77.032042    
    277000   1.0418273      19.032618      77.114486    
    278000   1.00801        19.066732      77.300578    
    279000   1.0072221      18.878772      77.114496    
    280000   0.93098902     18.831952      77.030789    
    281000   1.0373009      18.305852      76.719381    
    282000   0.98447977     18.931705      76.746118    
    283000   0.94387048     18.418506      76.446778    
    284000   1.0113564      18.707914      76.36266     
    285000   1.0138867      18.253546      76.026699    
    286000   0.9878722      18.883224      75.628373    
    287000   0.9685359      18.568807      75.363364    
    288000   0.98792385     17.899798      74.87158     
    289000   1.0364247      19.214847      74.668971    
    290000   0.9754988      19.071418      74.48361     
    291000   1.0209006      18.868392      74.736045    
    292000   0.9808165      18.982571      74.804442    
    293000   0.98134947     18.343904      74.671167    
    294000   1.0459276      19.200381      74.238161    
    295000   0.98135383     18.101307      73.945038    
    296000   1.0122589      19.082202      73.843681    
    297000   0.9884507      19.133297      73.778149    
    298000   0.98768537     18.136911      73.780759    
    299000   0.97468482     18.989723      73.436138    
    300000   0.95866237     18.895399      73.355135    
    301000   1.0092191      19.203081      73.023803    
    302000   0.98320746     18.973387      72.82052     
    303000   0.97594458     18.40179       72.390573    
    304000   0.99498002     18.261858      72.529075    
    305000   0.93208007     18.45105       72.428376    
    306000   1.0071707      19.295812      72.490515    
    307000   1.0186106      19.343728      72.621934    
    308000   1.0009816      19.183053      72.459742    
    309000   1.0359881      19.589415      72.164739    
    310000   0.9902892      18.59551       72.246383    
    311000   0.99873344     18.330936      72.00842     
    312000   0.98706876     18.950236      71.752722    
    313000   1.0268127      19.373611      71.809461    
    314000   1.0147003      18.721584      71.571641    
    315000   1.0221354      19.192985      71.544653    
    316000   1.0112065      18.740126      71.306826    
    317000   0.96145251     18.263807      71.146487    
    318000   0.98397751     19.071192      70.798102    
    319000   1.0248886      18.838626      70.610919    
    320000   1.0085997      18.711117      70.102224    
    321000   1.0027002      18.616789      70.204476    
    322000   1.025625       19.368076      69.986621    
    323000   0.9784354      17.852635      69.584251    
    324000   0.9549478      18.364527      69.602852    
    325000   1.0094273      18.749415      69.564847    
    326000   1.0198238      17.851818      69.329838    
    327000   1.0402007      19.092929      68.792268    
    328000   1.0353429      18.456775      68.718665    
    329000   1.0002921      19.133674      68.413304    
    330000   0.98538149     18.413677      68.207232    
    331000   1.0492766      19.35077       67.973853    
    332000   0.93651935     17.799917      67.822117    
    333000   0.96331546     19.069422      67.567494    
    334000   1.0192863      19.406235      67.315585    
    335000   0.97418558     18.14868       67.607344    
    336000   1.0044335      18.855007      67.44031     
    337000   1.0513122      18.935985      67.352176    
    338000   1.0289139      18.876458      67.194274    
    339000   0.98166655     18.272666      67.249918    
    340000   1.0377286      18.439542      67.085124    
    341000   1.0069597      18.250882      67.119884    
    342000   1.0447603      18.940425      66.6582      
    343000   1.0144368      19.194393      66.577975    
    344000   0.99395335     18.877468      66.462552    
    345000   1.068126       18.702535      66.287426    
    346000   0.99741708     18.214874      65.816465    
    347000   0.9700968      18.288219      65.597741    
    348000   1.0113155      18.860185      65.328076    
    349000   0.98759856     18.383938      65.227722    
    350000   1.0070399      18.511945      64.928084    
    351000   1.0584054      18.820729      65.04136     
    352000   0.92648372     18.727075      64.58083     
    353000   0.93288927     17.960327      64.540976    
    354000   0.94880316     18.229578      64.618519    
    355000   0.99270955     18.761247      64.775756    
    356000   1.0253202      18.4803        64.723894    
    357000   0.98503021     19.433892      64.49131     
    358000   1.0044668      19.08193       64.258561    
    359000   1.0361468      18.300237      64.246444    
    360000   0.94184694     17.686706      64.0992      
    361000   0.98986474     18.407525      64.018326    
    362000   0.99781331     17.797368      63.978046    
    363000   1.0139745      18.650341      64.232147    
    364000   1.0199502      17.719661      64.272638    
    365000   0.99258647     18.981899      64.050607    
    366000   1.0046182      19.484209      63.647023    
    367000   1.0914761      18.844816      63.621638    
    368000   1.0289098      19.183375      63.643134    
    369000   1.0418782      18.245177      63.510175    
    370000   0.99871903     18.510929      63.858594    
    371000   0.97849425     18.059154      63.450732    
    372000   0.98301523     18.388967      63.458385    
    373000   1.1012289      18.714961      63.498986    
    374000   1.0097137      17.739897      63.041297    
    375000   0.98854646     18.4871        62.672495    
    376000   1.0341079      18.732199      62.775575    
    377000   1.0108029      18.418083      62.687982    
    378000   0.98183419     18.739979      62.522101    
    379000   0.94298805     17.739528      62.217086    
    380000   1.0051645      18.065541      61.834025    
    381000   1.0015053      18.473809      61.843626    
    382000   0.97411305     18.84332       61.438411    
    383000   1.0463042      18.672765      61.324636    
    384000   1.0121782      18.433949      60.760374    
    385000   1.0075598      18.508367      60.585722    
    386000   0.97362227     18.515158      60.685774    
    387000   0.99934803     18.246675      60.6026      
    388000   1.0313955      18.858848      60.293879    
    389000   1.0900323      18.630389      60.370685    
    390000   0.94500879     18.068751      60.3758      
    391000   1.0490379      18.633019      60.2695      
    392000   1.0314179      18.343968      60.15382     
    393000   0.99520128     18.561561      60.207411    
    394000   1.023777       19.158611      60.072777    
    395000   1.0069717      17.89267       60.087745    
    396000   0.99854006     17.621819      59.907386    
    397000   1.0061282      17.771868      59.949221    
    398000   0.99049124     18.573242      59.670996    
    399000   0.99691729     18.643771      59.341359    
    400000   1.0145529      19.095095      59.091361    
    401000   0.99971337     18.715118      59.019344    
    402000   1.008177       19.218076      58.997781    
    403000   0.96243752     18.362381      58.891082    
    404000   1.0147884      18.210564      58.910311    
    405000   0.94935894     18.068341      58.744904    
    406000   0.99498597     18.839762      58.661365    
    407000   1.0194035      17.725398      58.577886    
    408000   1.0103743      18.2915        58.567398    
    409000   1.0065065      18.603774      58.433834    
    410000   0.95371709     18.367467      58.214113    
    411000   0.94949328     18.120669      57.924157    
    412000   1.0176746      17.804537      57.871105    
    413000   1.0692035      18.530636      57.69253     
    414000   0.93597206     17.742302      57.420875    
    415000   1.0007101      18.402555      57.021264    
    416000   0.96205959     18.03769       57.12835     
    417000   1.0341272      17.879344      57.095754    
    418000   0.98518373     18.034648      56.686666    
    419000   1.0413425      18.938849      56.231721    
    420000   1.0283778      18.249245      56.090842    
    421000   0.99685706     17.903395      56.056976    
    422000   1.0036513      17.986156      56.133071    
    423000   1.025783       18.019005      56.196746    
    424000   0.96211272     18.250108      56.076781    
    425000   1.0236517      18.017107      55.882258    
    426000   0.98782952     18.228252      55.450468    
    427000   0.91771134     18.741303      55.372503    
    428000   1.0373877      18.180711      55.750587    
    429000   0.98728246     18.771779      55.594788    
    430000   0.95253433     18.421369      55.672533    
    431000   1.0535584      18.08344       55.571783    
    432000   1.0090555      18.094994      55.519609    
    433000   0.98464438     18.023123      55.480361    
    434000   1.0044109      18.634644      55.645353    
    435000   1.0160823      18.13307       55.211296    
    436000   0.99875836     18.384013      54.989572    
    437000   1.008646       19.345083      54.976628    
    438000   1.0052736      18.744707      54.51188     
    439000   1.0104646      17.985817      54.273752    
    440000   1.0189864      18.278112      54.082294    
    441000   0.95963584     18.168095      53.945215    
    442000   0.95378981     17.63322       53.315336    
    443000   1.0097153      18.450441      53.07103     
    444000   1.0222496      18.604987      53.056305    
    445000   1.0290973      17.691325      53.042971    
    446000   1.050688       17.607332      52.566499    
    447000   0.95178556     19.472892      52.455098    
    448000   1.0816171      18.411733      52.196611    
    449000   0.96886641     17.97535       52.102868    
    450000   1.0427186      18.240442      51.878247    
    451000   0.96336543     18.968032      51.784717    
    452000   1.0218032      18.883161      51.449969    
    453000   0.96456104     18.208428      51.494628    
    454000   1.0195812      17.769071      51.459423    
    455000   1.0085399      18.18176       51.571149    
    456000   0.95648688     19.258376      51.544511    
    457000   0.90959213     17.958913      51.397561    
    458000   1.0346595      18.178961      51.37313     
    459000   1.0486006      17.966049      51.148351    
    460000   1.0331044      19.361595      50.998253    
    461000   0.98935817     18.84566       50.690665    
    462000   1.0424482      18.358111      50.814103    
    463000   1.0238312      19.385469      50.647902    
    464000   0.97047213     18.524386      50.698022    
    465000   1.0179865      18.413833      50.176611    
    466000   1.0850163      18.069026      50.138109    
    467000   0.97874836     18.298619      50.101359    
    468000   0.95456015     18.828448      50.011614    
    469000   0.98185293     17.804295      50.237923    
    470000   0.95510227     17.543662      50.087238    
    471000   1.1152665      19.101475      50.115985    
    472000   0.99987528     17.898238      49.787143    
    473000   0.97016633     19.267386      49.806905    
    474000   0.9874318      18.338988      49.947945    
    475000   1.0527892      17.989401      50.157515    
    476000   0.98826483     18.35702       50.013692    
    477000   1.0264679      16.833748      50.248053    
    478000   1.0289382      18.78107       50.117455    
    479000   0.96163379     17.58165       50.020852    
    480000   0.98041582     18.316756      50.20779     
    481000   1.0378711      17.901856      50.159977    
    482000   0.98616683     17.447729      50.412814    
    483000   1.0144578      18.455274      50.321113    
    484000   0.97134855     17.78397       50.051067    
    485000   0.95829143     18.477468      49.711439    
    486000   1.00654        17.793884      49.67086     
    487000   1.0099371      18.402645      49.731209    
    488000   0.98898231     17.487628      49.443945    
    489000   1.0163915      17.984624      49.297225    
    490000   1.0281008      17.649717      48.826248    
    491000   1.0238397      18.244278      48.755068    
    492000   1.0146395      17.658345      48.548126    
    493000   0.99377957     18.454313      48.297688    
    494000   0.95400431     16.965118      48.192891    
    495000   1.0393338      18.120738      47.795765    
    496000   0.97658519     17.528687      47.588231    
    497000   0.97969405     17.594571      47.515504    
    498000   1.0397132      18.142551      47.149777    
    499000   0.98259754     18.505727      46.849052    
    500000   0.99583334     18.048339      46.686788    
    501000   0.97884155     17.293808      46.33756     
    502000   0.91616451     17.488055      46.186442    
    503000   1.0402448      18.632657      45.98067     
    504000   0.98430554     18.577537      45.731457    
    505000   1.0037559      18.656791      45.533747    
    506000   0.96690117     17.408197      45.33081     
    507000   1.0192324      18.556172      45.191578    
    508000   0.95944654     18.036963      45.478401    
    509000   1.0401212      17.812443      45.343076    
    510000   1.0645917      18.129731      45.026431    
    511000   1.0081898      17.831244      45.084144    
    512000   0.98306593     16.986171      45.213239    
    513000   1.0494886      18.05806       45.039159    
    514000   1.0273714      18.415404      44.816928    
    515000   1.0323779      18.131084      44.673735    
    516000   1.0394818      18.350832      44.43051     
    517000   1.0402452      17.669802      44.573162    
    518000   0.95969318     17.835942      44.434589    
    519000   1.0353907      18.974467      43.950769    
    520000   1.0146105      18.202205      43.597186    
    521000   1.0167263      18.128152      43.16621     
    522000   1.0526453      18.050212      43.280935    
    523000   1.0105857      17.968704      42.941903    
    524000   0.99951268     18.443095      42.92788     
    525000   1.0174807      18.364408      42.66272     
    526000   1.0043211      18.963576      42.718845    
    527000   1.0086318      18.356576      42.606514    
    528000   0.96693946     17.559727      42.581595    
    529000   0.98151778     19.139869      42.05602     
    530000   1.0312694      17.780674      42.055136    
    531000   1.091932       18.132686      42.110641    
    532000   1.0369111      18.551962      41.982873    
    533000   0.96876352     19.143121      42.07462     
    534000   0.96091195     18.022091      41.760114    
    535000   0.97329138     18.125637      41.681935    
    536000   1.0315358      18.121242      41.881122    
    537000   0.96655271     17.518801      41.867457    
    538000   1.0086384      18.118605      41.648578    
    539000   1.0168703      18.2949        41.30984     
    540000   0.97097021     18.050062      40.875508    
    541000   1.0529524      17.465341      40.865047    
    542000   0.98952841     17.998995      40.709457    
    543000   1.0051555      17.825979      40.587909    
    544000   0.97596241     17.635861      40.515517    
    545000   1.0206862      18.125438      40.464691    
    546000   0.99293126     18.109029      40.335388    
    547000   1.0315146      17.613362      40.128246    
    548000   0.98085055     17.159739      39.923305    
    549000   1.0038175      18.768276      39.695081    
    550000   0.98696733     18.228261      39.281557    
    551000   1.0217981      18.773448      39.131983    
    552000   0.98887242     17.825064      39.247196    
    553000   1.0700093      18.009682      39.245513    
    554000   1.0207011      18.080368      39.297935    
    555000   0.93982366     18.062768      39.252919    
    556000   0.96530281     18.313827      39.077564    
    557000   0.95151847     17.784701      39.001746    
    558000   1.0573262      18.469991      38.926552    
    559000   0.94770513     17.427447      38.758665    
    560000   0.95605366     17.641604      38.74881     
    561000   0.9471711      18.410266      38.506578    
    562000   1.0082188      17.90643       38.279617    
    563000   0.97259371     17.556039      38.080865    
    564000   1.031332       18.047498      37.871362    
    565000   0.97571431     17.821234      37.572736    
    566000   0.96545059     17.596319      37.395138    
    567000   1.0080788      17.795545      37.372702    
    568000   0.97560942     18.064973      37.465023    
    569000   1.0048495      17.629679      37.363892    
    570000   0.99003409     17.224172      37.180712    
    571000   1.0810423      18.130306      37.225013    
    572000   1.0944003      18.142445      36.890731    
    573000   1.0507412      18.109275      36.689806    
    574000   0.94217211     18.187911      36.565816    
    575000   0.98569493     18.317021      36.472026    
    576000   1.0674067      18.599485      36.405087    
    577000   0.99953264     16.993948      36.270944    
    578000   1.0338563      18.304349      35.951952    
    579000   0.97186065     18.665335      35.988612    
    580000   0.96267149     17.150142      36.024903    
    581000   0.98300919     18.121108      35.819788    
    582000   1.0584404      17.617551      35.752487    
    583000   0.97946741     17.160217      35.702781    
    584000   1.0234701      17.846115      35.847564    
    585000   0.97050121     17.683603      35.567261    
    586000   1.0130279      18.420855      35.650181    
    587000   1.0493484      18.056939      35.848875    
    588000   0.96345809     16.903285      35.729715    
    589000   1.0159154      18.092689      35.964328    
    590000   0.98415296     17.367391      35.712063    
    591000   1.0792278      18.31249       35.691798    
    592000   1.0160019      18.335957      35.795325    
    593000   0.97109868     18.025564      35.761777    
    594000   0.95425556     17.795346      35.885787    
    595000   1.041825       18.311563      35.858671    
    596000   1.0612689      18.279439      35.56651     
    597000   1.0014079      17.962364      35.299159    
    598000   1.0407873      17.598114      35.402907    
    599000   1.0202706      17.673034      35.690222    
    600000   1.066795       17.769656      35.673837    
    601000   0.9851454      17.313524      35.621156    
    602000   0.94809524     18.07261       35.432244    
    603000   0.99323437     17.845325      35.38684     
    604000   1.0089087      18.401562      35.451343    
    605000   0.93589782     18.375729      35.223242    
    606000   0.9684122      18.112362      35.106035    
    607000   0.958766       17.770828      35.251717    
    608000   1.0234301      17.241738      34.910987    
    609000   1.0724204      18.440321      34.300069    
    610000   0.97603798     17.734142      33.87581     
    611000   1.0130708      18.1389        33.339813    
    612000   1.0598355      16.849471      33.48462     
    613000   1.0764667      17.966977      33.597984    
    614000   0.97785072     17.851554      33.487032    
    615000   1.028386       17.129067      33.098404    
    616000   0.96773611     18.015288      33.054255    
    617000   0.99122055     18.158652      32.943992    
    618000   0.99847636     17.646299      33.040734    
    619000   1.0372775      17.447097      33.014775    
    620000   1.036993       18.322285      32.854617    
    621000   0.97499739     17.95309       32.781663    
    622000   1.0206542      17.481042      32.777766    
    623000   1.0158371      17.872696      32.394444    
    624000   1.0567246      18.664437      32.360689    
    625000   0.97829782     17.831523      32.243163    
    626000   1.07446        18.172139      32.066256    
    627000   1.0063685      18.368018      31.633031    
    628000   1.0002664      18.063839      31.348571    
    629000   1.0318509      17.793476      31.31292     
    630000   1.0248334      18.156741      31.368005    
    631000   1.0663968      18.286019      31.568506    
    632000   1.0084224      18.233559      31.48007     
    633000   0.97008575     18.497766      31.396842    
    634000   1.03922        17.441403      31.199682    
    635000   1.024769       18.494135      31.168591    
    636000   0.97289358     18.133652      31.228431    
    637000   0.99908437     18.684315      31.138857    
    638000   1.0031146      17.932182      31.17019     
    639000   0.95446697     17.598825      31.184131    
    640000   1.0925845      18.080042      31.309967    
    641000   0.9595138      17.804836      31.301478    
    642000   0.9826519      17.99565       31.55451     
    643000   1.0261076      17.85618       31.44362     
    644000   1.0194717      18.257243      31.443066    
    645000   1.0801651      18.78817       31.36196     
    646000   1.04685        18.174651      31.208945    
    647000   1.035955       18.038111      30.822144    
    648000   1.033483       17.287523      30.51874     
    649000   1.0435748      18.071908      30.392618    
    650000   1.0154166      18.240606      30.425807    
    651000   0.95630507     17.981391      30.129292    
    652000   1.0225494      17.719052      29.93047     
    653000   1.0354003      17.790527      29.942296    
    654000   1.0447923      18.693275      29.864163    
    655000   0.97506653     18.153091      30.093065    
    656000   1.0160146      17.72185       30.027886    
    657000   0.99336784     17.987481      29.82898     
    658000   0.9932924      17.85124       29.98842     
    659000   0.93808953     17.321881      30.143879    
    660000   0.97236723     18.375972      29.94611     
    661000   1.0597772      18.15183       30.218283    
    662000   1.0262726      17.822508      29.967678    
    663000   0.9837539      17.761327      29.984042    
    664000   1.0222974      17.753749      30.055087    
    665000   0.92989219     17.776218      29.511847    
    666000   0.97734644     16.822627      29.4038      
    667000   1.0257036      17.527112      29.336799    
    668000   1.039754       18.414137      29.064921    
    669000   0.93512635     17.826046      29.184166    
    670000   0.97863682     17.692347      29.171264    
    671000   0.99193263     17.701634      29.293378    
    672000   0.97438124     18.31256       28.855799    
    673000   0.98101012     18.108274      28.965023    
    674000   0.93237274     17.914871      28.630785    
    675000   0.98208684     17.556563      28.168967    
    676000   0.9767716      17.559691      28.190496    
    677000   0.94422698     17.115755      28.049439    
    678000   1.026177       17.283647      27.860907    
    679000   0.97959893     17.52326       27.682151    
    680000   1.0036282      16.994362      27.652052    
    681000   1.0051858      17.755567      27.555753    
    682000   0.93742876     18.438816      27.328013    
    683000   1.0207921      17.131302      27.109919    
    684000   1.0116318      17.788308      26.967697    
    685000   1.0720856      17.978838      26.478558    
    686000   0.97295955     17.730766      26.615332    
    687000   1.0169237      17.874869      26.542106    
    688000   1.0032619      17.682003      26.474477    
    689000   1.0451492      18.544262      26.268723    
    690000   0.97678162     18.124596      26.031143    
    691000   1.0017553      17.789685      26.008343    
    692000   1.0660643      18.654184      25.611464    
    693000   0.91596357     16.908569      25.509119    
    694000   0.94942272     17.522139      25.542478    
    695000   1.0293561      18.304529      25.558457    
    696000   1.0242179      17.305286      25.789599    
    697000   1.0445096      17.818651      25.602885    
    698000   1.0646578      18.357012      25.290235    
    699000   0.98423001     17.425258      25.024349    
    700000   0.98404616     17.964139      24.842578    
    701000   1.0020439      18.170823      24.930754    
    702000   0.99419262     17.600769      24.845378    
    703000   0.97409548     17.611791      24.627284    
    704000   0.99159298     18.034488      24.503309    
    705000   1.0696405      17.777926      24.615632    
    706000   1.0253698      17.498319      24.688244    
    707000   0.95603483     17.234501      24.454442    
    708000   1.1445441      18.834736      24.247209    
    709000   1.0189076      17.470065      24.286184    
    710000   0.90014446     17.558957      24.1959      
    711000   1.004171       17.601273      23.907477    
    712000   1.0132833      17.475446      24.113002    
    713000   0.96905246     18.019034      24.323048    
    714000   0.99793657     16.966433      24.489085    
    715000   1.0687957      17.677767      24.037154    
    716000   1.0005232      18.081979      24.070647    
    717000   0.9847704      17.236194      23.728439    
    718000   0.99533824     17.189422      23.66528     
    719000   1.0031488      16.882431      23.679349    
    720000   0.97161324     17.027395      23.781065    
    721000   1.0574474      17.959507      23.339041    
    722000   0.95170614     17.614307      23.094895    
    723000   1.0258009      17.196053      22.763295    
    724000   1.0449488      17.689998      22.762727    
    725000   1.0108171      18.344654      22.587084    
    726000   1.0025243      17.292912      22.515819    
    727000   1.0118939      18.196967      22.340727    
    728000   1.0102795      18.25716       22.166743    
    729000   0.98279738     18.931108      21.955763    
    730000   0.97805775     17.462448      21.797156    
    731000   1.0693535      18.208189      21.766584    
    732000   1.0079202      17.783986      20.890757    
    733000   0.96119308     17.256343      20.547729    
    734000   1.0546329      16.976379      20.660221    
    735000   1.037858       18.562697      20.665436    
    736000   0.98531809     17.65435       20.556773    
    737000   1.0105046      17.182885      20.583797    
    738000   0.9985183      17.730206      20.473624    
    739000   0.98350635     18.135535      20.22408     
    740000   1.0373611      17.504577      20.167972    
    741000   1.0866319      18.094628      19.727869    
    742000   1.0012605      17.477914      19.300847    
    743000   1.063623       16.638552      19.010139    
    744000   1.0353089      17.488556      18.697856    
    745000   0.98100866     17.788113      18.373612    
    746000   0.94995179     18.121802      18.076654    
    747000   0.98751342     18.130074      17.971369    
    748000   0.96843765     17.357194      17.997556    
    749000   0.99869045     17.731952      17.839758    
    750000   0.99942571     18.015844      17.652694    
    751000   0.96856397     17.510305      17.33838     
    752000   1.0066356      17.12043       17.02399     
    753000   1.0085289      18.941068      16.816994    
    754000   1.0253047      17.543821      16.553664    
    755000   1.081191       17.593331      16.259361    
    756000   0.9723458      17.410358      16.127594    
    757000   1.0267046      17.446176      15.986138    
    758000   1.0111857      17.608065      15.9113      
    759000   0.98582968     18.406353      16.031442    
    760000   0.9738754      17.672564      16.032811    
    761000   0.98527304     17.057251      15.732174    
    762000   1.0437886      16.791356      15.827363    
    763000   0.98908381     18.016317      15.744981    
    764000   0.97291819     18.119872      15.715247    
    765000   1.0472736      17.933609      15.254242    
    766000   0.98859784     17.910155      15.181789    
    767000   0.99251027     17.534203      15.147325    
    768000   1.0045189      17.687359      15.13477     
    769000   0.9884134      16.888086      15.049354    
    770000   1.0025685      17.838213      14.800375    
    771000   1.0660236      17.131666      14.412656    
    772000   0.98378548     17.466371      14.313548    
    773000   0.98568208     17.396639      14.324246    
    774000   1.0434439      17.47339       14.041009    
    775000   1.0356103      17.762432      14.018147    
    776000   1.023308       17.596017      13.707366    
    777000   1.0307346      16.835066      13.614779    
    778000   0.97928414     18.204974      13.224617    
    779000   0.96450415     17.260669      13.369541    
    780000   0.97826627     17.448285      13.356991    
    781000   0.98229468     17.802356      13.620649    
    782000   0.96793049     18.42845       13.404579    
    783000   0.95080459     17.202083      13.156946    
    784000   1.0412319      18.50579       13.386095    
    785000   0.98548874     17.996694      13.288411    
    786000   0.91339743     17.756197      13.071113    
    787000   1.0180825      17.629195      12.651554    
    788000   1.001666       16.901267      12.718789    
    789000   0.99654168     17.275954      12.818537    
    790000   0.94653732     17.457775      12.671239    
    791000   0.93069256     16.704776      12.038192    
    792000   1.0054387      17.477018      11.868717    
    793000   0.99720501     17.093872      11.196385    
    794000   0.98277683     18.513547      11.035427    
    795000   1.0017548      18.400508      10.718348    
    796000   1.0091237      18.37322       10.6635      
    797000   1.0292095      16.993049      10.505422    
    798000   1.0144766      17.774966      10.723483    
    799000   0.94849497     17.338469      10.856155    
    800000   0.89208571     17.337623      10.697746    
    801000   1.0462989      18.653763      10.644402    
    802000   0.92793459     17.923648      10.777507    
    803000   1.0226408      17.493718      10.701662    
    804000   1.0356978      17.252945      10.373687    
    805000   1.0113266      18.182347      10.183742    
    806000   1.0539041      17.155101      10.002058    
    807000   1.011809       16.988107      9.8150923    
    808000   0.93399502     17.586941      9.5755138    
    809000   1.0575691      17.026424      9.5097771    
    810000   1.0984472      18.270558      9.1876642    
    811000   1.0719912      17.109574      9.0365672    
    812000   0.98810038     17.701259      8.9477509    
    813000   0.99375864     17.548412      8.6790371    
    814000   1.0238438      17.225881      8.757024     
    815000   1.0025876      17.759156      8.7377861    
    816000   1.0213634      18.237752      8.6451151    
    817000   1.0067283      16.986082      8.5458535    
    818000   0.99560999     16.85587       8.616063     
    819000   0.9695369      17.071886      8.8792531    
    820000   0.98506783     17.371082      8.88043      
    821000   1.0157335      17.779472      8.5780077    
    822000   0.99232594     17.327855      8.4105673    
    823000   0.99964552     17.637019      8.1892009    
    824000   1.017844       17.96817       8.3383621    
    825000   1.0379415      17.573078      8.2613249    
    826000   0.99478595     17.42098       8.1245195    
    827000   0.99413405     16.472844      8.0606879    
    828000   0.96171001     17.552955      8.0516042    
    829000   0.95565849     16.576608      7.8971142    
    830000   1.0015595      17.804192      7.9473795    
    831000   0.94705588     16.831019      7.969726     
    832000   0.95684322     17.369917      7.97259      
    833000   1.0311114      17.993059      7.9323819    
    834000   1.0414939      17.322773      8.0787656    
    835000   1.0289201      16.81723       7.6763669    
    836000   1.008344       18.254892      7.7471913    
    837000   0.9845131      17.234912      7.6995512    
    838000   1.0062794      17.562989      7.6037586    
    839000   0.98890031     17.216207      7.347843     
    840000   1.0358612      17.97712       7.1342136    
    841000   1.0153694      17.85503       7.0627595    
Fix halt condition for fix-id 3 met on step 842000 with value 6.695367397642336 (src/fix_halt.cpp:237)
    842000   1.0298284      16.966568      6.6953674    
Loop time of 1643.41 on 2 procs for 742000 steps with 500 atoms

Performance: 390096.520 tau/day, 451.501 timesteps/s
107.8% CPU use with 1 MPI tasks x 2 OpenMP threads

MPI task timing breakdown:
Section |  min time  |  avg time  |  max time  |%varavg| %total
---------------------------------------------------------------
Pair    | 81.959     | 81.959     | 81.959     |   0.0 |  4.99
Bond    | 11.947     | 11.947     | 11.947     |   0.0 |  0.73
Neigh   | 1524       | 1524       | 1524       |   0.0 | 92.73
Comm    | 0.3042     | 0.3042     | 0.3042     |   0.0 |  0.02
Output  | 1.6561     | 1.6561     | 1.6561     |   0.0 |  0.10
Modify  | 21.383     | 21.383     | 21.383     |   0.0 |  1.30
Other   |            | 2.176      |            |       |  0.13

Nlocal:            500 ave         500 max         500 min
Histogram: 1 0 0 0 0 0 0 0 0 0
Nghost:              0 ave           0 max           0 min
Histogram: 1 0 0 0 0 0 0 0 0 0
Neighs:          59792 ave       59792 max       59792 min
Histogram: 1 0 0 0 0 0 0 0 0 0

Total # of neighbors = 59792
Ave neighs/atom = 119.584
Ave special neighs/atom = 1.996
Neighbor list builds = 6604
Dangerous builds = 0

# This simulation is done
# Move onto the next one
clear
  using 2 OpenMP thread(s) per MPI task
package omp 0
using multi-threaded neighbor list subroutines
next f
jump SELF

###
# Reference paper:
# K. Kremer and G. S. Grest
# Dynamics of entangled linear polymer melts: A molecular-dynamics simulation
# J Chem Phys 92, 5057 (1990)

##################################
# MIHIR: for branched polymers
# LJ minimum first to expand and explore, then collapse
###

###
# Looping through the various linear polymers to simulate,
# define variables to switch through
variable f index bb100nuc0bl0bn0d30tot100 bb200nuc0bl0bn0d30tot200 bb300nuc0bl0bn0d30tot300 bb400nuc0bl0bn0d30tot400 bb500nuc0bl0bn0d30tot500 bb600nuc0bl0bn0d30tot600 bb700nuc0bl0bn0d30tot700 bb800nuc0bl0bn0d30tot800 bb900nuc0bl0bn0d30tot900 bb1000nuc0bl0bn0d30tot1000 bb1100nuc0bl0bn0d30tot1100 bb1200nuc0bl0bn0d30tot1200
###


###
# Box and units  (use LJ units and periodic boundaries)
###

units lj
log linear/logs3/$f.log
log linear/logs3/bb600nuc0bl0bn0d30tot600.log
