#atom_style bond #no stiffness
atom_style angle #with stiffness

boundary        p p p
###
# Pair interactions require lists of neighbours to be calculated
###

#neighbor 0.3 bin
neighbor 4 bin

neigh_modify every 1 delay 1 check yes
atom_modify sort 0 0
### Generate RESTART file, SPECIAL format, not a .txt file ###
### Useful if simulation crashes ###

restart 1000000 linear/restarts3/$f.restart
restart 1000000 linear/restarts3/bb600nuc0bl0bn0d30tot600.restart
#############################



### READ "start" data file ###

read_data linear/$f.dat
read_data linear/bb600nuc0bl0bn0d30tot600.dat
Reading data file ...
  orthogonal box = (-1000 -1000 -1000) to (1000 1000 1000)
  1 by 1 by 1 MPI processor grid
  reading atoms ...
  600 atoms
  scanning bonds ...
  1 = max bonds/atom
  scanning angles ...
  1 = max angles/atom
  reading bonds ...
  599 bonds
  reading angles ...
  598 angles
Finding 1-2 1-3 1-4 neighbors ...
  special bond factors lj:    0        0        0       
  special bond factors coul:  0        0        0       
     2 = max # of 1-2 neighbors
     2 = max # of 1-3 neighbors
     4 = max # of 1-4 neighbors
     6 = max # of special neighbors
  special bonds CPU = 0.001 seconds
  read_data CPU = 0.104 seconds

######################

### READ "REstart" data file ###

######################



###
# Define groups (atom type 1 is group 'all')
###
group all type 1
600 atoms in group all


###
# Dump configs - "simple dumpings"
###

###
# Dump configs + box coords
###

dump   1   all   custom   1000  linear/trjs3/$f.lammpstrj  id  x y z  ix iy iz
dump   1   all   custom   1000  linear/trjs3/bb600nuc0bl0bn0d30tot600.lammpstrj  id  x y z  ix iy iz
dump_modify   1   format line "%d %.5f %.5f %.5f %d %d %d"

########################################################################


###################################################################
# Stiffness term
#
# E = K * (1+cos(theta)), K>0
#
angle_style   cosine
#change this coefficient to change stiffness (e.g. 1,5,10)
angle_coeff   1 1.0
###################################################################

###################################################################
# Pair interaction between non-bonded atoms
#
#  Lennard-Jones 12-6 potential with cutoff:
#  potential E=4epsilon[ (sigma/r)^12 - (sigma/r)^6]  for r<r_cut
#
#  1.12246 = 2^(1/6) is the minimum of the potential


pair_style      lj/cut 1.12246152962189
#pair_style      lj/cut 3

#
#  pair_modify shift yes adds a constant to the potential such

#  that E(r_cut)=0. Forces remains unchanged.
#

pair_modify     shift yes

#
#  pair_coeff for lj/cut, specify 4:
#    * atom type interacting with
#    * atom type
#    * epsilon (energy units)
#    * sigma (distance units)
#

pair_coeff      1 1 1.0 1.0
###################################################################

###################################################################
# Pair interaction between non-bonded atoms
#
#  soft potential, for PUSHING apart overlapping atoms
#  potential E=A*(1 + cos(pi*r/r_c))
#
#  1.12246 = 2^(1/6) is the cut-off r_c

#pair_style     soft 1.12246152962189

#
#  pair_coeff for soft, specify 3:
#    * atom type interacting with
#    * atom type
#    * A
#
#

#pair_coeff      1 1 100.0
###################################################################

###################################################################
# Pair interaction between bonded atoms
#
# Fene potential + Lennard Jones 12-6:

#
#  E= - 0.5 K R0^2 ln[ 1- (r/R0)^2]
#     + 4epsilon[ (sigma/r)^12 - (sigma/r)^6] + epsilon
#

bond_style   fene


#
# For style fene, specify:
#   * bond type
#   * K (energy/distance^2)
#   * R0 (distance)
#   * epsilon (energy)  (LJ component)
#   * sigma (distance)  (LJ component)
#


special_bonds fene #<=== I M P O R T A N T (new command)
Finding 1-2 1-3 1-4 neighbors ...
  special bond factors lj:    0        1        1       
  special bond factors coul:  0        1        1       
     2 = max # of 1-2 neighbors
     6 = max # of special neighbors
  special bonds CPU = 0.000 seconds

bond_coeff   1   30   2   1.0   1.0


###################################################

###################################################################
# Pair interaction between bonded atoms
#
# Harmonic potential:
#
#  E= K * (R-R0)^2
#

#bond_style   harmonic

#
# For style harmonic, specify:
#   * bond type
#   * K (energy/distance^2)
#   * R0 (distance)
#

#bond_coeff   1   60.0   1.0
#bond_coeff   2   harmonic 0.1   1.0

###################################################
compute 1 all gyration
variable rog equal c_1
#compute 2 all coord/atom cutoff 1.1

#dump 2 all custom 10000 contact_number.dump id c_2


###
# Set up fixes
###
thermo_style   custom   step  temp enthalpy c_1
fix 1 all nve   ###NVE ensemble

fix 2 all   langevin   1.0 1.0 1.0  158102   ###Langevin integrator Tstart Tstop 1/friction rndseed


##### Sample thermodynamic info  (temperature, energy, pressure, etc.) #####
thermo 1000









############################################################################

###
# set timestep of integrator

timestep 0.01

###
# run integration for a number of steps
###
#run 0
#variable r equal c_1
#if "$r < 63.1" then "quit 1"

# lj potential minimum, cause molecule to explore
run 100000
Generated 0 of 0 mixed pair_coeff terms from geometric mixing rule
Last active /omp style is angle_style cosine/omp
Neighbor list info ...
  update: every = 1 steps, delay = 1 steps, check = yes
  max neighbors/atom: 2000, page size: 100000
  master list distance cutoff = 5.1224615
  ghost atom cutoff = 5.1224615
  binsize = 2.5612308, bins = 781 781 781
  1 neighbor lists, perpetual/occasional/extra = 1 0 0
  (1) pair lj/cut/omp, perpetual
      attributes: half, newton on, omp
      pair build: half/bin/newton/omp
      stencil: half/bin/3d
      bin: standard
WARNING: Communication cutoff 5.12246152962189 is shorter than a bond length based estimate of 5.455. This may lead to errors. (src/comm.cpp:723)
Per MPI rank memory allocation (min/avg/max) = 1860 | 1860 | 1860 Mbytes
   Step          Temp         Enthalpy         c_1      
         0   0              13.403768      150.00039    
      1000   1.008161       19.001533      149.89007    
      2000   1.0354883      19.115572      149.75083    
      3000   0.99877172     18.803798      149.46138    
      4000   0.94313753     18.541226      149.46155    
      5000   0.99203828     19.202115      149.3296     
      6000   0.94236343     18.490298      148.71214    
      7000   0.94599449     18.540533      148.34486    
      8000   0.96174759     18.897162      147.96866    
      9000   1.0486363      18.571652      147.80657    
     10000   0.99803295     18.719742      147.27515    
     11000   0.98179923     18.856708      146.98256    
     12000   1.0088262      18.788218      146.78877    
     13000   1.0258871      18.437755      146.60716    
     14000   1.0353946      19.314977      146.40236    
     15000   0.98453257     19.430411      146.14366    
     16000   0.97938885     19.129977      145.93163    
     17000   1.0251161      19.39766       145.66538    
     18000   1.0009652      19.464422      145.38019    
     19000   0.9842095      19.245563      145.39247    
     20000   0.96950109     18.606473      145.46283    
     21000   0.96804221     18.773185      145.54265    
     22000   1.029968       19.063409      145.03506    
     23000   0.95667252     19.400574      144.59713    
     24000   0.9585336      18.668563      144.36389    
     25000   1.004897       18.956235      143.98636    
     26000   0.93251262     18.997302      143.5348     
     27000   0.97231899     19.428599      143.26353    
     28000   0.98127079     19.862313      143.03219    
     29000   0.96178948     19.253819      142.57664    
     30000   1.0501093      19.443112      142.53392    
     31000   0.98838282     19.53987       142.1688     
     32000   0.97178131     19.324124      142.01018    
     33000   1.0274757      19.102577      141.87138    
     34000   1.0083912      19.624292      141.67722    
     35000   0.97929067     20.080186      141.39386    
     36000   0.98814633     19.136337      140.88312    
     37000   1.0066683      19.825597      140.55832    
     38000   1.0285923      19.009092      140.60553    
     39000   1.0317295      19.249305      140.27769    
     40000   1.0525204      19.215587      139.96594    
     41000   1.0042058      19.669571      139.90071    
     42000   1.0005085      19.824532      139.66201    
     43000   0.96555547     19.371441      139.63983    
     44000   0.95083966     19.211527      139.2364     
     45000   0.94725557     19.205356      139.26473    
     46000   1.0146147      19.236554      139.24392    
     47000   1.0168576      19.058539      139.02729    
     48000   1.0113284      19.61202       138.90666    
     49000   0.9974745      19.629536      138.65832    
     50000   1.0451023      19.703779      138.52059    
     51000   1.0540206      19.200304      138.22803    
     52000   0.99907019     19.316049      138.19654    
     53000   0.94693128     20.012299      138.05765    
     54000   1.0086793      19.48163       137.72261    
     55000   1.0383244      19.661143      137.52697    
     56000   1.0034676      19.723935      137.63818    
     57000   0.9836408      19.02838       137.44038    
     58000   1.0370727      19.484362      137.13296    
     59000   1.0376243      20.163651      137.03027    
     60000   0.99511731     18.976489      136.85964    
     61000   1.0011647      20.022324      136.89648    
     62000   1.0336468      19.18247       136.74667    
     63000   0.97763583     19.603369      136.5461     
     64000   1.0045022      20.121827      136.48093    
     65000   0.9604874      19.694025      136.18192    
     66000   1.016032       19.86343       136.26064    
     67000   1.0079489      19.880487      136.10236    
     68000   1.0143544      19.16018       136.01794    
     69000   1.006536       19.627201      135.90711    
     70000   0.98661412     19.95414       135.80625    
     71000   1.0750903      20.470368      135.3278     
     72000   1.0327483      19.803729      135.28438    
     73000   1.0557568      19.784218      134.98192    
     74000   0.97268668     19.83029       135.01857    
     75000   1.0398312      19.951058      134.95758    
     76000   1.0361932      20.027993      135.16764    
     77000   0.96420412     19.720178      134.88594    
     78000   1.0367927      19.30025       134.45708    
     79000   1.0076642      20.109608      134.32839    
     80000   0.92455296     19.844594      134.24684    
     81000   0.97197089     19.900701      133.93805    
     82000   1.0485386      20.450332      133.94732    
     83000   0.9853377      19.760904      134.05802    
     84000   0.95746408     19.328747      133.69098    
     85000   0.95702527     19.590495      133.68119    
     86000   1.0232062      19.920287      133.53399    
     87000   1.0565732      19.452219      133.31057    
     88000   0.98396547     18.936715      133.16611    
     89000   1.0188552      20.158908      132.92486    
     90000   0.99507186     19.950119      132.58304    
     91000   0.99708699     19.576308      132.51897    
     92000   1.0056942      20.036407      132.23294    
     93000   0.98218046     20.698488      131.98196    
     94000   1.0503559      19.669547      131.36019    
     95000   1.0157662      19.226981      130.94411    
     96000   1.0234467      20.094374      130.66194    
     97000   1.0598195      19.944745      130.62257    
     98000   0.96794527     20.026144      130.6258     
     99000   0.97095048     20.245611      130.65559    
    100000   1.0029257      19.276356      130.51686    
Loop time of 599.018 on 2 procs for 100000 steps with 600 atoms

Performance: 144236.146 tau/day, 166.940 timesteps/s
101.3% CPU use with 1 MPI tasks x 2 OpenMP threads

MPI task timing breakdown:
Section |  min time  |  avg time  |  max time  |%varavg| %total
---------------------------------------------------------------
Pair    | 0.77878    | 0.77878    | 0.77878    |   0.0 |  0.13
Bond    | 1.7068     | 1.7068     | 1.7068     |   0.0 |  0.28
Neigh   | 592.68     | 592.68     | 592.68     |   0.0 | 98.94
Comm    | 0.037043   | 0.037043   | 0.037043   |   0.0 |  0.01
Output  | 0.24064    | 0.24064    | 0.24064    |   0.0 |  0.04
Modify  | 3.2716     | 3.2716     | 3.2716     |   0.0 |  0.55
Other   |            | 0.3068     |            |       |  0.05

Nlocal:            600 ave         600 max         600 min
Histogram: 1 0 0 0 0 0 0 0 0 0
Nghost:              0 ave           0 max           0 min
Histogram: 1 0 0 0 0 0 0 0 0 0
Neighs:           3156 ave        3156 max        3156 min
Histogram: 1 0 0 0 0 0 0 0 0 0

Total # of neighbors = 3156
Ave neighs/atom = 5.26
Ave special neighs/atom = 1.9966667
Neighbor list builds = 1030
Dangerous builds = 0

# Replace lj potential, now collapse
pair_style      lj/cut 3

# Cutoff simul when gyration under 5
# Variable created with equal requires v_ + 'name'
fix 3 all halt 1000 v_rog < 7

run 5000000
Generated 0 of 0 mixed pair_coeff terms from geometric mixing rule
Last active /omp style is angle_style cosine/omp
Per MPI rank memory allocation (min/avg/max) = 1860 | 1860 | 1860 Mbytes
   Step          Temp         Enthalpy         c_1      
    100000   1.0029257      18.772872      130.51686    
    101000   0.9751641      19.33656       130.15576    
    102000   0.97428538     18.722824      129.9097     
    103000   0.99764482     19.4297        129.85129    
    104000   1.0126537      19.575403      129.44791    
    105000   1.0419384      20.093119      129.36519    
    106000   0.98844337     19.678664      129.17619    
    107000   0.94971674     18.872776      129.02611    
    108000   0.96076621     19.085024      128.94522    
    109000   0.95694216     18.96899       128.76519    
    110000   1.0197353      19.382412      128.54339    
    111000   1.0823304      20.0629        128.54197    
    112000   0.92268454     18.628438      128.38427    
    113000   1.0779024      19.40607       128.12484    
    114000   0.97838368     19.542104      127.77763    
    115000   1.0076599      20.055129      127.82677    
    116000   1.0113707      19.653905      127.79569    
    117000   0.95834218     19.131138      127.63335    
    118000   1.0066796      20.004137      127.48892    
    119000   0.96686453     19.07263       127.4399     
    120000   0.97876753     18.955862      126.9485     
    121000   0.9580396      19.887089      126.86543    
    122000   1.0225616      19.490257      126.45306    
    123000   1.0150581      19.839429      126.40573    
    124000   1.0027462      18.716926      126.38882    
    125000   0.97873553     19.143756      126.15049    
    126000   1.0270039      19.603787      125.52055    
    127000   1.023879       19.835023      125.14476    
    128000   1.0184381      19.408468      124.94723    
    129000   1.0214679      20.161914      124.88944    
    130000   0.99610712     19.491474      124.91375    
    131000   1.0561379      19.888314      124.41936    
    132000   0.98689724     19.395324      124.22362    
    133000   1.0178818      19.116167      123.97382    
    134000   0.94212956     19.161487      124.05633    
    135000   1.0056001      19.089048      123.68644    
    136000   1.0246411      19.128396      123.61292    
    137000   1.0275067      19.485743      123.32077    
    138000   0.97674952     19.306557      123.24806    
    139000   1.0593451      18.694005      123.11345    
    140000   1.0365699      19.870786      122.85241    
    141000   1.0142476      19.177747      122.93846    
    142000   0.99822131     19.137457      122.86093    
    143000   0.97258589     20.121118      122.34395    
    144000   0.96490715     19.409082      122.22425    
    145000   0.9587748      19.0781        122.25694    
    146000   1.0169895      19.089382      122.10891    
    147000   0.99341328     19.993468      122.144      
    148000   1.0189626      19.292762      122.12719    
    149000   1.0098097      19.264791      121.79776    
    150000   0.98446512     19.408691      121.7815     
    151000   0.93502007     19.081382      121.89214    
    152000   0.99500999     19.168555      121.58552    
    153000   0.96206166     18.992795      121.55966    
    154000   1.0046563      19.595675      121.35472    
    155000   1.0510683      19.191111      121.30584    
    156000   0.99781704     19.664953      120.97652    
    157000   1.0078322      19.573946      120.84706    
    158000   0.95912756     19.381972      120.84902    
    159000   0.98496055     18.921198      120.59221    
    160000   1.0106398      19.367262      120.26689    
    161000   1.0038401      19.219787      120.20625    
    162000   0.96742794     19.446727      120.00931    
    163000   0.96523943     19.290697      119.75754    
    164000   0.98258636     18.717181      119.76199    
    165000   0.99151573     19.135251      119.76358    
    166000   1.0361988      18.950978      119.63237    
    167000   1.0172991      19.213171      119.45653    
    168000   1.0779826      19.61525       119.59338    
    169000   0.98370623     19.600117      119.60389    
    170000   0.94318321     19.123185      119.40172    
    171000   1.0045887      19.657114      118.94969    
    172000   0.98431209     18.887877      118.93741    
    173000   1.0250939      18.993095      118.59339    
    174000   0.9928216      18.789789      118.30856    
    175000   1.0204968      19.175151      117.88725    
    176000   0.9811584      19.02204       117.79883    
    177000   1.0194825      19.06942       117.70972    
    178000   0.9921721      19.502797      117.554      
    179000   1.0697037      18.991807      117.6805     
    180000   0.97546345     18.761246      117.49782    
    181000   0.96493656     19.225233      117.35075    
    182000   0.94825081     19.257812      117.22422    
    183000   1.0102511      19.055747      117.27747    
    184000   1.0509         19.077135      117.18406    
    185000   1.0018714      18.768759      116.86739    
    186000   0.99901212     18.559711      116.81791    
    187000   1.0055451      18.675317      116.70649    
    188000   0.99152136     19.220285      116.62261    
    189000   1.0471061      18.8836        116.70996    
    190000   0.96083311     19.781036      116.86799    
    191000   1.0256356      18.928841      116.32478    
    192000   0.97973323     18.868116      116.4091     
    193000   1.0219357      19.103467      116.28407    
    194000   1.0180115      19.482574      116.2858     
    195000   0.95845371     18.923513      115.92475    
    196000   0.95057058     19.216429      115.59355    
    197000   1.0309904      18.577163      115.07374    
    198000   0.99284501     19.458714      114.61253    
    199000   1.0141586      18.7067        114.73052    
    200000   1.0545688      19.479942      114.65079    
    201000   1.0133185      19.13777       114.70526    
    202000   1.0322408      19.60512       114.38482    
    203000   1.0219226      18.713148      114.25018    
    204000   0.95598172     18.163729      114.23806    
    205000   1.0867317      19.564269      114.36054    
    206000   0.98247789     19.10219       114.56691    
    207000   0.9938857      19.235099      114.62139    
    208000   1.0597899      19.260762      114.70938    
    209000   1.0183826      18.820709      114.52288    
    210000   0.97026803     18.072071      114.55987    
    211000   0.97352873     18.377458      114.1314     
    212000   1.0307923      19.191273      113.90282    
    213000   1.02747        18.637371      113.65229    
    214000   0.96577714     18.482123      113.59167    
    215000   1.0075095      19.573107      113.18629    
    216000   0.99670834     18.498762      113.21017    
    217000   0.99658059     18.294934      113.29706    
    218000   0.92263095     18.828196      112.88243    
    219000   0.97195077     18.908759      112.81366    
    220000   1.0247954      19.418941      112.74583    
    221000   0.9935112      19.40308       112.96063    
    222000   1.0202598      18.605879      112.75214    
    223000   0.96496483     19.346364      112.44213    
    224000   0.98844289     18.938341      112.50442    
    225000   0.9912007      19.079661      112.7599     
    226000   0.99024802     19.168417      112.71744    
    227000   0.98916887     18.716169      112.69544    
    228000   1.0258485      18.642661      112.3717     
    229000   1.0067112      19.045036      112.15231    
    230000   0.99213786     19.342798      111.87505    
    231000   1.0004367      19.566166      111.68231    
    232000   1.0270265      19.4543        111.61698    
    233000   0.96731044     18.579727      111.63772    
    234000   0.97728351     18.958389      111.49359    
    235000   0.95556438     18.882589      111.4127     
    236000   0.95651239     19.155067      110.8609     
    237000   0.95982674     19.25234       110.66623    
    238000   0.9763851      19.157363      110.55911    
    239000   0.96392119     18.807795      110.29099    
    240000   1.0127145      19.342614      110.18826    
    241000   1.005913       18.561047      110.38246    
    242000   1.0360061      19.521057      110.10994    
    243000   0.93257354     19.007376      109.90481    
    244000   1.0152044      19.4189        109.50301    
    245000   0.96646029     18.531522      109.30355    
    246000   0.96027955     19.052672      109.06161    
    247000   1.0543774      19.288447      109.08816    
    248000   1.0141914      18.817899      109.14375    
    249000   0.9615164      19.140476      109.05259    
    250000   0.94982539     18.735034      109.078      
    251000   0.99311089     18.965721      108.75915    
    252000   0.98526328     19.040347      108.98543    
    253000   1.0172416      18.631775      108.87311    
    254000   0.99232279     19.029514      108.64806    
    255000   0.97387228     19.208327      108.32544    
    256000   0.97231378     18.504567      107.94618    
    257000   1.0255543      18.957078      107.67052    
    258000   1.0442716      19.634428      107.56284    
    259000   1.0002941      19.37913       107.28218    
    260000   1.0595637      19.411761      107.08325    
    261000   1.0184892      19.177069      106.84975    
    262000   1.0255864      19.3133        106.80775    
    263000   0.97938847     19.363201      106.59361    
    264000   1.0468364      18.432413      106.51565    
    265000   1.0323001      19.266737      106.56421    
    266000   0.98547392     18.548475      106.41941    
    267000   1.000508       18.866672      106.46204    
    268000   1.0494539      19.466006      106.42528    
    269000   1.0464664      19.485984      106.20473    
    270000   0.98908451     18.42421       105.83394    
    271000   1.0000158      19.588597      105.8632     
    272000   1.0571516      18.951193      105.85361    
    273000   0.95491537     19.142286      105.62304    
    274000   1.0266869      18.642263      105.40666    
    275000   1.0281689      19.076735      105.22061    
    276000   0.94044248     18.182009      105.05749    
    277000   0.99489929     18.663339      104.71423    
    278000   1.0184312      18.416793      104.76869    
    279000   0.99386864     18.782852      104.65056    
    280000   1.0459932      19.689268      104.3024     
    281000   0.99352058     19.300294      103.98295    
    282000   0.95299513     18.49882       103.89712    
    283000   1.0043776      19.185818      103.58615    
    284000   1.0300112      19.515667      103.34183    
    285000   0.96804173     19.290305      103.30099    
    286000   0.96573793     18.952036      103.36441    
    287000   1.0420421      19.012755      102.85137    
    288000   1.0921208      18.771773      102.58849    
    289000   0.97736606     18.767851      102.55083    
    290000   0.99562828     18.678873      102.49208    
    291000   0.99356039     18.852075      102.52567    
    292000   1.0459017      19.126424      102.26577    
    293000   0.94819252     18.148245      102.35091    
    294000   1.027567       18.45355       102.4551     
    295000   0.95844142     18.854571      102.16738    
    296000   1.0385671      19.097467      102.05028    
    297000   1.0093219      18.511913      101.82743    
    298000   1.0039665      18.929013      101.37833    
    299000   1.001116       19.24563       101.18688    
    300000   1.0189677      19.029469      100.98206    
    301000   1.0482971      18.968041      100.97017    
    302000   0.98716194     19.274833      100.91558    
    303000   1.0087722      18.349053      100.82205    
    304000   0.99550216     18.763715      100.69506    
    305000   1.079102       19.024603      100.67609    
    306000   1.0028195      18.467749      100.75231    
    307000   1.0209433      18.373195      100.79847    
    308000   1.0360428      18.497059      100.95563    
    309000   0.95728505     18.891444      100.62055    
    310000   1.0683953      19.099264      100.74418    
    311000   1.0145577      19.406343      100.84703    
    312000   1.0483889      18.634614      100.86871    
    313000   0.91410614     17.917302      100.43062    
    314000   0.98485549     18.037055      100.32773    
    315000   1.0265421      19.630438      100.14842    
    316000   0.96838145     18.699806      100.07136    
    317000   1.0091183      18.638982      99.880235    
    318000   0.98584531     19.311444      99.632819    
    319000   1.0276597      19.017812      99.846759    
    320000   0.94145949     18.660055      99.749341    
    321000   1.0063248      18.574975      99.758956    
    322000   1.0436051      18.756618      99.669351    
    323000   0.99186796     18.134214      99.461599    
    324000   1.0164495      18.920568      99.267912    
    325000   0.97113912     18.903625      99.00582     
    326000   0.98289181     18.814537      98.995469    
    327000   0.97471101     18.283265      98.595933    
    328000   1.0233153      18.891147      98.587804    
    329000   0.93615221     18.653213      98.263306    
    330000   0.99525281     19.014658      98.261711    
    331000   1.0720792      18.61536       98.315522    
    332000   0.97991556     18.312035      98.360363    
    333000   1.0253244      18.599598      98.14222     
    334000   1.0211019      18.865636      98.169347    
    335000   1.0248109      18.513144      98.241741    
    336000   0.987794       18.868753      97.808407    
    337000   1.0432477      18.305978      97.599776    
    338000   0.98745077     18.857942      97.054658    
    339000   1.0263558      19.168828      97.007676    
    340000   1.0280672      19.128467      96.865146    
    341000   1.0093905      18.663751      96.787472    
    342000   1.0011619      19.264773      97.068868    
    343000   1.0386323      18.313488      96.929117    
    344000   1.0290757      18.681065      96.920865    
    345000   0.97065406     18.460168      96.931423    
    346000   0.97816288     18.336335      97.149706    
    347000   1.0327927      18.568659      97.111707    
    348000   1.0479391      18.619774      97.09722     
    349000   1.0031966      18.735256      96.823063    
    350000   1.0558266      19.339556      96.652165    
    351000   0.90848612     18.453416      96.408789    
    352000   1.062298       18.904082      96.230405    
    353000   1.0028446      18.198065      96.400882    
    354000   1.0418662      19.218086      96.421378    
    355000   0.9888055      18.644055      96.126518    
    356000   1.001725       19.100579      95.932226    
    357000   0.97705198     18.324039      96.135869    
    358000   1.0078519      18.091916      96.329411    
    359000   0.97950572     18.619365      96.076945    
    360000   1.0181385      18.107314      95.864683    
    361000   1.0202965      18.572545      95.833697    
    362000   0.955837       18.602828      96.14904     
    363000   0.9223889      17.776529      96.399505    
    364000   1.0403646      18.75911       96.064926    
    365000   1.00742        18.475672      95.865642    
    366000   1.0044611      19.231634      95.581303    
    367000   1.0396476      18.880416      95.549093    
    368000   1.0692461      18.762232      95.599761    
    369000   0.97107744     18.24356       95.565001    
    370000   1.0294672      18.647934      95.202418    
    371000   0.95719027     18.836786      95.250202    
    372000   1.0239437      18.607885      95.353795    
    373000   0.98499695     18.972293      94.93373     
    374000   0.98823152     18.894557      94.49761     
    375000   1.017929       18.909086      94.031919    
    376000   0.96648881     18.267709      93.64235     
    377000   1.0312084      18.931499      93.778213    
    378000   0.99182887     18.579658      93.511722    
    379000   0.97753295     18.827649      93.49703     
    380000   0.96648395     18.28952       93.350702    
    381000   1.0377446      18.892242      92.95787     
    382000   0.98456474     18.230538      92.488621    
    383000   0.97408861     18.995146      92.399293    
    384000   1.0145981      19.427901      92.266161    
    385000   0.99829114     18.920515      91.981057    
    386000   0.96634897     19.327301      91.813906    
    387000   0.99989907     18.392862      91.921389    
    388000   0.96098643     18.56459       91.809517    
    389000   1.0622561      19.051972      91.578938    
    390000   1.0002841      18.776565      91.398534    
    391000   1.0413667      18.41653       91.333784    
    392000   0.99786616     18.31428       91.137661    
    393000   1.0065453      18.884927      91.009404    
    394000   1.0251309      19.629762      91.06168     
    395000   0.97243279     18.193508      91.028265    
    396000   0.94568682     18.856795      90.845131    
    397000   0.98594327     18.925081      90.770636    
    398000   0.98243554     18.129112      90.349148    
    399000   0.99013487     18.51574       90.302361    
    400000   1.0503985      18.765762      90.121534    
    401000   1.0035753      18.780128      89.884707    
    402000   0.93498522     18.749835      89.870534    
    403000   1.073228       18.487176      89.893236    
    404000   0.93939277     18.851006      89.956816    
    405000   0.99646511     19.132415      89.627692    
    406000   0.98469514     19.109768      89.526653    
    407000   1.019744       19.087575      89.588066    
    408000   0.9827784      17.890996      89.330005    
    409000   1.0148423      18.391544      89.081738    
    410000   0.98553963     19.107945      88.971191    
    411000   0.98866605     18.727841      88.938354    
    412000   1.0227021      18.707994      88.845469    
    413000   0.94735874     18.119658      88.66393     
    414000   1.0044321      18.833953      88.485037    
    415000   1.0502495      18.542849      88.107123    
    416000   1.0343539      19.148417      87.857483    
    417000   0.96485481     18.382982      87.682828    
    418000   1.0328988      18.496863      87.473282    
    419000   0.98240713     17.879669      87.257834    
    420000   0.93531954     18.362175      87.093983    
    421000   0.96700562     18.74775       87.047216    
    422000   0.9979028      18.918341      86.944546    
    423000   1.0755321      18.828316      86.514387    
    424000   1.0170977      18.607972      86.335971    
    425000   0.97280424     18.48652       86.247716    
    426000   0.99512217     18.082219      86.075401    
    427000   1.0345377      18.298623      86.019215    
    428000   1.0384646      17.843922      86.234008    
    429000   1.0305801      19.009333      86.025435    
    430000   1.068952       18.155649      85.810911    
    431000   1.0489257      17.983915      85.859585    
    432000   0.95920489     18.256985      85.942629    
    433000   1.091742       18.753622      85.624015    
    434000   1.0333519      17.828925      85.581912    
    435000   0.99301024     18.234073      85.16472     
    436000   1.0157865      17.844929      85.000585    
    437000   0.91460374     18.286379      85.008962    
    438000   0.9851456      18.227345      84.747737    
    439000   1.0350821      19.139773      84.880769    
    440000   0.98210194     18.251603      85.053274    
    441000   0.98128399     18.596693      84.573708    
    442000   0.97940347     18.322198      84.788554    
    443000   0.99428887     18.516786      84.718513    
    444000   0.95903895     18.518831      84.8493      
    445000   0.97945472     18.378134      84.805309    
    446000   0.97879868     18.396443      84.876019    
    447000   0.99936129     19.134224      84.727314    
    448000   1.0161265      18.37808       84.399235    
    449000   0.96634906     18.861918      84.252657    
    450000   0.98668873     18.327264      84.204629    
    451000   0.98874931     18.246769      84.31232     
    452000   0.96514206     17.956449      84.123411    
    453000   0.98892803     18.202711      84.123006    
    454000   1.0190039      18.926201      84.174879    
    455000   0.99774631     19.114134      84.456979    
    456000   1.0517546      19.041456      84.34233     
    457000   1.0459723      18.688311      84.146838    
    458000   1.0323199      18.346261      84.236677    
    459000   1.0419466      18.608889      84.257456    
    460000   0.96778448     18.381477      83.829925    
    461000   0.94119123     18.307787      83.846779    
    462000   0.99304886     18.337543      83.905437    
    463000   1.0231724      18.782811      83.695067    
    464000   0.97201153     18.60863       83.246311    
    465000   1.0234972      18.210625      83.011521    
    466000   1.0157388      18.531488      82.712251    
    467000   1.0256895      18.226551      82.496882    
    468000   1.0056026      18.061747      82.09548     
    469000   1.0049131      17.834015      82.00725     
    470000   0.96941396     17.944923      81.394007    
    471000   1.0122983      17.866418      81.018773    
    472000   1.0162639      18.565336      81.053632    
    473000   1.0058651      18.472879      80.797502    
    474000   1.0988751      18.908635      80.512397    
    475000   1.0182957      17.756075      80.436694    
    476000   0.994396       18.095676      80.411493    
    477000   0.95934061     17.880555      80.402718    
    478000   0.95603299     18.502739      80.167731    
    479000   1.0062036      18.432465      80.021112    
    480000   1.0281959      18.667154      79.94716     
    481000   0.95947964     18.566709      79.873456    
    482000   0.97754344     17.810275      79.548908    
    483000   1.0389927      18.171186      79.428426    
    484000   1.0170396      18.151671      79.518103    
    485000   0.97576391     18.289381      79.144037    
    486000   0.9505468      17.80364       79.14019     
    487000   1.0531438      18.136103      78.874103    
    488000   1.0002126      18.515221      78.840125    
    489000   1.065402       18.609705      78.835786    
    490000   0.95990408     18.627867      78.439113    
    491000   1.0573084      18.468878      78.323185    
    492000   0.99827013     18.157746      78.362796    
    493000   0.93357035     18.102098      78.386132    
    494000   1.0327562      18.026552      78.072726    
    495000   0.95774493     18.214545      77.992377    
    496000   1.0439808      18.327804      77.563556    
    497000   0.97570231     18.867364      77.234166    
    498000   0.98127743     18.239686      77.367125    
    499000   0.98933221     18.570101      77.297252    
    500000   0.97923691     17.890071      77.166613    
    501000   0.9937975      18.272794      77.098132    
    502000   0.99254988     18.677906      76.96769     
    503000   1.0336835      18.51947       76.965864    
    504000   1.0553694      18.666833      76.659253    
    505000   0.95769259     17.628377      76.705574    
    506000   1.0686499      18.499524      76.399417    
    507000   1.0210526      18.339113      76.614013    
    508000   0.95307106     18.407613      76.473833    
    509000   1.0119996      18.217424      76.605803    
    510000   1.0128225      18.44625       76.17639     
    511000   0.9899702      18.203749      75.717672    
    512000   0.99082042     18.201204      75.685117    
    513000   1.0506511      18.916645      75.80391     
    514000   1.0243878      18.708483      75.950938    
    515000   0.98254412     18.715605      75.916156    
    516000   1.0044831      18.311142      75.780061    
    517000   1.0223683      18.332136      75.803044    
    518000   0.926183       17.692958      75.923383    
    519000   0.99650349     18.664261      75.83804     
    520000   0.97973217     19.373566      75.564756    
    521000   1.0598914      18.198296      75.49987     
    522000   0.98087409     18.006185      75.51631     
    523000   0.95824002     17.816579      75.053725    
    524000   0.97968042     18.21314       74.65662     
    525000   1.0208555      18.556486      74.503877    
    526000   0.96646726     18.4853        74.064482    
    527000   0.97542227     18.265088      73.979255    
    528000   1.0345927      18.641631      73.956119    
    529000   0.98680149     18.081192      73.911051    
    530000   0.99762013     18.212379      73.649685    
    531000   0.96866847     18.045302      73.746055    
    532000   1.0308421      18.860257      73.310608    
    533000   1.0414825      18.734376      73.228073    
    534000   1.0128321      18.514494      73.264469    
    535000   1.0644884      18.547206      73.098411    
    536000   1.0254366      18.752016      73.105682    
    537000   0.97641233     17.751088      73.153365    
    538000   0.96683527     18.589698      73.145024    
    539000   1.0392023      17.699228      72.835377    
    540000   0.98413207     18.464217      72.609077    
    541000   1.0023846      18.359664      72.6489      
    542000   0.98282922     18.165783      72.529276    
    543000   1.0504941      19.035692      72.026348    
    544000   0.99139273     18.614533      71.841469    
    545000   1.0047576      17.93203       71.603892    
    546000   1.0263541      18.307832      71.689836    
    547000   1.0223114      18.416412      71.671851    
    548000   0.9434166      18.248099      71.391249    
    549000   1.015187       17.989418      71.560309    
    550000   0.98987725     18.043829      71.37495     
    551000   0.95766996     18.297786      71.027185    
    552000   1.0140123      18.386304      70.825773    
    553000   1.0778095      18.903492      70.706354    
    554000   0.98746517     18.378425      70.81746     
    555000   1.0377128      18.584977      70.671272    
    556000   1.024516       18.3165        70.459958    
    557000   1.0277107      18.819712      70.10296     
    558000   0.98275009     18.635358      69.742804    
    559000   0.95841042     19.232311      69.769972    
    560000   1.0505491      18.926138      69.516409    
    561000   1.0223296      18.564288      69.311036    
    562000   0.96314815     18.489966      69.364254    
    563000   0.96627021     18.621104      69.202968    
    564000   1.0000707      17.549027      69.27279     
    565000   0.95637887     19.008528      69.11431     
    566000   1.0391425      19.053352      69.065865    
    567000   1.0132903      18.719599      69.021856    
    568000   0.96405918     19.00605       68.659908    
    569000   0.94791761     17.926694      68.588216    
    570000   0.92784389     18.193397      68.474339    
    571000   1.0620836      18.541682      68.280942    
    572000   0.98923292     18.830355      68.063597    
    573000   0.9879664      18.461671      67.861447    
    574000   1.0067575      18.472438      67.65066     
    575000   0.95777285     17.87733       67.380102    
    576000   1.0106864      18.390411      67.417542    
    577000   0.96760661     18.30974       67.217571    
    578000   1.037167       18.520461      67.186118    
    579000   1.0450952      18.377948      67.045331    
    580000   0.95769395     17.980018      66.920543    
    581000   0.99452211     17.669917      66.554628    
    582000   0.97857382     17.965388      66.405285    
    583000   1.0282134      19.010953      65.951784    
    584000   1.0217334      18.391205      65.998767    
    585000   1.0139463      18.056152      66.07244     
    586000   1.0294641      18.414764      65.735705    
    587000   1.0112853      18.121367      65.698401    
    588000   0.96659393     17.518809      65.793526    
    589000   1.0219274      18.119275      65.742059    
    590000   1.0382225      18.858829      65.736419    
    591000   1.0007714      18.884075      65.483495    
    592000   1.0683243      17.534055      65.112409    
    593000   0.95200328     17.987164      65.036243    
    594000   0.97734776     18.67566       64.831021    
    595000   0.97927013     17.776479      64.841622    
    596000   0.97465166     17.927024      64.80012     
    597000   0.96228105     18.559255      64.640805    
    598000   1.0238947      18.805938      64.615946    
    599000   0.97994445     17.930896      64.63603     
    600000   1.0118772      17.593217      64.674872    
    601000   1.0071776      18.83558       64.28615     
    602000   0.98715191     18.362184      63.817812    
    603000   0.95213774     17.923628      63.52418     
    604000   0.97351601     17.810423      63.332657    
    605000   1.0237106      18.084667      63.211542    
    606000   0.95066474     18.110247      63.003809    
    607000   0.98329072     17.954348      63.155376    
    608000   1.0844703      17.902311      62.870944    
    609000   0.99273724     17.602343      62.850156    
    610000   0.96793101     17.534594      62.640685    
    611000   1.011292       18.268931      62.309578    
    612000   0.98776343     18.380781      62.126207    
    613000   1.0799099      18.57753       61.920084    
    614000   1.049665       18.240153      61.636038    
    615000   1.0131353      17.449414      61.633755    
    616000   1.01761        18.580055      61.607044    
    617000   0.94508806     17.327079      61.331154    
    618000   0.95718431     18.789892      61.200051    
    619000   0.98811412     17.998265      61.233485    
    620000   1.0031491      18.403208      61.247885    
    621000   0.98677119     18.089442      61.087061    
    622000   0.9694378      18.066833      61.078148    
    623000   1.0347548      17.747313      60.908557    
    624000   1.0326671      18.829957      60.829337    
    625000   0.98448069     18.378639      60.790413    
    626000   0.99704589     18.300808      60.791408    
    627000   1.0047915      18.26751       60.881915    
    628000   0.95494293     18.234935      60.899033    
    629000   0.96352016     17.827447      60.715303    
    630000   0.96319623     18.119234      60.436543    
    631000   0.98457816     17.614977      60.444527    
    632000   1.0561524      18.519516      60.276913    
    633000   1.015195       18.774571      60.159873    
    634000   0.98971421     17.891628      60.067954    
    635000   1.0481346      18.125594      60.06889     
    636000   1.0262483      18.636163      59.848469    
    637000   1.0403909      18.56134       59.780799    
    638000   1.042567       18.511938      59.473572    
    639000   0.95822239     18.638051      59.272298    
    640000   0.98799508     18.01842       59.404611    
    641000   0.97593859     18.251704      59.041513    
    642000   0.96302875     18.214577      58.912078    
    643000   0.98681954     17.236537      58.837971    
    644000   0.97352385     17.509243      58.843463    
    645000   1.0756298      17.789385      58.853403    
    646000   0.97084103     17.310448      58.79675     
    647000   0.96967206     18.787743      58.83656     
    648000   1.0681266      18.229107      58.769787    
    649000   0.91777005     17.091752      58.592866    
    650000   0.99929484     18.431251      58.628041    
    651000   1.0485397      18.071383      58.748738    
    652000   0.98592769     17.674064      58.721374    
    653000   1.0564084      17.991366      58.87215     
    654000   0.98782972     18.375085      58.78536     
    655000   0.99026113     17.95849       58.5803      
    656000   0.96533905     18.087814      58.609337    
    657000   1.0521856      17.457042      58.414683    
    658000   1.047905       17.908418      58.338215    
    659000   1.0289677      17.554537      58.265161    
    660000   1.0194928      17.811525      58.121949    
    661000   0.91886225     17.75161       58.209681    
    662000   0.97622509     17.999067      57.706441    
    663000   0.9819689      17.689947      57.482749    
    664000   0.92531157     17.74279       57.459309    
    665000   1.0097593      18.006884      57.299154    
    666000   0.98867113     18.12451       57.25859     
    667000   1.0058663      17.748347      57.401981    
    668000   1.0748151      18.508171      57.262248    
    669000   1.0111869      18.086053      57.11273     
    670000   1.0728222      18.300529      57.119095    
    671000   1.0143026      18.111082      56.96555     
    672000   1.0535958      18.226944      56.592182    
    673000   0.98674708     17.738729      56.500933    
    674000   1.0239868      17.768282      56.33347     
    675000   1.0166867      18.461051      56.279449    
    676000   1.0571252      18.173312      56.140065    
    677000   0.99305641     16.992734      56.303569    
    678000   0.94483057     17.609455      56.017119    
    679000   0.99457022     17.805711      55.671182    
    680000   0.99653717     18.177889      55.558714    
    681000   1.0316398      18.659503      55.338705    
    682000   0.95668792     17.761493      55.30143     
    683000   0.95291831     17.854386      54.827396    
    684000   1.0650435      18.39754       54.851812    
    685000   0.98371118     17.658237      54.922071    
    686000   1.017636       17.616616      54.808849    
    687000   1.0246866      17.733157      54.650621    
    688000   1.0413983      17.971144      54.597259    
    689000   0.97061967     18.096377      54.221642    
    690000   1.0016376      18.364375      54.257055    
    691000   0.95515328     17.589279      54.168396    
    692000   1.0022353      18.579127      53.999813    
    693000   0.9833281      18.199604      53.796467    
    694000   0.98576563     17.840138      53.331959    
    695000   0.98204337     18.050576      53.011414    
    696000   1.0500465      18.083195      52.460693    
    697000   1.0436793      18.111414      52.592456    
    698000   1.0089412      17.706327      52.704344    
    699000   1.0103448      17.808134      52.369654    
    700000   0.99215704     18.418597      52.166282    
    701000   1.0054934      17.971723      51.931049    
    702000   1.0040886      17.43807       51.828226    
    703000   0.96683543     18.614423      51.775495    
    704000   1.0542311      17.921622      51.820337    
    705000   1.0021275      18.61623       51.849664    
    706000   1.0143092      17.869617      51.700634    
    707000   0.97986069     18.049801      51.54995     
    708000   0.97575924     18.227206      51.160011    
    709000   0.99973895     18.703952      51.150677    
    710000   0.95929481     17.359217      50.514161    
    711000   0.9268833      18.025112      50.517441    
    712000   0.99697457     18.4039        50.390707    
    713000   0.94410726     17.707968      50.066454    
    714000   1.0705778      18.521606      49.948768    
    715000   0.97178643     17.785941      49.783928    
    716000   1.0152387      17.708207      49.658602    
    717000   0.96442291     18.175369      49.728048    
    718000   0.97706439     17.370484      49.406404    
    719000   1.0581623      17.976883      49.069234    
    720000   1.0453382      17.52243       48.843849    
    721000   1.0048524      17.875538      48.55758     
    722000   0.94706395     17.945858      48.432559    
    723000   0.99738473     17.481687      48.35207     
    724000   0.95022292     18.934888      48.401835    
    725000   1.0240449      18.576869      48.495186    
    726000   0.9739077      17.434983      48.371078    
    727000   1.0380333      16.864002      48.461147    
    728000   0.96751104     18.265843      48.19286     
    729000   0.99771201     17.857274      47.953417    
    730000   1.0314445      17.69094       47.819716    
    731000   0.96515138     17.534221      47.548638    
    732000   0.95173705     18.205108      47.646344    
    733000   1.0009136      17.461934      47.652883    
    734000   0.9843766      17.414792      47.652407    
    735000   1.0186254      17.955993      47.84796     
    736000   1.0458735      17.73266       47.623637    
    737000   1.0101377      18.301829      47.930902    
    738000   0.98074455     17.646315      47.733846    
    739000   0.97934531     17.486114      47.593496    
    740000   0.99238023     17.469107      47.172298    
    741000   0.98128533     18.534314      46.860207    
    742000   1.0064756      17.442977      47.135197    
    743000   0.96981628     17.400916      47.052859    
    744000   0.90737299     17.493966      47.02071     
    745000   0.99429101     17.922551      46.861819    
    746000   0.97521455     17.59143       46.706326    
    747000   1.0005754      18.806835      46.552603    
    748000   0.98023988     17.675648      46.509928    
    749000   1.0189977      18.125301      46.424655    
    750000   0.96408003     17.560338      46.467915    
    751000   1.0062245      18.221429      46.087886    
    752000   1.0456106      17.969704      45.793095    
    753000   0.96345148     18.178223      45.778822    
    754000   1.0213167      17.126263      45.460119    
    755000   0.95132771     18.119598      45.344303    
    756000   0.98493752     18.550732      45.268882    
    757000   0.98111478     17.955015      45.123082    
    758000   1.0614317      17.846141      45.043466    
    759000   1.0039753      18.279193      45.021579    
    760000   0.97169544     17.898484      45.150959    
    761000   0.96920593     17.918222      45.116813    
    762000   0.9943957      18.132742      45.263632    
    763000   0.98106974     17.761371      45.10141     
    764000   0.96068163     17.83432       45.166464    
    765000   0.99271026     18.137006      44.875086    
    766000   0.99296529     18.390856      44.987846    
    767000   1.0128031      18.908645      44.903465    
    768000   1.0297454      17.544355      44.40637     
    769000   1.0254828      18.187861      44.147907    
    770000   1.0018769      18.355086      43.873742    
    771000   1.0697291      17.463029      43.502245    
    772000   0.95599145     18.183445      43.365533    
    773000   0.99695131     17.990831      43.435469    
    774000   1.0430175      18.055862      43.182271    
    775000   0.99333853     17.833105      43.018637    
    776000   0.94636896     16.767426      42.773398    
    777000   0.97728137     18.279922      42.609743    
    778000   0.98494428     18.047892      42.508059    
    779000   1.0337734      17.907763      42.5118      
    780000   1.0048318      17.790533      42.200487    
    781000   0.96653009     17.563916      42.135845    
    782000   1.0132755      18.536362      41.976034    
    783000   1.0166468      18.047838      41.844499    
    784000   0.99007157     18.091532      41.618206    
    785000   1.0071715      17.516714      41.400971    
    786000   1.0841917      18.163527      41.083893    
    787000   0.99267329     17.435112      40.954437    
    788000   0.9872785      17.295377      40.759853    
    789000   0.97677812     18.320718      40.91337     
    790000   0.99416786     18.158079      40.662711    
    791000   1.0156909      17.066149      40.395601    
    792000   0.99363388     18.286622      40.283256    
    793000   0.97710047     17.989127      40.055379    
    794000   1.0592934      18.510351      39.653967    
    795000   0.99472981     17.575198      39.840448    
    796000   0.96540698     17.697615      39.75131     
    797000   0.95580152     17.600852      39.510633    
    798000   0.97459589     17.815577      39.382446    
    799000   1.00778        17.894598      39.633313    
    800000   0.97580919     17.477162      39.31129     
    801000   1.033122       18.682317      39.40085     
    802000   1.0047729      17.464136      39.127126    
    803000   0.97797617     17.829041      39.037718    
    804000   1.0795517      18.185543      38.974545    
    805000   0.98294277     17.481354      39.09723     
    806000   0.99975402     18.23779       38.897981    
    807000   1.0047912      17.730546      39.028967    
    808000   1.0620803      18.582326      39.099816    
    809000   1.0003544      17.676523      39.30449     
    810000   0.96251003     17.089243      39.394045    
    811000   1.1112387      18.111147      39.179199    
    812000   0.98818367     17.122916      39.002402    
    813000   1.0126586      17.423683      38.776104    
    814000   1.0356509      17.708499      38.847627    
    815000   1.0083824      18.001985      38.818117    
    816000   0.98557872     17.713662      38.470425    
    817000   0.98866102     18.239727      38.335345    
    818000   0.98347019     18.326898      38.26537     
    819000   0.96852408     17.049571      38.431265    
    820000   1.0179268      17.392419      38.514017    
    821000   0.95881469     17.458857      38.515836    
    822000   0.94826104     17.483032      38.62625     
    823000   1.0123407      17.682158      38.592329    
    824000   1.0719118      18.237551      38.28993     
    825000   0.99325959     18.068428      38.179472    
    826000   1.0282492      17.780944      37.862966    
    827000   1.0442647      17.367272      37.522427    
    828000   1.0053642      17.925142      37.163414    
    829000   0.99025294     17.767286      36.933437    
    830000   1.0049939      18.002087      36.793841    
    831000   1.0344523      18.600779      36.819462    
    832000   0.96809817     18.370306      36.903203    
    833000   1.0025651      17.420866      36.958047    
    834000   0.99227801     17.844838      36.70897     
    835000   1.0114461      17.278153      36.53564     
    836000   1.0065886      17.593145      36.29109     
    837000   1.0303874      17.253767      36.196509    
    838000   0.94759935     17.090877      36.329678    
    839000   0.95326808     17.908898      36.070836    
    840000   1.0096081      17.982458      35.951841    
    841000   1.0304828      17.601128      35.854393    
    842000   0.9854147      18.078029      35.829463    
    843000   0.97793671     18.168054      35.55438     
    844000   1.0109591      17.830416      35.312623    
    845000   0.96940617     17.717529      35.565214    
    846000   1.0246328      17.599417      35.377983    
    847000   0.97216155     17.418006      35.098639    
    848000   1.0089857      17.483415      35.212761    
    849000   0.99279022     17.638908      35.155844    
    850000   0.97212805     17.926558      34.963639    
    851000   0.99242798     17.526915      34.788064    
    852000   0.9514651      17.51357       34.719732    
    853000   1.0256528      18.447205      34.632236    
    854000   1.0617428      18.236262      34.610942    
    855000   1.0598722      17.920891      34.63522     
    856000   0.95082248     17.90629       34.679487    
    857000   1.0137101      17.810327      34.760622    
    858000   1.0540168      17.969732      34.459628    
    859000   1.0389955      17.325616      34.360301    
    860000   0.98578888     17.381116      34.218778    
    861000   1.0040762      18.055566      34.236872    
    862000   1.0354984      18.057645      34.293214    
    863000   0.9874039      17.535309      34.436415    
    864000   1.0486899      17.991857      34.341269    
    865000   1.0417646      17.701026      34.254157    
    866000   0.99039049     17.703284      34.458455    
    867000   1.0104634      18.513595      34.221928    
    868000   0.98568366     17.813024      34.030314    
    869000   0.99129347     17.872594      33.90632     
    870000   1.0212494      17.194274      33.981851    
    871000   0.99284254     18.320604      33.77228     
    872000   0.99991324     17.663999      33.64228     
    873000   1.041918       17.652541      33.386409    
    874000   1.0046669      17.555156      33.235517    
    875000   0.95227462     17.411612      33.26789     
    876000   0.99794956     17.650672      33.172538    
    877000   1.0379973      18.34481       33.003174    
    878000   1.0117844      17.807903      32.957916    
    879000   1.0072283      17.948369      33.12963     
    880000   1.0003155      18.039572      33.061204    
    881000   0.9757592      18.276908      32.979033    
    882000   0.98265656     17.700921      32.994332    
    883000   1.0367331      18.118578      32.706376    
    884000   0.98598131     18.072312      32.286841    
    885000   0.98287203     17.22775       32.340375    
    886000   0.95912828     17.70005       32.235219    
    887000   0.97082657     17.538858      31.927955    
    888000   0.94804043     18.424879      31.909408    
    889000   0.99125752     17.065578      31.609837    
    890000   1.0090598      17.185493      31.726578    
    891000   0.98228026     17.268062      31.759798    
    892000   0.98420498     17.585981      31.792051    
    893000   0.96271349     18.136116      31.629277    
    894000   1.0147917      18.083917      31.557396    
    895000   1.020597       18.03949       31.495574    
    896000   0.980602       17.716679      31.251919    
    897000   1.0087904      18.731074      31.40453     
    898000   0.98874279     17.300212      31.314008    
    899000   1.0092313      18.294337      30.896483    
    900000   1.0163656      17.913405      31.026296    
    901000   1.0877653      18.081848      30.976501    
    902000   0.9919344      17.390681      30.792615    
    903000   1.0189287      17.852054      30.595109    
    904000   1.0780827      18.589789      30.325665    
    905000   0.95618126     17.690477      30.428581    
    906000   1.0686854      17.863741      30.545562    
    907000   1.0668198      17.897789      30.323821    
    908000   0.96618319     17.886917      30.438343    
    909000   1.0501289      17.571286      30.18043     
    910000   1.0002062      18.059226      30.087431    
    911000   0.97535329     18.109756      29.974539    
    912000   1.0351708      17.193628      29.690376    
    913000   1.0236056      17.714477      29.538319    
    914000   1.0143575      17.513562      29.351733    
    915000   0.9721912      17.631757      29.283081    
    916000   1.0203431      17.859959      29.034893    
    917000   1.0403358      17.817096      29.113827    
    918000   0.98992522     17.576245      28.925243    
    919000   1.0524748      17.740885      28.72331     
    920000   0.93157204     17.049574      28.816405    
    921000   1.0213242      17.429938      28.965389    
    922000   0.98159252     17.405463      28.536399    
    923000   1.0003747      17.52922       28.401092    
    924000   1.0067169      17.385964      28.311442    
    925000   0.93039615     17.159397      28.254606    
    926000   0.99226662     18.455388      27.919344    
    927000   1.0213145      17.979774      27.936674    
    928000   1.0582611      17.427136      27.583199    
    929000   0.98286627     17.173152      27.644864    
    930000   0.99499193     17.661735      27.690176    
    931000   0.94496784     17.316872      27.655844    
    932000   1.0561521      17.407148      27.394934    
    933000   0.98553363     16.980685      27.325044    
    934000   0.98964913     18.000119      27.038368    
    935000   1.0313266      17.752465      27.109736    
    936000   0.99800685     17.564342      26.789525    
    937000   0.99281186     16.890867      26.638861    
    938000   0.99351203     17.893161      26.117833    
    939000   1.052769       17.806192      25.803005    
    940000   1.0093314      17.520603      25.615754    
    941000   1.0196383      17.537324      25.428879    
    942000   0.98326988     16.995364      25.186995    
    943000   0.9837262      16.919276      25.181384    
    944000   1.0085273      18.050383      24.946057    
    945000   1.0138483      17.808395      24.77142     
    946000   1.0037322      17.665397      24.684978    
    947000   1.0479156      17.427798      24.342604    
    948000   0.94465662     18.592359      24.589917    
    949000   1.0507184      18.145449      24.545531    
    950000   1.0221656      17.62428       23.985269    
    951000   1.0276639      17.283117      23.947442    
    952000   1.0346857      17.500772      23.947597    
    953000   0.99128396     17.25032       24.037066    
    954000   1.0700581      17.475788      23.795764    
    955000   1.0324621      18.097373      23.568022    
    956000   1.0031925      17.194857      23.680633    
    957000   0.9581428      17.311139      23.789434    
    958000   0.98119339     17.680619      23.709992    
    959000   0.96625879     17.247932      23.707515    
    960000   1.0010787      17.626778      23.209718    
    961000   0.97378976     17.636692      23.248439    
    962000   1.0081552      17.996798      23.100987    
    963000   0.98671852     17.277153      22.980536    
    964000   1.0735365      17.833764      22.943223    
    965000   0.99419827     17.109889      22.57302     
    966000   1.0246631      18.016094      22.019735    
    967000   0.99790149     17.775237      21.72639     
    968000   1.0209112      17.24652       21.691971    
    969000   1.0083565      16.566939      21.727592    
    970000   0.97424841     17.526526      21.584127    
    971000   0.99241015     17.936302      21.367492    
    972000   1.0168962      17.368429      21.158101    
    973000   0.99036865     17.114704      21.323849    
    974000   0.9976712      17.794447      21.101094    
    975000   0.99091341     18.145237      21.016879    
    976000   1.0053393      18.261339      21.013446    
    977000   1.026464       17.791121      20.94659     
    978000   1.024208       17.721037      20.912468    
    979000   0.97417166     17.239994      21.049344    
    980000   0.99640497     17.40445       20.823271    
    981000   0.9979471      17.367509      21.104824    
    982000   1.0081947      17.800647      20.940943    
    983000   1.0187353      17.660348      20.808822    
    984000   0.98724168     17.087508      20.560327    
    985000   1.0302698      17.661624      20.676836    
    986000   1.0032215      17.849352      20.764954    
    987000   0.99997742     18.056787      20.467863    
    988000   0.97216293     17.977638      20.104026    
    989000   1.0133323      17.023638      19.985944    
    990000   0.96397671     17.93508       20.044806    
    991000   0.99438814     17.504945      19.879476    
    992000   1.0316671      17.645758      19.752129    
    993000   0.99376613     17.493969      19.576889    
    994000   1.016408       17.939713      19.671925    
    995000   1.0598301      16.953576      19.624986    
    996000   1.029975       17.762539      19.39346     
    997000   0.96100448     17.259239      19.266993    
    998000   1.0017973      17.0722        18.943591    
    999000   0.97162557     17.180481      18.796971    
   1000000   1.0719691      17.619688      18.750517    
   1001000   0.97079029     17.584653      18.67161     
   1002000   0.98445086     17.345803      18.481636    
   1003000   1.0157707      17.300161      18.691496    
   1004000   0.95620648     16.536236      18.622357    
   1005000   1.0024869      17.74887       18.330285    
   1006000   0.98180586     17.653981      18.097047    
   1007000   1.053717       17.486759      17.992834    
   1008000   1.0166612      17.957463      17.578569    
   1009000   1.0323497      17.758316      17.469515    
   1010000   0.98038858     17.033198      17.284638    
   1011000   0.98586436     17.265397      16.888741    
   1012000   1.0842988      17.342448      17.015952    
   1013000   1.0009867      17.382346      16.757849    
   1014000   0.97517443     16.947698      16.447456    
   1015000   1.0257465      17.941137      16.349167    
   1016000   1.0456601      17.905738      16.250038    
   1017000   1.0246662      17.710147      16.420957    
   1018000   0.99232036     17.556791      16.149655    
   1019000   0.9841296      17.332155      16.068933    
   1020000   1.0234613      18.813051      15.978665    
   1021000   0.99864532     17.171799      16.00035     
   1022000   1.0443146      17.851404      15.951646    
   1023000   1.0010495      17.884236      15.767998    
   1024000   1.0449801      16.901258      15.815776    
   1025000   0.94996872     17.007801      15.781053    
   1026000   1.0446885      17.262691      15.952313    
   1027000   0.9511534      16.463633      15.843123    
   1028000   0.92618542     17.210217      15.777906    
   1029000   1.018561       16.940934      15.998646    
   1030000   0.99270741     17.433654      15.842732    
   1031000   1.0142707      17.468186      15.880768    
   1032000   0.98021079     17.593922      15.683922    
   1033000   0.98542418     17.741535      15.496491    
   1034000   0.95929984     17.538676      15.202939    
   1035000   1.050467       18.063372      14.805724    
   1036000   1.0712192      18.351901      14.611455    
   1037000   1.0566172      17.115947      14.700066    
   1038000   0.99115192     17.957213      14.527829    
   1039000   0.99421711     17.807601      14.425078    
   1040000   1.0138887      17.702295      14.198195    
   1041000   1.0665667      17.925735      14.229534    
   1042000   0.99424525     16.923813      14.156194    
   1043000   1.0791367      17.332689      14.08065     
   1044000   1.0382047      17.293365      14.019141    
   1045000   0.97637553     17.321905      13.779322    
   1046000   1.0108132      16.839362      13.550838    
   1047000   1.0193109      17.764151      13.458257    
   1048000   1.013823       17.966001      13.061236    
   1049000   1.0034346      17.832754      12.657844    
   1050000   0.98866008     17.003158      12.558537    
   1051000   0.97673932     17.835995      12.574649    
   1052000   0.97813165     17.400919      12.575672    
   1053000   1.0433967      17.304049      12.495235    
   1054000   0.98618072     17.099057      12.521429    
   1055000   1.0218423      17.284689      12.198564    
   1056000   0.94694182     17.624078      12.221523    
   1057000   1.0594675      17.937413      12.145622    
   1058000   1.0426938      17.63782       11.995075    
   1059000   1.0192206      17.994183      11.868286    
   1060000   0.95901918     17.253157      11.539125    
   1061000   0.97531023     17.182925      11.132795    
   1062000   0.99822769     17.1539        10.948256    
   1063000   1.0559951      17.452016      10.655309    
   1064000   1.0252719      17.788298      10.580305    
   1065000   1.0155206      17.88914       10.691208    
   1066000   0.96408605     17.632239      10.874482    
   1067000   0.95452872     17.377162      10.736848    
   1068000   1.0278333      16.267986      10.678278    
   1069000   1.0286063      17.154174      10.722272    
   1070000   0.96453481     17.907113      10.6318      
   1071000   0.98551465     17.763268      10.598619    
   1072000   0.9823745      16.899948      10.486642    
   1073000   1.0070761      17.87473       10.608813    
   1074000   0.93275316     17.095526      10.554115    
   1075000   1.0184766      17.283745      10.250604    
   1076000   1.0355334      17.711715      10.191165    
   1077000   1.0318745      17.927979      10.286752    
   1078000   1.0421855      17.152799      10.119813    
   1079000   1.044139       17.382275      9.8913083    
   1080000   1.035576       17.023021      9.4089984    
   1081000   1.0020112      17.56838       9.0691269    
   1082000   1.0453997      17.196263      9.0195542    
   1083000   1.0367831      17.856148      8.9941479    
   1084000   1.0786689      18.170104      9.2686702    
   1085000   1.0122727      17.146098      9.1942331    
   1086000   1.0254303      17.366664      9.2362868    
   1087000   1.0948409      18.451532      9.2094605    
   1088000   0.94590596     17.907998      9.1553162    
   1089000   0.97699315     17.940732      9.1537135    
   1090000   1.0272451      17.528258      9.2092469    
   1091000   1.0630357      17.629993      9.1660619    
   1092000   0.94436006     17.398951      9.125879     
   1093000   1.0177184      17.269334      9.155608     
   1094000   0.98441479     16.966215      8.9669047    
   1095000   1.0025539      17.383461      8.9000913    
   1096000   1.0040626      17.445381      8.6066633    
   1097000   0.97659919     17.804366      8.4174994    
   1098000   1.0167206      18.078567      8.4415273    
   1099000   0.98246158     17.559955      8.1942311    
   1100000   1.0502606      17.043773      8.2526019    
   1101000   0.96829401     17.318659      7.9586479    
   1102000   0.99977484     17.259065      8.1842753    
   1103000   1.0032649      16.845336      8.2977191    
   1104000   0.9583975      17.576979      8.2490663    
   1105000   0.98912235     16.745857      8.1920756    
   1106000   0.99629969     17.206077      7.8914908    
   1107000   1.0542921      16.956105      7.7906996    
   1108000   1.027175       16.85949       7.6776499    
   1109000   0.98193728     17.282006      7.4460689    
   1110000   1.0158899      17.617719      7.3183546    
   1111000   0.99107389     17.238537      7.0894668    
   1112000   0.97307043     17.047128      7.2055257    
   1113000   0.96720382     17.151087      7.1113785    
Fix halt condition for fix-id 3 met on step 1114000 with value 6.972055104118277 (src/fix_halt.cpp:237)
   1114000   0.96111913     16.676397      6.9720551    
Loop time of 2108.33 on 2 procs for 1014000 steps with 600 atoms

Performance: 415539.762 tau/day, 480.949 timesteps/s
109.9% CPU use with 1 MPI tasks x 2 OpenMP threads

MPI task timing breakdown:
Section |  min time  |  avg time  |  max time  |%varavg| %total
---------------------------------------------------------------
Pair    | 139.9      | 139.9      | 139.9      |   0.0 |  6.64
Bond    | 17.805     | 17.805     | 17.805     |   0.0 |  0.84
Neigh   | 1910.8     | 1910.8     | 1910.8     |   0.0 | 90.63
Comm    | 0.394      | 0.394      | 0.394      |   0.0 |  0.02
Output  | 2.2713     | 2.2713     | 2.2713     |   0.0 |  0.11
Modify  | 33.842     | 33.842     | 33.842     |   0.0 |  1.61
Other   |            | 3.29       |            |       |  0.16

Nlocal:            600 ave         600 max         600 min
Histogram: 1 0 0 0 0 0 0 0 0 0
Nghost:              0 ave           0 max           0 min
Histogram: 1 0 0 0 0 0 0 0 0 0
Neighs:          84310 ave       84310 max       84310 min
Histogram: 1 0 0 0 0 0 0 0 0 0

Total # of neighbors = 84310
Ave neighs/atom = 140.51667
Ave special neighs/atom = 1.9966667
Neighbor list builds = 9255
Dangerous builds = 0

# This simulation is done
# Move onto the next one
clear
  using 2 OpenMP thread(s) per MPI task
package omp 0
using multi-threaded neighbor list subroutines
next f
jump SELF

###
# Reference paper:
# K. Kremer and G. S. Grest
# Dynamics of entangled linear polymer melts: A molecular-dynamics simulation
# J Chem Phys 92, 5057 (1990)

##################################
# MIHIR: for branched polymers
# LJ minimum first to expand and explore, then collapse
###

###
# Looping through the various linear polymers to simulate,
# define variables to switch through
variable f index bb100nuc0bl0bn0d30tot100 bb200nuc0bl0bn0d30tot200 bb300nuc0bl0bn0d30tot300 bb400nuc0bl0bn0d30tot400 bb500nuc0bl0bn0d30tot500 bb600nuc0bl0bn0d30tot600 bb700nuc0bl0bn0d30tot700 bb800nuc0bl0bn0d30tot800 bb900nuc0bl0bn0d30tot900 bb1000nuc0bl0bn0d30tot1000 bb1100nuc0bl0bn0d30tot1100 bb1200nuc0bl0bn0d30tot1200
###


###
# Box and units  (use LJ units and periodic boundaries)
###

units lj
log linear/logs3/$f.log
log linear/logs3/bb700nuc0bl0bn0d30tot700.log
