#atom_style bond #no stiffness
atom_style angle #with stiffness

boundary        p p p
###
# Pair interactions require lists of neighbours to be calculated
###

#neighbor 0.3 bin
neighbor 4 bin

neigh_modify every 1 delay 1 check yes
atom_modify sort 0 0
### Generate RESTART file, SPECIAL format, not a .txt file ###
### Useful if simulation crashes ###

restart 1000000 linear/restarts/$f.restart
restart 1000000 linear/restarts/bb1000nuc0bl0bn0d30tot1000.restart
#############################



### READ "start" data file ###

read_data linear/$f.dat
read_data linear/bb1000nuc0bl0bn0d30tot1000.dat
Reading data file ...
  orthogonal box = (-1000 -1000 -1000) to (1000 1000 1000)
  1 by 1 by 2 MPI processor grid
  reading atoms ...
  1000 atoms
  scanning bonds ...
  1 = max bonds/atom
  scanning angles ...
  1 = max angles/atom
  reading bonds ...
  999 bonds
  reading angles ...
  998 angles
Finding 1-2 1-3 1-4 neighbors ...
  special bond factors lj:    0        0        0       
  special bond factors coul:  0        0        0       
     2 = max # of 1-2 neighbors
     2 = max # of 1-3 neighbors
     4 = max # of 1-4 neighbors
     6 = max # of special neighbors
  special bonds CPU = 0.001 seconds
  read_data CPU = 0.055 seconds

######################

### READ "REstart" data file ###

######################



###
# Define groups (atom type 1 is group 'all')
###
group all type 1
1000 atoms in group all


###
# Dump configs - "simple dumpings"
###

###
# Dump configs + box coords
###

dump   1   all   custom   1000  linear/trjs/$f.lammpstrj  id  x y z  ix iy iz
dump   1   all   custom   1000  linear/trjs/bb1000nuc0bl0bn0d30tot1000.lammpstrj  id  x y z  ix iy iz
dump_modify   1   format line "%d %.5f %.5f %.5f %d %d %d"

########################################################################


###################################################################
# Stiffness term
#
# E = K * (1+cos(theta)), K>0
#
angle_style   cosine
#change this coefficient to change stiffness (e.g. 1,5,10)
angle_coeff   1 1.0
###################################################################

###################################################################
# Pair interaction between non-bonded atoms
#
#  Lennard-Jones 12-6 potential with cutoff:
#  potential E=4epsilon[ (sigma/r)^12 - (sigma/r)^6]  for r<r_cut
#
#  1.12246 = 2^(1/6) is the minimum of the potential


pair_style      lj/cut 1.12246152962189
#pair_style      lj/cut 3

#
#  pair_modify shift yes adds a constant to the potential such

#  that E(r_cut)=0. Forces remains unchanged.
#

pair_modify     shift yes

#
#  pair_coeff for lj/cut, specify 4:
#    * atom type interacting with
#    * atom type
#    * epsilon (energy units)
#    * sigma (distance units)
#

pair_coeff      1 1 1.0 1.0
###################################################################

###################################################################
# Pair interaction between non-bonded atoms
#
#  soft potential, for PUSHING apart overlapping atoms
#  potential E=A*(1 + cos(pi*r/r_c))
#
#  1.12246 = 2^(1/6) is the cut-off r_c

#pair_style     soft 1.12246152962189

#
#  pair_coeff for soft, specify 3:
#    * atom type interacting with
#    * atom type
#    * A
#
#

#pair_coeff      1 1 100.0
###################################################################

###################################################################
# Pair interaction between bonded atoms
#
# Fene potential + Lennard Jones 12-6:

#
#  E= - 0.5 K R0^2 ln[ 1- (r/R0)^2]
#     + 4epsilon[ (sigma/r)^12 - (sigma/r)^6] + epsilon
#

bond_style   fene


#
# For style fene, specify:
#   * bond type
#   * K (energy/distance^2)
#   * R0 (distance)
#   * epsilon (energy)  (LJ component)
#   * sigma (distance)  (LJ component)
#


special_bonds fene #<=== I M P O R T A N T (new command)
Finding 1-2 1-3 1-4 neighbors ...
  special bond factors lj:    0        1        1       
  special bond factors coul:  0        1        1       
     2 = max # of 1-2 neighbors
     6 = max # of special neighbors
  special bonds CPU = 0.000 seconds

bond_coeff   1   30   2   1.0   1.0


###################################################

###################################################################
# Pair interaction between bonded atoms
#
# Harmonic potential:
#
#  E= K * (R-R0)^2
#

#bond_style   harmonic

#
# For style harmonic, specify:
#   * bond type
#   * K (energy/distance^2)
#   * R0 (distance)
#

#bond_coeff   1   60.0   1.0
#bond_coeff   2   harmonic 0.1   1.0

###################################################
compute 1 all gyration
variable rog equal c_1
#compute 2 all coord/atom cutoff 1.1

#dump 2 all custom 10000 contact_number.dump id c_2


###
# Set up fixes
###
thermo_style   custom   step  temp enthalpy c_1
fix 1 all nve   ###NVE ensemble

fix 2 all   langevin   1.0 1.0 1.0  100103   ###Langevin integrator Tstart Tstop 1/friction rndseed


##### Sample thermodynamic info  (temperature, energy, pressure, etc.) #####
thermo 1000









############################################################################

###
# set timestep of integrator

timestep 0.01

###
# run integration for a number of steps
###
#run 0
#variable r equal c_1
#if "$r < 63.1" then "quit 1"

# lj potential minimum, cause molecule to explore
run 100000
Generated 0 of 0 mixed pair_coeff terms from geometric mixing rule
Last active /omp style is angle_style cosine/omp
Neighbor list info ...
  update: every = 1 steps, delay = 1 steps, check = yes
  max neighbors/atom: 2000, page size: 100000
  master list distance cutoff = 5.1224615
  ghost atom cutoff = 5.1224615
  binsize = 2.5612308, bins = 781 781 781
  1 neighbor lists, perpetual/occasional/extra = 1 0 0
  (1) pair lj/cut/omp, perpetual
      attributes: half, newton on, omp
      pair build: half/bin/newton/omp
      stencil: half/bin/3d
      bin: standard
WARNING: Communication cutoff 5.12246152962189 is shorter than a bond length based estimate of 5.455. This may lead to errors. (src/comm.cpp:723)
Per MPI rank memory allocation (min/avg/max) = 939.7 | 940.3 | 940.9 Mbytes
   Step          Temp         Enthalpy         c_1      
         0   0              13.413297      250.00023    
      1000   0.98187298     18.833404      249.76935    
      2000   0.98336123     18.771837      249.42639    
      3000   1.0428209      18.622735      249.34148    
      4000   1.0040344      18.353325      249.17961    
      5000   1.0410057      18.727594      249.1297     
      6000   0.9397148      18.560508      248.80789    
      7000   1.0431902      19.210948      248.60118    
      8000   1.0037907      18.882608      248.51637    
      9000   1.0084226      19.065187      248.50144    
     10000   1.0026807      18.682112      248.32462    
     11000   1.0296207      18.635467      248.41761    
     12000   1.0373015      18.922908      248.18848    
     13000   0.97190516     19.357812      247.95535    
     14000   1.0074814      19.020254      247.70572    
     15000   1.0128891      18.971707      247.45271    
     16000   1.0313003      18.952511      247.29605    
     17000   0.98614011     19.285001      247.15304    
     18000   0.9800624      19.153237      246.77302    
     19000   1.0744605      19.119022      246.50235    
     20000   0.99106966     18.988221      246.35122    
     21000   1.007595       18.444721      246.32462    
     22000   1.0345176      18.979392      246.37239    
     23000   0.99961791     19.418783      246.23756    
     24000   1.0101314      18.959283      246.04478    
     25000   1.0285338      19.152832      245.84158    
     26000   1.0166281      18.828066      245.56795    
     27000   0.98088069     18.729811      245.40556    
     28000   0.99567087     19.39372       245.28833    
     29000   1.039013       19.266038      245.07196    
     30000   1.0038555      18.920414      244.88594    
     31000   0.98484152     19.158791      244.71596    
     32000   1.0159081      19.358739      244.67053    
     33000   1.0155317      19.599821      244.71337    
     34000   1.0079641      18.892176      244.79371    
     35000   1.0195411      19.047853      244.89992    
     36000   1.0256556      19.049762      244.95361    
     37000   0.98512541     18.894246      244.90588    
     38000   1.0139643      19.445856      244.76074    
     39000   0.97177599     18.717026      244.88468    
     40000   1.0265601      18.754612      244.93277    
     41000   1.0100242      19.341563      244.71074    
     42000   0.99369805     19.537687      244.5176     
     43000   0.97282918     18.966307      244.39461    
     44000   0.9607333      18.844898      244.44312    
     45000   1.0171826      19.246036      244.14929    
     46000   1.0137218      18.921574      243.99292    
     47000   1.0170476      19.20105       243.74482    
     48000   1.0451933      19.083597      243.62367    
     49000   1.0097693      18.941536      243.44216    
     50000   1.0238046      19.005521      243.19479    
     51000   1.0266184      19.518174      243.192      
     52000   0.99339955     19.465143      242.78751    
     53000   0.9623139      19.384593      242.68718    
     54000   0.96098568     19.694255      242.84252    
     55000   0.98750116     19.282524      242.59859    
     56000   1.0478164      19.24098       242.48128    
     57000   0.9967846      19.162437      242.03409    
     58000   0.97751464     19.133208      241.99848    
     59000   0.98293349     18.994907      241.99371    
     60000   0.9963494      19.591655      241.9643     
     61000   0.98090717     18.893277      241.81746    
     62000   0.98670281     19.198136      241.68498    
     63000   0.97910436     19.186188      241.42406    
     64000   1.0121277      19.45833       241.17927    
     65000   1.0017486      19.569154      241.17418    
     66000   0.9866705      18.980608      241.07562    
     67000   0.99514552     19.049842      240.99456    
     68000   1.0404351      18.991788      240.80679    
     69000   1.0541122      19.72081       240.67792    
     70000   0.99675903     19.114866      240.36329    
     71000   1.0045143      19.499517      239.90735    
     72000   0.9936224      19.384587      239.6579     
     73000   1.0175506      19.000404      239.36807    
     74000   0.99489272     19.596518      239.26862    
     75000   1.0172404      19.009332      238.89821    
     76000   1.0070708      19.093341      238.88554    
     77000   1.0060508      20.02739       239.085      
     78000   1.0090495      19.06903       239.10614    
     79000   0.96959285     19.314153      238.97504    
     80000   0.95558312     18.995287      238.99015    
     81000   0.9824732      19.240296      238.71821    
     82000   1.0216459      19.117374      238.45478    
     83000   0.99065898     19.411399      238.3601     
     84000   0.99553102     18.917267      238.38935    
     85000   1.0206945      19.729366      238.09449    
     86000   1.0326035      19.854135      238.05288    
     87000   0.99576141     18.889748      238.17735    
     88000   0.95593337     18.826192      237.84091    
     89000   1.0204205      19.798337      237.3987     
     90000   0.99628492     19.180009      237.27856    
     91000   0.97965539     19.405282      237.2587     
     92000   0.97289498     19.325156      237.2339     
     93000   0.96958985     19.262872      237.02559    
     94000   1.0130958      19.678358      236.84035    
     95000   1.0057751      19.405775      236.53224    
     96000   0.98393535     19.419532      236.33407    
     97000   0.99377496     19.712396      236.17454    
     98000   1.0339601      19.389513      235.93838    
     99000   1.00531        19.546711      235.66046    
    100000   1.0399579      19.373193      235.4803     
Loop time of 174.925 on 4 procs for 100000 steps with 1000 atoms

Performance: 493924.587 tau/day, 571.672 timesteps/s
105.1% CPU use with 2 MPI tasks x 2 OpenMP threads

MPI task timing breakdown:
Section |  min time  |  avg time  |  max time  |%varavg| %total
---------------------------------------------------------------
Pair    | 0.61671    | 0.6366     | 0.65648    |   2.5 |  0.36
Bond    | 1.2321     | 1.3717     | 1.5114     |  11.9 |  0.78
Neigh   | 167.48     | 167.48     | 167.48     |   0.0 | 95.75
Comm    | 1.8025     | 1.9061     | 2.0096     |   7.5 |  1.09
Output  | 0.21799    | 0.22097    | 0.22394    |   0.6 |  0.13
Modify  | 2.2636     | 2.544      | 2.8244     |  17.6 |  1.45
Other   |            | 0.7631     |            |       |  0.44

Nlocal:            500 ave         502 max         498 min
Histogram: 1 0 0 0 0 0 0 0 0 1
Nghost:          454.5 ave         456 max         453 min
Histogram: 1 0 0 0 0 0 0 0 0 1
Neighs:         2377.5 ave        2414 max        2341 min
Histogram: 1 0 0 0 0 0 0 0 0 1

Total # of neighbors = 4755
Ave neighs/atom = 4.755
Ave special neighs/atom = 1.998
Neighbor list builds = 1055
Dangerous builds = 0

# Replace lj potential, now collapse
pair_style      lj/cut 3

# Cutoff simul when gyration under 5
# Variable created with equal requires v_ + 'name'
fix 3 all halt 1000 v_rog < 5

run 5000000
Generated 0 of 0 mixed pair_coeff terms from geometric mixing rule
Last active /omp style is angle_style cosine/omp
Per MPI rank memory allocation (min/avg/max) = 939.7 | 940.3 | 940.9 Mbytes
   Step          Temp         Enthalpy         c_1      
    100000   1.0399579      18.951032      235.4803     
    101000   0.98340531     19.055776      235.39005    
    102000   0.97072731     18.928278      235.23648    
    103000   0.96354446     18.392364      235.1093     
    104000   1.032081       19.156666      234.90069    
    105000   1.0020475      19.409825      234.79665    
    106000   1.0152031      19.458171      234.64359    
    107000   1.0091262      19.365372      234.40532    
    108000   0.96435547     18.970444      234.45448    
    109000   0.99294759     18.781251      234.23687    
    110000   1.0186181      18.785114      234.19115    
    111000   0.98545142     19.230236      234.0537     
    112000   0.97359733     19.148146      233.93096    
    113000   1.0287359      18.752242      233.59088    
    114000   1.0127532      19.555945      233.47465    
    115000   1.0389057      18.622163      233.25183    
    116000   0.98785464     19.325407      233.19834    
    117000   0.98492403     19.018943      233.13058    
    118000   1.0212962      18.676927      232.85746    
    119000   1.0251083      19.117873      232.76485    
    120000   0.99740003     18.735021      232.68055    
    121000   1.0045211      19.200981      232.38126    
    122000   1.0197154      19.10735       232.078      
    123000   0.92871642     18.91414       232.03215    
    124000   0.99448832     18.749708      231.90722    
    125000   1.0234125      18.928151      231.71833    
    126000   0.96566189     18.92531       231.37033    
    127000   1.0228675      18.851979      231.13393    
    128000   1.0523675      19.668331      230.95773    
    129000   1.0349812      19.111889      230.77355    
    130000   1.0043508      19.004813      230.55029    
    131000   0.99315367     19.149346      230.34077    
    132000   0.98068484     18.835785      230.15548    
    133000   0.9680559      19.219324      230.04969    
    134000   1.0109757      18.533562      230.01523    
    135000   1.0296661      19.176271      229.94077    
    136000   0.95802        18.906817      229.81075    
    137000   0.97716211     18.752726      229.53603    
    138000   0.99904959     19.019331      229.5606     
    139000   1.0145299      18.717252      229.41118    
    140000   0.98588787     18.758507      229.18568    
    141000   0.99846533     18.998126      229.05765    
    142000   0.98631675     19.48416       228.90718    
    143000   1.0104208      19.65226       228.81592    
    144000   0.99634118     19.141945      228.5039     
    145000   1.0051342      19.096567      228.42646    
    146000   1.0175033      19.00946       228.126      
    147000   1.0028918      19.625836      227.88564    
    148000   1.0358564      19.28455       227.75366    
    149000   1.0265507      18.930421      227.64257    
    150000   1.0162369      18.648268      227.6508     
    151000   0.98246109     18.876886      227.48879    
    152000   0.99489958     19.550419      227.43647    
    153000   1.0126797      19.174528      227.22568    
    154000   1.0143431      19.24918       227.02922    
    155000   0.99303232     19.021172      226.69504    
    156000   0.98830825     19.045543      226.41554    
    157000   1.0313255      18.691764      226.27297    
    158000   1.0325057      19.389606      226.22991    
    159000   1.0080394      18.610824      226.07386    
    160000   1.0341213      19.138897      225.94823    
    161000   0.95571935     18.694521      225.81011    
    162000   0.94928035     18.568764      225.59125    
    163000   0.98055222     19.472439      225.4676     
    164000   1.0162303      19.264361      225.1222     
    165000   0.99547692     18.880498      224.97727    
    166000   0.96983667     19.008327      224.94166    
    167000   1.0235913      19.127692      224.78021    
    168000   0.98684404     18.782086      224.72608    
    169000   1.0130052      19.044493      224.45926    
    170000   1.0137402      19.327405      224.40236    
    171000   1.010801       19.026372      224.21567    
    172000   0.95079827     18.947365      224.03907    
    173000   1.0012888      18.867318      223.86266    
    174000   1.0097009      19.31683       223.58172    
    175000   1.0201797      18.253485      223.4745     
    176000   0.96644337     18.963071      223.4496     
    177000   1.0097209      18.671182      223.31875    
    178000   1.0263695      19.126581      223.17965    
    179000   0.98913198     19.116879      223.25674    
    180000   1.0151743      18.642494      223.2418     
    181000   1.0321689      19.252008      223.03315    
    182000   1.0310167      19.332031      222.97699    
    183000   1.0151329      19.549241      222.87676    
    184000   1.0295381      19.378623      223.08497    
    185000   1.0360312      19.033854      222.97465    
    186000   0.97895145     18.702135      222.88318    
    187000   0.99380252     18.634358      222.92173    
    188000   0.98266965     18.278374      222.82982    
    189000   1.0107461      19.025705      222.96023    
    190000   1.0662516      19.09755       222.98096    
    191000   1.028918       19.116723      222.95347    
    192000   1.0344466      19.414316      222.82973    
    193000   1.0552272      18.994918      222.66326    
    194000   0.997845       19.12064       222.56025    
    195000   1.0218098      18.963732      222.5495     
    196000   0.99853449     18.955773      222.28414    
    197000   0.95819592     18.45516       222.24309    
    198000   0.99321354     18.440687      222.11917    
    199000   0.9920783      18.956467      222.17307    
    200000   0.99916902     18.720027      222.10243    
    201000   1.0047969      19.226669      221.87714    
    202000   0.98563441     19.195285      221.95055    
    203000   1.0116542      18.708696      221.67074    
    204000   0.98021338     18.972594      221.57625    
    205000   0.97066619     18.928496      221.40411    
    206000   0.9748689      18.785842      221.21299    
    207000   1.0096167      19.222252      221.11649    
    208000   0.96904072     18.896335      220.99844    
    209000   0.96460121     18.836854      220.72753    
    210000   1.0300151      19.479519      220.67502    
    211000   1.0166434      18.952589      220.47563    
    212000   0.99394573     18.687115      220.35952    
    213000   0.99561554     19.274121      220.24216    
    214000   0.99392741     18.802098      219.94918    
    215000   0.96763499     19.108954      219.8915     
    216000   1.023799       19.09309       219.70833    
    217000   0.98778327     18.846077      219.57642    
    218000   0.98401298     19.538168      219.44727    
    219000   0.98420199     18.524742      219.34347    
    220000   0.9930378      18.913266      219.12792    
    221000   1.0514437      18.684139      218.88789    
    222000   1.0367586      18.702156      219.01946    
    223000   0.98284397     18.912634      218.85155    
    224000   0.99559588     19.088536      218.81527    
    225000   1.0465975      18.87451       218.71748    
    226000   0.97224989     19.404757      218.7743     
    227000   0.98426974     19.124708      218.61388    
    228000   1.0196086      18.799112      218.63643    
    229000   1.0375385      18.891147      218.64455    
    230000   0.99943174     19.047631      218.54966    
    231000   0.98596333     18.783004      218.61834    
    232000   0.97177526     18.464485      218.39835    
    233000   1.0160176      18.915658      218.28333    
    234000   1.0168629      18.828948      218.41682    
    235000   0.97336811     19.23918       218.34963    
    236000   1.0333631      19.250033      218.30292    
    237000   1.0088075      18.754155      218.1769     
    238000   1.0188671      18.964648      217.94845    
    239000   0.98469266     19.301272      217.75655    
    240000   1.0036612      18.900693      217.51345    
    241000   1.0070064      18.580095      217.31303    
    242000   1.0019446      19.632771      217.34187    
    243000   0.97160561     18.964004      217.29104    
    244000   1.0101466      19.094805      217.14025    
    245000   1.0200093      19.468306      216.86417    
    246000   1.0104703      19.111735      216.76597    
    247000   1.0081834      19.287991      216.84006    
    248000   1.0012144      18.047074      216.75227    
    249000   1.0063853      18.951263      216.61755    
    250000   0.99527345     18.679375      216.51604    
    251000   0.99018712     18.945842      216.39964    
    252000   0.98333026     18.934513      216.2277     
    253000   1.0010997      19.219628      216.13478    
    254000   1.0158964      19.242591      215.81586    
    255000   1.0283784      18.903366      215.82584    
    256000   0.96285763     19.407838      215.40146    
    257000   0.94278645     18.96935       215.30602    
    258000   0.97655241     18.577895      215.27698    
    259000   1.0259953      18.965466      215.19625    
    260000   0.96641661     18.695236      214.96846    
    261000   0.96177847     18.745816      214.85122    
    262000   1.0287201      18.646471      214.74651    
    263000   1.0240085      19.248106      214.67979    
    264000   1.0060154      19.214797      214.63026    
    265000   1.040308       18.719999      214.4045     
    266000   1.0141716      19.332071      214.20803    
    267000   1.0091924      19.931088      213.88261    
    268000   1.01088        18.894554      214.1141     
    269000   1.0095102      18.854722      213.90659    
    270000   0.9817367      18.860814      213.76123    
    271000   0.96267128     19.114758      213.60412    
    272000   0.97934299     19.332937      213.41646    
    273000   0.99217919     19.196816      213.35437    
    274000   1.0550194      18.843913      213.66862    
    275000   0.99788402     19.446693      213.39864    
    276000   0.96357105     18.390187      213.27161    
    277000   1.0216402      18.968255      213.29094    
    278000   0.99079421     18.460819      213.31908    
    279000   0.97972067     18.880352      213.04721    
    280000   0.96486426     18.83309       212.73441    
    281000   1.0283523      18.59221       212.71899    
    282000   0.97186682     18.829136      212.65094    
    283000   0.99855        18.810648      212.44807    
    284000   1.0324235      19.227364      212.36822    
    285000   1.0025399      18.878252      212.22651    
    286000   0.98292167     19.003087      212.02935    
    287000   1.0199328      19.187745      211.77259    
    288000   1.0057675      18.996438      211.64294    
    289000   0.98357144     18.940911      211.52621    
    290000   0.95748405     18.849876      211.43674    
    291000   1.0347528      19.261869      211.2515     
    292000   1.0151941      19.24539       211.24766    
    293000   1.0581222      19.304936      211.1811     
    294000   1.0245575      19.339257      211.30304    
    295000   1.0213269      19.037479      211.22734    
    296000   1.0011197      19.335588      210.87371    
    297000   0.98968485     18.748684      210.858      
    298000   1.0184951      19.081018      210.80756    
    299000   1.0294693      19.777185      210.60568    
    300000   0.9946491      19.504742      210.36823    
    301000   1.0008528      18.947669      210.29229    
    302000   0.99699218     19.186599      210.33037    
    303000   1.0130175      18.648043      210.40643    
    304000   1.0265833      19.407046      210.30808    
    305000   0.9624664      18.952741      210.21311    
    306000   0.98863227     19.309138      210.2224     
    307000   0.98113595     18.941068      210.21405    
    308000   0.97546219     19.390973      210.10028    
    309000   1.0316793      19.141551      209.97041    
    310000   0.95619597     18.772726      210.04648    
    311000   0.97493294     19.036231      210.04833    
    312000   0.98048378     19.229953      209.93126    
    313000   1.0322585      19.082933      209.87682    
    314000   0.95609284     18.728412      209.50105    
    315000   1.0027304      18.834174      209.03296    
    316000   1.0050331      19.240015      209.26161    
    317000   0.97413665     18.574076      209.11678    
    318000   1.010617       19.197672      209.07181    
    319000   0.95180653     19.268597      208.95117    
    320000   0.98436575     19.053967      208.77467    
    321000   1.0163402      18.981255      208.75585    
    322000   1.0414882      18.750326      208.58514    
    323000   0.94046009     18.895033      208.6265     
    324000   1.0275439      19.248734      208.66424    
    325000   0.96863087     18.861889      208.79882    
    326000   0.99073001     19.119719      208.5811     
    327000   0.97428777     19.047644      208.58637    
    328000   0.9847679      18.738424      208.43253    
    329000   0.99939458     19.120143      208.2911     
    330000   0.99451215     19.105567      208.00112    
    331000   1.0178546      18.786912      207.88804    
    332000   1.0296536      19.244615      207.74812    
    333000   0.98582766     18.443515      207.5079     
    334000   0.96583648     18.830981      207.32405    
    335000   1.0208031      19.026818      207.20355    
    336000   1.0060192      19.576029      206.969      
    337000   0.95413832     18.99762       206.92309    
    338000   0.99989639     18.848125      206.60152    
    339000   1.014909       19.000621      206.50425    
    340000   1.01495        19.255726      206.52307    
    341000   1.0190031      19.214743      206.46619    
    342000   0.97547073     19.183645      206.56174    
    343000   0.99947929     19.020485      206.72148    
    344000   1.0162332      19.62794       206.66389    
    345000   0.96929229     19.265824      206.56624    
    346000   0.98084648     18.844213      206.52672    
    347000   1.0047637      18.801803      206.37267    
    348000   1.0130884      18.740678      206.32841    
    349000   0.94849231     19.147255      206.18539    
    350000   0.99969742     19.176392      206.0722     
    351000   0.97755322     19.25296       206.04345    
    352000   0.98182337     18.97007       206.29165    
    353000   1.0046101      18.482369      206.04695    
    354000   1.0497198      18.991697      206.09884    
    355000   1.0383518      19.382746      206.09533    
    356000   0.95836958     18.809582      206.01767    
    357000   0.97116624     18.875907      206.19512    
    358000   1.0145972      18.897897      206.2029     
    359000   0.98428043     18.723399      206.34435    
    360000   0.98139929     19.291003      206.25807    
    361000   1.0004353      18.978521      206.18856    
    362000   1.0369201      19.07026       205.81063    
    363000   1.0076417      18.990219      205.60635    
    364000   1.0307887      18.985727      205.38486    
    365000   1.0182027      19.135649      205.18507    
    366000   0.97487645     19.387057      205.03802    
    367000   1.0125939      18.790851      204.94138    
    368000   1.0323396      19.191596      204.82969    
    369000   1.0065687      18.809561      204.97658    
    370000   0.97793426     18.862499      204.84877    
    371000   1.0323885      18.568431      204.80391    
    372000   0.9779762      18.786042      204.84194    
    373000   1.0346039      19.104441      204.70682    
    374000   0.99398788     19.297224      204.13834    
    375000   0.99815728     18.96709       204.07284    
    376000   0.99760283     18.961376      204.06527    
    377000   1.033212       18.906405      203.92018    
    378000   1.0115889      18.851093      203.84402    
    379000   0.99568231     18.668219      203.59742    
    380000   1.0342887      18.588622      203.3028     
    381000   1.0021087      18.961954      203.23923    
    382000   0.97469581     18.610437      202.99701    
    383000   1.0078485      18.766392      202.7762     
    384000   1.003209       19.12375       202.47483    
    385000   1.0364166      18.606645      202.56818    
    386000   1.0000412      18.561738      202.64027    
    387000   1.0036959      18.958645      202.57686    
    388000   0.98418202     19.094994      202.32875    
    389000   1.0298498      18.959006      202.26923    
    390000   1.0255436      19.219377      202.13881    
    391000   1.0392227      19.28625       202.21362    
    392000   0.92972352     18.902178      202.18867    
    393000   1.0269664      19.16243       201.94757    
    394000   0.9715724      18.821841      202.10877    
    395000   0.99550174     18.745235      201.83975    
    396000   0.98265019     18.735099      201.73645    
    397000   1.0410783      19.253209      201.74856    
    398000   1.0060936      18.928826      201.66341    
    399000   1.0208266      19.124971      201.60113    
    400000   0.99426673     18.955847      201.7317     
    401000   0.99263437     18.960202      201.66046    
    402000   1.0222801      19.210431      201.59612    
    403000   0.9673178      18.750875      201.55098    
    404000   0.95982424     18.901366      201.27702    
    405000   0.98839527     19.243727      200.7521     
    406000   0.99669844     18.648785      200.36529    
    407000   1.0108597      19.419641      200.13862    
    408000   1.0007112      19.259381      200.02795    
    409000   0.96637815     19.038849      199.89487    
    410000   0.9827871      18.757641      199.88936    
    411000   1.0089344      18.469638      199.73715    
    412000   0.96807555     18.860287      199.66953    
    413000   0.97538739     18.988856      199.63628    
    414000   0.99693312     18.946857      199.41286    
    415000   1.0196564      19.550666      199.12306    
    416000   1.0367202      19.558464      198.831      
    417000   1.0210075      18.489157      198.64378    
    418000   0.96110099     19.356178      198.41614    
    419000   0.97232067     19.415153      198.44811    
    420000   0.99535952     19.082122      198.37162    
    421000   1.0295049      19.035296      198.55046    
    422000   0.98164694     19.030769      198.56613    
    423000   0.98661342     18.868005      198.46047    
    424000   0.98613848     18.823557      198.48394    
    425000   0.97062477     18.688302      198.56463    
    426000   0.98205023     19.154893      198.42643    
    427000   1.0169943      18.650546      198.49837    
    428000   1.0385474      18.983355      198.54327    
    429000   0.9819741      18.805491      198.66081    
    430000   0.96283333     18.745252      198.50363    
    431000   0.99691426     18.850968      198.50662    
    432000   1.0368709      19.979763      198.34867    
    433000   0.96371249     18.751206      198.35884    
    434000   0.96919335     18.666623      197.90194    
    435000   1.0428361      19.197721      197.75761    
    436000   1.0166305      19.175078      197.54408    
    437000   1.006226       18.207665      197.34206    
    438000   1.0111054      19.044837      197.17939    
    439000   0.95850623     18.924117      197.02606    
    440000   0.98900749     18.884346      196.78732    
    441000   1.00561        18.607056      196.85946    
    442000   1.0258581      18.706789      196.79177    
    443000   1.0263458      18.729085      196.58528    
    444000   1.0160321      18.840847      196.54581    
    445000   1.0187259      18.902505      196.46099    
    446000   1.0453964      19.107755      196.4907     
    447000   1.0402072      18.938423      196.30359    
    448000   0.99134286     18.540636      196.13439    
    449000   1.0006812      18.837403      195.93552    
    450000   0.95837322     18.846641      195.7734     
    451000   1.0149598      18.993484      195.76263    
    452000   1.0378344      18.824602      195.90762    
    453000   0.96717139     19.239919      196.00511    
    454000   1.00072        19.149198      195.88145    
    455000   1.0148449      19.580963      195.86104    
    456000   1.0066412      19.410515      195.80978    
    457000   1.0005456      18.565403      195.64372    
    458000   1.006185       18.76402       195.45182    
    459000   1.0272821      19.187857      195.56357    
    460000   1.015612       19.235646      195.57017    
    461000   0.98994724     18.835631      195.48091    
    462000   1.0213995      18.750008      195.50724    
    463000   0.99634669     18.94263       195.43009    
    464000   0.9955966      18.818816      195.15807    
    465000   0.99019577     19.219593      195.03816    
    466000   0.98754464     19.130022      194.81912    
    467000   0.97183572     19.095838      194.75515    
    468000   0.99223494     18.662713      194.87134    
    469000   0.97089888     18.730222      194.71754    
    470000   1.0096088      18.741888      194.51036    
    471000   0.9840934      18.767532      194.4062     
    472000   0.96443817     18.991339      194.37263    
    473000   1.0111139      18.51937       194.2503     
    474000   1.0241393      19.021939      194.28066    
    475000   0.99715782     18.992481      193.92197    
    476000   0.99992623     18.574977      193.52906    
    477000   0.99863895     18.601695      193.40403    
    478000   0.96968837     18.641621      193.43811    
    479000   1.0262015      19.364801      193.36234    
    480000   1.0505495      18.81001       193.36061    
    481000   0.98503967     18.940409      193.15971    
    482000   1.0597531      19.170803      193.30118    
    483000   0.97719447     19.038711      193.01369    
    484000   1.0549783      18.612718      192.87696    
    485000   0.98591717     19.035971      192.66085    
    486000   0.9902629      19.486931      192.18715    
    487000   0.97827839     18.628218      192.06631    
    488000   1.030671       18.357533      191.75156    
    489000   0.98001015     19.155924      191.4786     
    490000   0.978235       18.564923      191.36418    
    491000   1.0131056      19.117748      191.21201    
    492000   1.0108272      18.762361      191.12772    
    493000   0.98791116     18.827718      190.90899    
    494000   0.94243452     18.814945      190.8385     
    495000   1.0208187      18.776314      190.67027    
    496000   1.0128395      18.971895      190.8476     
    497000   1.0604604      19.235871      190.85822    
    498000   1.027094       18.500555      190.62197    
    499000   0.98410373     18.730443      190.34494    
    500000   0.99565344     19.10778       190.19842    
    501000   1.0474501      19.272612      189.99256    
    502000   1.0538816      19.032536      190.19495    
    503000   0.98247496     18.518626      190.33289    
    504000   1.0084035      18.685866      190.04213    
    505000   1.0089995      19.04724       190.06903    
    506000   1.0216928      19.257153      190.02183    
    507000   1.0179559      18.883194      189.83526    
    508000   0.96974402     18.923477      189.59859    
    509000   1.003966       18.88461       189.42307    
    510000   0.98997952     18.726637      189.31304    
    511000   0.98837428     19.069603      189.1627     
    512000   0.98532094     18.819949      188.93881    
    513000   1.0259174      19.086509      188.87706    
    514000   0.99030505     18.505739      188.86134    
    515000   0.95793584     18.683942      188.77878    
    516000   0.9913147      18.691857      188.73632    
    517000   1.0230022      18.541777      188.83584    
    518000   0.98722795     18.907861      189.00013    
    519000   0.98325946     18.851342      189.05533    
    520000   1.0000775      18.929684      189.01788    
    521000   1.0161922      19.34298       189.01659    
    522000   1.0251456      19.384613      188.95105    
    523000   1.0028853      18.246086      188.69878    
    524000   0.97601923     18.898408      188.62037    
    525000   1.0187386      18.802143      188.68649    
    526000   0.99089957     18.378077      188.61245    
    527000   0.98412305     19.28914       188.72158    
    528000   0.99113731     18.719361      188.69543    
    529000   0.97576951     19.104302      188.58056    
    530000   0.99486736     19.560006      188.55658    
    531000   1.0272797      19.621071      188.53824    
    532000   0.99280577     18.568559      188.33361    
    533000   1.0026583      18.993809      188.15238    
    534000   0.9937255      18.75073       188.19119    
    535000   0.99040578     18.948366      188.32053    
    536000   1.0191809      19.142306      188.30271    
    537000   0.94660656     18.695428      188.23196    
    538000   1.0132618      19.436466      187.85486    
    539000   0.99329127     18.93524       187.64698    
    540000   0.97480684     19.319107      187.6153     
    541000   1.0001023      19.114133      187.50367    
    542000   0.99349093     18.824643      187.34197    
    543000   1.0125087      18.3929        187.34737    
    544000   1.0048828      18.825233      187.21213    
    545000   0.97692346     19.262462      187.088      
    546000   1.0161542      18.694837      187.04901    
    547000   0.99674528     18.618695      186.89606    
    548000   1.0098367      19.105484      186.66059    
    549000   1.021759       18.56401       186.75257    
    550000   1.063751       18.573601      186.65471    
    551000   0.9886601      18.52156       186.71365    
    552000   0.99289151     18.888257      186.69676    
    553000   1.0173353      18.732467      186.54747    
    554000   0.98020788     19.088008      186.46376    
    555000   0.99837064     18.77246       186.44757    
    556000   0.98736582     18.363115      186.04612    
    557000   1.0013055      19.177807      185.84201    
    558000   1.0008169      19.193385      185.79666    
    559000   1.0068935      18.597121      185.84686    
    560000   0.99739384     18.646825      185.72778    
    561000   0.99057024     18.960799      185.83683    
    562000   1.0413681      18.545058      185.70423    
    563000   0.98636924     18.448372      185.46042    
    564000   1.0370057      19.226345      185.48215    
    565000   1.0008304      18.858886      185.39105    
    566000   1.0181957      19.325252      185.19717    
    567000   0.97741223     18.41858       185.4728     
    568000   0.99586958     19.324453      185.46927    
    569000   1.0263703      18.538695      185.2988     
    570000   0.95876922     18.5441        185.08676    
    571000   0.99098223     18.93363       184.97998    
    572000   1.0086655      18.845697      184.77346    
    573000   1.01134        18.331279      184.65552    
    574000   0.9846328      18.89991       184.76063    
    575000   1.0420209      18.662197      184.77571    
    576000   1.0531666      18.861528      184.70255    
    577000   0.97769943     18.43369       184.61633    
    578000   1.0248047      19.013531      184.73053    
    579000   1.0397835      18.991876      184.76377    
    580000   0.99046908     18.849411      184.63865    
    581000   1.0448147      18.789696      184.48465    
    582000   1.0070127      18.913218      184.49963    
    583000   1.0171756      18.796841      184.2679     
    584000   1.0400376      18.039313      184.1575     
    585000   0.98378822     19.069506      184.10578    
    586000   1.0131119      18.622427      184.00237    
    587000   1.0047727      18.775537      183.8949     
    588000   0.98851804     19.164521      183.84103    
    589000   1.0337345      18.671866      183.64837    
    590000   1.0072052      18.957502      183.49885    
    591000   1.0171267      18.916505      183.44242    
    592000   1.0186635      18.781915      183.52039    
    593000   0.99011229     18.912356      183.53527    
    594000   1.0175428      18.670556      183.27944    
    595000   1.0337467      18.731416      183.03981    
    596000   1.0010459      18.78876       182.88014    
    597000   1.0547455      18.687422      182.61914    
    598000   1.0858547      19.416269      182.50516    
    599000   1.0169196      18.718834      182.63147    
    600000   1.0169087      18.610933      182.69358    
    601000   0.97335233     18.836117      182.71296    
    602000   1.0098826      18.441954      182.67967    
    603000   1.0134311      19.727938      182.55833    
    604000   1.0051817      18.999524      182.35283    
    605000   1.0324755      18.78979       182.40928    
    606000   1.0281002      19.434846      182.40314    
    607000   0.97128608     18.340795      182.52162    
    608000   1.0082898      18.983689      182.64064    
    609000   0.98903367     18.614997      182.36546    
    610000   0.98603846     18.469796      182.1772     
    611000   0.98915005     18.535254      181.95605    
    612000   1.0019466      19.08137       181.79749    
    613000   0.9650723      18.946385      181.71478    
    614000   0.98556397     19.476046      181.36643    
    615000   1.0456826      18.61002       181.03919    
    616000   1.0053648      19.265118      180.79049    
    617000   0.98880915     18.701756      180.80017    
    618000   1.0387278      18.771314      180.83335    
    619000   1.0048032      18.573422      180.91428    
    620000   0.95841449     18.548388      180.88514    
    621000   0.9930301      19.228308      180.7689     
    622000   0.96914621     18.718595      180.78055    
    623000   1.0123187      18.941066      180.64435    
    624000   1.0105638      18.752042      180.50349    
    625000   1.0124455      18.675821      180.34732    
    626000   1.0237631      18.831068      180.50782    
    627000   1.0172368      18.876508      180.35972    
    628000   1.0176005      18.282142      180.33771    
    629000   1.005136       18.371014      180.12296    
    630000   0.99087856     18.744281      180.19876    
    631000   0.94343423     18.362821      180.19317    
    632000   0.94980129     18.786946      180.17682    
    633000   0.99162219     18.758822      180.06816    
    634000   1.0061264      18.652915      179.96878    
    635000   0.96006279     18.392818      179.93759    
    636000   0.98880754     18.71087       179.77358    
    637000   0.94760016     18.495254      179.74209    
    638000   0.98522153     19.163944      179.63164    
    639000   0.98042555     18.781436      179.6659     
    640000   1.0072985      19.071881      179.54575    
    641000   1.0005889      18.954331      179.53626    
    642000   1.0154581      18.423036      179.06218    
    643000   1.0088904      18.940293      178.99106    
    644000   0.99285046     18.393633      178.89841    
    645000   1.0172408      18.770212      179.01184    
    646000   0.97173517     18.166416      178.84956    
    647000   1.0507833      19.19953       178.89647    
    648000   1.04068        18.545596      178.88065    
    649000   1.0286968      19.004097      178.95505    
    650000   1.0024746      18.331029      179.09231    
    651000   0.96100089     18.581591      179.12776    
    652000   0.98903956     18.256887      179.12074    
    653000   0.96002146     18.324997      179.13582    
    654000   1.0429153      19.662269      179.19713    
    655000   0.96939095     18.607511      179.0153     
    656000   0.95566179     18.39871       178.7779     
    657000   0.99288281     18.799128      178.8971     
    658000   1.0344438      18.85834       178.91947    
    659000   0.97737665     18.948773      178.82995    
    660000   1.0070797      19.238709      178.63193    
    661000   1.0179438      19.388432      178.75601    
    662000   0.98802478     19.054078      178.84015    
    663000   0.95016092     18.563139      178.82562    
    664000   1.0055335      19.211916      178.613      
    665000   0.97808413     18.147447      178.43545    
    666000   1.0647234      18.483113      178.31771    
    667000   0.98550751     18.414447      178.29538    
    668000   0.98235131     18.407934      178.28193    
    669000   1.0311144      19.314352      178.21868    
    670000   1.0091818      18.790894      178.17818    
    671000   0.98654652     18.339154      178.01761    
    672000   1.0152026      18.550994      177.86614    
    673000   0.94280663     18.075099      177.92311    
    674000   1.0146396      18.819294      177.80322    
    675000   0.96404386     18.744439      177.75375    
    676000   1.0217298      18.862664      177.83323    
    677000   0.98372473     19.139791      177.6925     
    678000   0.9730658      18.509274      177.76761    
    679000   1.022663       18.953265      177.8113     
    680000   1.0022543      18.553141      177.79448    
    681000   1.0165797      18.589768      177.66571    
    682000   1.0017028      18.735326      177.50115    
    683000   1.0143327      18.99263       177.52017    
    684000   0.99267372     18.564765      177.34655    
    685000   1.0414174      18.908983      177.29174    
    686000   1.0172474      18.644849      176.99772    
    687000   1.0279776      19.147777      176.96728    
    688000   1.0254863      18.57246       176.96023    
    689000   0.99957791     18.237674      176.88868    
    690000   0.98503972     18.718175      176.76925    
    691000   1.0120349      18.585584      176.65646    
    692000   1.0095508      18.592327      176.48968    
    693000   0.98930658     18.505856      176.31118    
    694000   1.0574636      19.03381       176.28569    
    695000   0.98589834     18.526905      176.15933    
    696000   0.99303205     18.907275      175.78982    
    697000   1.0044384      19.078841      175.60787    
    698000   1.0390204      18.834959      175.54422    
    699000   0.99252169     18.777055      175.48869    
    700000   1.006328       18.49902       175.42775    
    701000   1.0038739      18.793289      175.09984    
    702000   0.99865133     18.362358      174.82853    
    703000   0.9909259      19.359653      174.84687    
    704000   1.0064983      18.66727       175.07089    
    705000   0.94536009     18.474275      175.18292    
    706000   1.0224694      18.357074      175.01444    
    707000   1.0137879      18.831169      175.03275    
    708000   1.0304876      19.011805      175.07415    
    709000   0.99417019     18.837443      175.17509    
    710000   1.0020681      18.762261      175.0391     
    711000   1.030492       18.776408      174.93464    
    712000   0.97298361     18.518514      175.02039    
    713000   1.0010978      18.803673      174.80938    
    714000   1.0178701      18.836319      174.66681    
    715000   1.0310137      18.965908      174.23763    
    716000   0.97921963     18.278818      173.96007    
    717000   0.99424202     18.338254      174.11766    
    718000   1.0126996      18.719752      173.98011    
    719000   1.018581       18.796511      174.05137    
    720000   1.0464381      18.881028      174.00327    
    721000   0.94062805     18.184829      173.86856    
    722000   0.99553619     18.527576      173.93746    
    723000   0.99827339     18.91884       173.99086    
    724000   1.0059992      18.573549      173.96428    
    725000   0.99867202     18.102902      173.91491    
    726000   1.0283976      18.729411      173.55979    
    727000   0.98262371     18.566033      173.58691    
    728000   1.013548       18.978819      173.41794    
    729000   1.0154321      18.739402      173.33105    
    730000   1.0017184      18.628219      173.21969    
    731000   0.97255239     18.857565      173.0015     
    732000   0.97637251     18.4485        172.93798    
    733000   1.0512138      18.824402      172.84344    
    734000   0.95890086     18.81965       172.7027     
    735000   0.97917644     18.86664       172.49853    
    736000   0.96801776     18.372364      172.46704    
    737000   1.0331097      19.590322      172.32531    
    738000   0.99374631     18.591939      172.21873    
    739000   0.97044068     18.628517      172.11549    
    740000   1.0117952      18.776018      171.94421    
    741000   0.96906757     18.388553      171.97787    
    742000   1.0396013      18.805103      171.74934    
    743000   0.99860681     18.864313      171.51111    
    744000   1.0111201      19.109161      171.38674    
    745000   1.0254438      18.041898      171.3825     
    746000   1.0157284      18.94335       171.46786    
    747000   1.0157188      19.164483      171.35971    
    748000   1.0095877      18.783677      171.18361    
    749000   0.98380215     19.006672      171.10864    
    750000   0.96765995     18.475683      171.29061    
    751000   1.0191363      18.869599      171.19661    
    752000   1.015565       18.710165      171.08563    
    753000   1.0253943      18.695961      170.98718    
    754000   0.95685332     18.141627      170.65546    
    755000   1.0444996      19.048172      170.76478    
    756000   0.98494641     18.288247      170.52465    
    757000   0.98466062     18.927149      170.42855    
    758000   1.0102756      18.230695      170.305      
    759000   1.0189261      19.040193      170.15942    
    760000   1.0290631      18.88757       170.09553    
    761000   0.95612493     18.51817       170.09185    
    762000   1.0060874      19.061931      170.10951    
    763000   1.0306315      18.350439      170.32205    
    764000   1.0168299      18.862027      170.27323    
    765000   1.0047839      18.67859       170.13321    
    766000   0.97290315     17.984631      170.15353    
    767000   0.97606727     18.64062       170.15288    
    768000   1.0051184      18.910148      170.13788    
    769000   0.94943136     17.979573      170.2453     
    770000   0.97858821     18.754819      170.09496    
    771000   1.0168214      18.927205      170.0169     
    772000   0.97736303     18.200798      169.92128    
    773000   0.96767433     18.443067      169.84463    
    774000   1.0229004      18.730213      169.87678    
    775000   0.96805197     18.287525      169.7853     
    776000   1.0139268      18.859424      169.74505    
    777000   0.95320182     18.524226      169.58695    
    778000   0.99838064     18.798138      169.64857    
    779000   0.97042549     18.707135      169.62177    
    780000   1.0390591      18.763071      169.59933    
    781000   0.98555483     18.82122       169.93961    
    782000   1.0290321      19.015278      169.91777    
    783000   0.99454443     18.687694      169.62265    
    784000   1.0254509      18.261679      169.5163     
    785000   1.0234725      18.831848      169.56838    
    786000   0.96861454     18.441166      169.24546    
    787000   1.0041823      18.493236      169.05421    
    788000   0.97527338     18.308853      168.85551    
    789000   0.97165394     18.644766      168.9989     
    790000   0.99753439     18.732241      168.96868    
    791000   1.0355898      18.915673      168.8823     
    792000   1.0020857      18.710793      168.95783    
    793000   1.0053824      18.376326      168.59452    
    794000   1.0130028      18.555446      168.30175    
    795000   0.99430317     18.955771      168.46449    
    796000   1.0147484      18.538529      168.47073    
    797000   1.0418156      18.470925      168.52046    
    798000   0.96208695     18.457723      168.50267    
    799000   1.0493352      18.535816      168.42921    
    800000   1.0395558      18.712935      168.3302     
    801000   0.97558237     18.386572      168.58596    
    802000   1.0436559      18.400888      168.61291    
    803000   1.0090776      18.611384      168.57276    
    804000   1.027841       19.185562      168.10769    
    805000   0.98401292     18.754896      167.95703    
    806000   1.011691       18.971756      168.09835    
    807000   1.0517343      18.873049      168.16319    
    808000   0.98080201     17.990354      168.02611    
    809000   0.97385334     18.927942      167.98666    
    810000   0.99055741     19.143833      167.8393     
    811000   0.98817706     18.520823      167.57788    
    812000   0.97532487     18.248924      167.32886    
    813000   1.0152401      18.723584      167.48569    
    814000   0.99610348     19.397097      167.56325    
    815000   1.000462       18.180882      167.38799    
    816000   0.98434345     18.659789      167.49805    
    817000   1.0171958      19.456478      167.36524    
    818000   0.99476163     18.924656      167.07327    
    819000   0.97699429     19.133161      166.97376    
    820000   1.0160724      19.100741      166.98518    
    821000   0.97352159     18.499408      166.79759    
    822000   0.97543414     18.293687      166.63519    
    823000   0.98520511     18.250014      166.72011    
    824000   0.98059701     18.711343      166.78766    
    825000   1.0357469      18.889789      166.43665    
    826000   0.99916619     18.209382      166.49528    
    827000   1.0025074      18.902329      166.28158    
    828000   1.04612        19.14937       166.08035    
    829000   0.98632536     18.478058      166.00468    
    830000   1.0211854      19.153193      166.01069    
    831000   1.02385        18.948314      166.01311    
    832000   0.93428697     19.199908      165.92423    
    833000   0.9957265      18.758019      165.69037    
    834000   0.9977033      18.725592      165.54292    
    835000   0.98319273     18.580504      165.51747    
    836000   1.0566865      18.782886      165.20715    
    837000   0.99465657     18.162573      165.00926    
    838000   1.0064967      18.820547      164.84156    
    839000   1.0740191      19.113368      164.53507    
    840000   0.95438091     18.892104      164.25053    
    841000   1.0021737      18.553064      164.24645    
    842000   1.0148071      19.055565      164.10823    
    843000   1.0073491      18.735016      164.13012    
    844000   1.0596236      18.33646       163.9657     
    845000   1.0412468      18.648888      163.63967    
    846000   0.99910909     18.45824       163.52877    
    847000   0.97337975     18.593974      163.6456     
    848000   1.0223246      18.714827      163.54485    
    849000   0.99717806     18.595958      163.16616    
    850000   0.96612086     18.372492      163.10086    
    851000   1.0154323      18.49094       162.76845    
    852000   1.0339734      18.313291      162.75006    
    853000   0.92888263     18.453701      162.53253    
    854000   0.98485591     18.77992       162.62272    
    855000   0.9645499      18.726437      162.6179     
    856000   1.0070366      18.366625      162.48917    
    857000   0.9889752      18.764552      162.4132     
    858000   1.0084499      18.40501       162.21252    
    859000   0.97710078     18.420607      162.1443     
    860000   0.97243492     18.838467      161.79316    
    861000   1.0175485      18.537512      161.76877    
    862000   0.98723709     18.193631      161.65458    
    863000   1.0406824      18.728593      161.45816    
    864000   0.98897294     18.137407      161.3351     
    865000   1.0088225      18.476275      161.17637    
    866000   0.98922343     18.453473      161.0707     
    867000   1.0052171      18.791576      161.19174    
    868000   0.98434653     18.138524      160.89572    
    869000   0.98034849     18.264061      160.80678    
    870000   0.97345464     18.301341      160.71604    
    871000   0.99042203     18.360001      160.55427    
    872000   1.0356551      18.418911      160.31017    
    873000   0.97907023     18.008284      160.21177    
    874000   1.0148123      18.552327      159.93879    
    875000   0.99914024     18.311896      159.99377    
    876000   1.0056736      18.567857      159.72188    
    877000   1.0173986      18.744528      159.76928    
    878000   0.99391693     18.455102      159.80521    
    879000   1.0175022      18.838452      159.53151    
    880000   1.0037107      18.726744      159.2778     
    881000   0.99383338     18.626941      159.15638    
    882000   1.0083101      18.431336      159.20671    
    883000   1.0280842      18.564119      158.93476    
    884000   1.0090034      18.184382      158.8459     
    885000   0.96955532     18.561833      158.93091    
    886000   0.96666845     18.592788      158.60234    
    887000   0.97808855     18.889899      158.71418    
    888000   0.99742175     18.884124      158.60154    
    889000   0.98637893     18.599518      158.29847    
    890000   1.0144793      18.298311      158.01067    
    891000   1.0057259      18.486549      157.75973    
    892000   1.0219409      18.332762      157.63277    
    893000   0.98300152     18.468135      157.56798    
    894000   0.97554461     18.535692      157.59052    
    895000   0.98679333     18.243994      157.52581    
    896000   0.98076183     18.318156      157.48066    
    897000   1.0275222      19.001559      157.59382    
    898000   0.9847443      18.371071      157.41216    
    899000   0.98839221     18.257878      157.3692     
    900000   1.0130222      18.512754      157.27826    
    901000   0.96780955     18.176269      157.27938    
    902000   1.0223162      18.788072      157.14688    
    903000   1.0258288      18.634644      157.43322    
    904000   1.0081463      18.505696      157.43979    
    905000   1.0054285      18.640713      157.51254    
    906000   1.017611       18.885594      157.44201    
    907000   0.98915422     18.518724      157.23719    
    908000   1.0254376      18.875647      157.29129    
    909000   0.96386237     18.352228      157.21944    
    910000   1.0175995      18.079831      157.04729    
    911000   0.96727814     18.574578      156.81668    
    912000   1.0471729      18.415606      156.71557    
    913000   1.0081798      18.532574      156.85075    
    914000   1.0458686      18.408557      156.90874    
    915000   1.0140735      18.99057       156.79405    
    916000   0.9685817      18.620234      156.76736    
    917000   1.0049247      18.366094      156.58284    
    918000   1.0403447      18.593717      156.44815    
    919000   0.98917276     18.27578       156.22362    
    920000   1.0020717      18.533416      156.12552    
    921000   1.0097035      18.708918      155.987      
    922000   1.0227719      18.875708      156.03783    
    923000   0.96788254     18.816528      155.97177    
    924000   0.96939653     18.58693       156.08464    
    925000   0.99155955     18.724009      155.99641    
    926000   1.0099253      18.064405      155.9824     
    927000   0.97736223     18.249725      155.66511    
    928000   0.97642779     18.693087      155.5331     
    929000   0.97519324     18.448363      155.50603    
    930000   1.0302082      18.229843      155.46866    
    931000   1.0202129      19.166672      155.3625     
    932000   0.98477378     18.241015      155.03301    
    933000   1.0221242      18.73293       155.0293     
    934000   0.99415656     18.880438      154.869      
    935000   1.0276021      18.825514      154.89059    
    936000   1.0438293      18.248388      154.89929    
    937000   0.98579034     18.4721        154.72597    
    938000   0.98407265     18.605615      154.71292    
    939000   0.99238082     18.75692       154.83694    
    940000   0.95925338     18.291071      154.86463    
    941000   1.043204       18.167334      154.91914    
    942000   1.0413227      18.569291      154.68001    
    943000   1.0325784      18.810217      154.44212    
    944000   1.0130441      18.501398      154.56457    
    945000   0.9707198      18.013394      154.41275    
    946000   1.021708       18.182707      154.11241    
    947000   0.97330962     19.050165      153.97171    
    948000   1.032846       18.466997      153.99367    
    949000   1.013768       18.828059      153.98018    
    950000   0.99697205     18.324027      154.04879    
    951000   1.0021803      18.496865      154.14199    
    952000   0.97782031     18.823782      153.98486    
    953000   1.017628       18.524837      153.85663    
    954000   1.0302508      18.518552      153.7759     
    955000   1.0146449      19.345507      153.65037    
    956000   0.99212274     18.550958      153.39557    
    957000   1.0085615      18.268598      153.32232    
    958000   0.96985159     18.265074      153.3773     
    959000   0.92476289     18.459072      153.45018    
    960000   1.0294421      18.59633       153.30527    
    961000   1.0349304      18.809957      153.25224    
    962000   0.99554653     18.382498      153.22749    
    963000   0.99737586     18.186327      153.19124    
    964000   1.0647794      18.680598      152.98117    
    965000   0.99438185     18.427943      152.61684    
    966000   1.0047788      18.873771      152.44341    
    967000   1.0234793      18.703711      152.37895    
    968000   1.0098588      18.278632      152.60919    
    969000   1.0597273      18.602962      152.47288    
    970000   0.98476333     18.857168      152.32294    
    971000   0.96107129     18.729402      152.02416    
    972000   0.99516017     18.436623      151.98282    
    973000   0.96023069     18.769431      152.02737    
    974000   0.97299618     18.456383      151.5299     
    975000   0.99776318     18.896992      151.53114    
    976000   0.99330125     18.797895      151.36849    
    977000   0.98950086     18.596206      151.24633    
    978000   0.98679118     18.863924      150.93742    
    979000   1.032704       18.665774      150.97353    
    980000   1.0120884      18.957037      150.8323     
    981000   0.97892168     18.790585      150.82282    
    982000   0.93461977     18.453977      150.72003    
    983000   1.0342125      18.686966      150.62036    
    984000   0.99935123     18.381598      150.49823    
    985000   1.03961        18.315655      150.36831    
    986000   0.9773802      18.230103      150.28689    
    987000   1.0526313      18.273277      150.0912     
    988000   0.98814458     18.803781      150.14621    
    989000   1.0052953      18.125713      150.17152    
    990000   1.0264717      19.336573      150.18152    
    991000   0.99551149     18.335776      149.91555    
    992000   1.0083759      19.391059      149.78397    
    993000   1.0307828      18.703944      149.6384     
    994000   0.98965958     18.394907      149.72206    
    995000   0.97522482     17.997965      149.85162    
    996000   1.036824       18.765354      149.96477    
    997000   1.0323598      18.240084      149.92863    
    998000   1.0512572      18.448142      149.92002    
    999000   1.0003906      18.952255      149.79574    
   1000000   1.0249453      18.939487      149.80107    
   1001000   1.0019171      17.77283       149.83105    
   1002000   0.99353269     18.230549      149.83369    
   1003000   1.0066967      18.425829      149.70882    
   1004000   0.98142387     18.662217      149.70397    
   1005000   0.9736832      19.085818      149.37878    
   1006000   0.96299164     18.35491       149.57072    
   1007000   0.97447466     18.057243      149.46311    
   1008000   0.99065602     17.867841      149.51794    
   1009000   1.0522016      19.363214      149.30254    
   1010000   1.0093479      18.348395      149.09234    
   1011000   0.9957144      18.481836      148.79087    
   1012000   0.97930722     18.547843      148.75118    
   1013000   1.0164357      18.445389      148.68302    
   1014000   0.98249515     18.194066      148.81285    
   1015000   1.0010601      18.48564       148.76357    
   1016000   1.0263997      18.377701      148.52745    
   1017000   0.96021268     18.772813      148.62482    
   1018000   1.0423991      19.004738      148.50316    
   1019000   1.0179993      18.312029      148.42775    
   1020000   0.9967351      18.306017      148.15701    
   1021000   0.97802301     18.589204      148.06634    
   1022000   1.0169485      18.339425      147.85308    
   1023000   1.0227225      18.3637        147.75412    
   1024000   0.98285028     18.423399      147.63529    
   1025000   1.0309189      18.161306      147.84488    
   1026000   1.0165672      18.447933      147.83357    
   1027000   1.0379195      18.460142      147.56971    
   1028000   0.95755955     18.137597      147.48392    
   1029000   0.9918229      18.741682      147.42042    
   1030000   1.0004566      18.260325      147.52288    
   1031000   1.0057526      18.285451      147.31024    
   1032000   0.9837302      18.520708      147.35042    
   1033000   0.95880099     18.174011      147.38104    
   1034000   1.030765       18.490873      147.49794    
   1035000   0.94736649     18.305653      147.42096    
   1036000   0.98374605     18.16881       147.17334    
   1037000   0.98141882     18.173237      147.09388    
   1038000   1.031068       18.457219      147.10545    
   1039000   0.97194096     17.897549      147.01055    
   1040000   0.99987293     18.004207      146.96817    
   1041000   1.0543343      18.480377      146.98571    
   1042000   0.99146065     18.485385      146.78508    
   1043000   0.98554495     18.224774      147.00417    
   1044000   1.0318993      18.651822      146.84797    
   1045000   1.0055992      18.66535       146.97288    
   1046000   0.99540193     18.478305      146.84916    
   1047000   0.9448578      18.207992      146.88008    
   1048000   1.0252695      18.474102      146.85907    
   1049000   1.008636       18.125357      146.59296    
   1050000   1.004966       18.764109      146.63616    
   1051000   0.99907082     18.06032       146.76744    
   1052000   0.9999976      18.240595      146.80696    
   1053000   1.0208243      18.346809      146.75583    
   1054000   1.0035208      17.904417      146.67342    
   1055000   0.99248949     17.902977      146.52456    
   1056000   0.98028852     18.350321      146.37047    
   1057000   0.9982606      18.306687      146.36803    
   1058000   0.99265022     18.532296      146.4395     
   1059000   1.0445439      19.177491      146.18985    
   1060000   1.0213035      18.651036      146.29532    
   1061000   0.99316975     18.210242      146.35306    
   1062000   0.99623438     18.122492      146.16199    
   1063000   0.98665451     18.418183      146.06673    
   1064000   0.94931761     18.532317      145.93376    
   1065000   0.9892007      18.253851      145.82813    
   1066000   0.98988791     19.077507      145.87104    
   1067000   0.99458672     18.337295      145.83685    
   1068000   1.0160894      18.866256      145.84337    
   1069000   1.0067242      18.581498      145.7568     
   1070000   1.0141464      18.605732      145.69014    
   1071000   0.98755089     17.763757      145.73986    
   1072000   1.0106021      18.414394      145.73854    
   1073000   0.97514968     17.987346      145.57071    
   1074000   1.0241683      18.139179      145.57915    
   1075000   0.96510688     18.094593      145.48356    
   1076000   0.93366924     17.909038      145.50054    
   1077000   0.99298186     18.387077      145.51964    
   1078000   1.0017814      18.588089      145.52455    
   1079000   1.0115414      18.413494      145.34804    
   1080000   1.0271767      18.452821      145.13262    
   1081000   0.96002481     18.166342      145.43752    
   1082000   0.95376137     17.700278      145.32532    
   1083000   1.0119366      18.451147      145.24297    
   1084000   1.0145234      18.304131      145.28266    
   1085000   0.99210084     18.229128      145.17397    
   1086000   1.0577162      18.226474      145.29232    
   1087000   1.0356061      18.340491      145.32412    
   1088000   1.0233921      18.601069      145.30067    
   1089000   0.98253477     18.297897      145.22302    
   1090000   1.0090885      18.912248      145.30866    
   1091000   0.98329871     18.038963      145.07761    
   1092000   0.98573787     17.82922       144.96198    
   1093000   1.0147146      18.631394      144.88114    
   1094000   1.023838       18.337538      144.82289    
   1095000   1.0000365      18.307455      144.78983    
   1096000   1.0232235      17.914641      144.62751    
   1097000   1.0035352      17.860955      144.50545    
   1098000   0.99722059     18.09894       144.26049    
   1099000   1.0330169      18.036561      144.15971    
   1100000   1.0306942      18.123355      144.11147    
   1101000   0.99030081     18.168648      144.04979    
   1102000   1.0079033      18.085311      143.91579    
   1103000   1.0052052      18.515339      143.70021    
   1104000   0.96668181     18.282829      143.7655     
   1105000   1.0065116      18.318691      143.79098    
   1106000   1.0541417      18.430999      143.72682    
   1107000   1.0023969      18.467079      143.66162    
   1108000   0.98389341     18.216818      143.46944    
   1109000   0.99962862     18.533956      143.63655    
   1110000   0.98180166     18.867415      143.67745    
   1111000   1.0175879      18.312161      143.76185    
   1112000   1.0129719      18.527649      143.8204     
   1113000   0.98111757     18.381791      143.68693    
   1114000   0.99482759     18.443261      143.64678    
   1115000   0.9830432      18.530116      143.62341    
   1116000   0.98426372     18.563867      143.44765    
   1117000   0.95580176     18.422236      143.24927    
   1118000   0.96692897     17.531265      143.18642    
   1119000   1.0163213      18.672103      143.21666    
   1120000   1.0278739      18.122262      142.8314     
   1121000   0.99176412     18.024443      142.87513    
   1122000   1.0118003      18.120785      142.9312     
   1123000   1.0448695      18.316093      142.83114    
   1124000   1.0259887      18.03874       142.64785    
   1125000   1.0017397      18.597695      142.38637    
   1126000   1.0073356      18.215446      142.17462    
   1127000   1.0010033      18.289749      142.27743    
   1128000   1.0017172      18.581492      142.27074    
   1129000   1.0032994      18.117385      142.33825    
   1130000   0.97847121     18.533664      142.29541    
   1131000   0.98922655     18.009293      142.17491    
   1132000   1.0123705      17.892672      141.88194    
   1133000   0.9853013      18.920064      141.61519    
   1134000   1.0493654      18.362341      141.39492    
   1135000   1.008143       17.933259      141.36543    
   1136000   1.0061606      18.425301      141.24906    
   1137000   1.005963       18.77671       141.04353    
   1138000   1.0306418      18.380756      140.84919    
   1139000   1.003675       18.229949      140.73419    
   1140000   1.0300975      18.174632      140.4337     
   1141000   1.039725       18.669708      140.23508    
   1142000   1.0162574      18.33626       139.90568    
   1143000   0.95498599     18.062332      139.60822    
   1144000   1.0143314      18.580468      139.64344    
   1145000   1.004617       18.177337      139.46041    
   1146000   0.95705337     18.40838       139.2416     
   1147000   1.0720709      18.524329      139.25339    
   1148000   1.0341721      18.096069      139.23403    
   1149000   0.9504561      17.850961      139.06719    
   1150000   1.0072692      18.193644      139.18895    
   1151000   1.0084627      18.730426      139.09682    
   1152000   1.0230946      18.310214      139.08178    
   1153000   1.0390561      18.849769      139.08704    
   1154000   0.99888257     18.392051      139.32835    
   1155000   1.0519843      18.412828      139.36739    
   1156000   1.0315283      18.388795      139.03942    
   1157000   1.0312441      18.687017      138.79778    
   1158000   0.99659132     18.172376      138.63739    
   1159000   0.96151345     18.534494      138.68889    
   1160000   1.0266751      18.323215      138.65886    
   1161000   0.98354956     18.429932      138.77716    
   1162000   1.018902       18.824315      138.53885    
   1163000   1.0159487      18.507984      138.3735     
   1164000   1.0331604      18.830419      138.21692    
   1165000   1.0106519      18.059957      138.19005    
   1166000   0.95821396     18.364414      138.1219     
   1167000   0.99682657     18.311972      137.92601    
   1168000   0.99516315     17.78365       137.97298    
   1169000   1.0290518      18.518718      137.80706    
   1170000   1.0487729      18.429992      137.84127    
   1171000   0.97841817     17.80163       137.72039    
   1172000   1.0082463      18.252565      137.63482    
   1173000   1.0100772      18.414567      137.69628    
   1174000   0.98325216     18.336257      137.63388    
   1175000   0.99213896     18.142509      137.57376    
   1176000   1.0793772      18.947222      137.36092    
   1177000   1.0279796      18.660886      137.29944    
   1178000   0.99525536     18.007938      137.03364    
   1179000   0.95361232     17.743188      136.83181    
   1180000   0.9920914      17.574271      136.74687    
   1181000   1.0198717      18.432086      136.69271    
   1182000   0.94394598     18.031487      136.70528    
   1183000   0.99245988     18.835763      136.41617    
   1184000   0.98789085     17.467815      136.16651    
   1185000   1.0135032      18.227738      136.00955    
   1186000   0.97978772     18.387785      135.89064    
   1187000   0.97291119     18.046008      135.65372    
   1188000   1.0139032      18.394523      135.50356    
   1189000   1.0145841      18.307218      135.42833    
   1190000   1.0357086      18.688951      135.24011    
   1191000   1.0036435      17.851166      135.23894    
   1192000   0.97847732     18.132774      135.2549     
   1193000   1.0282418      18.135711      135.2218     
   1194000   1.0150059      18.296388      135.07926    
   1195000   1.0366703      17.979473      135.05433    
   1196000   0.9681088      18.847847      134.80104    
   1197000   1.050985       18.011102      134.79327    
   1198000   0.99931481     18.25845       134.67078    
   1199000   1.0680656      18.654171      134.78058    
   1200000   1.0346491      18.540254      134.81492    
   1201000   0.99604702     18.418529      134.49994    
   1202000   1.0358201      18.005715      134.61767    
   1203000   1.0361481      18.464919      134.78599    
   1204000   1.0094169      18.361107      134.91024    
   1205000   1.0075951      17.997688      135.11926    
   1206000   1.0162735      18.346609      134.87248    
   1207000   0.99238814     18.220835      134.78062    
   1208000   0.97165692     18.443258      134.54192    
   1209000   1.0421538      17.828627      134.60631    
   1210000   1.0343003      18.293778      134.53818    
   1211000   0.99103154     18.170215      134.41863    
   1212000   0.98649673     18.028827      134.36548    
   1213000   0.9596708      18.28065       134.14177    
   1214000   1.0132496      18.868684      134.1478     
   1215000   0.98480264     17.983997      134.25457    
   1216000   0.98234943     18.796532      134.1638     
   1217000   1.004614       18.431265      134.3468     
   1218000   1.0134178      17.984363      134.21105    
   1219000   1.0229455      17.801123      134.281      
   1220000   0.98442374     18.138         134.14909    
   1221000   0.99836981     18.815985      133.9534     
   1222000   0.98207645     18.034912      133.86451    
   1223000   1.0340008      18.079219      133.80758    
   1224000   0.97555491     17.608092      133.73603    
   1225000   0.99563536     18.161558      133.55037    
   1226000   1.0097342      18.835287      133.47232    
   1227000   0.98893924     18.126359      133.20429    
   1228000   0.96662294     17.665608      133.10006    
   1229000   0.99621949     17.795611      133.12022    
   1230000   1.0213882      18.08317       133.08993    
   1231000   0.96408343     18.510431      132.86951    
   1232000   0.99794325     18.122572      132.91137    
   1233000   0.99359774     18.475544      132.96288    
   1234000   0.97621261     17.981379      132.87519    
   1235000   1.0185682      18.059821      132.91047    
   1236000   0.98860677     18.226722      132.93311    
   1237000   0.97819731     18.422649      132.9329     
   1238000   0.97868614     18.014469      133.0587     
   1239000   0.99130487     18.286383      133.00055    
   1240000   1.0343838      18.462688      132.63237    
   1241000   1.0088791      17.856741      132.58644    
   1242000   0.99399869     17.631206      132.48506    
   1243000   0.97727945     18.277392      132.0506     
   1244000   0.96943825     17.801136      131.89305    
   1245000   1.0366305      18.505498      131.75283    
   1246000   1.0188465      17.790847      131.56216    
   1247000   0.96479311     17.927978      131.56773    
   1248000   0.96122101     18.356794      131.70195    
   1249000   0.96858959     17.652846      131.59268    
   1250000   1.0178309      18.286531      131.29093    
   1251000   0.96884103     18.281841      131.23061    
   1252000   0.99345476     17.651039      131.09177    
   1253000   0.97425584     17.735792      131.01003    
   1254000   0.98211441     17.879203      130.85881    
   1255000   1.0094811      18.333587      130.91381    
   1256000   1.0091557      18.675065      130.95372    
   1257000   1.0399374      18.318585      130.97837    
   1258000   1.0178412      18.065963      130.7975     
   1259000   0.99345576     18.126254      130.75965    
   1260000   1.0519808      18.347732      130.59115    
   1261000   1.0284657      18.469558      130.48691    
   1262000   0.97469084     18.173752      130.48076    
   1263000   1.0240091      18.51603       130.27008    
   1264000   0.97334852     18.353277      130.15999    
   1265000   0.97942985     17.773114      130.14599    
   1266000   0.99568024     18.45934       130.25057    
   1267000   0.96349396     17.850602      129.88584    
   1268000   1.0511372      18.026886      129.75445    
   1269000   0.98883239     18.451055      129.65149    
   1270000   1.0227016      18.149637      129.62066    
   1271000   0.99447955     17.823243      129.5776     
   1272000   1.042733       18.844778      129.50358    
   1273000   1.0023966      17.738868      129.54605    
   1274000   0.94370761     17.805143      129.50446    
   1275000   1.0087998      17.574507      129.54216    
   1276000   0.98762496     18.12372       129.37406    
   1277000   1.003758       18.472553      129.60089    
   1278000   0.96375265     18.059518      129.38235    
   1279000   1.0013111      18.078189      129.34852    
   1280000   1.0498577      18.378215      129.37815    
   1281000   1.0444177      18.66948       129.40205    
   1282000   0.99340105     18.033563      129.18363    
   1283000   1.0195147      18.283117      128.92       
   1284000   0.9840856      18.648424      128.64224    
   1285000   0.96399032     18.320183      128.58257    
   1286000   1.0598027      18.325203      128.62556    
   1287000   0.99424345     18.519617      128.46595    
   1288000   0.99450404     17.973307      128.34877    
   1289000   1.0260924      18.205933      128.11714    
   1290000   1.0496676      18.55187       127.72775    
   1291000   1.0224921      18.420333      127.80555    
   1292000   0.99505384     17.837113      127.86889    
   1293000   0.98693971     17.658218      127.55161    
   1294000   1.0371387      18.227665      127.5515     
   1295000   0.99382332     18.155707      127.45584    
   1296000   0.97214362     18.027376      127.04815    
   1297000   1.0292485      18.35614       127.14745    
   1298000   1.0284343      18.379866      127.02322    
   1299000   1.0039654      18.425263      126.77958    
   1300000   1.0048068      18.215353      126.8725     
   1301000   0.99323522     18.223975      126.68996    
   1302000   1.0130747      18.578329      126.61656    
   1303000   0.97814137     18.545416      126.53385    
   1304000   0.9893366      17.888371      126.35291    
   1305000   1.0076856      18.130425      126.52725    
   1306000   0.96637771     17.860083      126.33762    
   1307000   0.94667709     17.636308      126.2215     
   1308000   0.98042518     18.155998      126.22617    
   1309000   0.92944852     18.33515       126.29392    
   1310000   0.97256524     17.808646      126.43942    
   1311000   1.0238417      17.739733      126.35322    
   1312000   1.0078496      18.242391      126.12408    
   1313000   0.98439628     18.330801      125.98925    
   1314000   0.99990936     18.190535      126.08715    
   1315000   0.96978756     18.111989      125.90314    
   1316000   1.0021599      18.270691      126.01397    
   1317000   1.0048464      18.516909      125.89472    
   1318000   1.0479396      18.185968      125.93366    
   1319000   0.99602763     17.77531       125.78683    
   1320000   0.95904157     17.508755      125.85293    
   1321000   1.0090926      18.025338      126.01499    
   1322000   0.97586147     18.235906      126.01322    
   1323000   0.99975054     17.660094      125.95325    
   1324000   0.99887367     18.272289      126.00871    
   1325000   0.9807491      18.761748      126.00606    
   1326000   1.0242992      18.223458      125.85497    
   1327000   0.98485352     18.208065      125.8878     
   1328000   0.99195863     17.927863      125.7654     
   1329000   1.0220169      18.588542      125.79952    
   1330000   0.99993052     17.592728      125.79197    
   1331000   1.0471442      18.337707      125.52998    
   1332000   1.0353819      18.126613      125.55261    
   1333000   1.0291349      18.400358      125.60543    
   1334000   0.99259488     18.676863      125.33839    
   1335000   1.0371578      18.127481      125.40913    
   1336000   1.0362555      17.906374      125.36072    
   1337000   0.955181       17.985115      125.35362    
   1338000   1.0023718      17.829979      125.27883    
   1339000   0.99632449     17.834572      125.21413    
   1340000   1.0144535      18.788764      125.29121    
   1341000   1.0272638      18.111873      124.93538    
   1342000   1.0050793      18.022595      125.08897    
   1343000   1.0169991      18.258661      125.22516    
   1344000   0.9705946      18.178804      125.14092    
   1345000   1.0523073      18.364062      125.0463     
   1346000   0.93797306     18.136674      124.85864    
   1347000   1.0001223      18.735451      124.84933    
   1348000   0.98220907     18.274757      124.59305    
   1349000   1.013288       18.592721      124.21509    
   1350000   0.993027       17.736676      124.13822    
   1351000   1.0289608      18.555038      123.9264     
   1352000   1.0008654      18.162637      123.83603    
   1353000   1.0323225      18.464996      123.7631     
   1354000   1.0222699      17.640183      123.69871    
   1355000   0.96206434     17.953714      123.63553    
   1356000   0.96128412     18.098068      123.46104    
   1357000   1.0086964      18.286077      123.51505    
   1358000   1.0179572      18.430847      123.54789    
   1359000   0.9646902      18.40938       123.39242    
   1360000   1.0298315      18.153813      123.32327    
   1361000   0.94886424     18.114725      123.18412    
   1362000   1.032513       18.374102      122.73777    
   1363000   0.97935755     17.966368      122.7163     
   1364000   0.96932865     18.123546      122.44783    
   1365000   1.0323332      18.746984      122.16114    
   1366000   1.0348574      17.988016      121.88927    
   1367000   0.98889634     17.611298      121.78218    
   1368000   1.0036469      18.006683      121.65054    
   1369000   1.0255387      18.350234      121.2848     
   1370000   1.0137053      18.21378       120.9235     
   1371000   0.9963146      18.473437      120.54782    
   1372000   0.96761117     17.966556      120.69163    
   1373000   0.98584898     18.006663      120.48586    
   1374000   0.96290027     17.776677      120.19494    
   1375000   1.0635432      17.548152      119.94043    
   1376000   0.9722316      17.141737      120.06045    
   1377000   0.97972426     17.872099      119.87478    
   1378000   1.0211612      18.098069      120.05307    
   1379000   0.9681423      18.628743      119.86154    
   1380000   1.0085113      18.046446      119.63198    
   1381000   1.0246406      18.418036      119.74153    
   1382000   0.99825785     17.878423      119.65274    
   1383000   1.0227457      18.205161      119.73358    
   1384000   0.98758668     17.995558      119.59003    
   1385000   1.0140798      18.217423      119.61838    
   1386000   0.98861629     17.964715      119.6422     
   1387000   0.95542691     18.11105       119.68465    
   1388000   0.98662285     18.147576      119.39283    
   1389000   0.99122465     18.020068      119.05445    
   1390000   0.99962645     18.050396      118.86264    
   1391000   1.0327021      18.024355      118.59201    
   1392000   1.0309753      18.669558      118.57465    
   1393000   0.9893814      17.792709      118.51387    
   1394000   1.0059381      18.115399      118.49396    
   1395000   0.98788437     18.557385      118.57985    
   1396000   0.9622887      18.345996      118.57777    
   1397000   1.0003655      18.648136      118.50965    
   1398000   1.0026025      18.574204      118.40692    
   1399000   1.0067721      17.590071      118.22389    
   1400000   0.99955844     18.154607      118.31881    
   1401000   1.0271367      18.448014      118.14349    
   1402000   1.0119171      18.477964      118.32357    
   1403000   0.99649476     18.202372      118.11301    
   1404000   0.97210515     17.603403      117.92623    
   1405000   0.97733444     17.20485       117.74414    
   1406000   0.98374522     18.149112      117.82857    
   1407000   1.0284065      18.618694      117.57657    
   1408000   1.0508702      18.419791      117.4852     
   1409000   0.97465246     18.264986      117.455      
   1410000   0.9995081      17.823708      117.43424    
   1411000   0.96540298     17.996486      117.58054    
   1412000   0.99208623     18.064538      117.55315    
   1413000   0.97040298     17.641582      117.42375    
   1414000   0.99603985     17.893428      117.34688    
   1415000   0.98686794     18.756116      117.10177    
   1416000   1.0268174      17.915902      116.99995    
   1417000   0.97394399     18.387186      116.75866    
   1418000   0.98584841     18.145814      116.46909    
   1419000   0.98632479     18.070302      116.41888    
   1420000   1.0353628      17.913967      116.12561    
   1421000   0.99648875     18.161569      115.65642    
   1422000   0.97938138     18.072337      115.77503    
   1423000   1.0104987      18.197851      115.76474    
   1424000   0.98575136     17.83684       115.84554    
   1425000   0.96339074     17.491132      115.6779     
   1426000   0.97641312     18.391622      115.7826     
   1427000   0.99062367     18.192919      115.58272    
   1428000   1.0229566      18.318087      115.23674    
   1429000   0.98307717     18.162782      115.40292    
   1430000   0.99871022     18.382339      115.14869    
   1431000   0.99627335     18.2137        115.01689    
   1432000   0.97753644     18.077005      115.17429    
   1433000   0.98922074     17.586992      115.0194     
   1434000   0.97274989     17.777919      115.04315    
   1435000   1.0208616      18.32531       115.08777    
   1436000   0.99948021     17.761016      115.21745    
   1437000   1.0255341      17.963667      115.31511    
   1438000   1.00482        18.201548      115.17346    
   1439000   1.0408789      17.968458      115.36351    
   1440000   0.97996639     18.076148      115.42111    
   1441000   0.95224528     17.517423      115.38708    
   1442000   0.99909903     18.00148       115.2318     
   1443000   1.0159606      18.312917      115.2871     
   1444000   0.9739076      17.632522      115.15418    
   1445000   1.0066678      18.646291      114.99045    
   1446000   1.0033655      17.662785      114.81464    
   1447000   0.99841761     18.189925      114.77238    
   1448000   1.0128927      17.651604      114.93024    
   1449000   0.94628395     18.304099      114.93025    
   1450000   0.96000494     17.632592      114.75416    
   1451000   1.0146232      18.893604      114.57936    
   1452000   1.0154484      17.976006      114.44737    
   1453000   0.99385579     18.209876      114.00422    
   1454000   1.0106199      18.046255      113.62519    
   1455000   1.0005976      18.139817      113.76057    
   1456000   1.0226668      18.092073      113.6415     
   1457000   0.99849527     17.997691      113.59662    
   1458000   1.0326869      17.724113      113.54674    
   1459000   1.0299668      18.30549       113.44656    
   1460000   1.0290934      17.795048      113.40463    
   1461000   1.0349671      18.346595      113.2968     
   1462000   0.98392467     17.901898      113.21187    
   1463000   1.0112493      17.890086      113.08942    
   1464000   1.0001914      18.223375      113.04798    
   1465000   1.0064712      18.260755      113.20736    
   1466000   1.0468576      18.249168      113.31709    
   1467000   0.98231734     18.200165      113.28456    
   1468000   1.0313799      18.663558      113.25334    
   1469000   0.99844901     18.154993      113.34757    
   1470000   1.0533469      18.111993      112.98853    
   1471000   0.96081865     17.950827      112.88812    
   1472000   1.0128596      17.712709      112.62673    
   1473000   0.99731695     18.316709      112.35392    
   1474000   1.020285       18.040174      112.30916    
   1475000   0.98854098     18.206137      112.27252    
   1476000   0.97897506     17.712054      112.13347    
   1477000   1.0221319      18.011477      111.98608    
   1478000   1.0010852      18.349831      111.98056    
   1479000   0.96052393     17.518058      112.08845    
   1480000   1.0244003      17.178567      112.14321    
   1481000   0.99455804     17.522455      112.06038    
   1482000   1.0240062      17.624744      112.08626    
   1483000   0.9766988      17.831421      111.99507    
   1484000   0.98473927     17.708589      111.62132    
   1485000   0.97792138     17.782513      111.25147    
   1486000   0.97549985     17.532105      111.20756    
   1487000   1.0204904      17.785262      110.91856    
   1488000   0.98709113     17.395386      110.91568    
   1489000   1.0022565      17.756577      110.8088     
   1490000   0.97014028     17.3659        110.67876    
   1491000   0.9968925      18.229463      110.87275    
   1492000   1.0023831      17.623897      110.75956    
   1493000   1.0026152      18.214879      110.80908    
   1494000   1.000361       17.962039      110.67463    
   1495000   1.01164        17.467203      110.37666    
   1496000   0.98817939     17.705525      110.15916    
   1497000   1.0124349      17.825381      110.17642    
   1498000   1.0141858      17.898997      110.01429    
   1499000   0.99943553     17.935006      110.32952    
   1500000   1.0184579      18.109949      110.38883    
   1501000   1.0102026      17.783959      110.25928    
   1502000   0.96904893     17.960571      110.25754    
   1503000   1.0413371      18.792039      110.18916    
   1504000   0.99657049     17.568408      110.15475    
   1505000   0.98434896     18.418801      110.09345    
   1506000   0.9891848      17.644247      109.96033    
   1507000   0.99836419     18.361189      109.79652    
   1508000   0.9878792      18.007894      109.83701    
   1509000   0.97682438     17.339435      109.79986    
   1510000   0.99219163     17.757523      109.63576    
   1511000   0.96189208     17.76032       109.56055    
   1512000   0.98863401     18.437505      109.6143     
   1513000   0.97475269     17.691726      109.53711    
   1514000   0.96085214     17.622895      109.5108     
   1515000   1.0071627      17.675572      109.42936    
   1516000   1.0013514      17.288197      109.51804    
   1517000   0.98675431     18.073281      109.50944    
   1518000   1.0342795      18.169397      109.45275    
   1519000   0.99066637     17.437803      109.33203    
   1520000   0.97367917     17.717751      109.33286    
   1521000   1.0462348      17.589889      109.14335    
   1522000   0.99859394     17.851808      108.90058    
   1523000   1.0470043      18.403456      108.66912    
   1524000   1.0060359      18.267495      108.43894    
   1525000   1.001262       17.948464      108.5055     
   1526000   1.00391        17.934891      108.4101     
   1527000   0.98710383     18.262697      108.1279     
   1528000   0.9834602      18.160719      108.1408     
   1529000   0.96339427     17.755564      108.00849    
   1530000   1.0350573      18.116428      108.01392    
   1531000   1.0174414      17.968502      108.04841    
   1532000   1.00514        17.993996      107.99549    
   1533000   1.0428927      18.262334      107.99952    
   1534000   1.0182698      17.974705      108.01696    
   1535000   0.97903972     17.432964      108.08825    
   1536000   0.9810411      18.219909      108.18164    
   1537000   1.0546222      18.23178       108.18258    
   1538000   1.0038545      18.082972      108.31639    
   1539000   1.0025587      18.149941      108.03783    
   1540000   1.0070014      17.933287      107.67115    
   1541000   1.034575       18.36982       107.69677    
   1542000   0.95868932     17.657417      107.6389     
   1543000   1.0006677      18.212968      107.32863    
   1544000   1.0031628      17.972901      107.3624     
   1545000   0.96694082     18.349178      107.37346    
   1546000   0.95583202     18.142898      107.53085    
   1547000   0.99665123     17.855766      107.37058    
   1548000   0.99020893     18.274453      107.4724     
   1549000   1.0142167      18.054459      107.46285    
   1550000   1.0267534      17.924818      107.338      
   1551000   1.0187859      18.249433      107.35699    
   1552000   1.0306846      18.12927       107.48848    
   1553000   0.95236543     18.000234      107.52954    
   1554000   1.0041548      17.879299      107.58439    
   1555000   0.99328835     17.884018      107.23324    
   1556000   0.95882045     18.174934      107.0345     
   1557000   0.98224193     17.523488      106.80358    
   1558000   1.0480956      18.132684      106.74148    
   1559000   0.99537866     18.076654      106.75314    
   1560000   0.97358879     17.772925      106.53088    
   1561000   1.0225404      17.698774      106.58949    
   1562000   0.99729049     17.673163      106.65801    
   1563000   1.0031113      18.033733      106.40335    
   1564000   0.99921142     17.694445      106.30689    
   1565000   0.98569265     18.339117      106.16939    
   1566000   1.0005064      18.305037      106.02654    
   1567000   0.97155453     18.397216      105.8886     
   1568000   1.0167146      17.835617      105.90047    
   1569000   1.0179693      18.487006      106.03702    
   1570000   1.0364976      17.605478      106.1605     
   1571000   1.0202591      18.015933      106.09729    
   1572000   1.0169152      18.223432      106.04077    
   1573000   1.0005782      18.279677      106.07502    
   1574000   0.99575287     17.496875      106.01077    
   1575000   0.97927174     17.911194      105.73325    
   1576000   0.97160023     17.413408      105.39281    
   1577000   1.0159466      18.119785      105.29058    
   1578000   0.97132034     17.998324      105.07578    
   1579000   1.0373696      18.231045      105.06906    
   1580000   1.0309835      18.062602      105.08006    
   1581000   1.013035       18.206955      104.88254    
   1582000   1.0512508      17.871754      104.90431    
   1583000   0.99528509     18.036408      104.87494    
   1584000   0.98548836     18.261447      105.14519    
   1585000   1.0427383      18.190304      104.82785    
   1586000   0.99509753     17.643363      104.43399    
   1587000   1.0253264      18.451736      104.33733    
   1588000   0.93761302     17.589136      104.43993    
   1589000   1.0100714      18.119244      104.41613    
   1590000   0.99908408     17.817083      104.53074    
   1591000   1.0255537      17.952614      104.41701    
   1592000   1.013861       17.936602      104.26882    
   1593000   1.0094616      18.193247      104.27085    
   1594000   1.0171787      17.96259       104.0268     
   1595000   1.0363752      18.294015      103.96389    
   1596000   1.0321654      18.164725      103.77076    
   1597000   1.0060206      17.909846      103.86659    
   1598000   1.0268917      17.868615      104.03955    
   1599000   1.0043793      18.105214      104.04949    
   1600000   1.0033004      17.573403      104.11492    
   1601000   1.0206185      17.392542      104.13083    
   1602000   0.99199591     18.370574      103.91092    
   1603000   1.0032697      18.692662      103.79981    
   1604000   0.97429859     17.954297      103.83879    
   1605000   0.96802224     17.653531      104.00751    
   1606000   0.99606974     17.461764      103.96243    
   1607000   1.0300692      17.938865      104.02185    
   1608000   0.99937725     18.080468      103.90496    
   1609000   1.0395224      17.945906      104.02257    
   1610000   1.059761       17.896051      104.02845    
   1611000   1.0020146      17.361679      103.7469     
   1612000   0.98421543     17.972254      103.93602    
   1613000   0.98135512     18.151539      103.81017    
   1614000   0.97906701     17.738187      103.48102    
   1615000   0.97883911     18.35091       103.2164     
   1616000   0.98929496     18.289802      103.02686    
   1617000   1.0195244      18.377642      103.00261    
   1618000   1.0621675      17.803419      102.87521    
   1619000   1.0106389      17.913707      102.85901    
   1620000   0.96699321     17.652093      102.82964    
   1621000   1.0390448      18.161034      102.52582    
   1622000   0.93558932     18.089963      102.44468    
   1623000   1.0156165      17.449142      102.57011    
   1624000   1.0263186      18.10152       102.40525    
   1625000   0.97973438     17.776616      102.14479    
   1626000   0.99900034     17.89003       102.09602    
   1627000   1.0200318      18.403653      102.05835    
   1628000   1.0118773      17.75996       102.05961    
   1629000   1.0502033      18.310146      101.65436    
   1630000   1.0213675      18.008212      101.48377    
   1631000   1.00133        17.766436      101.22048    
   1632000   0.98114406     17.536303      101.16903    
   1633000   0.99954503     18.236901      101.15047    
   1634000   0.99335407     17.63397       101.16399    
   1635000   1.0248483      18.525128      101.18129    
   1636000   0.98875697     17.560708      100.93265    
   1637000   1.0085323      18.072401      101.1072     
   1638000   1.0003265      18.613609      101.17519    
   1639000   1.0461297      18.206732      100.95011    
   1640000   1.020573       17.546634      101.0559     
   1641000   1.0224085      17.960355      100.92199    
   1642000   1.0102869      17.690369      100.77546    
   1643000   0.99133412     17.825381      100.60288    
   1644000   1.0126388      18.246763      100.58129    
   1645000   0.98812792     17.992756      100.30701    
   1646000   1.0321284      18.368196      100.21664    
   1647000   1.0287771      18.058553      100.006      
   1648000   1.017737       18.327062      99.937078    
   1649000   1.0191936      18.004476      100.05169    
   1650000   1.0539469      18.465997      99.906329    
   1651000   0.99116944     17.933498      100.13373    
   1652000   1.0071259      18.123902      100.18731    
   1653000   0.95852761     17.555625      100.31649    
   1654000   1.0230652      17.464775      100.45971    
   1655000   1.0400082      17.763673      100.26645    
   1656000   0.98029845     17.808966      100.05303    
   1657000   1.0209653      17.841271      100.02765    
   1658000   0.98034591     18.293087      99.881115    
   1659000   1.0250485      18.635799      99.75023     
   1660000   0.98625256     17.950727      99.50401     
   1661000   1.0152767      17.550057      99.357893    
   1662000   1.0611459      18.044094      99.331782    
   1663000   0.97997252     18.09334       99.264035    
   1664000   1.0080694      17.775487      99.276202    
   1665000   1.0090766      17.47282       99.200297    
   1666000   1.0609778      19.008273      99.267914    
   1667000   0.97099432     17.764335      99.274661    
   1668000   0.96970541     17.776251      99.224423    
   1669000   1.0156543      17.737763      99.281548    
   1670000   1.0032495      18.173986      99.128543    
   1671000   0.99329936     17.886769      99.139714    
   1672000   1.0021975      17.868546      98.975023    
   1673000   1.0040487      17.756471      99.094686    
   1674000   1.0056454      18.013116      99.181914    
   1675000   0.96776006     17.843022      99.074008    
   1676000   1.0218171      17.896596      98.808709    
   1677000   0.98046553     17.144296      98.591863    
   1678000   0.98110759     17.834423      98.595024    
   1679000   0.98199795     18.14278       98.646136    
   1680000   1.0272456      17.703387      98.652067    
   1681000   0.98717882     18.456004      98.818225    
   1682000   0.96700355     17.406507      98.817964    
   1683000   0.96191077     17.734222      98.643728    
   1684000   1.0141283      17.793091      98.48881     
   1685000   1.009799       18.175446      98.330457    
   1686000   0.9865006      17.759716      98.165851    
   1687000   0.98405067     17.768562      97.951461    
   1688000   0.98114974     18.122286      97.768169    
   1689000   1.0018476      17.278165      97.604756    
   1690000   1.0111911      18.403677      97.498854    
   1691000   1.006238       18.15292       97.554861    
   1692000   0.98462822     17.653437      97.557369    
   1693000   1.0275981      18.076203      97.509109    
   1694000   1.034377       18.516943      97.651934    
   1695000   0.99850061     17.517301      97.618875    
   1696000   0.9734995      17.677462      97.821176    
   1697000   1.0120436      18.280229      97.850638    
   1698000   1.0016122      17.60286       97.917621    
   1699000   0.97533695     18.259867      97.657027    
   1700000   1.0053226      18.128588      97.29858     
   1701000   1.0540338      17.600789      97.3222      
   1702000   0.98486829     17.741665      97.128145    
   1703000   0.98600438     18.015937      97.081511    
   1704000   1.0019219      17.895876      97.10104     
   1705000   0.98777942     17.674398      97.180506    
   1706000   0.99137913     17.907562      97.042246    
   1707000   0.95835401     18.060332      97.208514    
   1708000   0.99087518     17.883232      97.049095    
   1709000   0.96574668     17.76057       97.064142    
   1710000   0.98575948     17.98409       97.149281    
   1711000   0.9783058      17.571371      97.167557    
   1712000   1.0076167      17.820408      97.173729    
   1713000   1.0016545      17.723324      97.257288    
   1714000   1.0046454      18.569859      96.872973    
   1715000   0.97857969     17.790577      96.838554    
   1716000   1.0084988      17.510747      96.751922    
   1717000   1.0308291      18.032692      96.837363    
   1718000   1.0178653      18.142583      97.074463    
   1719000   1.0030708      17.891359      96.973913    
   1720000   0.98055615     18.363335      97.298513    
   1721000   0.96537473     17.710165      97.143478    
   1722000   1.0257518      17.611306      97.081962    
   1723000   1.0491582      18.017864      97.073264    
   1724000   1.0109999      18.356168      97.187002    
   1725000   0.9455786      17.925329      97.222239    
   1726000   1.0022428      18.055252      97.089546    
   1727000   0.99059421     17.656902      97.087062    
   1728000   1.0133592      17.87734       97.121438    
   1729000   1.0144177      17.811518      97.006387    
   1730000   1.0203552      17.617493      96.960007    
   1731000   1.0104546      17.439602      96.97261     
   1732000   1.0173927      18.029184      96.909381    
   1733000   1.0371427      17.997766      96.829683    
   1734000   0.97855258     17.942237      96.697101    
   1735000   0.9848068      17.906704      96.514515    
   1736000   1.1217502      17.739958      96.6011      
   1737000   0.97275783     17.884907      96.416888    
   1738000   1.0406238      17.450758      96.134857    
   1739000   1.0053693      18.116056      96.325695    
   1740000   1.0049755      18.084331      96.241825    
   1741000   1.0615997      18.137732      96.245431    
   1742000   1.0250462      17.623713      96.241717    
   1743000   0.9648922      17.653085      96.153148    
   1744000   0.98187761     17.903376      96.292916    
   1745000   0.98153019     17.63585       96.355296    
   1746000   1.0021494      18.137955      96.333407    
   1747000   1.033756       17.979432      96.163209    
   1748000   0.99048647     18.099565      96.16622     
   1749000   0.96099762     17.492987      96.186871    
   1750000   0.97644076     17.662427      96.144431    
   1751000   1.0257408      17.970502      96.101603    
   1752000   0.95226287     17.658858      96.199791    
   1753000   0.99005119     17.689879      96.175042    
   1754000   1.005907       17.507817      96.106974    
   1755000   0.98133424     17.971565      95.978882    
   1756000   0.95933898     17.993506      95.840054    
   1757000   0.99394817     17.875565      95.604981    
   1758000   0.95242765     17.901898      95.611875    
   1759000   0.9864243      17.84107       95.466663    
   1760000   0.99509739     17.843477      95.483566    
   1761000   0.99127353     17.251742      95.334932    
   1762000   1.0176692      17.484549      95.232805    
   1763000   1.0407254      18.252917      95.144667    
   1764000   0.97445762     17.819596      94.901039    
   1765000   0.94838745     17.209223      94.920281    
   1766000   0.99656667     18.327687      95.054443    
   1767000   0.99162128     17.854124      94.82542     
   1768000   0.94618065     17.437266      94.94643     
   1769000   1.0160797      18.139984      95.120654    
   1770000   0.99250959     17.460607      94.972867    
   1771000   0.99296045     17.723402      94.872543    
   1772000   0.94574396     17.23273       94.570736    
   1773000   1.0211096      17.702571      94.418982    
   1774000   0.9827986      17.887977      94.232545    
   1775000   0.98597844     17.440979      93.966038    
   1776000   1.027407       17.856946      93.696345    
   1777000   0.96473663     17.998899      93.460944    
   1778000   0.99567074     18.416885      93.417384    
   1779000   1.0209679      17.3806        93.341023    
   1780000   1.0444169      17.515928      93.376102    
   1781000   0.97014465     17.807284      93.226446    
   1782000   0.9766116      17.774622      93.189585    
   1783000   1.0521596      18.030867      93.108698    
   1784000   0.96195184     17.093628      92.998743    
   1785000   0.98530791     17.565785      92.858214    
   1786000   0.96969176     17.973896      92.888661    
   1787000   1.0038772      17.76194       92.943661    
   1788000   1.0361181      17.897778      92.61825     
   1789000   1.0142083      17.787921      92.519093    
   1790000   0.99753347     17.800893      92.280398    
   1791000   0.9844636      18.144007      92.259205    
   1792000   1.0073013      17.531571      92.14394     
   1793000   0.98849849     18.251296      91.973221    
   1794000   0.98854633     17.822689      91.996425    
   1795000   1.0269781      17.597531      92.074814    
   1796000   1.0237561      17.793372      92.129212    
   1797000   1.00062        18.480942      91.988917    
   1798000   1.0157492      18.007247      91.863246    
   1799000   1.020258       18.410347      91.716173    
   1800000   0.97720839     18.016696      91.923098    
   1801000   0.97983144     18.238674      91.595533    
   1802000   0.9610114      17.165972      91.665936    
   1803000   1.005344       18.105011      91.805644    
   1804000   1.0068938      17.588021      91.773871    
   1805000   0.97991919     17.043205      91.739473    
   1806000   1.0374407      17.725104      91.58143     
   1807000   0.9669468      17.400934      91.409926    
   1808000   0.98982457     17.144246      91.368168    
   1809000   0.95373812     17.147464      91.393853    
   1810000   0.99551738     17.369765      91.262617    
   1811000   0.9656764      18.04973       91.323483    
   1812000   1.0345732      17.684479      91.537402    
   1813000   1.0043245      17.594246      91.384271    
   1814000   0.98520842     17.358114      91.305871    
   1815000   1.0181513      17.869286      91.257966    
   1816000   0.96790718     17.687953      91.197867    
   1817000   1.0468584      17.837439      91.011455    
   1818000   1.0346718      18.068393      90.76417     
   1819000   1.0009554      17.526898      90.777605    
   1820000   1.0268072      18.119075      90.775383    
   1821000   1.0398208      17.878615      90.773043    
   1822000   0.98967078     17.404223      90.544329    
   1823000   0.98390912     17.419791      90.412337    
   1824000   0.99311843     17.65408       90.134799    
   1825000   1.0140555      17.723589      90.038168    
   1826000   0.98844683     17.626461      89.924956    
   1827000   0.98848981     17.549569      89.955786    
   1828000   1.0129082      17.847879      89.760376    
   1829000   1.0110515      18.135214      89.698244    
   1830000   1.0108841      18.389445      89.573552    
   1831000   1.0189098      17.167777      89.491207    
   1832000   1.0162109      18.179478      89.432441    
   1833000   1.0152318      16.905513      89.404331    
   1834000   1.0090794      18.044441      89.429102    
   1835000   1.004333       17.91732       89.152515    
   1836000   1.0067177      18.229969      88.994834    
   1837000   0.99218155     17.747512      89.057093    
   1838000   0.98772356     17.425597      88.767579    
   1839000   1.0151334      17.922346      88.521788    
   1840000   1.0291689      17.977173      88.343614    
   1841000   0.99528896     17.96769       88.188844    
   1842000   1.0020077      18.138799      87.981256    
   1843000   0.9938378      18.074382      87.805588    
   1844000   1.0304784      17.860847      87.60295     
   1845000   1.0342388      17.689205      87.467175    
   1846000   0.99922956     17.303982      87.256624    
   1847000   1.0082754      18.231189      87.010359    
   1848000   0.9928121      17.512083      86.984118    
   1849000   0.99986389     17.854685      86.891556    
   1850000   1.0270955      18.72126       86.744935    
   1851000   0.96058728     17.810781      86.603018    
   1852000   1.0349609      17.9182        86.38031     
   1853000   0.99085854     17.885935      86.218475    
   1854000   0.99691683     17.955255      86.008267    
   1855000   0.99778633     17.883456      85.829919    
   1856000   1.0113956      17.47459       85.892611    
   1857000   1.0191396      17.781744      85.872837    
   1858000   0.98394784     17.378889      85.851515    
   1859000   1.0276921      17.910922      86.156648    
   1860000   1.0338626      18.228256      86.044162    
   1861000   0.99500568     17.506532      86.176857    
   1862000   1.0182436      17.74228       86.328544    
   1863000   1.0061927      17.20886       86.317948    
   1864000   0.97832571     17.804272      86.211192    
   1865000   1.0115872      17.573216      85.964366    
   1866000   1.0037302      18.011186      85.830195    
   1867000   1.0056759      17.530134      86.011666    
   1868000   1.0134126      18.551202      85.882326    
   1869000   0.96043411     17.517448      85.868395    
   1870000   0.97825017     17.844749      86.01811     
   1871000   0.96050269     17.345262      85.74193     
   1872000   1.0267085      17.235161      85.641373    
   1873000   0.9983418      18.117866      85.589235    
   1874000   1.0055431      17.325232      85.382377    
   1875000   1.0220264      17.95298       85.304014    
   1876000   1.0314714      18.607837      85.261037    
   1877000   1.0137299      17.431774      85.281827    
   1878000   1.0207327      17.603453      85.087604    
   1879000   1.0620206      17.68642       84.779997    
   1880000   0.99617206     18.428427      84.638107    
   1881000   1.0042537      17.790921      84.530472    
   1882000   1.0209978      18.174401      84.565048    
   1883000   1.0102508      18.144446      84.579639    
   1884000   0.98661441     17.899615      84.442683    
   1885000   1.0148997      18.032568      84.342368    
   1886000   1.0036426      17.485316      84.34169     
   1887000   0.97420144     17.635532      84.209319    
   1888000   0.98630776     17.984237      84.07767     
   1889000   0.99905889     18.046932      83.996341    
   1890000   0.96526621     17.592393      83.876877    
   1891000   1.0055821      17.332626      83.684988    
   1892000   1.0370033      17.642277      83.822593    
   1893000   1.0013589      17.608765      83.854109    
   1894000   1.0254855      17.748585      84.050777    
   1895000   0.93713699     17.914118      83.969778    
   1896000   0.96164188     17.78043       83.629544    
   1897000   1.0088414      17.531807      83.72832     
   1898000   0.99675163     17.564381      83.541022    
   1899000   1.0039747      17.922731      83.424612    
   1900000   1.0291209      17.745136      83.346029    
   1901000   0.99135255     17.716712      83.293947    
   1902000   1.0781956      18.707541      83.183336    
   1903000   0.99009519     18.213271      83.325271    
   1904000   0.98745614     18.123534      83.107833    
   1905000   1.0019887      17.641322      83.184902    
   1906000   1.0174338      17.827358      83.115806    
   1907000   1.0426536      18.157948      82.993627    
   1908000   1.0379658      17.790525      82.992838    
   1909000   1.0259386      17.834329      82.973686    
   1910000   1.0028541      18.150027      83.13567     
   1911000   0.97373377     17.612488      82.719425    
   1912000   0.98860055     17.970045      82.562965    
   1913000   1.0183579      17.224337      82.523978    
   1914000   1.0024339      17.816492      82.52538     
   1915000   1.0429873      17.98179       82.444695    
   1916000   0.99420026     18.083856      82.213452    
   1917000   1.0038521      17.779688      82.038735    
   1918000   0.98305989     17.885272      82.131475    
   1919000   1.0006912      17.273883      81.925771    
   1920000   1.0093485      17.679521      81.734608    
   1921000   1.008883       17.701257      81.871111    
   1922000   0.98710859     16.869001      81.619776    
   1923000   0.96866882     17.275         81.273018    
   1924000   1.0229094      17.568044      81.233654    
   1925000   1.0172549      17.454812      81.297129    
   1926000   1.0013769      17.040072      80.994465    
   1927000   0.99837053     17.751079      81.063888    
   1928000   0.99252437     18.245684      80.91285     
   1929000   0.97920896     16.938779      80.773488    
   1930000   0.99796626     17.948217      80.749146    
   1931000   0.99383256     17.704567      80.698975    
   1932000   1.0101459      17.950256      80.695526    
   1933000   1.0154227      17.849546      80.377502    
   1934000   0.9863079      17.473498      80.227424    
   1935000   0.9881186      17.851251      80.054969    
   1936000   0.97375621     17.595368      79.964181    
   1937000   1.0026479      17.583246      79.801986    
   1938000   1.0347677      18.012775      79.959135    
   1939000   0.99940457     17.635344      79.738315    
   1940000   0.96739279     17.827629      79.73812     
   1941000   1.0171959      17.557135      79.73986     
   1942000   1.0119362      17.319854      79.498789    
   1943000   1.0026281      17.847471      79.51639     
   1944000   0.97315553     17.631466      79.270648    
   1945000   1.0129917      17.346314      78.971679    
   1946000   1.0176695      17.796846      79.023057    
   1947000   1.0153889      17.740629      79.023931    
   1948000   0.97879275     17.750464      79.109901    
   1949000   0.96551629     17.438475      79.020443    
   1950000   0.97051927     17.624364      78.796917    
   1951000   1.0031274      17.274295      78.722971    
   1952000   0.9693792      17.798456      78.975481    
   1953000   0.98353467     17.751374      78.948003    
   1954000   1.0503034      17.768925      78.850985    
   1955000   0.99028801     17.985519      78.65427     
   1956000   1.006278       17.510955      78.554722    
   1957000   1.0048901      17.636161      78.591557    
   1958000   1.020151       17.536391      78.644134    
   1959000   1.0514022      17.521425      78.412008    
   1960000   0.96833556     16.880037      78.447833    
   1961000   1.0399799      17.589518      78.668662    
   1962000   0.98210377     17.939521      78.369233    
   1963000   1.003297       17.54638       78.360252    
   1964000   1.003304       17.51238       78.39399     
   1965000   0.96533062     17.898888      78.50539     
   1966000   1.0103446      17.412767      78.496275    
   1967000   1.00897        17.007491      78.530937    
   1968000   1.0071767      17.573809      78.542131    
   1969000   1.0309823      17.761885      78.435851    
   1970000   1.01855        17.83062       78.384631    
   1971000   0.97369734     17.283386      78.490931    
   1972000   1.0191588      17.651204      78.49938     
   1973000   1.0192503      17.204997      78.416748    
   1974000   1.0054625      18.332815      78.513446    
   1975000   0.98773813     17.378134      78.446918    
   1976000   0.99594848     18.443263      78.526005    
   1977000   1.0366362      18.49126       78.481374    
   1978000   1.0194668      17.230774      78.408532    
   1979000   1.0326042      17.378613      78.589739    
   1980000   1.0200666      17.357029      78.720462    
   1981000   0.97199521     17.304325      78.560304    
   1982000   1.0277118      18.045209      78.439839    
   1983000   1.0524756      18.043309      78.55326     
   1984000   0.98054128     17.865727      78.571503    
   1985000   0.98893092     17.517383      78.152033    
   1986000   1.0367354      17.563015      77.866358    
   1987000   1.0218659      17.438592      77.79289     
   1988000   1.0213365      17.962184      77.559891    
   1989000   1.0371518      17.51456       77.367258    
   1990000   0.98529678     17.407584      77.197775    
   1991000   0.98450712     17.874923      77.283368    
   1992000   0.95836649     17.814907      77.198679    
   1993000   1.0219734      17.661605      77.098154    
   1994000   0.96722156     17.573782      77.483916    
   1995000   0.97913973     17.712262      77.478232    
   1996000   0.99286689     17.287733      77.32143     
   1997000   0.97042793     17.170344      77.244863    
   1998000   1.0508799      17.800322      77.013236    
   1999000   0.99799438     18.021805      77.065858    
   2000000   1.0183107      17.937883      76.99615     
   2001000   1.0310829      17.182708      76.900806    
   2002000   1.0022314      17.787784      77.075892    
   2003000   0.98020172     17.25553       76.987447    
   2004000   0.96839125     17.742896      77.126699    
   2005000   1.0388561      17.913186      77.035045    
   2006000   0.99465402     17.823619      77.029841    
   2007000   0.99787494     17.247189      76.644221    
   2008000   0.95096694     17.913812      76.357647    
   2009000   1.0135914      17.608462      76.047619    
   2010000   1.0089143      17.7409        76.086497    
   2011000   0.96524034     17.719295      75.930911    
   2012000   1.0144138      17.403372      76.214379    
   2013000   0.99966351     17.668444      76.039117    
   2014000   1.0106351      17.865887      75.99834     
   2015000   0.99483486     17.944383      75.959097    
   2016000   0.97696797     16.909833      75.681524    
   2017000   1.0161065      17.268876      75.450664    
   2018000   0.97380123     17.084397      75.235247    
   2019000   1.0322189      17.746214      75.359659    
   2020000   0.98395545     17.882453      75.290472    
   2021000   1.0182153      17.813561      75.001539    
   2022000   0.97745531     17.193601      75.205158    
   2023000   0.97988957     17.713396      75.221522    
   2024000   1.0105421      17.177318      74.889822    
   2025000   0.9693236      17.167698      74.894111    
   2026000   1.0042749      17.791683      74.892438    
   2027000   0.9696908      17.289632      74.729957    
   2028000   1.0202872      18.157782      74.747939    
   2029000   1.0071438      17.992437      74.527454    
   2030000   0.98362351     17.969874      74.560067    
   2031000   0.99712508     17.372992      74.363164    
   2032000   1.0152316      17.225639      74.670591    
   2033000   0.99814663     17.764812      74.417329    
   2034000   0.99856159     17.740313      74.247116    
   2035000   0.99359991     17.664524      74.149991    
   2036000   0.97306509     18.418561      74.028871    
   2037000   0.98490798     17.216629      73.832094    
   2038000   0.99549045     18.022116      73.877059    
   2039000   0.99838507     17.40434       73.923527    
   2040000   0.995638       17.222388      74.009385    
   2041000   0.9748952      17.61119       73.914963    
   2042000   1.0378152      17.700479      73.991337    
   2043000   0.9932501      18.114641      73.813581    
   2044000   0.98193723     17.160544      73.686966    
   2045000   0.99015251     17.468555      73.654647    
   2046000   0.98225555     17.245024      73.784689    
   2047000   1.0244908      17.525587      73.703006    
   2048000   1.0346711      17.688985      73.629905    
   2049000   1.0298824      17.693286      73.708247    
   2050000   0.99435998     17.975406      73.791491    
   2051000   1.0056772      17.542575      73.97483     
   2052000   0.99889527     17.320145      74.026018    
   2053000   1.0293701      18.272816      73.832264    
   2054000   1.0078663      17.316747      73.653724    
   2055000   0.97294871     17.361094      73.611921    
   2056000   0.98047267     17.658968      73.285475    
   2057000   1.0134859      17.866495      73.275208    
   2058000   1.019457       17.382675      73.247975    
   2059000   0.97169744     17.300216      73.135362    
   2060000   0.97041092     17.489624      73.053476    
   2061000   0.98529478     17.099815      73.042376    
   2062000   1.0547177      17.416633      73.026009    
   2063000   1.005787       17.77159       73.031106    
   2064000   0.99913995     18.214042      73.049289    
   2065000   1.0271922      18.015588      73.149511    
   2066000   1.0043738      17.697724      73.038822    
   2067000   1.0313098      17.506808      73.060479    
   2068000   1.0247917      17.075019      73.112005    
   2069000   0.99590533     17.74534       72.811445    
   2070000   1.0233138      17.968667      72.535581    
   2071000   0.96259614     17.560102      72.53203     
   2072000   1.0031795      17.733933      72.435197    
   2073000   0.98537222     17.610915      72.585056    
   2074000   0.97413861     17.502331      72.645441    
   2075000   1.0222561      17.649342      72.546096    
   2076000   1.0061261      17.869502      72.669782    
   2077000   0.96299303     17.500943      72.369434    
   2078000   1.0165023      17.600586      72.091056    
   2079000   0.97309494     17.194282      71.924942    
   2080000   0.99394915     17.972951      71.924148    
   2081000   0.97306619     18.134061      71.708963    
   2082000   1.0112125      17.348694      71.851503    
   2083000   0.97427711     17.387411      71.544193    
   2084000   1.0312325      17.386427      71.536705    
   2085000   1.00154        17.554011      71.610343    
   2086000   0.99346251     17.13187       71.604774    
   2087000   0.99646432     17.327448      71.615757    
   2088000   0.99377977     17.146574      71.449678    
   2089000   1.0065112      17.365997      71.30029     
   2090000   0.99033271     17.727593      71.460883    
   2091000   1.0194935      18.185087      71.4357      
   2092000   1.0249322      17.881212      71.388951    
   2093000   1.0208753      17.275593      71.266589    
   2094000   1.0457104      18.100032      71.16823     
   2095000   1.0128685      18.044819      70.910701    
   2096000   0.97928997     17.559562      70.645722    
   2097000   0.99154934     18.027844      70.761349    
   2098000   1.0143408      17.335035      70.544964    
   2099000   1.0050059      17.910839      70.737078    
   2100000   0.9831006      17.819317      70.806646    
   2101000   1.0652671      18.038726      70.7019      
   2102000   0.955545       17.160592      70.645446    
   2103000   1.0018479      17.35078       70.598385    
   2104000   0.97013526     17.356617      70.593732    
   2105000   0.96173412     17.237923      70.736911    
   2106000   0.99147858     17.235225      70.680944    
   2107000   1.0282215      17.646867      70.515705    
   2108000   0.99885061     17.563854      70.551578    
   2109000   1.0107303      17.83543       70.301975    
   2110000   1.0286819      17.719011      70.16794     
   2111000   1.0133539      17.398156      69.862229    
   2112000   1.0033621      18.142344      69.72678     
   2113000   0.99763602     17.171286      69.498716    
   2114000   1.014369       17.672902      69.356688    
   2115000   1.0382998      17.225359      69.312343    
   2116000   1.014358       18.115739      69.311207    
   2117000   0.97545928     18.00849       69.217642    
   2118000   1.0442982      18.131591      69.158701    
   2119000   0.98027489     18.030367      69.122217    
   2120000   1.0381044      17.608613      69.120516    
   2121000   1.0116622      18.016787      69.262723    
   2122000   0.95985377     17.683955      69.033986    
   2123000   0.96901408     17.56076       68.916855    
   2124000   0.98455456     17.190563      68.91779     
   2125000   0.99118645     17.150911      68.958655    
   2126000   0.96887638     17.571373      69.013354    
   2127000   1.0178041      17.142797      68.86773     
   2128000   0.98842344     17.651591      68.732493    
   2129000   0.99803939     17.701296      68.81878     
   2130000   0.99367282     17.511633      69.016663    
   2131000   1.0097067      17.613853      68.796521    
   2132000   0.99549424     17.952825      68.810094    
   2133000   1.0010379      17.850801      68.581291    
   2134000   1.0448443      17.757887      68.486339    
   2135000   0.98886868     17.281533      68.417453    
   2136000   1.0040544      17.734874      68.329939    
   2137000   1.0078949      17.745161      68.267932    
   2138000   0.99362704     17.497797      68.256595    
   2139000   1.0174949      17.894783      68.372634    
   2140000   0.95120069     17.63721       68.21708     
   2141000   1.0437177      17.861867      67.821126    
   2142000   0.96889434     17.869627      67.819652    
   2143000   1.0009117      17.967862      67.807128    
   2144000   1.0052914      17.637982      67.77585     
   2145000   0.99189508     17.565248      67.597405    
   2146000   0.9534045      17.518608      67.486088    
   2147000   0.98232109     17.192534      67.287357    
   2148000   1.0273761      17.703328      67.174041    
   2149000   1.0155954      17.822822      66.969539    
   2150000   1.0127206      17.68307       66.934949    
   2151000   0.9577426      17.586961      66.857559    
   2152000   0.98532116     17.529901      66.873099    
   2153000   0.96719276     17.191298      66.958898    
   2154000   1.0366814      17.835521      66.735409    
   2155000   1.0327719      17.062593      66.91253     
   2156000   0.99604075     17.838701      66.818218    
   2157000   0.988845       17.723443      67.04227     
   2158000   1.0092923      17.803991      67.080035    
   2159000   0.98451576     16.952479      66.971249    
   2160000   1.0079256      17.647018      66.858368    
   2161000   0.98540911     17.794625      66.545172    
   2162000   1.0188974      17.878561      66.397308    
   2163000   0.98133922     18.071693      66.222535    
   2164000   1.0175503      17.690488      66.367495    
   2165000   0.98821125     17.682381      66.164205    
   2166000   0.97725906     17.778744      66.114191    
   2167000   0.96653015     17.782406      65.988893    
   2168000   1.0142348      17.726442      65.812301    
   2169000   1.0030025      18.058528      65.587686    
   2170000   1.0074786      17.519069      65.638759    
   2171000   0.99666094     17.638851      65.718417    
   2172000   1.0304136      17.47002       65.559187    
   2173000   1.0385339      17.222216      65.652433    
   2174000   0.99485406     17.831785      65.414515    
   2175000   1.0322708      17.106876      65.218215    
   2176000   0.9587456      18.059965      65.11486     
   2177000   1.0028033      17.297         65.086099    
   2178000   0.99754841     17.513078      65.23404     
   2179000   0.93805862     17.395263      65.491552    
   2180000   0.99642268     17.848392      65.380019    
   2181000   1.0261568      17.88975       65.33228     
   2182000   1.0541645      17.444409      65.320472    
   2183000   0.99007224     17.617176      65.157893    
   2184000   1.0025875      17.571586      65.105687    
   2185000   0.98546351     17.838346      65.11561     
   2186000   0.98619336     17.770908      65.0981      
   2187000   0.97881737     18.100261      64.985497    
   2188000   0.97679996     17.913584      64.922594    
   2189000   0.97821618     17.351306      64.583859    
   2190000   1.0172257      17.47052       64.255226    
   2191000   1.0176163      17.820755      64.105212    
   2192000   1.011686       17.981269      64.015575    
   2193000   1.0266406      17.682301      64.118474    
   2194000   0.99587607     17.511222      64.060487    
   2195000   1.0021474      17.373562      64.125573    
   2196000   1.0172948      17.422089      64.102488    
   2197000   0.98553032     17.911908      64.07        
   2198000   1.0156423      17.229338      63.808015    
   2199000   1.0090831      17.093236      63.667776    
   2200000   0.98986361     17.506543      63.597456    
   2201000   1.023281       17.608164      63.670725    
   2202000   1.034445       17.73991       63.62488     
   2203000   1.0263966      17.843273      63.523459    
   2204000   0.97339525     17.105801      63.492116    
   2205000   0.99766639     17.862356      63.228947    
   2206000   0.97888264     17.748076      63.025601    
   2207000   0.99175709     17.947644      62.925496    
   2208000   0.98971427     17.402794      62.762964    
   2209000   1.0013152      17.671841      62.892393    
   2210000   0.98686342     17.389999      63.114575    
   2211000   0.97685953     17.964678      63.062       
   2212000   1.0239651      17.132907      62.865171    
   2213000   0.9788108      17.305119      62.847464    
   2214000   1.0093518      17.931632      62.892651    
   2215000   1.0080298      17.747486      63.060209    
   2216000   0.98312322     17.308509      62.959248    
   2217000   1.0323031      17.780129      62.764639    
   2218000   0.96180759     17.595241      62.598431    
   2219000   0.99420855     17.17986       62.271774    
   2220000   1.0140899      17.499588      62.023621    
   2221000   0.96744699     17.552448      61.952261    
   2222000   1.0511215      17.786873      61.960279    
   2223000   0.99936524     17.984174      61.876869    
   2224000   0.99530529     17.343283      61.573229    
   2225000   0.98925939     17.111936      61.584404    
   2226000   1.017615       17.396472      61.735571    
   2227000   0.98485042     17.506784      61.631814    
   2228000   1.0315217      18.280875      61.333974    
   2229000   0.97890761     17.577236      61.295879    
   2230000   1.0068222      17.593538      61.255765    
   2231000   0.97190877     17.725144      61.412579    
   2232000   0.99785923     17.552205      61.566805    
   2233000   1.0096858      17.573651      61.64513     
   2234000   1.020584       17.666753      61.688201    
   2235000   1.0189415      17.400191      61.774365    
   2236000   1.0047055      17.418868      61.888693    
   2237000   0.97665357     17.650532      61.872305    
   2238000   1.00312        17.568173      61.714424    
   2239000   1.0384933      17.560029      61.819572    
   2240000   1.022514       17.297577      61.860328    
   2241000   1.0093412      17.390672      61.565176    
   2242000   1.0316025      17.314456      61.600973    
   2243000   0.99423757     17.895959      61.561537    
   2244000   1.0004927      17.179227      61.375794    
   2245000   1.0187114      17.495528      61.21632     
   2246000   1.0035352      17.434561      61.353713    
   2247000   1.0228643      17.290127      61.471004    
   2248000   1.029266       17.293603      61.198972    
   2249000   1.0001724      17.264054      61.378331    
   2250000   1.0137104      17.169508      61.159688    
   2251000   0.98960826     17.022157      61.306138    
   2252000   0.97341018     17.546902      61.296769    
   2253000   1.005593       17.890596      61.394651    
   2254000   1.0485119      17.505135      61.413052    
   2255000   1.0186037      18.301638      61.291046    
   2256000   1.0015632      17.268316      61.116619    
   2257000   1.0075039      17.744153      61.243743    
   2258000   1.0149871      17.478244      61.336161    
   2259000   1.0319004      17.666845      61.353323    
   2260000   0.97094176     17.37704       61.284131    
   2261000   0.97454376     17.048388      61.055513    
   2262000   1.0178407      17.657711      60.804512    
   2263000   0.99159357     17.73108       60.686051    
   2264000   1.0004958      17.798473      60.891715    
   2265000   1.0591286      17.465971      61.008255    
   2266000   1.0042846      17.003577      61.209445    
   2267000   1.0451249      18.048586      61.099626    
   2268000   1.0058988      17.034634      60.914694    
   2269000   0.99264205     17.852227      60.764755    
   2270000   1.0223018      17.003908      60.713477    
   2271000   1.0075989      17.258965      60.824137    
   2272000   0.99883672     17.555286      60.665866    
   2273000   0.98180475     17.479124      60.772351    
   2274000   1.0436502      17.893832      60.770328    
   2275000   1.021358       17.39813       60.552532    
   2276000   1.0171734      18.246179      60.277663    
   2277000   1.0206942      18.34818       60.294969    
   2278000   0.99919548     17.127127      60.319704    
   2279000   1.0039442      18.158431      60.154806    
   2280000   1.0533546      17.688902      59.976349    
   2281000   0.95721514     17.038085      60.01365     
   2282000   1.0031719      18.130799      59.802247    
   2283000   1.0121543      17.503299      59.598271    
   2284000   0.99353929     17.891576      59.698241    
   2285000   1.0048759      17.36217       59.76601     
   2286000   1.0091779      17.805741      59.783941    
   2287000   0.95741364     17.20056       59.850417    
   2288000   0.98076777     17.796019      59.997458    
   2289000   1.0536372      17.323997      59.881319    
   2290000   1.0391926      17.868625      59.771046    
   2291000   0.95996472     17.464278      59.640194    
   2292000   1.0265097      18.045133      59.792063    
   2293000   1.0134973      17.528573      59.842817    
   2294000   1.0008226      17.783291      59.513277    
   2295000   1.0069616      17.530087      59.36938     
   2296000   0.99946621     17.474549      59.077743    
   2297000   1.0437903      17.469994      58.834782    
   2298000   1.0166064      17.900868      58.713637    
   2299000   1.0362157      17.947111      58.521103    
   2300000   1.0081802      17.358412      58.403829    
   2301000   1.0208315      17.493008      58.256055    
   2302000   0.97314359     17.332043      58.132792    
   2303000   0.94945569     17.569099      58.082843    
   2304000   1.0382736      17.894223      57.71939     
   2305000   0.97412291     17.153792      57.757322    
   2306000   0.99410493     17.057201      57.624543    
   2307000   1.0145873      17.277478      57.561607    
   2308000   0.97452039     17.87292       57.33962     
   2309000   0.93597862     17.158683      57.636062    
   2310000   0.95812994     17.904426      57.750304    
   2311000   1.0089104      16.824046      57.804523    
   2312000   1.0082997      17.394166      57.562914    
   2313000   1.0135997      17.234336      57.426936    
   2314000   1.0036062      17.910239      57.01178     
   2315000   0.97825799     17.396275      56.99943     
   2316000   0.97110665     17.596838      57.121843    
   2317000   0.98484614     17.371957      56.972619    
   2318000   1.0112706      17.449177      56.965892    
   2319000   1.0327658      17.251708      56.780596    
   2320000   0.98595915     17.492342      56.532001    
   2321000   0.98838806     17.386764      56.477235    
   2322000   1.0082075      17.351623      56.365725    
   2323000   0.99457312     17.54791       56.499233    
   2324000   1.0002447      17.79684       56.85392     
   2325000   1.0004264      16.911649      56.745729    
   2326000   0.98336972     17.480502      56.760208    
   2327000   1.0069913      17.866993      56.735703    
   2328000   0.97949973     17.713904      56.529199    
   2329000   1.0022537      17.425822      56.438422    
   2330000   0.96573502     17.196961      56.141597    
   2331000   1.015963       17.925616      56.062502    
   2332000   1.0248761      17.434669      56.32942     
   2333000   0.95462297     17.284195      56.270175    
   2334000   1.0016612      17.606282      56.320345    
   2335000   1.0018549      17.059764      56.106771    
   2336000   1.0101196      17.147963      56.36378     
   2337000   0.96226625     16.755317      56.349608    
   2338000   1.0291511      17.643593      56.175935    
   2339000   1.0113862      17.244325      56.106138    
   2340000   0.99803934     17.35233       56.046616    
   2341000   1.0222918      17.57697       55.838288    
   2342000   0.9712178      17.083612      55.573904    
   2343000   1.0079751      16.773576      55.415608    
   2344000   0.99017183     17.838754      55.38435     
   2345000   0.99866118     16.874024      55.249575    
   2346000   0.97110603     17.9533        54.964793    
   2347000   1.0220953      17.619359      55.028482    
   2348000   1.0039998      17.591277      55.146778    
   2349000   1.0028298      17.987332      55.238955    
   2350000   1.0271355      17.175484      55.365739    
   2351000   1.0409592      17.804716      55.230685    
   2352000   1.0049154      17.730254      54.987276    
   2353000   1.0163769      17.528634      54.931153    
   2354000   1.0213119      17.081066      54.585599    
   2355000   0.98360697     17.268718      54.632302    
   2356000   0.96816402     17.500795      54.514505    
   2357000   1.0143005      17.742708      54.472347    
   2358000   0.97919074     16.976961      54.480069    
   2359000   1.0148356      17.820511      54.299519    
   2360000   1.0401948      17.568255      54.432954    
   2361000   1.0142261      17.534685      54.352409    
   2362000   0.97459353     17.412733      54.217226    
   2363000   0.98734344     17.30701       54.061453    
   2364000   1.0073576      17.861644      53.973087    
   2365000   1.0405938      17.915583      53.773197    
   2366000   0.94798803     17.21652       53.406534    
   2367000   0.99145015     17.588636      53.514507    
   2368000   1.0397949      17.524119      53.499038    
   2369000   0.99326071     17.354611      53.684722    
   2370000   0.96942579     17.192026      53.671203    
   2371000   0.99335639     17.47287       53.595611    
   2372000   0.98357215     17.487779      53.491734    
   2373000   1.0145949      17.52221       53.57345     
   2374000   1.0050153      17.139462      53.493935    
   2375000   1.0072847      17.442924      53.563744    
   2376000   0.96914986     17.750182      53.478333    
   2377000   0.98738658     17.35554       53.486334    
   2378000   1.0056836      17.88136       53.547788    
   2379000   0.97928881     17.398018      53.283201    
   2380000   1.0124016      16.818236      53.211433    
   2381000   1.0168986      16.801801      53.106332    
   2382000   0.99813363     17.447353      53.147218    
   2383000   1.0053861      17.454755      53.11327     
   2384000   1.0275912      17.562368      53.098304    
   2385000   0.97563874     17.248261      53.160257    
   2386000   1.0126908      17.851747      53.037697    
   2387000   0.97712496     17.352901      53.066209    
   2388000   0.99235447     17.37501       53.036711    
   2389000   0.99645309     18.000792      53.083705    
   2390000   0.98941909     17.542171      53.0146      
   2391000   0.96922107     17.476696      52.928431    
   2392000   1.0181476      17.271683      52.598394    
   2393000   1.0027023      17.615388      52.488253    
   2394000   0.99673306     18.139099      52.479559    
   2395000   0.9690784      17.09895       52.312999    
   2396000   0.98214215     18.474246      52.33554     
   2397000   1.0202523      17.244224      52.351677    
   2398000   0.96291348     17.402295      52.25235     
   2399000   1.0185174      17.723462      51.930834    
   2400000   1.0108226      17.184147      51.694127    
   2401000   1.0346268      17.058266      51.785139    
   2402000   0.98728274     17.301306      51.556869    
   2403000   1.0255751      17.011676      51.576059    
   2404000   1.0072547      17.744119      51.63734     
   2405000   1.0633271      17.388094      51.747098    
   2406000   1.0199462      17.805104      51.57674     
   2407000   0.99120138     17.729533      51.283843    
   2408000   1.0104639      17.563653      51.324607    
   2409000   1.005418       17.020993      51.32858     
   2410000   0.98867535     17.283526      51.273517    
   2411000   0.98761339     17.371684      51.130617    
   2412000   0.97615733     17.209628      50.948727    
   2413000   1.0346783      17.620123      50.787772    
   2414000   0.97938396     17.280098      50.6047      
   2415000   0.98044467     17.592388      50.503443    
   2416000   0.98001316     16.823663      50.461903    
   2417000   0.99539018     17.420049      50.369241    
   2418000   0.97578111     18.149361      50.094031    
   2419000   0.97349677     17.69707       50.093966    
   2420000   0.99017606     16.760761      50.02996     
   2421000   1.0350496      17.422483      49.754149    
   2422000   0.98892078     16.923894      49.705735    
   2423000   0.99798481     17.07061       49.585954    
   2424000   0.98413833     17.327628      49.384741    
   2425000   1.0289267      17.410701      49.364918    
   2426000   0.98423143     17.785322      49.336483    
   2427000   0.98981291     17.031283      49.349501    
   2428000   1.0037052      17.551085      49.374191    
   2429000   1.0081839      17.416561      49.415395    
   2430000   0.97507338     16.765912      49.451394    
   2431000   0.98677587     17.746771      49.200736    
   2432000   1.0115681      17.513799      49.300436    
   2433000   1.0347192      17.413195      49.135404    
   2434000   1.0512667      17.277308      48.928189    
   2435000   1.0399579      18.10448       48.846796    
   2436000   0.99808716     17.784289      48.501074    
   2437000   0.9925398      17.057829      48.396158    
   2438000   1.005844       17.891072      48.341463    
   2439000   1.0203043      17.724808      48.403072    
   2440000   0.99344743     16.790941      48.56585     
   2441000   0.98488052     17.580649      48.673177    
   2442000   1.0020384      18.047712      48.463818    
   2443000   0.96473404     17.602934      48.307807    
   2444000   0.99142929     16.936278      48.287162    
   2445000   1.0196957      17.608314      48.409639    
   2446000   1.0019487      17.247331      48.392049    
   2447000   0.98624678     17.887932      48.404474    
   2448000   1.0390123      17.457689      48.060927    
   2449000   0.97351512     17.570397      47.92321     
   2450000   0.98874391     16.964103      47.66475     
   2451000   1.0065         16.922559      47.681021    
   2452000   0.97999128     17.206813      47.527695    
   2453000   1.0072657      17.078679      47.442038    
   2454000   0.99235707     17.64973       47.561828    
   2455000   1.0213207      17.254904      47.538122    
   2456000   0.9559278      16.869912      47.794214    
   2457000   0.97922857     17.185495      47.740554    
   2458000   0.96516006     16.601284      47.624816    
   2459000   1.0242961      17.514874      47.459616    
   2460000   1.0628233      17.692149      47.225172    
   2461000   1.029404       17.277641      47.194823    
   2462000   0.96479624     16.943531      47.204325    
   2463000   0.99429743     17.168058      46.927148    
   2464000   0.98233121     17.466704      46.867012    
   2465000   0.98777281     17.902982      46.880124    
   2466000   0.98275004     17.477917      46.636691    
   2467000   1.0132199      17.323037      46.579772    
   2468000   1.053165       17.463876      46.532534    
   2469000   0.98641358     16.780254      46.572265    
   2470000   0.98679483     17.666181      46.546843    
   2471000   0.98487695     17.239787      46.493931    
   2472000   0.99811961     17.46826       46.553589    
   2473000   0.99180209     17.22457       46.815816    
   2474000   1.0110909      17.289214      46.803276    
   2475000   1.0400373      18.491792      46.777157    
   2476000   0.97970305     17.568159      46.698783    
   2477000   0.99194799     17.828842      46.553885    
   2478000   0.99061626     16.837238      46.40919     
   2479000   1.0331428      17.555551      46.175819    
   2480000   1.0233149      17.627782      46.003947    
   2481000   1.0139988      18.356714      46.054038    
   2482000   0.99934998     17.517759      46.097778    
   2483000   0.98998856     17.388648      46.066655    
   2484000   1.0036273      17.397946      46.065341    
   2485000   0.94054894     17.4479        46.144493    
   2486000   0.9942885      16.912474      45.967452    
   2487000   0.99692889     17.60812       45.814029    
   2488000   0.92623964     17.242135      45.877498    
   2489000   1.0328319      17.417252      45.721215    
   2490000   1.0073196      16.931374      45.577364    
   2491000   1.030388       17.382046      45.557943    
   2492000   1.0145746      17.545472      45.378659    
   2493000   0.97165015     17.431492      45.203696    
   2494000   0.97559952     17.713572      45.30252     
   2495000   1.0050444      17.104127      45.166244    
   2496000   1.0480713      17.241233      45.257409    
   2497000   1.0321861      17.176637      45.144454    
   2498000   0.98815493     17.362155      45.167328    
   2499000   1.000482       17.639157      45.080466    
   2500000   1.0135685      17.664087      44.966835    
   2501000   0.98896719     17.353518      44.757664    
   2502000   1.0404292      17.519727      44.86364     
   2503000   0.96042607     17.812503      44.878277    
   2504000   1.0271185      17.794317      44.690473    
   2505000   1.0022781      17.448151      44.48296     
   2506000   0.97946959     17.506581      44.260695    
   2507000   0.97185743     17.66666       44.314102    
   2508000   1.0043694      17.822409      44.396164    
   2509000   0.98816249     17.495419      44.248241    
   2510000   1.0046096      17.847074      44.353434    
   2511000   0.97612309     18.132317      44.234616    
   2512000   0.99492617     17.31707       44.296802    
   2513000   1.0212922      17.707943      44.317392    
   2514000   1.056687       17.362676      44.200242    
   2515000   1.0458353      17.42721       44.117296    
   2516000   0.9727856      16.965648      44.14135     
   2517000   1.0004689      17.395524      44.126855    
   2518000   1.0050561      17.123087      44.160709    
   2519000   1.0126963      17.37318       44.126671    
   2520000   0.99878303     16.788092      44.183065    
   2521000   0.99365291     17.144395      43.969384    
   2522000   1.0079541      17.542624      43.799892    
   2523000   1.0518589      17.412832      43.583841    
   2524000   1.0162777      17.655203      43.534524    
   2525000   0.95149175     17.202238      43.417453    
   2526000   0.98376041     17.632593      43.340939    
   2527000   1.0112134      17.36474       43.108148    
   2528000   0.97819501     17.309822      42.772427    
   2529000   0.99788342     16.992243      42.752477    
   2530000   0.99229153     17.337619      42.480589    
   2531000   1.0363169      17.852738      42.38574     
   2532000   1.0230287      17.754788      42.303233    
   2533000   1.0238511      17.831698      42.071715    
   2534000   1.0046669      17.092634      42.123346    
   2535000   1.0272667      17.401587      42.124649    
   2536000   0.98486139     17.454918      41.784307    
   2537000   0.99717072     17.185135      41.56032     
   2538000   1.0391225      17.659617      41.419316    
   2539000   0.97454902     16.961643      41.321619    
   2540000   0.98672902     17.296673      41.273623    
   2541000   0.98730914     17.303797      41.246679    
   2542000   0.99332736     17.78303       41.454724    
   2543000   0.99099035     17.115265      41.4694      
   2544000   1.0368631      17.346414      41.37633     
   2545000   0.97456495     17.187006      41.328941    
   2546000   0.98873935     17.422337      41.172758    
   2547000   0.97619831     16.848541      41.165603    
   2548000   0.97025678     17.585462      41.090878    
   2549000   1.0364805      17.523963      40.91692     
   2550000   0.99948465     17.213774      40.89457     
   2551000   0.99139538     17.26539       40.761756    
   2552000   1.0217198      17.111792      40.693001    
   2553000   0.96871972     17.796286      40.510759    
   2554000   1.0204015      17.071942      40.568033    
   2555000   1.0288519      17.516942      40.531621    
   2556000   1.0068186      17.101277      40.516598    
   2557000   1.0114116      16.871655      40.598777    
   2558000   0.99838136     16.655549      40.587695    
   2559000   1.008729       17.542481      40.596182    
   2560000   1.0242053      17.633112      40.428949    
   2561000   0.99494416     17.558794      40.420147    
   2562000   0.99695095     17.691272      40.147622    
   2563000   1.0313307      17.875764      40.003491    
   2564000   1.0225646      17.268677      39.788563    
   2565000   1.0283214      17.592831      39.750438    
   2566000   1.0581412      17.7888        39.89017     
   2567000   0.94590466     17.26444       39.648615    
   2568000   1.0049431      17.604254      39.522539    
   2569000   0.96649375     17.452527      39.44625     
   2570000   1.0089667      17.040734      39.254598    
   2571000   1.0117691      17.358396      39.008152    
   2572000   0.99621528     17.192573      39.019998    
   2573000   1.0183361      17.531775      38.887778    
   2574000   1.0017019      17.297562      38.593788    
   2575000   1.0498192      17.805203      38.278708    
   2576000   0.94405735     17.467504      38.368244    
   2577000   1.0187153      17.592804      38.229832    
   2578000   1.0148261      17.794924      38.286717    
   2579000   0.95413071     17.181085      38.137499    
   2580000   0.98932553     17.061012      37.995614    
   2581000   0.99169163     17.356738      37.966272    
   2582000   1.0204442      17.169214      37.937327    
   2583000   0.99015192     17.525271      37.698017    
   2584000   0.98754856     17.481987      37.651431    
   2585000   0.97684956     17.186419      37.510312    
   2586000   1.0252318      17.399927      37.419949    
   2587000   0.94501203     18.259325      37.123456    
   2588000   1.0160557      17.566874      37.087717    
   2589000   0.99060443     17.396939      36.940133    
   2590000   1.0137449      17.489883      36.785737    
   2591000   1.054132       17.461096      36.889907    
   2592000   0.99147488     17.462961      36.888856    
   2593000   1.0149323      17.595466      36.716578    
   2594000   1.0082163      17.36642       36.436226    
   2595000   0.98118507     17.421533      36.341785    
   2596000   0.98166814     17.047338      36.211725    
   2597000   0.98364316     17.814402      36.111004    
   2598000   0.98959403     17.664793      35.97881     
   2599000   1.0180778      17.136979      35.910967    
   2600000   0.99192965     17.215811      36.036744    
   2601000   0.98973961     17.381584      36.151264    
   2602000   0.97517201     17.069558      36.154266    
   2603000   0.99407946     17.144362      36.224775    
   2604000   1.0053243      17.870844      36.180701    
   2605000   1.0312921      17.808371      36.22277     
   2606000   1.0425427      17.59514       36.026528    
   2607000   1.0162094      18.135321      35.894667    
   2608000   1.0050803      16.993605      35.562759    
   2609000   0.94834289     16.96142       35.566259    
   2610000   0.95998809     17.459988      35.58346     
   2611000   0.98704786     17.493377      35.500917    
   2612000   1.0424241      17.747962      35.504889    
   2613000   1.0019154      17.246882      35.395021    
   2614000   0.97492826     16.666197      35.310741    
   2615000   0.98070318     17.268216      35.081206    
   2616000   1.0032727      17.553526      34.857878    
   2617000   1.0282664      16.860472      34.774725    
   2618000   0.96939006     17.675412      34.814853    
   2619000   0.93994104     17.343036      34.617278    
   2620000   1.0436363      17.318176      34.406862    
   2621000   0.98820353     17.725798      34.290129    
   2622000   0.9937078      17.642274      34.505738    
   2623000   0.99320901     18.087505      34.57212     
   2624000   1.0068315      17.56576       34.481262    
   2625000   1.0191698      17.644003      34.675046    
   2626000   0.96911428     17.260924      34.680709    
   2627000   0.97011482     17.365717      34.366103    
   2628000   1.0103203      17.150828      34.081375    
   2629000   0.93351345     17.215276      34.189585    
   2630000   1.0309515      17.394536      34.294644    
   2631000   0.97844944     17.40774       34.38503     
   2632000   1.002108       17.164151      34.111252    
   2633000   1.013822       16.617405      34.293918    
   2634000   1.0252441      16.980679      34.168512    
   2635000   1.0197075      17.334988      34.19041     
   2636000   1.0196633      17.067593      34.244046    
   2637000   0.981813       17.197853      34.097493    
   2638000   0.97032995     16.808388      34.131842    
   2639000   1.0312886      17.531812      33.977031    
   2640000   1.0241097      17.32789       33.746197    
   2641000   1.0046513      17.223206      33.513155    
   2642000   0.97021641     16.997266      33.369784    
   2643000   0.97197491     16.854774      33.334612    
   2644000   0.95725322     17.152518      33.245807    
   2645000   1.0009995      17.41307       33.184112    
   2646000   0.98719523     17.787321      32.785911    
   2647000   0.99733789     17.251055      32.850438    
   2648000   0.9855331      16.966345      32.618064    
   2649000   1.0619281      17.886541      32.775627    
   2650000   0.96273278     17.411405      32.695302    
   2651000   1.0062379      17.198454      32.566325    
   2652000   1.0017387      17.308598      32.737912    
   2653000   0.99118051     17.282576      32.739767    
   2654000   1.0047179      17.448104      32.437034    
   2655000   1.0110147      17.267463      32.194145    
   2656000   1.0130272      17.726663      32.391911    
   2657000   0.99100973     17.496297      32.300313    
   2658000   1.0074018      17.538992      32.345584    
   2659000   0.96815578     17.30505       32.564173    
   2660000   1.0204341      17.174624      32.338432    
   2661000   0.99522642     16.48723       32.074578    
   2662000   1.0003264      17.526299      32.003098    
   2663000   0.96507406     17.342607      32.061389    
   2664000   0.98611277     17.061091      32.054036    
   2665000   1.0484504      17.460497      32.047217    
   2666000   0.98761036     17.373442      32.04913     
   2667000   0.9966484      17.367218      31.99755     
   2668000   1.0062084      16.485389      31.885371    
   2669000   1.0052065      16.925466      31.724682    
   2670000   1.0168985      17.060014      31.598884    
   2671000   0.99225259     17.4438        31.537093    
   2672000   1.0023616      16.893114      31.655812    
   2673000   0.98483087     17.321392      31.659056    
   2674000   1.0448518      17.3708        31.29081     
   2675000   0.99039358     17.170236      31.086919    
   2676000   0.96912539     17.913847      30.961274    
   2677000   0.97615007     17.282913      30.79795     
   2678000   0.9528737      17.021866      31.135736    
   2679000   0.98279543     17.276692      31.016672    
   2680000   1.0216696      17.430292      30.786293    
   2681000   1.0036319      16.957164      30.875475    
   2682000   0.97189296     17.162247      30.700461    
   2683000   0.97089011     16.894725      30.91995     
   2684000   1.005991       17.40255       30.541047    
   2685000   1.0135757      17.319839      30.582468    
   2686000   0.99648455     17.233         30.671896    
   2687000   0.97399173     17.364965      30.633651    
   2688000   0.99245489     16.925812      30.706482    
   2689000   0.97174829     16.816241      30.453814    
   2690000   0.98838745     17.458727      30.327902    
   2691000   0.97245545     17.042819      30.300471    
   2692000   0.97909427     17.376109      30.190035    
   2693000   0.98992036     17.559725      30.106959    
   2694000   0.97437038     17.156369      29.958512    
   2695000   1.070947       17.564145      29.984224    
   2696000   0.95425802     16.896966      29.890264    
   2697000   1.0119822      17.579083      29.684104    
   2698000   0.9981735      16.933049      29.549435    
   2699000   0.94293192     17.478486      29.483334    
   2700000   1.0016296      17.155369      29.428394    
   2701000   0.98030428     17.174785      29.398329    
   2702000   0.99669782     17.385399      29.330924    
   2703000   1.0073172      16.684481      29.472238    
   2704000   0.98243702     17.173202      29.478721    
   2705000   0.95830554     17.059167      29.402548    
   2706000   1.0158762      17.242604      29.255847    
   2707000   1.0628415      17.371947      29.01172     
   2708000   1.0330887      17.151691      29.099296    
   2709000   1.0165875      17.166098      29.003902    
   2710000   1.026355       17.290801      28.922371    
   2711000   0.97734306     16.491966      28.955804    
   2712000   0.98693249     17.396951      29.059795    
   2713000   0.97477934     16.952059      28.930762    
   2714000   1.0050104      17.565824      28.819551    
   2715000   1.0148954      17.108899      28.447263    
   2716000   0.97603975     17.907017      28.368282    
   2717000   0.97549693     17.331163      28.134176    
   2718000   0.99909985     16.782337      28.024491    
   2719000   0.95123485     17.584132      27.744974    
   2720000   0.98955087     17.477156      27.708808    
   2721000   1.005123       17.43164       27.790099    
   2722000   1.0027681      17.350324      27.752247    
   2723000   0.99285042     17.035638      27.630849    
   2724000   0.98351379     16.668878      27.753171    
   2725000   1.0059056      17.204047      27.572984    
   2726000   0.99399003     17.291899      27.627127    
   2727000   0.99863321     17.17367       27.474714    
   2728000   0.9825038      17.975152      27.47008     
   2729000   1.0220081      17.802532      27.387167    
   2730000   0.95628244     16.521551      27.431679    
   2731000   0.94968489     17.020478      27.360947    
   2732000   1.0019579      16.971754      27.335053    
   2733000   0.99845326     16.829572      27.476161    
   2734000   1.0355124      17.15471       27.289211    
   2735000   1.0346252      17.033501      27.255019    
   2736000   1.0263759      17.345425      27.257291    
   2737000   0.99847691     17.160591      27.071712    
   2738000   0.99789886     17.250599      27.130859    
   2739000   1.0026172      16.984053      27.09455     
   2740000   1.0474782      17.20359       26.860021    
   2741000   0.99326414     16.755538      26.925586    
   2742000   0.9992302      17.51727       26.774378    
   2743000   1.0178434      17.945775      26.694269    
   2744000   0.97442964     17.356085      26.75161     
   2745000   0.99883324     17.439807      26.586239    
   2746000   1.0599415      17.456348      26.7349      
   2747000   1.0146197      17.393956      26.815854    
   2748000   1.0635518      17.584153      26.878896    
   2749000   1.0146649      17.023755      26.808658    
   2750000   1.0466253      17.292611      26.67659     
   2751000   0.99866877     17.203039      26.627024    
   2752000   0.98197179     16.839695      26.247634    
   2753000   0.97599063     16.981134      26.144508    
   2754000   1.0101685      17.997721      26.209784    
   2755000   1.0062741      17.245454      26.154725    
   2756000   1.0347698      17.369012      26.503932    
   2757000   0.98971063     17.606273      26.535329    
   2758000   1.0363773      17.248468      26.572479    
   2759000   1.0343806      17.282667      26.541023    
   2760000   0.99903508     17.970944      26.630507    
   2761000   0.97917172     16.552732      26.646379    
   2762000   0.97509486     17.378015      26.357869    
   2763000   1.0094931      17.035353      26.260325    
   2764000   0.98259891     17.003802      26.544978    
   2765000   1.040877       17.158548      26.59719     
   2766000   1.0388061      16.99802       26.769624    
   2767000   1.0141517      17.582315      26.697252    
   2768000   0.97378324     17.45562       26.83143     
   2769000   1.0034         17.193621      26.774639    
   2770000   0.97991518     17.264615      26.683336    
   2771000   1.0346706      17.095832      26.441133    
   2772000   1.0423466      17.142417      26.354268    
   2773000   0.99860341     17.765072      26.203289    
   2774000   1.0031408      17.712093      26.503675    
   2775000   0.97529166     17.022682      26.508556    
   2776000   1.0257784      17.192709      26.387602    
   2777000   0.99970722     16.652239      26.496349    
   2778000   0.97296644     16.826483      26.487961    
   2779000   0.99822051     16.987531      26.241566    
   2780000   0.98896962     17.462737      26.367446    
   2781000   1.0375046      16.819338      26.386682    
   2782000   1.0065333      17.591991      26.196101    
   2783000   0.97355481     16.599622      26.180654    
   2784000   1.0466138      17.420887      26.086745    
   2785000   1.0241476      17.336284      26.115717    
   2786000   0.98089528     17.078286      26.078394    
   2787000   0.97729005     17.296817      25.953479    
   2788000   0.97349624     16.845315      25.855464    
   2789000   1.0157219      17.299077      25.77447     
   2790000   1.041595       17.735281      25.710764    
   2791000   1.020672       17.163711      25.794139    
   2792000   0.97396238     17.6373        25.886105    
   2793000   0.97716049     17.16154       26.015873    
   2794000   1.0223953      17.355713      25.746322    
   2795000   1.0031412      16.719997      25.65644     
   2796000   0.99067968     16.9521        25.724036    
   2797000   1.0052217      16.705798      25.672608    
   2798000   1.0007061      17.295448      25.477086    
   2799000   1.0461242      17.180851      25.52431     
   2800000   1.0047301      16.602137      25.473667    
   2801000   1.0359117      17.61032       25.421969    
   2802000   0.99985794     16.923605      25.455305    
   2803000   1.0214849      16.83576       25.291225    
   2804000   0.97102659     17.147951      25.400221    
   2805000   0.99476599     16.432752      25.309839    
   2806000   1.0073019      17.221004      25.180843    
   2807000   1.0052197      17.150553      25.10994     
   2808000   1.0064318      16.99415       24.956013    
   2809000   0.99373489     16.774605      24.947384    
   2810000   0.96967357     17.037172      24.683371    
   2811000   0.95490121     17.353207      24.70281     
   2812000   0.9989376      17.37729       24.557483    
   2813000   1.0418695      17.085769      24.424734    
   2814000   1.0198354      17.110138      24.346271    
   2815000   0.99674486     16.829211      24.32137     
   2816000   0.98982099     17.239817      24.386191    
   2817000   0.99605389     17.217003      24.151693    
   2818000   1.0297335      17.043532      23.849099    
   2819000   1.0225022      17.138016      23.786754    
   2820000   0.99302516     17.175031      23.549796    
   2821000   0.99252976     17.770134      23.439188    
   2822000   1.0344997      17.492488      23.170555    
   2823000   1.0208933      17.139355      23.3443      
   2824000   0.97631316     17.005487      23.366971    
   2825000   0.97640475     16.921491      23.452426    
   2826000   1.0009913      16.872453      23.347894    
   2827000   1.0107891      16.928495      23.098229    
   2828000   1.023815       16.770547      22.927401    
   2829000   0.98576525     16.970025      22.799838    
   2830000   0.97417046     17.315448      22.735679    
   2831000   0.97970363     16.884966      22.830175    
   2832000   0.99057109     17.506388      22.746394    
   2833000   1.0716706      17.376744      22.614232    
   2834000   0.94731055     17.524995      22.629154    
   2835000   0.98206467     16.715672      22.406708    
   2836000   0.99039453     16.768304      22.209769    
   2837000   1.0252827      17.703611      22.129944    
   2838000   1.0147423      17.211323      22.053987    
   2839000   0.97296842     17.301651      21.981478    
   2840000   1.0116146      17.432303      21.678931    
   2841000   1.0381878      17.215124      21.67123     
   2842000   0.98022448     17.004538      21.544901    
   2843000   0.95182194     16.755726      21.63694     
   2844000   1.0432934      17.038878      21.672533    
   2845000   1.0217132      17.598859      21.540764    
   2846000   0.97224083     16.957376      21.69914     
   2847000   1.0267369      17.497281      21.549297    
   2848000   1.0218558      17.345618      21.508859    
   2849000   0.97119087     16.878861      21.305105    
   2850000   0.9850092      17.832174      21.223866    
   2851000   0.98824381     17.274529      21.192055    
   2852000   0.98934107     16.943191      21.149591    
   2853000   0.98489544     17.127262      21.038189    
   2854000   1.0063047      17.139075      20.844889    
   2855000   0.99314529     16.823823      20.819148    
   2856000   0.98768045     17.130317      20.688197    
   2857000   0.9682052      16.755141      20.465204    
   2858000   0.96919727     17.20982       20.239286    
   2859000   1.021328       17.276045      20.258209    
   2860000   1.0347738      17.070972      20.261503    
   2861000   1.0042613      16.882704      20.377172    
   2862000   1.031799       17.311611      20.380944    
   2863000   0.96865455     17.714929      20.361951    
   2864000   0.98786899     17.302947      20.493725    
   2865000   1.0285188      17.627309      20.685793    
   2866000   0.97077695     17.397236      20.723128    
   2867000   0.97044379     16.773612      20.435649    
   2868000   0.9872541      16.923622      20.285383    
   2869000   1.0189644      17.01773       20.306338    
   2870000   0.95723551     17.260841      20.145939    
   2871000   0.99275811     17.196769      20.171033    
   2872000   0.96450594     17.49799       20.105449    
   2873000   0.9740252      17.745251      19.836926    
   2874000   0.99388418     17.048573      19.572267    
   2875000   1.023042       17.168236      19.543561    
   2876000   1.0247955      16.63733       19.36648     
   2877000   1.0286418      17.56666       19.073439    
   2878000   0.97747854     17.416966      19.111531    
   2879000   0.96645622     17.296452      19.009823    
   2880000   1.0342939      17.467555      19.098646    
   2881000   0.96195949     18.013357      19.058023    
   2882000   1.0097191      17.570442      18.877459    
   2883000   1.0238707      17.323036      18.976611    
   2884000   1.0116161      17.367444      18.81898     
   2885000   0.98593109     17.197999      18.66635     
   2886000   0.97344986     17.001776      18.532145    
   2887000   1.0107996      17.094273      18.594327    
   2888000   0.98683963     17.188181      18.712799    
   2889000   0.99024442     17.281325      18.613791    
   2890000   0.97502863     17.766112      18.451114    
   2891000   0.95443385     17.45515       18.362625    
   2892000   1.0426256      16.913087      18.411227    
   2893000   0.99784521     17.287336      18.280242    
   2894000   1.0414238      17.164882      18.522987    
   2895000   1.0013586      17.585311      18.405181    
   2896000   0.9691503      17.649632      18.182248    
   2897000   1.0110413      16.847183      18.031864    
   2898000   1.0252988      17.862108      17.957691    
   2899000   0.95714819     17.150249      17.893166    
   2900000   1.0000932      17.293601      17.783593    
   2901000   0.98929367     17.647743      17.735621    
   2902000   1.0241909      16.906482      17.689809    
   2903000   0.98494502     17.061796      17.591722    
   2904000   0.98585031     17.548207      17.571795    
   2905000   0.99652586     17.442792      17.566927    
   2906000   0.9983359      17.639449      17.489075    
   2907000   0.97725101     16.691093      17.563342    
   2908000   1.0759345      17.132367      17.571818    
   2909000   0.96226733     16.850207      17.255748    
   2910000   1.0111201      16.772221      17.130673    
   2911000   1.0434775      17.787047      17.344978    
   2912000   0.97482897     16.798026      17.37855     
   2913000   0.98971089     17.240031      17.419944    
   2914000   1.0099941      17.550138      17.239232    
   2915000   1.0175618      16.836639      17.116815    
   2916000   1.0097443      17.285574      17.105854    
   2917000   0.9953725      17.036321      16.967036    
   2918000   1.0058132      16.71857       16.81815     
   2919000   0.98068598     16.967849      16.846218    
   2920000   0.99568627     17.089656      16.647744    
   2921000   1.0425363      17.339899      16.785235    
   2922000   0.95386134     16.976784      16.758825    
   2923000   0.98864465     17.177406      16.639591    
   2924000   1.0275319      17.439872      16.533028    
   2925000   0.98067106     16.590113      16.555601    
   2926000   1.0000967      16.864197      16.340547    
   2927000   1.012027       17.221598      16.369719    
   2928000   1.0113326      17.140364      16.301168    
   2929000   1.00367        17.280559      16.13823     
   2930000   0.98662549     16.98918       16.020429    
   2931000   1.0070419      17.79496       15.712714    
   2932000   1.0160192      17.258271      15.697097    
   2933000   1.011605       17.456931      15.859329    
   2934000   0.96115332     17.306548      15.962345    
   2935000   0.95917253     16.951806      15.847358    
   2936000   1.0198896      17.034127      15.854335    
   2937000   1.0247046      16.748529      15.47992     
   2938000   0.98267107     16.638094      15.538376    
   2939000   1.0288744      16.318635      15.531159    
   2940000   1.053022       17.030564      15.661088    
   2941000   1.0303724      17.216761      15.636108    
   2942000   1.0246316      17.381603      15.535927    
   2943000   1.0230549      16.567746      15.415111    
   2944000   1.0109916      17.794433      15.300538    
   2945000   0.97997185     16.455686      15.236262    
   2946000   1.0364001      16.690987      15.082668    
   2947000   0.98880267     17.178706      14.87363     
   2948000   1.008747       17.28964       14.751588    
   2949000   1.0108256      17.154341      14.522045    
   2950000   1.0087626      17.148391      14.494018    
   2951000   1.049987       17.54799       14.470227    
   2952000   0.98889471     17.294698      14.505873    
   2953000   0.97485823     17.248811      14.478112    
   2954000   1.0197306      17.066851      14.322766    
   2955000   1.0272356      17.399356      14.200242    
   2956000   1.0502304      17.206561      14.162507    
   2957000   0.98137428     16.777339      14.073986    
   2958000   0.9491416      17.67573       13.943298    
   2959000   0.99505923     17.118375      13.911598    
   2960000   1.0192432      17.615837      13.707307    
   2961000   0.97387085     17.570222      13.6217      
   2962000   1.0209633      17.521097      13.43318     
   2963000   0.93875206     16.754442      13.61252     
   2964000   1.0065556      17.528206      13.378688    
   2965000   0.97936477     16.93162       13.327004    
   2966000   0.99747926     16.938112      13.187464    
   2967000   1.0059243      17.28278       13.069875    
   2968000   0.99101428     17.116047      12.891168    
   2969000   1.0040504      17.052297      12.687486    
   2970000   0.99657508     17.895704      12.553354    
   2971000   1.0085277      16.477553      12.595594    
   2972000   1.0323047      17.687388      12.597779    
   2973000   0.97313288     16.674995      12.398966    
   2974000   0.94757704     16.616817      12.317836    
   2975000   1.0332561      16.58762       12.217427    
   2976000   1.0396886      17.620199      12.151417    
   2977000   1.0230432      17.957949      12.106377    
   2978000   0.97010115     17.041077      11.897559    
   2979000   0.99958755     17.411646      11.876351    
   2980000   1.0091581      16.963302      11.879025    
   2981000   0.97651139     17.249863      11.983748    
   2982000   1.0231412      17.955638      11.848533    
   2983000   1.0328461      17.192873      11.77611     
   2984000   1.0220881      16.988692      11.621453    
   2985000   0.98869653     16.730392      11.516815    
   2986000   0.98959529     17.079401      11.442984    
   2987000   1.0063624      17.472283      11.147165    
   2988000   1.0143588      17.430554      11.152036    
   2989000   1.0115441      16.993614      11.131135    
   2990000   1.0339847      16.834043      11.104724    
   2991000   0.98082528     17.069296      10.74078     
   2992000   1.0085562      17.583573      10.572343    
   2993000   1.0314839      16.944773      10.707574    
   2994000   1.0789845      17.088904      10.488448    
   2995000   1.0871439      17.614596      10.254494    
   2996000   1.00683        16.842894      10.209502    
   2997000   1.0116327      17.244571      10.089158    
   2998000   1.0107027      16.989508      10.025564    
   2999000   0.99284955     17.106951      10.009086    
   3000000   0.97954231     16.510076      10.058224    
   3001000   0.96905424     16.559306      10.005955    
   3002000   1.0273782      17.252939      10.101278    
   3003000   1.0153092      17.043006      9.9039916    
   3004000   1.0127243      17.161015      9.735135     
   3005000   1.0133126      17.586707      9.6732026    
   3006000   1.0096429      17.062116      9.4843431    
   3007000   1.0303682      17.668852      9.5085857    
   3008000   0.97642715     16.939075      9.6095654    
   3009000   1.0382872      17.308138      9.3773518    
   3010000   0.9960979      16.769518      9.3490127    
   3011000   0.9799232      17.760884      9.1796965    
   3012000   0.962574       16.85866       9.27166      
   3013000   1.0435005      17.173243      9.1879129    
   3014000   0.96776724     16.93338       9.1096735    
   3015000   0.97241027     17.032666      8.9544344    
   3016000   0.974909       17.528331      8.5954198    
   3017000   0.97966945     16.984035      8.5843355    
   3018000   0.95236431     17.163524      8.5289673    
   3019000   1.0360157      17.099678      8.505177     
   3020000   1.0232324      16.68785       8.4327653    
   3021000   0.97859953     17.098245      8.3709402    
   3022000   0.99087286     16.986925      8.2639741    
   3023000   0.97186671     16.602689      8.0653617    
   3024000   0.990981       17.211407      8.2038496    
   3025000   0.99790895     17.208733      7.8239762    
   3026000   1.0209228      17.431596      7.6532452    
   3027000   1.0083518      17.279446      7.4683405    
   3028000   1.0196506      17.049535      7.3397961    
   3029000   1.0223058      16.659337      7.1408887    
   3030000   1.0440076      17.042759      7.0400054    
   3031000   0.99584674     16.749529      6.9873669    
   3032000   0.98543121     17.166425      6.9860916    
   3033000   1.0088075      16.616704      6.816507     
   3034000   1.010735       17.353698      6.5888402    
   3035000   0.99446289     16.906602      6.5751147    
   3036000   0.96797067     16.762081      6.4794529    
   3037000   1.0197028      16.786857      6.3277245    
   3038000   1.0378805      17.076508      6.1817809    
   3039000   0.95689029     16.51435       5.9944847    
   3040000   0.98365352     16.552519      5.9642112    
   3041000   1.0028619      16.49917       5.7374878    
   3042000   0.98880853     16.625784      5.6666937    
   3043000   1.0124543      16.743033      5.6325843    
   3044000   0.99404028     16.955236      5.6925251    
   3045000   0.9548624      16.315919      5.5896481    
   3046000   0.99075681     17.101619      5.4640236    
   3047000   0.97366059     17.445264      5.4481177    
   3048000   0.98922539     16.756274      5.4875339    
   3049000   0.99008062     16.670151      5.5054409    
   3050000   1.0037711      17.40579       5.4890137    
   3051000   0.96195571     16.490545      5.3597877    
   3052000   0.98500422     16.65972       5.3826437    
   3053000   1.0210786      16.841971      5.3885946    
   3054000   0.99282539     16.656469      5.3977262    
   3055000   1.0088636      16.55664       5.4243457    
   3056000   1.0030548      16.881457      5.4086295    
   3057000   1.0144576      16.514792      5.3920771    
   3058000   1.0049952      16.780189      5.3620693    
   3059000   0.95949975     16.89535       5.3663166    
   3060000   1.0097463      16.450298      5.3802197    
   3061000   1.0084932      17.035534      5.3879033    
   3062000   1.0002203      16.868251      5.331141     
   3063000   1.0223475      17.027861      5.2497887    
   3064000   1.0221827      17.182848      5.2807365    
   3065000   1.0234619      16.612812      5.2351757    
   3066000   1.0391488      17.211087      5.2021058    
   3067000   1.0237919      16.864622      5.1670673    
   3068000   0.98977575     17.005315      5.2276064    
   3069000   1.0358733      16.747396      5.1974829    
   3070000   1.0319966      17.059431      5.1617148    
   3071000   1.0205596      17.231708      5.1526546    
   3072000   1.0234949      16.740772      5.1526849    
   3073000   0.99538829     16.80166       5.1405545    
   3074000   0.97291956     17.164487      5.1688315    
   3075000   1.0275176      17.131633      5.149842     
   3076000   0.98285756     16.555803      5.1225581    
   3077000   0.98637613     16.81208       5.145693     
   3078000   1.0421679      16.997951      5.1490484    
   3079000   0.9835196      17.091352      5.1554699    
   3080000   1.0087503      16.832588      5.0866888    
   3081000   0.9802936      17.07279       5.1320128    
   3082000   1.057674       17.30586       5.1216256    
   3083000   0.98757481     17.145145      5.1325119    
   3084000   0.97842452     16.504563      5.1158131    
   3085000   1.0058807      16.398115      5.1446854    
   3086000   0.97411229     16.744355      5.1543468    
   3087000   1.0509158      17.075971      5.1194991    
   3088000   1.0042004      16.310437      5.1657166    
   3089000   1.0044556      16.539391      5.146128     
   3090000   0.97185544     16.689207      5.1719555    
   3091000   1.0049448      16.957044      5.1543305    
   3092000   1.0099906      16.966141      5.1265447    
   3093000   0.99853672     16.59881       5.135171     
   3094000   1.0158563      16.99031       5.1405569    
   3095000   1.0152927      17.8726        5.1693903    
   3096000   1.0053637      17.196015      5.1218       
   3097000   1.0074167      17.641921      5.0568793    
   3098000   1.0130493      16.925492      5.0855671    
   3099000   0.99467306     16.690035      5.0819897    
   3100000   1.0255236      17.489197      5.0966814    
   3101000   1.0148847      16.83266       5.1392703    
   3102000   0.99032162     17.022964      5.0851818    
   3103000   1.015446       16.975706      5.1484605    
   3104000   0.97056723     16.643013      5.1483482    
   3105000   1.0661239      17.212904      5.121763     
   3106000   0.94712578     16.392104      5.1555031    
   3107000   0.99826295     17.216619      5.1052325    
   3108000   0.981703       16.770867      5.102057     
   3109000   1.0130848      17.585459      5.1053106    
   3110000   0.99398475     17.057321      5.1247451    
   3111000   0.98162726     16.595079      5.1157683    
   3112000   0.94086059     16.179344      5.0879726    
   3113000   0.98319106     17.132986      5.0941875    
   3114000   1.0131347      16.709424      5.0993175    
   3115000   0.96420893     16.679978      5.0698278    
   3116000   1.0029797      16.923039      5.1118244    
   3117000   1.0065767      17.100064      5.1104285    
   3118000   1.0193438      16.727339      5.0984815    
   3119000   0.97614001     16.850465      5.109243     
   3120000   0.96845301     16.324275      5.1004351    
   3121000   0.97634547     16.924192      5.0917342    
   3122000   1.0195656      16.721176      5.1489657    
   3123000   0.95556183     16.376617      5.1016998    
   3124000   1.0330057      16.419081      5.1428981    
   3125000   1.048421       16.857489      5.0961885    
   3126000   1.0118353      17.251481      5.0542909    
   3127000   0.97819877     16.497476      5.1003451    
   3128000   1.0366468      16.303321      5.0851343    
   3129000   1.0004769      16.508858      5.1370742    
   3130000   1.0006402      16.935586      5.1040846    
   3131000   1.0332467      17.004352      5.1351421    
   3132000   0.98426711     16.49135       5.0987352    
   3133000   1.0176395      16.471917      5.1192458    
   3134000   1.0244281      17.112104      5.1718863    
   3135000   1.0165185      17.047024      5.1247651    
   3136000   0.97911452     16.94684       5.1746385    
   3137000   0.94340949     17.173441      5.1132369    
   3138000   1.027677       17.060729      5.1271519    
   3139000   0.97656851     16.844064      5.078875     
   3140000   1.0061105      16.807602      5.1474545    
   3141000   1.039153       16.601865      5.14426      
   3142000   0.98568299     16.887175      5.1273321    
   3143000   1.0022322      16.896365      5.0945464    
   3144000   0.99605727     16.216685      5.0945558    
   3145000   0.99956513     17.079687      5.0721691    
   3146000   1.0246202      17.256824      5.0856131    
   3147000   1.0103477      17.037107      5.1157545    
   3148000   0.95157738     16.865677      5.0739899    
   3149000   1.0254541      16.791799      5.0922507    
   3150000   0.9867026      16.97803       5.0737312    
   3151000   1.0177032      16.912283      5.0877663    
   3152000   0.99654771     16.935445      5.0843114    
   3153000   0.99801289     16.974484      5.1167934    
   3154000   1.0262417      16.632622      5.1049528    
   3155000   1.0008671      16.56833       5.0849636    
   3156000   1.0201567      16.785353      5.0614202    
   3157000   1.0141174      17.244897      5.073104     
   3158000   0.97978016     16.394921      5.1217839    
   3159000   1.0027291      16.417255      5.1133757    
   3160000   0.96593285     16.942391      5.0636064    
   3161000   0.98444856     17.186797      5.0887775    
   3162000   0.99830855     16.380659      5.100545     
   3163000   0.99329126     16.405332      5.088938     
   3164000   1.010947       17.440446      5.0869972    
   3165000   0.953915       16.491793      5.1042001    
   3166000   0.99548781     16.764187      5.0985296    
   3167000   1.0056472      17.318808      5.1100905    
   3168000   0.98920449     16.407342      5.1075579    
   3169000   1.0389567      17.429666      5.0759629    
   3170000   0.966515       17.081127      5.0392314    
   3171000   0.99651798     16.644567      5.0421507    
   3172000   0.98732237     16.779196      5.0572908    
   3173000   1.0031771      16.711911      5.0673868    
   3174000   0.98302845     17.174941      5.081753     
   3175000   1.0053266      16.693143      5.0655975    
   3176000   1.0138568      17.098313      5.0660171    
   3177000   1.0210233      16.297373      5.0684818    
   3178000   0.99175434     16.454472      5.0640877    
   3179000   1.029713       17.029334      5.0822082    
   3180000   1.0359004      16.830781      5.1019218    
   3181000   1.005765       17.402378      5.0588446    
   3182000   1.03245        17.448477      5.0961767    
   3183000   0.96795046     16.421641      5.057667     
   3184000   0.97539208     16.165744      5.0663613    
   3185000   0.9920148      16.733201      5.078737     
   3186000   0.98569797     16.555385      5.0895739    
   3187000   1.0104927      17.37259       5.1034315    
   3188000   0.95841151     16.700704      5.0469172    
   3189000   0.99362168     16.92852       5.0800401    
   3190000   1.040579       16.982418      5.0773783    
   3191000   0.98112073     16.902635      5.0338351    
   3192000   0.9901075      16.904423      5.0674552    
   3193000   1.0101591      16.338834      5.0846445    
   3194000   1.0163245      17.169877      5.0739141    
   3195000   1.0182793      17.344865      5.0573719    
   3196000   0.97777825     16.953426      5.0640524    
   3197000   1.0060807      16.998606      5.060648     
   3198000   1.0413941      16.452866      5.099345     
   3199000   1.0116387      16.767172      5.1366018    
   3200000   0.99871824     16.961624      5.1126998    
   3201000   1.0222653      16.928932      5.1008024    
   3202000   0.98754266     16.664335      5.11377      
   3203000   0.98781601     16.367115      5.1043528    
   3204000   0.98881461     17.015922      5.0569017    
   3205000   0.98773046     16.791075      5.1047662    
   3206000   1.0143336      17.309919      5.1115387    
   3207000   1.0106538      16.921341      5.107067     
   3208000   0.98761997     16.199666      5.0918712    
   3209000   1.0158331      16.388206      5.0853471    
   3210000   1.005643       16.637752      5.1039648    
   3211000   0.99098037     16.216238      5.1200636    
   3212000   1.0278262      17.08876       5.064153     
   3213000   0.9759236      17.107103      5.0759838    
   3214000   1.0180258      16.823945      5.1295096    
   3215000   0.96559021     17.252568      5.0946386    
   3216000   0.97840275     16.596987      5.1012241    
   3217000   0.98025058     16.640822      5.096704     
   3218000   0.97546249     17.195642      5.1173989    
   3219000   1.0256188      17.260102      5.0631445    
   3220000   0.99051826     16.337956      5.0849727    
   3221000   1.0437088      17.08741       5.0830941    
   3222000   1.0344276      16.637251      5.0976296    
   3223000   1.0235697      16.847371      5.0968011    
   3224000   1.0416974      16.75324       5.0706196    
   3225000   0.96842903     16.344298      5.1048128    
   3226000   0.97365906     16.444948      5.0728908    
   3227000   1.0042522      17.059082      5.0715108    
   3228000   0.98850558     16.800221      5.1000993    
   3229000   1.0091511      17.167247      5.0191626    
   3230000   0.99597389     16.76145       5.060763     
   3231000   1.0126658      16.7964        5.0852316    
   3232000   1.0598563      16.756031      5.1085092    
   3233000   0.99735055     16.491072      5.1064591    
   3234000   1.0088043      16.830253      5.0469891    
   3235000   0.98915527     16.222614      5.0827938    
   3236000   0.99606792     16.265262      5.047307     
   3237000   0.99324531     16.490309      5.0746153    
   3238000   0.99011957     17.2081        5.114149     
   3239000   0.98595617     16.745639      5.0656382    
   3240000   0.97671936     16.882379      5.0645178    
   3241000   1.0137513      17.1362        5.0426475    
   3242000   0.97736714     17.030153      5.1050745    
   3243000   0.98498628     17.083253      5.106607     
   3244000   1.0157252      17.675522      5.0830035    
   3245000   0.96193167     16.996316      5.095678     
   3246000   1.0014919      16.935134      5.0595957    
   3247000   1.0050571      17.073397      5.0926895    
   3248000   1.0089918      17.083729      5.0820095    
   3249000   0.99274101     16.624396      5.1151225    
   3250000   0.97208371     17.023786      5.1022898    
   3251000   1.0047575      16.891474      5.1175651    
   3252000   0.98596991     17.004136      5.0781487    
   3253000   0.984868       16.716899      5.0741565    
   3254000   0.99664921     16.744916      5.110249     
   3255000   1.0547136      16.997794      5.0788011    
   3256000   0.98239787     16.085513      5.0596907    
   3257000   0.99671524     16.588265      5.0707839    
   3258000   1.0293473      17.591189      5.1013569    
   3259000   0.98054469     17.430747      5.0711619    
   3260000   1.0255919      17.208482      5.0791634    
   3261000   0.95391893     16.646238      5.0754695    
   3262000   0.9991844      16.662803      5.0678795    
   3263000   1.0200915      17.290947      5.096035     
   3264000   1.0169378      16.457013      5.0879043    
   3265000   0.9535564      16.641418      5.0653005    
   3266000   0.97786886     16.70138       5.1119836    
   3267000   0.99741748     17.029869      5.0688068    
   3268000   1.0314088      17.196299      5.0867957    
   3269000   0.95582984     16.276382      5.0724591    
   3270000   0.97204692     17.669847      5.0466047    
   3271000   1.0094202      17.124938      5.0974988    
   3272000   1.0243576      17.000399      5.1372284    
   3273000   0.98125935     16.817651      5.1294081    
   3274000   1.0012857      17.156891      5.1421861    
   3275000   0.98025135     16.79667       5.1203534    
   3276000   0.96739687     16.445402      5.0982424    
   3277000   0.97872539     16.90902       5.0720634    
   3278000   0.94942952     16.969158      5.0979438    
   3279000   0.99822113     16.572054      5.0987263    
   3280000   1.0478619      16.578578      5.1397899    
   3281000   1.0094095      17.063201      5.1012897    
   3282000   1.0201557      17.080842      5.0687968    
   3283000   1.0018693      16.595653      5.0610526    
   3284000   0.99469348     17.381179      5.0908863    
   3285000   0.98034666     17.229879      5.0947275    
   3286000   0.97878806     16.719064      5.073313     
   3287000   0.99133323     16.387993      5.0736957    
   3288000   1.0246964      17.196911      5.0577151    
   3289000   1.0160008      16.750413      5.0801551    
   3290000   0.98972864     16.605864      5.082886     
   3291000   0.97600621     16.851382      5.0643258    
   3292000   1.0150879      16.612847      5.0952338    
   3293000   1.0167536      16.859176      5.0866066    
   3294000   0.9536386      16.489988      5.0722269    
   3295000   1.0429281      16.68208       5.1154299    
   3296000   1.0613403      17.096386      5.0707061    
   3297000   1.0191631      17.346389      5.107321     
   3298000   1.0077011      16.450965      5.103102     
   3299000   0.97770737     17.37058       5.0959039    
   3300000   1.0389476      16.990184      5.1168662    
   3301000   1.0300237      17.342367      5.0337458    
   3302000   1.00094        17.309593      5.0537145    
   3303000   1.0301441      16.955284      5.105537     
   3304000   0.96505381     16.328508      5.1359432    
   3305000   0.99552357     17.024614      5.1387495    
   3306000   0.9969889      16.656967      5.1175854    
   3307000   1.0532827      16.574337      5.1064886    
   3308000   1.0059328      16.612681      5.0782382    
   3309000   0.99095297     16.68344       5.1175887    
   3310000   1.0380627      16.910738      5.0722289    
   3311000   0.98496298     16.723324      5.1044365    
   3312000   0.97442348     16.310811      5.0662741    
   3313000   1.0383008      17.198866      5.0861853    
   3314000   1.0223035      16.326079      5.091149     
   3315000   1.0356515      16.737573      5.0887486    
   3316000   0.99329881     16.144683      5.0687221    
   3317000   0.99356254     17.319181      5.1060872    
   3318000   0.99134323     17.813222      5.0870836    
   3319000   0.97473034     16.312156      5.0979858    
   3320000   1.0567868      17.040092      5.1064357    
   3321000   0.98106265     17.127062      5.0812976    
   3322000   1.0000038      16.490424      5.085209     
   3323000   0.97007279     17.09109       5.0821848    
   3324000   0.95830993     17.218606      5.056417     
   3325000   0.99936723     17.148823      5.0923412    
   3326000   0.99192819     16.708195      5.1184863    
   3327000   0.98617183     16.549128      5.0502523    
   3328000   1.0070341      16.644057      5.1017866    
   3329000   1.0007885      17.168135      5.0742586    
   3330000   0.96564518     17.273111      5.0900689    
   3331000   1.0591083      16.76467       5.0706712    
   3332000   1.0032824      17.211296      5.066324     
   3333000   0.9553532      17.056155      5.0820654    
   3334000   1.0237905      16.487937      5.0832746    
   3335000   0.97043712     16.688176      5.09493      
   3336000   1.0048807      16.827881      5.056845     
   3337000   0.97486546     16.5663        5.0719281    
   3338000   1.0072195      16.393183      5.0644904    
   3339000   1.025805       16.590725      5.0718155    
   3340000   1.0192807      16.832872      5.0336848    
   3341000   1.0003849      16.653093      5.0713907    
   3342000   0.9793625      16.680518      5.1066774    
   3343000   1.0420907      16.891558      5.0616765    
   3344000   0.97895827     16.635791      5.0827805    
   3345000   1.0124347      16.622463      5.0820219    
   3346000   1.0199475      16.267809      5.1159063    
   3347000   0.97152462     17.184546      5.0592188    
   3348000   0.9916255      16.772909      5.0613693    
   3349000   0.9821182      16.611136      5.047317     
   3350000   1.0372263      17.506932      5.1069173    
   3351000   1.0061318      16.540892      5.0979689    
   3352000   1.0134251      16.615789      5.0417882    
   3353000   1.0228074      16.846163      5.105832     
   3354000   1.0145062      16.999931      5.0842868    
   3355000   1.0012747      17.674674      5.0779134    
   3356000   0.99400575     17.306469      5.0879077    
   3357000   1.045265       16.691115      5.1004035    
   3358000   0.99783219     17.594085      5.0960962    
   3359000   1.0122036      16.91325       5.0742497    
   3360000   0.9762829      16.765097      5.094427     
   3361000   0.97458399     16.246813      5.0628185    
   3362000   1.0123309      16.81678       5.0532322    
   3363000   1.0148968      16.711299      5.0698809    
   3364000   1.0326274      16.983071      5.0675642    
   3365000   0.99466808     16.745191      5.0673638    
   3366000   0.97993163     17.191194      5.0341629    
   3367000   1.0088039      16.164947      5.0782616    
   3368000   0.96781652     16.950043      5.0512198    
   3369000   0.96698814     16.497658      5.0362236    
   3370000   1.008031       17.076301      5.0843919    
   3371000   0.97716718     16.372908      5.0827473    
   3372000   0.96391742     16.969178      5.0919867    
   3373000   0.98114624     16.923277      5.0595928    
   3374000   1.0046627      16.960117      5.0775211    
   3375000   0.97718469     16.855924      5.0829509    
   3376000   1.0713943      17.140823      5.0921037    
   3377000   0.97581768     17.434917      5.0897905    
   3378000   1.0085241      16.931497      5.105269     
   3379000   0.97011661     16.393496      5.1087243    
   3380000   0.97827518     17.406144      5.0471657    
   3381000   1.0156528      17.060877      5.0855724    
   3382000   1.0077077      16.661497      5.0812388    
   3383000   0.98464362     16.46784       5.0170099    
   3384000   0.99233449     17.18105       5.0638806    
   3385000   0.99182313     17.094593      5.0765136    
   3386000   1.0415731      16.834973      5.1067911    
   3387000   0.99655029     16.750197      5.0743084    
   3388000   1.0016463      16.596968      5.1112753    
   3389000   1.0070997      16.69918       5.0910903    
   3390000   1.0153168      17.010573      5.0885909    
   3391000   1.0373484      17.03582       5.0762038    
   3392000   1.0059527      17.226384      5.0746492    
   3393000   1.0179685      16.966747      5.0865875    
   3394000   1.0202081      17.468663      5.1445914    
   3395000   0.99449202     16.022628      5.1088842    
   3396000   1.0362286      17.194272      5.0826984    
   3397000   0.99542333     16.223057      5.1034184    
   3398000   1.009107       16.873572      5.0868676    
   3399000   1.0139423      16.390098      5.0807231    
   3400000   1.0094958      16.686331      5.082032     
   3401000   1.0349258      16.899671      5.0708804    
   3402000   0.99240347     16.822968      5.0864883    
   3403000   1.0300408      17.058416      5.0451361    
   3404000   0.95962922     16.722701      5.0786666    
   3405000   0.99828155     17.003194      5.0548854    
   3406000   1.033192       16.991417      5.0395319    
   3407000   1.0032131      16.435179      5.0764863    
   3408000   1.0079723      17.028441      5.0890586    
   3409000   0.99804851     17.107785      5.0897121    
   3410000   0.98820136     16.686012      5.0750714    
   3411000   1.001382       16.84233       5.0694704    
   3412000   1.0586535      16.744104      5.0946716    
   3413000   0.99152976     16.492804      5.1336634    
   3414000   1.0324355      17.151802      5.1316454    
   3415000   1.0214239      17.229008      5.1056613    
   3416000   1.0466277      17.631974      5.0764283    
   3417000   1.0202167      16.904985      5.0744247    
   3418000   1.0152314      16.96708       5.097751     
   3419000   0.97581088     17.160353      5.099989     
   3420000   0.97430372     16.702348      5.1124098    
   3421000   0.98281112     16.896202      5.1211478    
   3422000   1.0321049      16.481142      5.0845058    
   3423000   1.0363531      17.157889      5.065976     
   3424000   1.0256213      17.154387      5.0849379    
   3425000   0.98539814     16.351234      5.0853743    
   3426000   0.99187123     16.882084      5.1003383    
   3427000   0.96894793     17.154303      5.1013557    
   3428000   1.0072759      16.969884      5.1139462    
   3429000   1.0064577      16.954095      5.1029162    
   3430000   1.0059537      17.410911      5.0798828    
   3431000   1.0203775      16.871795      5.1244808    
   3432000   0.99255882     16.980568      5.0731243    
   3433000   0.99520118     16.904564      5.0795695    
   3434000   1.0275473      16.800482      5.0766783    
   3435000   1.0062818      16.915648      5.078986     
   3436000   1.0059413      16.952655      5.0770018    
   3437000   1.0300197      17.5375        5.0311192    
   3438000   1.0070198      16.876001      5.044738     
   3439000   0.99378309     17.036733      5.0412534    
   3440000   0.9765164      16.02588       5.0988489    
   3441000   1.001567       16.847224      5.0598717    
   3442000   1.0093172      16.779001      5.0789456    
   3443000   1.0134591      16.775699      5.0980475    
   3444000   0.97439792     16.454415      5.03191      
   3445000   1.0368818      17.134093      5.0414909    
   3446000   1.0283331      16.872695      5.0282511    
   3447000   0.99221927     16.743019      5.0529234    
   3448000   1.0032496      16.62485       5.0789482    
   3449000   0.97519735     16.847425      5.0788279    
   3450000   1.0024614      16.759909      5.0709821    
   3451000   0.9865636      16.675016      5.0500912    
   3452000   0.98792307     16.103625      5.0879977    
   3453000   0.97499572     16.954265      5.0459175    
   3454000   0.98336346     16.778473      5.0648359    
   3455000   0.99794857     16.717945      5.0538325    
   3456000   0.96670032     16.294045      5.0630541    
   3457000   0.96345281     16.312129      5.0346255    
   3458000   1.0515887      17.106079      5.0397614    
   3459000   1.0117164      16.814         5.0788333    
   3460000   1.0210333      16.929985      5.0685063    
   3461000   0.98997596     16.91372       5.0777388    
   3462000   1.0122068      16.990875      5.0697364    
   3463000   1.0341931      16.948132      5.0954723    
   3464000   0.98506741     16.322918      5.0755407    
   3465000   1.0266521      16.832108      5.1581264    
   3466000   1.0284804      16.864628      5.1000139    
   3467000   0.98859968     17.231998      5.0878308    
   3468000   1.0145994      16.842391      5.1066977    
   3469000   1.0118516      16.486415      5.1081625    
   3470000   0.98576686     16.57633       5.0861312    
   3471000   1.0353541      16.107584      5.1017886    
   3472000   0.99595772     17.205018      5.0960987    
   3473000   1.0122175      16.41266       5.1172365    
   3474000   1.0335925      17.218273      5.092367     
   3475000   0.97876421     16.474314      5.1009408    
   3476000   0.97131816     16.633718      5.0736441    
   3477000   1.0329076      16.511358      5.1286179    
   3478000   0.97032063     16.839835      5.0626045    
   3479000   0.97269091     16.821244      5.0836619    
   3480000   0.99401495     17.224197      5.1183882    
   3481000   1.0085169      16.763091      5.0953677    
   3482000   0.99750645     16.816608      5.1017645    
   3483000   1.000479       17.523705      5.1160007    
   3484000   0.99501592     17.605409      5.0290641    
   3485000   1.0088647      17.03118       5.0771692    
   3486000   1.0472469      17.108268      5.0677856    
   3487000   0.99734197     17.109618      5.1176219    
   3488000   1.0243446      16.846611      5.0944988    
   3489000   1.0109846      17.164904      5.0987872    
   3490000   1.0040117      16.81238       5.0601281    
   3491000   1.0076972      17.289816      5.0592149    
   3492000   0.9857942      16.188602      5.059186     
   3493000   1.0193864      16.545042      5.0620128    
   3494000   1.0382376      16.826842      5.1246956    
   3495000   1.0248723      16.411391      5.1257697    
   3496000   1.0388713      16.464939      5.0717811    
   3497000   1.0102405      17.203842      5.0734107    
   3498000   1.0732452      16.920501      5.1248818    
   3499000   1.0637037      16.636674      5.0864178    
   3500000   1.017117       16.859467      5.0690688    
   3501000   0.97600096     17.123517      5.0819873    
   3502000   1.0325424      17.132845      5.0806043    
   3503000   0.95870387     16.875194      5.0844834    
   3504000   0.9946205      17.072985      5.079436     
   3505000   1.0409648      17.318085      5.0330564    
   3506000   1.0087638      17.206659      5.1074677    
   3507000   1.0088279      16.982101      5.0800423    
   3508000   1.0466354      17.077682      5.0886873    
   3509000   0.987452       17.128171      5.096907     
   3510000   1.024715       16.834589      5.0460168    
   3511000   1.0158048      16.800683      5.0731749    
   3512000   1.0185716      16.680289      5.0474062    
   3513000   1.0328737      16.378014      5.0808459    
   3514000   0.98467819     16.497017      5.0805906    
   3515000   1.0195832      16.933276      5.0634993    
   3516000   0.98233063     17.330399      5.0827016    
   3517000   0.96712586     16.929102      5.0662995    
   3518000   1.0048615      16.763589      5.0827001    
   3519000   1.0265318      17.061142      5.1110477    
   3520000   1.0324968      17.617178      5.0924132    
   3521000   0.98504306     16.560737      5.1062619    
   3522000   0.99617643     16.809192      5.1111739    
   3523000   0.97842324     17.18089       5.0818984    
   3524000   1.0095134      16.613595      5.1252389    
   3525000   0.96947621     16.405094      5.0878939    
   3526000   0.98137359     17.015993      5.0785158    
   3527000   1.0107427      16.763807      5.0763661    
   3528000   0.94866651     16.8722        5.0862386    
   3529000   1.010605       16.30545       5.0911562    
   3530000   0.98701777     17.086451      5.0572219    
   3531000   1.0263763      16.438225      5.0724235    
   3532000   0.99739077     16.660776      5.1253966    
   3533000   1.0041256      17.249295      5.0792456    
   3534000   1.0377102      16.385115      5.0763931    
   3535000   0.97424303     15.972767      5.088625     
   3536000   1.0030204      17.224689      5.0777329    
   3537000   1.0057918      16.53992       5.0910216    
   3538000   0.96813896     16.649816      5.0837958    
   3539000   1.0189973      16.598908      5.081717     
   3540000   1.0211593      16.423728      5.0778381    
   3541000   1.0027771      16.67741       5.0469113    
   3542000   0.95653401     16.428052      5.1018055    
   3543000   1.0205347      17.333225      5.0853741    
   3544000   1.0202371      16.366514      5.0972662    
   3545000   1.0324001      16.692915      5.0537038    
   3546000   0.99426373     16.850838      5.1065444    
   3547000   1.033197       16.658665      5.0901838    
   3548000   0.96681585     16.643792      5.117826     
   3549000   0.98671858     17.142749      5.0540739    
   3550000   0.99529474     16.90657       5.099673     
   3551000   1.0186102      16.814892      5.0914384    
   3552000   0.96476245     16.485616      5.1071372    
   3553000   1.0419737      16.945535      5.0737913    
   3554000   1.0051545      17.002391      5.0566278    
   3555000   1.0094912      16.94993       5.0738065    
   3556000   1.0326606      16.415145      5.0827776    
   3557000   0.9831959      16.836035      5.0727059    
   3558000   1.0054854      17.376692      5.1002536    
   3559000   0.99706541     16.97928       5.0824085    
   3560000   0.96940038     17.458694      5.0942871    
   3561000   0.96126982     16.54634       5.0877024    
   3562000   0.97932002     16.585135      5.0939663    
   3563000   1.0504885      17.390634      5.0778543    
   3564000   0.98905045     16.890283      5.071612     
   3565000   1.0224023      17.269525      5.0429716    
   3566000   1.0288959      17.762554      5.0555745    
   3567000   0.99988024     16.931514      5.0802298    
   3568000   1.01347        16.163165      5.1232717    
   3569000   1.0114823      17.498657      5.0581107    
   3570000   0.95135132     17.274389      5.0843695    
   3571000   1.0250824      16.7827        5.1087551    
   3572000   1.0154936      17.266763      5.079504     
   3573000   1.0147814      16.548113      5.1098927    
   3574000   1.0046255      16.92131       5.074162     
   3575000   0.99844076     16.287762      5.1084587    
   3576000   1.0061976      16.751363      5.0965148    
   3577000   0.99139734     16.646478      5.1106563    
   3578000   0.98826482     16.225381      5.1455541    
   3579000   1.0039397      16.765983      5.1578317    
   3580000   1.0092862      16.664538      5.1477637    
   3581000   1.0400509      16.409558      5.1260659    
   3582000   1.001414       16.700154      5.0895156    
   3583000   1.00642        16.31097       5.0988157    
   3584000   0.99411774     17.249239      5.0811071    
   3585000   1.0228053      17.431944      5.0882271    
   3586000   1.0138722      17.108007      5.0835872    
   3587000   1.0145378      16.894147      5.1612868    
   3588000   1.0051442      16.514859      5.1536053    
   3589000   0.9834335      16.340573      5.1487642    
   3590000   1.0129461      16.576245      5.1030017    
   3591000   1.031796       17.199629      5.0870236    
   3592000   0.955234       16.486706      5.07443      
   3593000   1.0274111      17.173368      5.0985861    
   3594000   1.0397138      17.014994      5.1211982    
   3595000   0.98878538     16.498619      5.1349657    
   3596000   1.0441104      16.407323      5.0947359    
   3597000   1.009105       17.248972      5.0665106    
   3598000   1.0274594      17.020561      5.1296522    
   3599000   1.0064404      16.539598      5.0905326    
   3600000   1.0443753      16.215048      5.1248466    
   3601000   0.9946449      16.932954      5.1020454    
   3602000   1.0272549      16.93695       5.0802267    
   3603000   1.0569536      17.059495      5.0978234    
   3604000   1.0151226      16.781369      5.0852       
   3605000   0.99844514     16.772605      5.1099174    
   3606000   0.97891549     17.087801      5.0942799    
   3607000   0.96511869     16.2585        5.1030173    
   3608000   1.0400643      17.307621      5.1056837    
   3609000   1.0001493      16.341267      5.0895755    
   3610000   1.0282069      17.809309      5.0982276    
   3611000   0.99459092     16.599377      5.0954839    
   3612000   1.0090349      16.607601      5.0883497    
   3613000   0.98325031     16.826489      5.0845189    
   3614000   0.9858004      16.604219      5.1182222    
   3615000   0.98454659     16.804449      5.1032986    
   3616000   1.0291179      16.9973        5.1072029    
   3617000   1.0223512      17.327285      5.0674461    
   3618000   0.9586732      16.466614      5.0907543    
   3619000   0.9841541      17.052147      5.0875131    
   3620000   0.96179372     16.955259      5.0907705    
   3621000   1.0085981      17.091778      5.0605464    
   3622000   1.0149213      17.549955      5.07028      
   3623000   1.0146648      16.964494      5.0872449    
   3624000   1.030519       16.848661      5.0587164    
   3625000   0.98985244     16.789815      5.0800403    
   3626000   1.010718       16.778292      5.0704687    
   3627000   0.99787774     16.18655       5.0902797    
   3628000   0.97845582     16.567506      5.1193706    
   3629000   1.0347833      16.667314      5.0769439    
   3630000   1.0030326      17.487921      5.077484     
   3631000   0.99021566     17.048197      5.0862348    
   3632000   0.95047392     16.374086      5.0685328    
   3633000   0.98651899     16.732759      5.0846209    
   3634000   1.0729131      17.36127       5.0729212    
   3635000   0.97763457     16.528091      5.097927     
   3636000   1.0516957      16.646938      5.0810206    
   3637000   1.003129       16.597091      5.0866243    
   3638000   1.0123674      16.762423      5.0660594    
   3639000   0.98960356     16.555371      5.0739599    
   3640000   1.0304116      16.815682      5.1255808    
   3641000   0.96709379     16.653286      5.1180314    
   3642000   1.0062111      17.100872      5.1234943    
   3643000   0.99153601     17.423166      5.1202027    
   3644000   1.0695854      16.834385      5.1140683    
   3645000   1.0240143      17.164486      5.0941246    
   3646000   0.99122084     17.165366      5.1092576    
   3647000   0.97937152     16.947077      5.0642075    
   3648000   0.93803185     16.228845      5.1272856    
   3649000   1.0013889      16.958527      5.1150987    
   3650000   1.008968       17.236282      5.1217759    
   3651000   0.98417655     17.053004      5.0938589    
   3652000   1.0081169      16.728533      5.1225189    
   3653000   1.028985       16.730966      5.2047719    
   3654000   0.96905686     17.132538      5.1523733    
   3655000   0.98508271     16.970143      5.126183     
   3656000   0.99267057     17.138776      5.0724456    
   3657000   0.97083677     16.497763      5.1031943    
   3658000   1.0137604      16.708461      5.0784483    
   3659000   0.94251157     16.336061      5.0977048    
   3660000   0.96060611     16.717594      5.1273984    
   3661000   1.03304        16.732677      5.0786251    
   3662000   0.98941486     16.649958      5.0918086    
   3663000   1.0618662      16.739906      5.1078772    
   3664000   1.0509675      17.201873      5.0575618    
   3665000   1.0425502      17.182342      5.0774841    
   3666000   0.98006482     16.933279      5.0528969    
   3667000   0.99746476     17.056609      5.0774251    
   3668000   1.0274475      17.102912      5.0728692    
   3669000   0.96342818     16.402336      5.1153061    
   3670000   0.98603326     16.598295      5.0782603    
   3671000   0.9976248      17.567405      5.0584469    
   3672000   1.0334917      16.598778      5.0631658    
   3673000   0.97395267     16.077963      5.0832752    
   3674000   1.0167742      16.3836        5.0876467    
   3675000   0.99534991     16.724191      5.0875135    
   3676000   0.97982679     17.420812      5.0772049    
   3677000   0.97240417     17.170878      5.0545069    
   3678000   1.0012287      16.576181      5.1024       
   3679000   0.98905158     16.747701      5.1075165    
   3680000   0.98870103     16.883657      5.0452892    
   3681000   1.0109456      16.67833       5.0863984    
   3682000   1.0388992      16.955834      5.1055754    
   3683000   1.0237997      16.663249      5.072864     
   3684000   0.98583734     16.362879      5.0766496    
   3685000   0.96892974     16.626015      5.1137025    
   3686000   1.0032509      17.157792      5.1205632    
   3687000   0.9876173      16.736081      5.0993098    
   3688000   1.0239928      16.883667      5.0925383    
   3689000   0.98374393     16.963695      5.1013329    
   3690000   0.95582719     16.761638      5.0690646    
   3691000   0.95823401     16.793824      5.120504     
   3692000   1.0172884      16.972182      5.1032722    
   3693000   1.0333151      17.089451      5.0746707    
   3694000   0.96307154     16.356695      5.0831293    
   3695000   0.98666694     16.418769      5.1105541    
   3696000   1.0419145      16.793196      5.1210199    
   3697000   1.0302729      16.525243      5.1103779    
   3698000   1.0060557      17.16738       5.1025161    
   3699000   0.98632598     17.433018      5.0735819    
   3700000   0.99718709     16.747502      5.0544819    
   3701000   1.0465873      16.833918      5.077711     
   3702000   0.99004878     16.993905      5.055004     
   3703000   1.0145785      16.677666      5.0615689    
   3704000   0.98195196     16.652664      5.0879547    
   3705000   1.0151352      16.917088      5.0831171    
   3706000   0.9867415      16.650535      5.0779688    
   3707000   0.99113463     17.0785        5.1180466    
   3708000   0.96670148     16.69229       5.0977856    
   3709000   1.0077429      17.093676      5.0770116    
   3710000   1.0500735      16.429146      5.0700429    
   3711000   0.99669509     16.820839      5.0659662    
   3712000   0.97506361     16.894957      5.0447074    
   3713000   1.0192004      16.744212      5.0620871    
   3714000   1.0015786      16.960113      5.0961708    
   3715000   1.0254578      16.641427      5.0956008    
   3716000   0.98445661     16.401281      5.0838042    
   3717000   1.0025064      17.222262      5.071525     
   3718000   1.0105011      17.21537       5.0320655    
   3719000   0.99550022     17.19338       5.0795112    
   3720000   0.99697559     16.626585      5.0867303    
   3721000   0.96808862     16.661537      5.0992245    
   3722000   1.0115748      17.282584      5.0731482    
   3723000   0.93420865     17.251435      5.0720776    
   3724000   0.9683519      16.797692      5.0832509    
   3725000   1.0026219      16.762404      5.0999434    
   3726000   1.0596743      17.26976       5.0682745    
   3727000   0.97126905     16.98585       5.0968484    
   3728000   1.0209766      16.974842      5.0549841    
   3729000   0.98595936     16.650109      5.0867366    
   3730000   1.0071488      16.918003      5.0556648    
   3731000   1.0173344      17.141356      5.1149707    
   3732000   0.98934574     16.596255      5.0917028    
   3733000   1.0271146      16.328577      5.0548539    
   3734000   0.98446456     16.463055      5.0849379    
   3735000   1.0085954      16.534914      5.099173     
   3736000   0.99318516     16.943626      5.0769764    
   3737000   1.0189358      16.949335      5.0743041    
   3738000   1.0032422      16.532064      5.0741942    
   3739000   1.0202634      16.487006      5.0757314    
   3740000   0.99310841     16.316737      5.0863184    
   3741000   1.0154478      17.2495        5.0535394    
   3742000   0.99874904     17.073451      5.0915172    
   3743000   0.9639797      16.890743      5.0923946    
   3744000   1.0168268      17.076875      5.0601765    
   3745000   1.0238422      16.838801      5.0632569    
   3746000   1.0189037      16.776753      5.0792896    
   3747000   0.97307986     17.093964      5.0660702    
   3748000   0.99678496     16.879528      5.1007216    
   3749000   0.97608248     16.73272       5.0771605    
   3750000   0.99472517     16.84643       5.0393567    
   3751000   0.99020971     17.115936      5.0593917    
   3752000   1.0156563      16.942271      5.0447353    
   3753000   1.0446384      17.584652      5.0727494    
   3754000   0.9443934      16.929466      5.113068     
   3755000   0.98417632     16.885482      5.0815019    
   3756000   0.98165366     17.331798      5.0878174    
   3757000   0.97153694     16.740886      5.1218949    
   3758000   1.0025392      16.877245      5.0966708    
   3759000   1.0166777      16.170916      5.1017357    
   3760000   1.0216344      17.106399      5.0984127    
   3761000   0.98260105     16.78435       5.0933735    
   3762000   1.0241062      17.208012      5.1073177    
   3763000   1.0330996      17.101336      5.0888554    
   3764000   0.96924864     16.538264      5.1241792    
   3765000   1.0409276      16.879963      5.1337465    
   3766000   0.97647502     16.775899      5.1290754    
   3767000   0.98240595     16.863237      5.1126481    
   3768000   0.98622292     16.561823      5.1067123    
   3769000   0.97215241     16.612552      5.0763238    
   3770000   0.96596281     16.91262       5.074524     
   3771000   1.0628161      17.095129      5.1147859    
   3772000   1.006442       16.174169      5.1319137    
   3773000   1.0510884      16.87521       5.1209332    
   3774000   0.99951196     16.637585      5.1072924    
   3775000   0.99472546     16.876128      5.1433612    
   3776000   1.0062783      17.004285      5.1317331    
   3777000   1.0243687      16.452886      5.1115656    
   3778000   1.0108291      16.838803      5.1355605    
   3779000   0.9974082      17.422201      5.0708669    
   3780000   1.0330624      17.055558      5.0957512    
   3781000   0.97906366     16.275779      5.0964932    
   3782000   1.01623        16.730891      5.0947825    
   3783000   0.97399365     16.520096      5.0777727    
   3784000   0.99727564     16.877454      5.086222     
   3785000   1.0298729      17.251258      5.08577      
   3786000   0.99971472     17.106571      5.1387593    
   3787000   0.97057826     17.154305      5.1127759    
   3788000   1.0185011      16.237333      5.0984268    
   3789000   0.99059068     17.759747      5.0494131    
   3790000   1.0518347      17.09956       5.110811     
   3791000   0.99774454     16.800204      5.1422517    
   3792000   0.95846322     16.595641      5.1384819    
   3793000   1.0306345      17.380487      5.0990038    
   3794000   1.0231837      16.980504      5.1243957    
   3795000   0.94624194     16.724795      5.13704      
   3796000   1.0045753      16.823752      5.0987672    
   3797000   0.99039449     16.920694      5.1031876    
   3798000   0.99030154     16.800736      5.0734445    
   3799000   1.0249886      16.875712      5.0815881    
   3800000   1.0032443      17.632378      5.0636776    
   3801000   0.96361738     16.953323      5.0954426    
   3802000   1.006191       16.822482      5.0470872    
   3803000   0.9820493      16.412549      5.0606154    
   3804000   1.0031042      16.783318      5.0446491    
   3805000   0.97708547     16.79692       5.0882178    
   3806000   1.0357649      17.168086      5.0614668    
   3807000   0.99133157     16.463846      5.0885265    
   3808000   1.0122171      16.792571      5.0472228    
   3809000   1.0357183      17.060122      5.1000677    
   3810000   1.029801       16.775918      5.0951346    
   3811000   1.013668       17.019093      5.1352119    
   3812000   1.0200564      17.550787      5.1088908    
   3813000   0.99338197     15.885049      5.0912421    
   3814000   1.0305631      16.854951      5.0340129    
   3815000   1.0240611      17.012582      5.0787918    
   3816000   0.99657023     17.2806        5.1006946    
   3817000   1.0118995      17.249102      5.0566382    
   3818000   0.99673756     16.748999      5.0955339    
   3819000   0.98017021     16.8669        5.0627782    
   3820000   1.0655777      17.13772       5.1064236    
   3821000   1.052721       16.304436      5.0883267    
   3822000   0.96819969     16.761598      5.0889294    
   3823000   0.96972436     17.066431      5.1118994    
   3824000   1.0232823      17.032438      5.1207959    
   3825000   0.99951044     16.218552      5.1154512    
   3826000   0.96316703     16.887286      5.0952063    
   3827000   0.99775455     16.792368      5.0795271    
   3828000   0.97759285     17.150989      5.0546754    
   3829000   1.0072942      16.942997      5.0829293    
   3830000   0.96115988     17.453399      5.0841761    
   3831000   1.0008443      16.371819      5.0748505    
   3832000   0.98154853     16.878785      5.058819     
   3833000   1.0469014      16.728009      5.0817065    
   3834000   0.98971131     17.384111      5.0941996    
   3835000   1.0266858      16.930475      5.0807808    
   3836000   1.0047829      16.087337      5.077076     
   3837000   1.0099716      17.091365      5.067717     
   3838000   0.98921061     16.816451      5.0755038    
   3839000   1.0045829      16.761252      5.0760273    
   3840000   0.95955754     17.175452      5.0994789    
   3841000   1.0470023      17.273252      5.0962409    
   3842000   1.0192955      17.005588      5.0542989    
   3843000   1.0276114      16.638014      5.0728052    
   3844000   1.0400964      17.462764      5.0715469    
   3845000   0.98330751     16.964981      5.0746074    
   3846000   1.020651       17.087088      5.0794372    
   3847000   1.0199644      16.510725      5.0918085    
   3848000   0.97616709     17.229731      5.0657856    
   3849000   1.032477       17.229162      5.1101222    
   3850000   1.0260238      17.210219      5.1271554    
   3851000   1.0023452      16.921499      5.1353321    
   3852000   1.0022645      16.910035      5.048839     
   3853000   1.0097663      16.217088      5.0683575    
   3854000   0.99820824     17.210114      5.0824742    
   3855000   1.0165465      17.251145      5.1184317    
   3856000   1.0376648      16.436421      5.0724724    
   3857000   0.98075258     16.717729      5.1121641    
   3858000   0.97308521     16.974519      5.064557     
   3859000   0.98529031     16.717388      5.0695487    
   3860000   0.96744802     17.045004      5.1131099    
   3861000   0.95868694     17.24095       5.0931682    
   3862000   0.99252818     17.342082      5.0847309    
   3863000   1.0287728      16.946915      5.0893779    
   3864000   0.96412101     16.763708      5.087503     
   3865000   0.98103643     17.24199       5.1210997    
   3866000   0.99819042     16.615735      5.1292056    
   3867000   0.98028098     16.646917      5.0905099    
   3868000   0.99502613     16.979231      5.0587179    
   3869000   1.0018552      16.763171      5.0625796    
   3870000   1.0226053      16.59671       5.0643198    
   3871000   0.99453414     17.092776      5.0726355    
   3872000   1.0196928      16.900826      5.1047614    
   3873000   0.9988921      17.356873      5.0841907    
   3874000   1.0107301      16.910555      5.094874     
   3875000   0.94547881     16.903199      5.0831376    
   3876000   1.0087939      16.523249      5.0859645    
   3877000   0.96402444     16.960517      5.0694297    
   3878000   0.96655095     17.408952      5.0348846    
   3879000   0.97475173     16.948488      5.0650736    
   3880000   0.99183773     17.161196      5.0775597    
   3881000   0.98381275     16.044635      5.0860763    
   3882000   0.98663944     17.360308      5.0468137    
   3883000   0.97535122     16.552372      5.0897565    
   3884000   1.0219263      16.976241      5.0656558    
   3885000   0.96788042     16.689897      5.0711788    
   3886000   1.0180638      16.480974      5.0642911    
   3887000   0.97805706     16.878717      5.0631704    
   3888000   1.0169871      16.754165      5.0783533    
   3889000   0.99110811     17.332402      5.0977309    
   3890000   1.0053204      16.814682      5.1011228    
   3891000   1.0196299      17.108131      5.1063236    
   3892000   0.95982591     17.048656      5.1215881    
   3893000   0.98299214     16.974423      5.1030039    
   3894000   1.0424228      16.866458      5.0939055    
   3895000   1.0004884      16.950909      5.0634651    
   3896000   1.0096955      17.161962      5.0590873    
   3897000   1.0529581      17.222475      5.0792217    
   3898000   1.0032538      17.45331       5.102252     
   3899000   0.98694621     17.12639       5.0837563    
   3900000   0.98810325     17.122979      5.0721029    
   3901000   0.99109012     17.582654      5.0923361    
   3902000   1.0098578      15.56996       5.1328166    
   3903000   1.0088843      16.864421      5.1010573    
   3904000   0.9827795      16.561349      5.1026037    
   3905000   0.99416621     16.716569      5.0782517    
   3906000   1.012357       16.825628      5.1206769    
   3907000   1.0081222      17.285346      5.126476     
   3908000   0.99214014     16.89233       5.0874981    
   3909000   1.0190861      17.291927      5.0577033    
   3910000   1.0246947      16.306203      5.1009609    
   3911000   0.97552871     17.208081      5.0980351    
   3912000   0.96474275     17.313889      5.0702478    
   3913000   0.97449885     16.62166       5.0506772    
   3914000   1.0153746      16.70924       5.0468373    
   3915000   1.0358471      16.617065      5.0854244    
   3916000   0.9795825      16.783493      5.1079982    
   3917000   1.0145927      16.930689      5.0929708    
   3918000   1.0085371      17.463346      5.0939905    
   3919000   0.98103168     16.573738      5.0361304    
   3920000   0.96858723     16.795834      5.0968681    
   3921000   0.99550301     16.824301      5.1226191    
   3922000   1.032753       16.935495      5.1286765    
   3923000   1.0057686      16.490607      5.1235354    
   3924000   0.9950062      16.956485      5.1314836    
   3925000   0.9737079      17.316203      5.071277     
   3926000   0.96684605     17.009511      5.1292034    
   3927000   0.99617465     17.187138      5.0988725    
   3928000   1.0489311      17.05165       5.0988008    
   3929000   1.0121818      16.778354      5.079633     
   3930000   1.0464767      16.946115      5.0766751    
   3931000   0.98408037     16.74769       5.0911942    
   3932000   1.0431574      16.505431      5.07601      
   3933000   1.0324514      17.18356       5.058975     
   3934000   1.0161107      16.799706      5.1052615    
   3935000   1.0028967      17.382876      5.0527963    
   3936000   1.0290487      16.738379      5.0995728    
   3937000   1.0349556      16.159349      5.0684857    
   3938000   0.97046677     16.433106      5.0577179    
   3939000   1.0371412      17.43467       5.0595081    
   3940000   1.0274821      16.951918      5.0896363    
   3941000   1.023943       17.150164      5.1019577    
   3942000   0.98825364     16.908805      5.1033989    
   3943000   0.98482418     16.724449      5.1415752    
   3944000   1.0322514      16.80508       5.1382422    
   3945000   0.98051193     16.415288      5.0980435    
   3946000   0.95543818     16.473776      5.0826008    
   3947000   0.99344799     16.742106      5.1202492    
   3948000   0.96389185     16.550152      5.1232249    
   3949000   1.0191035      16.295847      5.0688841    
   3950000   1.0517846      17.353371      5.0768526    
   3951000   0.9617112      16.898202      5.1195689    
   3952000   1.0165674      17.090626      5.0915656    
   3953000   1.0254422      16.906991      5.064598     
   3954000   1.0360196      16.865218      5.0786284    
   3955000   0.99249507     16.90902       5.0957147    
   3956000   0.98721751     16.805196      5.0850883    
   3957000   0.9749209      16.521228      5.0992263    
   3958000   1.0197232      16.333225      5.0794639    
   3959000   0.97434773     16.424524      5.129883     
   3960000   0.98024924     16.618885      5.1280486    
   3961000   1.0227649      16.881882      5.1140393    
   3962000   1.0022441      17.162565      5.0743499    
   3963000   0.98947566     16.598204      5.1068718    
   3964000   0.9934658      16.835826      5.0915015    
   3965000   1.0227437      17.263919      5.1377187    
   3966000   1.0479146      16.997129      5.1153711    
   3967000   0.99233687     17.080483      5.0749897    
   3968000   1.0027538      16.986569      5.1120014    
   3969000   1.0603349      16.827373      5.091329     
   3970000   1.007788       16.917142      5.0699759    
   3971000   0.9733139      16.678698      5.0733191    
   3972000   1.0448571      17.19428       5.1207546    
   3973000   1.0306581      16.987118      5.0910615    
   3974000   0.97800269     17.219243      5.1217666    
   3975000   1.0165587      16.453126      5.0958138    
   3976000   1.0029235      16.155771      5.0906471    
   3977000   0.9903865      17.33838       5.0947362    
   3978000   0.98047335     16.397542      5.0855082    
   3979000   1.039626       16.832219      5.0965733    
   3980000   1.0081156      16.860305      5.0802531    
   3981000   1.0496931      17.320894      5.0820891    
   3982000   0.93679808     17.678265      5.0721576    
   3983000   1.0070042      17.156982      5.0856876    
   3984000   0.96141895     16.807379      5.1017689    
   3985000   1.0265393      16.598472      5.1053308    
   3986000   0.98366312     16.40891       5.0727292    
   3987000   1.0306016      17.075285      5.0374582    
   3988000   1.0287546      16.833666      5.04178      
   3989000   0.97685909     16.738352      5.0840987    
   3990000   0.98525187     16.629347      5.0577866    
   3991000   0.97777628     16.943413      5.0426646    
   3992000   1.0376126      16.948601      5.0546555    
   3993000   0.99184079     17.053982      5.0822247    
   3994000   0.99452924     17.053781      5.0593662    
   3995000   0.97777048     16.272256      5.0719225    
   3996000   0.99519968     16.929333      5.0826297    
   3997000   1.0013653      16.675216      5.0403137    
   3998000   0.98163172     16.705415      5.0387577    
   3999000   1.0081925      17.030543      5.0562621    
   4000000   1.0278567      16.490774      5.1085431    
   4001000   1.0198173      16.553993      5.0827634    
   4002000   1.0176182      17.075749      5.0732806    
   4003000   1.0256342      16.53441       5.0578177    
   4004000   0.99610171     16.395304      5.1083019    
   4005000   0.97408487     16.865544      5.087212     
   4006000   0.98290167     16.486663      5.0858569    
   4007000   0.98813041     16.821884      5.1064227    
   4008000   1.0195088      16.76732       5.0840126    
   4009000   1.0249186      16.82497       5.1098124    
   4010000   0.97415683     16.556663      5.0668623    
   4011000   0.99164575     16.308058      5.0960559    
   4012000   0.9774524      16.688026      5.0813961    
   4013000   1.0127003      16.987617      5.0998494    
   4014000   1.0106619      16.878014      5.0623998    
   4015000   0.9775242      16.328952      5.0570797    
   4016000   0.98740801     16.422329      5.0977218    
   4017000   0.99262543     16.526066      5.0878333    
   4018000   0.97504894     16.881114      5.0711893    
   4019000   1.0433594      17.029032      5.0788402    
   4020000   0.98502448     16.513025      5.0775452    
   4021000   1.0048967      17.513962      5.0739041    
   4022000   1.0345167      16.695514      5.1239851    
   4023000   1.024805       16.528006      5.117871     
   4024000   1.0315363      17.657385      5.1112533    
   4025000   1.0148813      16.940368      5.0919194    
   4026000   1.000951       16.435025      5.0450202    
   4027000   0.9742714      16.685852      5.0348287    
   4028000   1.0354167      16.59283       5.0782911    
   4029000   1.0001746      17.496057      5.0422642    
   4030000   1.0078136      16.754542      5.0918496    
   4031000   1.0314608      17.191867      5.0695155    
   4032000   1.0049526      16.380981      5.0904631    
   4033000   1.0061257      16.392831      5.066084     
   4034000   1.0782075      16.870603      5.066128     
   4035000   0.93725375     16.942852      5.0517495    
   4036000   0.99368206     16.796273      5.0761044    
   4037000   1.0006264      16.930629      5.0574442    
   4038000   0.98732202     16.769808      5.0574281    
   4039000   1.0571556      16.822538      5.0844687    
   4040000   1.0028214      16.425265      5.0943516    
   4041000   1.0178733      16.833675      5.0910613    
   4042000   0.99155525     17.410678      5.0396002    
   4043000   0.96317706     16.798983      5.0773094    
   4044000   0.95457679     17.016106      5.056035     
   4045000   1.0076391      17.498233      5.0618648    
   4046000   0.97353068     16.883255      5.0856377    
   4047000   1.0326913      17.114798      5.0728453    
   4048000   0.94765719     16.746767      5.1147473    
   4049000   1.0113087      17.236974      5.0420919    
   4050000   1.033531       16.605111      5.1031521    
   4051000   1.0068494      16.918179      5.0965253    
   4052000   1.0528454      17.841677      5.0733914    
   4053000   0.97894927     16.673576      5.0724523    
   4054000   0.96021908     16.525922      5.1074133    
   4055000   1.0023014      17.196675      5.0884474    
   4056000   0.97052762     16.553827      5.1170529    
   4057000   0.97209502     17.141086      5.0661439    
   4058000   0.99952885     16.551403      5.0942295    
   4059000   1.0100567      16.506877      5.0724446    
   4060000   0.99000221     16.432811      5.0772139    
   4061000   1.0005801      16.759532      5.1237334    
   4062000   0.98656929     16.361865      5.135494     
   4063000   0.98464734     16.178859      5.1614496    
   4064000   0.98136545     17.067287      5.121297     
   4065000   1.0066025      16.787007      5.1112779    
   4066000   0.99705667     16.747843      5.1098938    
   4067000   1.0033533      16.16732       5.107964     
   4068000   0.98399524     16.74229       5.0485792    
   4069000   1.0217888      16.492805      5.0627636    
   4070000   0.96893898     16.919893      5.084698     
   4071000   1.012889       17.0064        5.1072248    
   4072000   0.98775598     16.443937      5.065987     
   4073000   1.0007667      16.195429      5.0879072    
   4074000   0.96192736     16.844793      5.0609779    
   4075000   1.0141011      16.409662      5.0499288    
   4076000   0.99580415     16.99757       5.1212029    
   4077000   1.0070998      17.337774      5.0821602    
   4078000   1.0282058      16.669621      5.1166846    
   4079000   0.9789772      16.752419      5.1255765    
   4080000   1.0444028      16.966462      5.1130436    
   4081000   1.0344665      17.067261      5.2086653    
   4082000   1.0213593      16.814452      5.1296175    
   4083000   0.97554424     16.631636      5.1283741    
   4084000   1.0267551      16.707161      5.1167708    
   4085000   1.0248822      16.917646      5.1230776    
   4086000   1.0048687      17.359816      5.106783     
   4087000   1.0221579      17.538277      5.0914191    
   4088000   0.9802186      16.829398      5.1208498    
   4089000   1.0158304      16.144485      5.1246823    
   4090000   0.98883105     16.793551      5.0938495    
   4091000   1.0038831      16.992465      5.1432985    
   4092000   0.98594616     16.845392      5.0568355    
   4093000   0.99104291     17.054343      5.0597046    
   4094000   1.0323042      17.438466      5.0525174    
   4095000   0.99762905     16.687509      5.0483708    
   4096000   1.0053925      17.322298      5.0774542    
   4097000   1.0373         16.621282      5.0792648    
   4098000   1.0345596      16.861781      5.0959407    
   4099000   0.98748816     16.512747      5.0826395    
   4100000   1.0202989      16.857035      5.1204891    
   4101000   0.98585223     16.961595      5.1287537    
   4102000   0.93972758     16.407805      5.1128159    
   4103000   0.97793515     16.763932      5.1275535    
   4104000   1.0529082      17.192755      5.1092369    
   4105000   1.0239025      16.897742      5.0527121    
   4106000   0.99151213     16.746318      5.0863408    
   4107000   0.95388582     16.940687      5.1145347    
   4108000   0.98525396     17.252034      5.0965702    
   4109000   1.0101397      16.593982      5.1038347    
   4110000   0.96324023     16.978605      5.1172582    
   4111000   1.0314368      16.844461      5.110961     
   4112000   0.97411061     16.448325      5.1196681    
   4113000   1.0718856      17.646602      5.0872306    
   4114000   1.0244129      17.858106      5.1017601    
   4115000   1.024335       17.462758      5.0799113    
   4116000   1.0078253      16.772401      5.0808072    
   4117000   0.99212523     16.708058      5.1157101    
   4118000   1.0225243      17.246746      5.117777     
   4119000   0.97681424     17.044305      5.1293931    
   4120000   1.00101        17.695784      5.0987221    
   4121000   0.99206768     16.881079      5.075879     
   4122000   0.94387603     16.348236      5.0656661    
   4123000   0.98898511     17.320563      5.06491      
   4124000   1.0009193      17.583977      5.0619529    
   4125000   0.99572957     16.977974      5.0702468    
   4126000   0.99582628     16.78691       5.0846857    
   4127000   0.98011634     16.650677      5.0754529    
   4128000   0.98178297     16.9789        5.0855356    
   4129000   1.0288817      17.059661      5.1332287    
   4130000   1.0013915      16.519507      5.1220335    
   4131000   0.94987637     16.551422      5.1516031    
   4132000   1.0334704      17.19024       5.1378159    
   4133000   0.98888418     16.980326      5.095017     
   4134000   0.9589921      16.877157      5.0633537    
   4135000   0.98363373     16.727098      5.0986597    
   4136000   1.0161678      16.268734      5.0996475    
   4137000   0.97302914     17.520681      5.0419324    
   4138000   0.99756259     16.810787      5.0588704    
   4139000   0.95642858     16.919         5.0864122    
   4140000   0.9725556      16.510441      5.1020885    
   4141000   0.98529417     16.855013      5.0670324    
   4142000   0.95834333     16.507378      5.0622676    
   4143000   1.0432329      16.873541      5.0597589    
   4144000   0.97198871     16.747167      5.0643763    
   4145000   1.0099381      17.006037      5.0972237    
   4146000   0.99368562     16.305069      5.0647077    
   4147000   0.98712394     16.418966      5.0857033    
   4148000   0.98614351     16.78464       5.055832     
   4149000   0.97130384     16.821924      5.0536938    
   4150000   0.98599054     16.389498      5.0921174    
   4151000   1.0037343      16.999716      5.0791541    
   4152000   1.0288101      17.1212        5.0656028    
   4153000   0.99003727     16.914045      5.0799709    
   4154000   0.98788366     17.016381      5.0761534    
   4155000   1.0312392      17.216254      5.0327028    
   4156000   0.97489753     16.727956      5.0746988    
   4157000   1.0507144      17.665147      5.0322568    
   4158000   1.0333811      16.965923      5.0689545    
   4159000   0.96731803     16.943262      5.074926     
   4160000   0.98965436     16.712038      5.071972     
   4161000   0.9884843      16.462723      5.0719769    
   4162000   0.98384203     16.50915       5.0728688    
   4163000   1.0354299      16.551101      5.0956114    
   4164000   1.0341118      17.20893       5.1064522    
   4165000   0.99676723     17.214963      5.0901279    
   4166000   1.0452141      17.204573      5.0943899    
   4167000   0.96138359     16.359216      5.1048242    
   4168000   1.0160338      16.950529      5.0717555    
   4169000   1.0039536      17.025735      5.0850947    
   4170000   0.98167231     17.156932      5.0535598    
   4171000   0.95341373     16.515303      5.0653144    
   4172000   1.0076148      16.836663      5.0834795    
   4173000   0.95360206     17.208172      5.0511403    
   4174000   1.0044017      17.20473       5.0560236    
   4175000   1.0178691      16.909849      5.0873819    
   4176000   0.99270429     17.241943      5.1058324    
   4177000   1.0140971      16.974387      5.0664218    
   4178000   0.97383097     16.424202      5.0898671    
   4179000   0.97274109     16.200961      5.0973162    
   4180000   1.0193135      16.895383      5.0724271    
   4181000   1.0392016      16.966804      5.0951221    
   4182000   0.96733402     16.67796       5.0863657    
   4183000   0.97238604     16.830704      5.0990387    
   4184000   1.023413       17.178779      5.0723398    
   4185000   0.96452811     16.646985      5.0990458    
   4186000   1.0127739      16.849484      5.1009512    
   4187000   1.0262931      16.957136      5.0918177    
   4188000   0.99326173     16.31252       5.1172124    
   4189000   1.0180682      17.250017      5.0941343    
   4190000   0.9838401      16.353544      5.1053936    
   4191000   0.99221284     16.963949      5.0970864    
   4192000   1.033242       16.895382      5.0722489    
   4193000   0.97544669     16.835806      5.0440659    
   4194000   0.98722517     16.523166      5.0505565    
   4195000   0.97796164     16.747253      5.0913149    
   4196000   0.97947212     17.00678       5.0658205    
   4197000   1.0196866      17.044725      5.0830494    
   4198000   0.97394784     16.935098      5.0765883    
   4199000   1.0498743      17.341649      5.1151381    
   4200000   0.97969157     17.042783      5.0691284    
   4201000   0.99197062     16.491931      5.1089242    
   4202000   1.0143981      16.673356      5.1231448    
   4203000   1.0427795      17.078037      5.0920772    
   4204000   1.0301561      16.544552      5.0799165    
   4205000   1.0258555      16.969403      5.0700022    
   4206000   0.98949737     16.44253       5.1079566    
   4207000   0.97633515     16.467863      5.0998367    
   4208000   1.0104536      16.763969      5.0997946    
   4209000   1.0243772      17.082499      5.1065572    
   4210000   1.0322452      17.009685      5.0919029    
   4211000   1.000904       16.687842      5.0802658    
   4212000   0.98866219     17.03713       5.1158159    
   4213000   1.0096757      17.180837      5.0975664    
   4214000   0.97252416     16.242604      5.1229869    
   4215000   1.0303203      17.139181      5.1025186    
   4216000   0.95286962     16.277939      5.0951187    
   4217000   0.92985358     16.930018      5.0948237    
   4218000   0.98503713     17.0359        5.0807475    
   4219000   0.9563061      16.758356      5.113071     
   4220000   1.0118975      17.008096      5.0879883    
   4221000   0.98676793     16.427073      5.1029927    
   4222000   1.0130526      16.911323      5.0768276    
   4223000   1.0127578      17.201899      5.1015754    
   4224000   1.016917       16.733678      5.0881481    
   4225000   1.0077777      17.145934      5.1041169    
   4226000   0.97679961     16.719768      5.0699188    
   4227000   1.0568427      16.777554      5.0829142    
   4228000   1.0311466      17.13013       5.0766157    
   4229000   0.97570021     16.86795       5.12024      
   4230000   0.95604739     16.954765      5.0916173    
   4231000   0.99222042     16.978354      5.0755821    
   4232000   0.99687043     16.863518      5.0590565    
   4233000   1.0415069      17.272953      5.0748835    
   4234000   0.97552367     16.706198      5.063438     
   4235000   0.95704752     17.175582      5.0567516    
   4236000   0.99240954     17.149325      5.0669935    
   4237000   1.0212367      16.552719      5.0797367    
   4238000   0.99595448     16.608875      5.0764453    
   4239000   0.97242177     17.307775      5.0807418    
   4240000   1.0905374      17.275015      5.0965039    
   4241000   1.0227853      17.075469      5.0863556    
   4242000   1.0270816      16.753474      5.0921078    
   4243000   0.98125235     16.922494      5.1001516    
   4244000   1.0131665      17.116744      5.0836934    
   4245000   0.98857106     17.016589      5.0618383    
   4246000   0.97652232     16.801662      5.0531453    
   4247000   0.98809258     16.916539      5.1046971    
   4248000   0.99184881     16.905161      5.0782151    
   4249000   0.98197729     16.35917       5.0879334    
   4250000   0.97519088     16.14845       5.1074904    
   4251000   1.003701       17.206996      5.0551798    
   4252000   0.94187744     16.72033       5.0926973    
   4253000   0.96791633     16.412038      5.0832628    
   4254000   0.96675245     16.284208      5.0637097    
   4255000   1.0147315      16.952853      5.060641     
   4256000   0.97558851     17.057828      5.0942281    
   4257000   1.0230682      16.969451      5.0883581    
   4258000   1.0237223      17.0625        5.1373153    
   4259000   0.99993971     16.990524      5.1319074    
   4260000   1.038077       16.877288      5.1007619    
   4261000   1.0490923      16.690256      5.0867094    
   4262000   1.0185472      16.79946       5.0982227    
   4263000   0.94599591     16.912763      5.1288566    
   4264000   1.0211609      16.951327      5.068271     
   4265000   0.96364597     17.228263      5.0875234    
   4266000   0.99161914     16.987888      5.1099116    
   4267000   1.0237963      16.744805      5.12374      
   4268000   0.96058256     17.405518      5.0901502    
   4269000   1.0122286      17.038962      5.0864792    
   4270000   1.0060029      17.175152      5.1041982    
   4271000   0.97192568     16.451951      5.1118555    
   4272000   1.0463331      17.058725      5.1139579    
   4273000   0.98225467     16.617771      5.0658301    
   4274000   0.98459356     16.044016      5.0874477    
   4275000   1.0309268      17.052228      5.0498365    
   4276000   0.99356228     16.807205      5.0830855    
   4277000   1.0125818      16.91126       5.0775875    
   4278000   1.0301929      17.079228      5.0749623    
   4279000   1.0183434      16.408069      5.0682921    
   4280000   1.052396       16.831667      5.0889043    
   4281000   0.99686743     17.031232      5.0603481    
   4282000   0.9635717      16.925659      5.122198     
   4283000   1.0244805      17.114892      5.0561116    
   4284000   1.0016101      16.758484      5.072522     
   4285000   0.9864095      17.014971      5.0548853    
   4286000   0.99870522     17.387195      5.05627      
   4287000   0.97253463     17.146381      5.0585138    
   4288000   0.99525634     17.580025      5.0612017    
   4289000   0.99754973     16.563324      5.0586094    
   4290000   0.97731062     16.879592      5.1028503    
   4291000   0.9575851      17.187514      5.0899267    
   4292000   1.0383713      17.485977      5.079691     
   4293000   1.012895       16.65456       5.1057894    
   4294000   0.97347473     17.464449      5.085922     
   4295000   1.0286632      17.013151      5.0915272    
   4296000   1.0073379      16.535692      5.0712156    
   4297000   1.014464       16.962054      5.0601184    
   4298000   0.98957862     16.741177      5.114559     
   4299000   0.97460211     16.617733      5.0743009    
   4300000   0.98546631     16.381765      5.0984089    
   4301000   1.017841       17.000032      5.0502548    
   4302000   0.97408894     16.701251      5.0965741    
   4303000   1.0172529      15.91088       5.0992343    
   4304000   0.95430528     16.634843      5.0655314    
   4305000   0.99780466     16.127565      5.0891368    
   4306000   1.0036513      16.725316      5.0544447    
   4307000   1.0141645      16.62516       5.0883235    
   4308000   0.99177693     16.846348      5.1333543    
   4309000   1.0207054      17.281301      5.1063501    
   4310000   1.0221437      16.81536       5.0826049    
   4311000   0.9590573      16.765186      5.1011773    
   4312000   1.006203       16.432735      5.0771071    
   4313000   1.0233435      16.385247      5.0829288    
   4314000   0.99693138     16.524397      5.0508497    
   4315000   0.95742085     16.977815      5.0821982    
   4316000   1.0017984      16.448366      5.0684328    
   4317000   1.0278879      17.292965      5.0776483    
   4318000   0.98960904     16.848968      5.0711455    
   4319000   1.0422351      17.355078      5.0759005    
   4320000   1.005526       17.043778      5.0592187    
   4321000   0.99053133     16.611141      5.1057321    
   4322000   0.98328871     16.626568      5.0903575    
   4323000   0.9563983      17.021791      5.0322904    
   4324000   0.9802241      16.500077      5.1035373    
   4325000   0.98544645     16.491919      5.1222201    
   4326000   1.0014908      16.948849      5.0833723    
   4327000   0.98701229     17.663818      5.0767617    
   4328000   0.944648       16.582295      5.0646554    
   4329000   1.0035196      16.508169      5.092996     
   4330000   0.96411801     16.711546      5.0967462    
   4331000   1.0135063      17.19592       5.0589291    
   4332000   0.9848195      16.888647      5.0554344    
   4333000   1.0220195      16.668416      5.0819177    
   4334000   1.0540208      17.1036        5.0911297    
   4335000   0.91027731     16.553772      5.0922685    
   4336000   0.97572597     16.710834      5.0732799    
   4337000   1.0112216      17.173281      5.0721674    
   4338000   0.99476666     16.566128      5.0689671    
   4339000   0.96998257     16.670086      5.0932671    
   4340000   0.96826446     16.886006      5.0854625    
   4341000   1.005936       17.188936      5.0638361    
   4342000   1.0236481      16.41715       5.0653698    
   4343000   0.9945637      16.933433      5.0931589    
   4344000   0.99174144     16.751996      5.0999672    
   4345000   1.0098478      16.615231      5.0999196    
   4346000   1.0127182      16.884256      5.1100397    
   4347000   1.0226004      16.914713      5.0957724    
   4348000   1.0300224      16.867774      5.0772255    
   4349000   0.98161514     16.809288      5.0878635    
   4350000   1.0061938      16.459107      5.1110424    
   4351000   0.98788753     16.87363       5.0991848    
   4352000   0.9592652      16.98989       5.0859634    
   4353000   0.96983911     16.424487      5.1194979    
   4354000   0.98065345     16.663256      5.1108478    
   4355000   1.0011091      16.612509      5.0986033    
   4356000   1.0325556      17.240835      5.0472693    
   4357000   0.99505513     16.733957      5.0724316    
   4358000   1.0285018      16.157601      5.0574938    
   4359000   1.0107576      16.807605      5.0900258    
   4360000   1.0164817      16.963892      5.0756908    
   4361000   1.0474413      16.865486      5.0833133    
   4362000   1.0341597      17.138467      5.0782682    
   4363000   1.0332345      16.553239      5.114937     
   4364000   1.0281095      16.928195      5.0993198    
   4365000   1.0361267      16.990609      5.0916959    
   4366000   1.0012586      16.602549      5.0690001    
   4367000   1.0286026      17.508603      5.0620963    
   4368000   0.96782369     16.985281      5.0621537    
   4369000   1.0001021      16.78475       5.0897627    
   4370000   0.95607945     16.749481      5.0558813    
   4371000   1.0325327      16.985917      5.0865637    
   4372000   1.0179254      16.676535      5.0757373    
   4373000   0.97543351     16.345825      5.0789088    
   4374000   0.977702       16.378417      5.0764853    
   4375000   0.95041729     16.809319      5.1111993    
   4376000   0.96865777     17.497134      5.0371261    
   4377000   1.0581956      16.983219      5.0704776    
   4378000   1.011862       16.490448      5.1023539    
   4379000   1.0438083      17.398973      5.1084147    
   4380000   0.98838668     16.780463      5.0721747    
   4381000   1.0049672      16.687585      5.1078506    
   4382000   0.95698882     16.905076      5.0660913    
   4383000   1.0122321      16.886146      5.0601196    
   4384000   1.0037564      17.615707      5.061734     
   4385000   1.0198396      16.995551      5.051469     
   4386000   0.99620737     17.418261      5.0539268    
   4387000   0.96378299     17.205572      5.0853762    
   4388000   0.98852595     17.280525      5.0788115    
   4389000   1.0208869      16.927448      5.1380087    
   4390000   0.98258414     17.55384       5.0819445    
   4391000   1.0132343      16.423464      5.0840922    
   4392000   0.99981228     17.702327      5.0366906    
   4393000   1.0153962      16.097329      5.0901183    
   4394000   0.96765852     16.69652       5.0756718    
   4395000   1.0419086      16.632054      5.0730463    
   4396000   0.9871689      16.890781      5.0915561    
   4397000   0.98024145     16.242958      5.0522818    
   4398000   1.0250878      16.95486       5.0727474    
   4399000   1.0122318      16.966447      5.0893484    
   4400000   1.016448       16.835351      5.1004692    
   4401000   1.0258958      16.691891      5.0935509    
   4402000   1.0460506      16.947791      5.1117151    
   4403000   1.0185418      16.952822      5.1640322    
   4404000   1.012912       17.237646      5.1145283    
   4405000   0.9860271      17.243885      5.110957     
   4406000   0.96178995     17.216891      5.0738615    
   4407000   0.99761924     16.695375      5.096458     
   4408000   1.0215018      17.218331      5.0796211    
   4409000   1.0092403      16.673515      5.177379     
   4410000   1.0040167      17.291349      5.1200379    
   4411000   1.0352027      16.922203      5.138382     
   4412000   0.9832028      16.306879      5.1228677    
   4413000   1.0484031      17.137933      5.149269     
   4414000   0.96707975     16.13242       5.1070649    
   4415000   1.0068842      16.6272        5.1385764    
   4416000   1.0139677      16.641588      5.1614034    
   4417000   0.98786238     16.992376      5.1763936    
   4418000   0.98266038     16.47557       5.1418271    
   4419000   0.91992415     16.873232      5.0967556    
   4420000   1.0274752      17.279857      5.1221084    
   4421000   1.001719       17.388415      5.1214263    
   4422000   1.0306012      16.902208      5.095081     
   4423000   1.0516612      16.66212       5.0827302    
   4424000   0.97944162     16.93339       5.0731508    
   4425000   0.95953654     16.377504      5.1333528    
   4426000   0.98200593     17.062638      5.0917948    
   4427000   1.0105198      16.716078      5.0494224    
   4428000   0.97866949     17.176992      5.0912873    
   4429000   0.96816202     16.632975      5.089248     
   4430000   0.95697327     16.566246      5.0764061    
   4431000   0.99624201     16.688371      5.1128667    
   4432000   0.98964303     17.050552      5.0829202    
   4433000   1.0327585      16.959777      5.0966137    
   4434000   0.98427663     16.730774      5.1079215    
   4435000   1.0120973      16.98374       5.0506548    
   4436000   1.0280049      16.833656      5.0710111    
   4437000   0.97596446     17.060461      5.0450334    
   4438000   0.99427158     16.582981      5.0668951    
   4439000   1.0047452      16.928819      5.0603715    
   4440000   0.96755879     16.846401      5.0892565    
   4441000   0.99719796     16.862435      5.1002808    
   4442000   0.99514582     16.707628      5.0696032    
   4443000   1.0354442      17.07529       5.0769022    
   4444000   0.99735346     16.401951      5.0712946    
   4445000   1.0012589      16.928745      5.0979864    
   4446000   1.0012586      17.411052      5.0516216    
   4447000   1.0286022      16.786127      5.0346437    
   4448000   1.0539781      16.825842      5.0792669    
   4449000   1.0228105      16.698805      5.086187     
   4450000   0.97282043     16.899715      5.0836529    
   4451000   0.96986952     16.424194      5.0665595    
   4452000   1.0115046      16.409675      5.1155707    
   4453000   1.0045481      16.66438       5.094513     
   4454000   1.0294835      16.966536      5.0692035    
   4455000   1.0072941      17.132653      5.0809211    
   4456000   0.96577669     16.507511      5.0671489    
   4457000   0.99266501     17.076662      5.0970945    
   4458000   0.97444496     16.189971      5.0926304    
   4459000   0.96236358     16.30011       5.0716891    
   4460000   1.0188113      16.614258      5.0553384    
   4461000   0.97922023     16.791825      5.1223397    
   4462000   0.97487335     17.02207       5.1182514    
   4463000   1.0056182      16.384551      5.0868582    
   4464000   0.9996539      17.354255      5.0566372    
   4465000   0.995265       16.96265       5.0857123    
   4466000   1.0166552      16.802661      5.0840066    
   4467000   1.0110959      16.685738      5.0847048    
   4468000   1.0307733      16.631024      5.0700931    
   4469000   1.0055232      16.767456      5.1060864    
   4470000   0.95784166     16.99071       5.1463236    
   4471000   1.0684494      16.835955      5.1379233    
   4472000   1.0026104      17.062206      5.1126649    
   4473000   0.98992095     16.492534      5.0591043    
   4474000   1.0160441      16.871748      5.1171432    
   4475000   1.0066568      16.813332      5.1263943    
   4476000   1.0221723      16.467452      5.1359032    
   4477000   1.009727       16.78039       5.1225397    
   4478000   0.92686237     16.428606      5.0916845    
   4479000   1.0117814      17.169611      5.0989557    
   4480000   1.0436702      17.301099      5.0919102    
   4481000   0.97872136     16.859456      5.0582783    
   4482000   0.9955821      16.785391      5.0716244    
   4483000   0.97868918     16.958283      5.1141471    
   4484000   1.0155186      16.870246      5.1104907    
   4485000   1.0273557      16.709949      5.0927121    
   4486000   0.9789045      16.815857      5.0650821    
   4487000   0.93832808     16.79518       5.0980515    
   4488000   0.99402816     17.212707      5.1014284    
   4489000   0.99882529     17.061787      5.0595101    
   4490000   1.0317587      16.75573       5.0896849    
   4491000   1.0230491      16.511638      5.0941984    
   4492000   1.0157851      16.712609      5.1194901    
   4493000   1.0034615      16.682959      5.0792025    
   4494000   1.0050693      17.051203      5.1056509    
   4495000   1.0297494      17.158692      5.1245306    
   4496000   1.0040023      17.164907      5.0636002    
   4497000   0.99849635     17.822484      5.1164757    
   4498000   1.0160292      17.597702      5.0679037    
   4499000   0.99798816     16.299251      5.1080038    
   4500000   0.99157435     16.454636      5.1124172    
   4501000   1.0102567      16.84445       5.135705     
   4502000   1.0300605      16.520211      5.1683649    
   4503000   0.98352658     16.737079      5.1302005    
   4504000   1.0426148      16.821801      5.0979812    
   4505000   0.99247655     17.202613      5.1011835    
   4506000   0.97125775     16.726943      5.0940989    
   4507000   0.96385319     16.348248      5.0846643    
   4508000   0.98917568     16.976659      5.0796439    
   4509000   1.0388985      16.877943      5.1445804    
   4510000   0.99040054     17.329217      5.0831871    
   4511000   1.0194244      16.326238      5.0701621    
   4512000   0.96479981     17.038853      5.0787406    
   4513000   0.99971893     16.709361      5.077506     
   4514000   1.0214638      16.679182      5.077741     
   4515000   0.99325048     17.055317      5.068006     
   4516000   0.98717805     16.828708      5.0742903    
   4517000   1.0325601      16.459135      5.142102     
   4518000   1.0173805      17.128046      5.1393291    
   4519000   1.0275938      17.08312       5.128673     
   4520000   0.98943495     16.660149      5.1248555    
   4521000   0.997564       16.818502      5.1402565    
   4522000   0.99895876     16.729142      5.0983206    
   4523000   0.98780785     16.329         5.1038818    
   4524000   0.97697884     16.532113      5.0174739    
   4525000   1.0053486      16.800887      5.1224654    
   4526000   0.99558569     17.364898      5.0623669    
   4527000   1.0147179      16.401991      5.0847168    
   4528000   1.0091363      17.017813      5.0934426    
   4529000   1.0015981      16.88055       5.1120604    
   4530000   1.0447346      16.625923      5.0719656    
   4531000   0.99599468     16.79999       5.0841579    
   4532000   0.99273294     16.585395      5.0770389    
   4533000   0.97498266     16.42531       5.0924368    
   4534000   1.030397       17.388968      5.0898774    
   4535000   1.0252882      17.208681      5.0481433    
   4536000   0.97467214     16.617725      5.0744043    
   4537000   1.010882       16.96873       5.062283     
   4538000   1.0129194      16.957198      5.064643     
   4539000   0.98306402     17.248383      5.0746983    
   4540000   0.94203002     16.528202      5.0823363    
   4541000   1.0155262      17.052935      5.0711875    
   4542000   1.0229936      16.823606      5.0567697    
   4543000   1.0029324      16.731294      5.0850669    
   4544000   1.02235        17.444829      5.0608697    
   4545000   0.99964545     16.529383      5.0574795    
   4546000   0.98093416     17.075297      5.0845096    
   4547000   0.99051895     16.622914      5.0837077    
   4548000   0.98913043     16.329232      5.0706474    
   4549000   0.9471494      16.753714      5.086155     
   4550000   0.96573265     16.294402      5.0548839    
   4551000   1.0093958      16.928375      5.0725776    
   4552000   1.0210388      16.6722        5.0708685    
   4553000   1.0165411      16.731249      5.0955324    
   4554000   0.96694086     16.784053      5.0593891    
   4555000   0.95908402     16.629346      5.0775621    
   4556000   0.99717695     16.398771      5.0525954    
   4557000   1.0244864      17.083905      5.0456984    
   4558000   1.0112943      16.775762      5.0998349    
   4559000   0.97474616     16.627412      5.1297815    
   4560000   1.0149919      16.52436       5.1231571    
   4561000   1.0079234      17.037486      5.0821516    
   4562000   1.0149695      16.901104      5.0850026    
   4563000   0.97283274     16.667132      5.0819325    
   4564000   1.0084565      16.609218      5.0964845    
   4565000   1.0111082      17.186796      5.0798572    
   4566000   0.96536755     17.185199      5.0686527    
   4567000   1.0180234      16.794118      5.039435     
   4568000   1.0455458      17.864001      5.0680802    
   4569000   0.99614507     17.18228       5.0591352    
   4570000   1.0491124      16.674658      5.0476401    
   4571000   1.0201422      16.534566      5.1264055    
   4572000   0.98909326     17.31021       5.103212     
   4573000   0.99940622     16.88049       5.0814363    
   4574000   1.0102764      17.573349      5.0646255    
   4575000   1.0264266      16.986117      5.0780106    
   4576000   1.0083563      16.873995      5.0765365    
   4577000   0.99780369     16.854571      5.0942673    
   4578000   0.99734766     16.452155      5.0603073    
   4579000   1.0343251      16.960588      5.0617627    
   4580000   1.0212679      17.218987      5.0581871    
   4581000   0.97097798     16.644393      5.0837582    
   4582000   1.020481       17.084954      5.0728954    
   4583000   1.0003959      16.390556      5.0776134    
   4584000   0.99089027     16.987446      5.0618181    
   4585000   1.0405322      16.738965      5.0536279    
   4586000   0.95995637     16.258025      5.0752063    
   4587000   1.001421       16.727454      5.0833662    
   4588000   1.0053404      16.81376       5.1084346    
   4589000   1.0239783      16.680749      5.0881023    
   4590000   0.99073929     16.484872      5.1143632    
   4591000   1.0240955      17.192556      5.0840427    
   4592000   1.0028431      16.994274      5.0540264    
   4593000   0.98846814     17.276201      5.0919701    
   4594000   0.95527702     16.445497      5.0898962    
   4595000   1.0020177      17.111234      5.0919762    
   4596000   1.027144       17.277985      5.0960671    
   4597000   0.99569213     16.698179      5.1234348    
   4598000   1.0372119      16.640732      5.108541     
   4599000   0.97584655     17.113297      5.0918273    
   4600000   0.99535633     17.316989      5.0562077    
   4601000   0.96315182     16.889001      5.0480166    
   4602000   0.99997709     16.790338      5.0650034    
   4603000   0.98412873     17.185658      5.0906117    
   4604000   0.97339099     17.283981      5.1194775    
   4605000   1.0105455      17.160544      5.0982422    
   4606000   1.0276363      16.632699      5.0936531    
   4607000   0.97842489     16.135849      5.1337253    
   4608000   0.96831234     17.143932      5.1298431    
   4609000   0.95845258     16.650694      5.081622     
   4610000   0.94533001     16.461913      5.0900961    
   4611000   1.0303599      16.833844      5.1132543    
   4612000   0.95697872     16.359735      5.0876803    
   4613000   0.96834788     16.225131      5.0926123    
   4614000   0.99992456     16.681512      5.0672041    
   4615000   1.0071612      16.449269      5.1037501    
   4616000   1.0090121      17.089299      5.0736021    
   4617000   1.0056689      16.740936      5.1356445    
   4618000   0.95267501     16.809484      5.1168236    
   4619000   1.0186533      16.88986       5.130236     
   4620000   1.0016668      16.903721      5.1242151    
   4621000   1.0052363      17.061184      5.0939752    
   4622000   1.0336404      16.723236      5.055146     
   4623000   0.94300892     16.826947      5.0785607    
   4624000   0.96884093     16.345208      5.099759     
   4625000   0.97903352     17.318331      5.0565908    
   4626000   1.0066288      17.029008      5.0667606    
   4627000   1.0444938      16.728107      5.1075753    
   4628000   1.0308643      16.956472      5.1575499    
   4629000   0.97990666     16.784458      5.1055036    
   4630000   0.98421509     16.562144      5.1254492    
   4631000   0.98842113     16.834291      5.0900141    
   4632000   0.99478277     17.506309      5.0736949    
   4633000   1.0016792      17.300661      5.0976036    
   4634000   0.99450014     16.733523      5.0741952    
   4635000   1.0047203      16.757405      5.0684795    
   4636000   1.0154593      16.931266      5.0700023    
   4637000   1.0160711      17.194012      5.0626579    
   4638000   1.0061895      16.66652       5.0738475    
   4639000   1.0152346      17.212229      5.0879581    
   4640000   0.98255276     17.131609      5.0753807    
   4641000   0.97569726     17.004124      5.099587     
   4642000   1.0195671      17.014312      5.074773     
   4643000   0.95691083     17.061782      5.1099092    
   4644000   1.0116215      17.217977      5.0942978    
   4645000   1.0115428      16.997722      5.1180783    
   4646000   0.99364418     17.310934      5.0704159    
   4647000   0.94934177     17.101982      5.0977782    
   4648000   1.0174432      17.660625      5.0661032    
   4649000   1.0110069      16.585102      5.0670481    
   4650000   1.0029524      16.87571       5.0902883    
   4651000   1.0111834      17.182969      5.0888862    
   4652000   0.99616043     16.836483      5.0710147    
   4653000   0.99714756     17.482159      5.0540168    
   4654000   0.98159115     16.846794      5.0640585    
   4655000   0.99785475     16.715428      5.0783911    
   4656000   1.0023459      16.86782       5.0989137    
   4657000   0.97053571     16.596493      5.1086702    
   4658000   0.96425623     17.422936      5.1013876    
   4659000   0.97928223     17.080529      5.0834718    
   4660000   1.0146295      16.42083       5.0855973    
   4661000   0.98885526     16.89628       5.0649462    
   4662000   0.96130888     16.907427      5.065998     
   4663000   0.97309947     16.311351      5.0935573    
   4664000   0.98368089     16.983577      5.0784526    
   4665000   0.98205021     16.470427      5.0872507    
   4666000   1.0032749      16.868923      5.0831702    
   4667000   0.99834762     16.445959      5.0947615    
   4668000   1.0416589      16.81012       5.12119      
   4669000   0.98715315     16.390164      5.1019087    
   4670000   1.0158091      16.685081      5.043851     
   4671000   1.0086163      17.164406      5.0867879    
   4672000   0.99068103     17.582887      5.0852615    
   4673000   0.98388996     16.660565      5.1035287    
   4674000   0.98052849     16.739153      5.0838378    
   4675000   1.0303665      17.050217      5.08708      
   4676000   0.95476043     16.639558      5.0882542    
   4677000   0.99722782     16.591197      5.106677     
   4678000   1.0179467      17.041019      5.0679421    
   4679000   0.97139454     16.882302      5.0788063    
   4680000   0.97977154     16.892613      5.1007538    
   4681000   0.98767268     16.442517      5.0631573    
   4682000   1.0244875      16.884918      5.0761272    
   4683000   1.0012112      17.100579      5.0815964    
   4684000   1.0306602      17.018464      5.0784846    
   4685000   0.98945284     16.776888      5.0829691    
   4686000   0.99358407     17.249777      5.0775268    
   4687000   0.98726358     16.832         5.0762977    
   4688000   0.94778631     16.745854      5.0586764    
   4689000   1.0434274      16.478627      5.0747775    
   4690000   0.99488273     16.691863      5.0645203    
   4691000   0.99219753     16.587888      5.0942483    
   4692000   0.99781747     16.661703      5.0645813    
   4693000   1.0306872      16.442613      5.0596815    
   4694000   0.9815761      16.840924      5.0417891    
   4695000   0.98564374     16.536551      5.0559345    
   4696000   1.0005931      17.250674      5.1062035    
   4697000   1.0316435      16.96978       5.0536129    
   4698000   1.0282571      17.131172      5.0570041    
   4699000   0.99782873     16.764642      5.0471849    
   4700000   0.97416133     17.014877      5.0612953    
   4701000   0.98869135     16.670498      5.0629209    
   4702000   1.0021747      16.865155      5.091934     
   4703000   0.98509437     16.916663      5.0729345    
   4704000   0.97664221     16.910295      5.0695629    
   4705000   0.99562793     16.547962      5.0790958    
   4706000   0.98755828     16.98209       5.0569878    
   4707000   0.95919125     17.058211      5.0857124    
   4708000   0.99670201     16.833739      5.094281     
   4709000   1.0270227      17.193584      5.0707787    
   4710000   0.98642182     16.541094      5.0820655    
   4711000   1.0321113      16.945642      5.0829684    
   4712000   0.98367359     16.74694       5.1215053    
   4713000   0.98935426     16.295751      5.1232362    
   4714000   1.0278326      17.334331      5.1130273    
   4715000   0.9912531      16.083558      5.0955521    
   4716000   0.99662492     16.857485      5.0376893    
   4717000   0.97042317     16.421098      5.0955067    
   4718000   0.99651317     17.077019      5.1057428    
   4719000   0.96817001     16.478677      5.07887      
   4720000   1.0039474      17.418789      5.139283     
   4721000   0.98259706     16.583256      5.1063219    
   4722000   0.98624594     16.845332      5.075458     
   4723000   1.0115996      17.308594      5.0633573    
   4724000   1.0347678      17.043385      5.0975579    
   4725000   1.0494393      16.727361      5.0727494    
   4726000   0.99491478     17.287057      5.0518929    
   4727000   0.99878342     16.072212      5.0861039    
   4728000   1.0084941      16.419643      5.0996819    
   4729000   0.99682405     16.832098      5.0786806    
   4730000   1.0204714      17.244486      5.0702948    
   4731000   1.0161495      17.306251      5.1198194    
   4732000   1.0178841      16.622811      5.0847603    
   4733000   1.0423274      17.120758      5.0557824    
   4734000   0.9977128      16.992765      5.0595458    
   4735000   1.0543676      16.619546      5.0559931    
   4736000   0.95220625     17.152504      5.0951651    
   4737000   0.98834991     16.50563       5.1096262    
   4738000   0.99497448     17.284414      5.089536     
   4739000   1.0123069      17.526151      5.0598614    
   4740000   1.0219362      16.610183      5.0669034    
   4741000   1.0105579      16.718467      5.0758532    
   4742000   0.97196616     16.243977      5.0678569    
   4743000   1.0281652      16.669896      5.0360379    
   4744000   0.9973652      16.860601      5.0300201    
   4745000   0.99276478     16.952563      5.0512919    
   4746000   0.98666288     16.424821      5.0864534    
   4747000   1.0162772      16.994342      5.0821674    
   4748000   1.0312645      16.972042      5.0868648    
   4749000   0.98628258     17.416734      5.0538875    
   4750000   0.98099156     16.693317      5.0827849    
   4751000   1.0238564      16.844955      5.0685028    
   4752000   0.98298004     16.93029       5.1417321    
   4753000   0.99155735     16.773209      5.0829796    
   4754000   0.93281464     16.889902      5.0637393    
   4755000   0.98174575     17.081064      5.1203556    
   4756000   0.98970463     16.491302      5.1154212    
   4757000   1.0079507      16.752405      5.0826121    
   4758000   0.96023106     16.547378      5.1086546    
   4759000   1.0475834      17.036546      5.1066245    
   4760000   1.0044766      16.929345      5.1096972    
   4761000   0.96233548     16.744216      5.0873002    
   4762000   1.0079228      17.03982       5.0714097    
   4763000   0.97573763     16.792899      5.073138     
   4764000   1.0278145      16.775524      5.105549     
   4765000   1.004925       16.841381      5.087939     
   4766000   0.99907388     16.817496      5.070641     
   4767000   0.93032203     16.739491      5.0993344    
   4768000   1.006717       17.549251      5.0767115    
   4769000   1.0183019      17.074603      5.0849474    
   4770000   1.046511       17.192713      5.0679244    
   4771000   0.95743306     15.97453       5.1007705    
   4772000   0.99723025     16.451557      5.0442694    
   4773000   1.0329966      17.023236      5.112085     
   4774000   1.0228948      17.151681      5.1157706    
   4775000   0.95881519     16.720591      5.090469     
   4776000   1.0206471      16.855445      5.067691     
   4777000   0.97728673     16.743523      5.0977755    
   4778000   0.9899379      16.662613      5.1003119    
   4779000   1.0159264      16.909262      5.082029     
   4780000   0.97740266     16.942428      5.1207815    
   4781000   1.0283271      16.881767      5.1073442    
   4782000   0.96772446     16.982105      5.1112143    
   4783000   0.97953509     16.634948      5.0562885    
   4784000   1.0187812      16.771665      5.0520828    
   4785000   1.0029068      16.805297      5.0753211    
   4786000   1.007124       17.08047       5.0733811    
   4787000   1.0284973      16.941869      5.1051612    
   4788000   1.0196121      16.847109      5.0795567    
   4789000   0.97795001     16.333967      5.1006986    
   4790000   1.0017152      16.164329      5.0938461    
   4791000   0.99685621     16.703955      5.1049301    
   4792000   0.96567012     16.471728      5.1411186    
   4793000   0.98902838     16.821705      5.0984286    
   4794000   0.99224693     17.331645      5.0908684    
   4795000   1.0074787      16.798985      5.0749653    
   4796000   0.99663628     16.503978      5.100426     
   4797000   0.98034455     16.659075      5.1192697    
   4798000   1.0058676      16.889106      5.1227294    
   4799000   0.98279197     17.064841      5.1375242    
   4800000   1.0108096      16.866334      5.1640296    
   4801000   0.97647759     17.536408      5.1345089    
   4802000   0.99286961     16.073603      5.1137071    
   4803000   1.036782       16.687836      5.0662307    
   4804000   1.003297       17.217542      5.0450555    
   4805000   1.0310608      16.842196      5.1179658    
   4806000   1.0326226      17.218465      5.0817162    
   4807000   1.0167119      17.325353      5.0407243    
   4808000   0.99531288     16.964878      5.1038104    
   4809000   1.0195727      16.574801      5.1067717    
   4810000   0.99623402     16.524245      5.1192097    
   4811000   0.98153468     16.448643      5.1212637    
   4812000   1.0059186      17.703557      5.1017409    
   4813000   0.98363676     16.630741      5.1451046    
   4814000   1.0008283      16.314774      5.1119407    
   4815000   1.0043346      17.128328      5.1035396    
   4816000   0.9933653      16.600005      5.1283929    
   4817000   1.0578324      16.68189       5.1135818    
   4818000   0.9680969      16.637655      5.0973207    
   4819000   1.0195971      16.499704      5.1078439    
   4820000   0.94139949     16.473379      5.1228453    
   4821000   0.97003892     16.609718      5.1063862    
   4822000   0.96393635     16.535066      5.0871294    
   4823000   1.0203043      17.282206      5.1029253    
   4824000   1.031662       16.485893      5.1317722    
   4825000   1.0029518      16.51946       5.1274696    
   4826000   0.99853838     16.970844      5.043204     
   4827000   0.97339648     16.849355      5.0877805    
   4828000   1.0099634      17.006788      5.0795845    
   4829000   0.98624886     16.869391      5.0581672    
   4830000   1.0052586      17.069987      5.1206611    
   4831000   1.0176226      16.406882      5.0920444    
   4832000   1.0089419      17.087723      5.1281695    
   4833000   0.99310189     16.809321      5.1046576    
   4834000   0.94750272     16.541003      5.1221986    
   4835000   1.0351558      17.577925      5.0944061    
   4836000   1.00083        17.11415       5.1292785    
   4837000   0.9826237      16.961158      5.1458534    
   4838000   0.99028265     16.90997       5.1002327    
   4839000   1.0342608      16.419793      5.1573775    
   4840000   0.9534783      16.839186      5.1303276    
   4841000   1.0045219      17.025853      5.1988664    
   4842000   1.0382536      17.461033      5.1477402    
   4843000   1.0016211      16.74268       5.1165941    
   4844000   1.0512108      17.617322      5.0627208    
   4845000   0.98109548     16.902371      5.0914013    
   4846000   0.92972931     17.048122      5.1158728    
   4847000   0.99024382     16.874816      5.1250374    
   4848000   1.0056348      17.35068       5.0638517    
   4849000   1.008544       16.848274      5.0992031    
   4850000   0.99533628     16.836234      5.1296502    
   4851000   0.96865075     17.645504      5.1104287    
   4852000   1.0118134      16.726304      5.0978351    
   4853000   0.99459001     16.670854      5.1240783    
   4854000   1.0105649      17.160337      5.1134467    
   4855000   1.0232598      16.774828      5.1041472    
   4856000   1.0151877      16.815484      5.1133513    
   4857000   1.0153255      16.534488      5.0863497    
   4858000   0.9965899      17.366797      5.1023082    
   4859000   0.99944388     16.771609      5.1339241    
   4860000   0.97672662     16.4035        5.1327946    
   4861000   0.98937322     16.969367      5.1302323    
   4862000   1.0016823      16.744318      5.1279742    
   4863000   0.99990848     17.181553      5.1237065    
   4864000   1.0196819      16.857499      5.1130037    
   4865000   1.0203213      17.239201      5.0453046    
   4866000   1.0360151      16.673997      5.1030549    
   4867000   0.99339605     17.156709      5.0816223    
   4868000   0.98396641     17.544159      5.0769587    
   4869000   0.96432819     16.648718      5.0791584    
   4870000   1.0005146      16.496236      5.1017665    
   4871000   1.0212714      16.847193      5.0661002    
   4872000   1.003148       17.113391      5.0525409    
   4873000   0.98751538     16.366058      5.0645677    
   4874000   1.0128468      16.53927       5.0561241    
   4875000   0.98551721     16.649662      5.0659099    
   4876000   1.0114152      16.926919      5.0580996    
   4877000   1.0459092      16.813417      5.1070522    
   4878000   1.0496141      16.815512      5.1289505    
   4879000   0.96764878     16.539609      5.0765793    
   4880000   0.99524513     16.960549      5.0976189    
   4881000   0.97776857     16.888846      5.0666286    
   4882000   1.0099424      16.962717      5.1298174    
   4883000   1.0111818      16.761927      5.1137984    
   4884000   0.97753689     16.874841      5.1279492    
   4885000   1.0470981      17.059711      5.1076253    
   4886000   0.98672225     17.12449       5.0687898    
   4887000   1.0107529      16.201431      5.076518     
   4888000   1.0005489      17.054404      5.0681601    
   4889000   1.0254838      16.655749      5.0550608    
   4890000   0.97015515     16.88334       5.1001855    
   4891000   0.94872948     17.010383      5.0601378    
   4892000   1.0251981      16.308394      5.0947356    
   4893000   1.0182982      17.092678      5.1240936    
   4894000   1.0317309      17.205733      5.1369454    
   4895000   0.99918154     16.984382      5.0957811    
   4896000   0.98115175     17.349989      5.087438     
   4897000   0.97043014     16.150077      5.1179515    
   4898000   0.96902586     16.708237      5.0810204    
   4899000   0.95414165     16.53115       5.0762823    
   4900000   0.98581705     17.264713      5.0759819    
   4901000   0.98773046     17.101649      5.1045096    
   4902000   1.0024005      17.157777      5.0600757    
   4903000   1.0109263      16.588055      5.0733122    
   4904000   0.97851013     16.6271        5.0929683    
   4905000   0.99628669     16.441238      5.0662782    
   4906000   0.99969209     17.048572      5.0577106    
   4907000   0.99471491     16.697059      5.1084145    
   4908000   0.99237781     16.695498      5.0844946    
   4909000   1.0303849      16.470511      5.088086     
   4910000   1.0249258      16.993863      5.0743366    
   4911000   0.98358694     16.547251      5.063452     
   4912000   0.98224219     16.668646      5.1070746    
   4913000   0.9623123      16.758861      5.0937167    
   4914000   1.0066289      16.849675      5.0814259    
   4915000   1.0456391      16.417102      5.1376626    
   4916000   0.97433812     17.243438      5.10687      
   4917000   1.0137351      16.861328      5.1156142    
   4918000   1.0046095      16.488864      5.1106916    
   4919000   1.0040715      16.858549      5.0900518    
   4920000   1.0103878      16.995223      5.0996994    
   4921000   1.0258298      17.067647      5.1033132    
   4922000   1.0089208      17.061149      5.1347995    
   4923000   1.0250789      17.321091      5.116027     
   4924000   1.0256086      16.722473      5.0682557    
   4925000   1.0374636      17.103238      5.0522498    
   4926000   0.99445614     17.092401      5.0600485    
   4927000   1.0119333      16.708289      5.0661715    
   4928000   1.0246159      17.073114      5.1062312    
   4929000   0.97634326     16.775775      5.1150937    
   4930000   1.0552392      16.526338      5.1417614    
   4931000   1.0430791      16.672954      5.0996524    
   4932000   1.0088665      16.880902      5.1026589    
   4933000   1.0091125      16.977409      5.081727     
   4934000   0.97549771     17.029326      5.1118758    
   4935000   0.96858535     16.600418      5.0939477    
   4936000   1.0180422      17.395403      5.0684864    
   4937000   0.99068781     16.605631      5.1159001    
   4938000   1.038609       16.39947       5.1072241    
   4939000   1.0198791      16.577244      5.0939078    
   4940000   0.98441669     16.811037      5.1020952    
   4941000   0.97056128     16.547995      5.1080842    
   4942000   1.0128482      16.965463      5.095772     
   4943000   1.0142289      17.036727      5.1155435    
   4944000   1.0138878      16.644039      5.1081899    
   4945000   0.97540203     16.245757      5.0851726    
   4946000   0.99904672     16.907581      5.1055985    
   4947000   1.0315043      16.333555      5.0912872    
   4948000   0.99736525     16.527714      5.0767998    
   4949000   0.9862206      17.374913      5.0790986    
   4950000   1.0250769      16.604152      5.1147549    
   4951000   0.95328274     16.950026      5.105385     
   4952000   1.0294999      16.764813      5.1117652    
   4953000   1.0293935      16.92775       5.123478     
   4954000   1.024039       16.873284      5.1462608    
   4955000   0.97132016     16.867708      5.1065299    
   4956000   1.0048203      17.092108      5.1423769    
   4957000   0.98052473     17.419601      5.1365084    
   4958000   0.96311413     16.682751      5.1229197    
   4959000   0.99708099     16.777641      5.1071744    
   4960000   1.0324981      17.254565      5.114509     
   4961000   0.99141533     17.465316      5.0721608    
   4962000   1.0333168      16.93301       5.106092     
   4963000   0.95118587     17.338384      5.0997547    
   4964000   1.0163653      16.742794      5.0627798    
   4965000   1.0089513      17.111979      5.0971151    
   4966000   1.0143209      16.830838      5.0918135    
   4967000   0.99835897     16.411743      5.0917343    
   4968000   1.0097017      17.409409      5.082163     
   4969000   1.0317152      16.573659      5.0900854    
   4970000   0.99004266     17.071294      5.0702229    
   4971000   1.0292871      17.363247      5.0425643    
   4972000   1.011787       16.898407      5.063363     
   4973000   0.99175237     17.047132      5.0724869    
   4974000   0.94786543     17.172751      5.0486473    
   4975000   0.98371094     17.073432      5.0873592    
   4976000   1.0171394      16.881142      5.0611502    
   4977000   1.0220091      17.682914      5.0292194    
   4978000   1.0013183      17.27065       5.0516929    
   4979000   1.0222192      16.49527       5.0542286    
   4980000   1.0046137      17.029266      5.0325817    
   4981000   0.98572477     17.286823      5.0641848    
   4982000   0.98359405     17.462417      5.0714458    
   4983000   1.0009384      16.903759      5.0898846    
   4984000   0.98500286     16.601807      5.0941883    
   4985000   0.97850598     16.223491      5.0414626    
   4986000   1.0491123      17.328913      5.0847789    
   4987000   0.99150151     16.701009      5.0742178    
   4988000   1.0448907      16.736828      5.0717478    
   4989000   1.0014354      16.354504      5.097265     
   4990000   0.99008972     16.597677      5.1682157    
   4991000   1.0229005      17.046031      5.112297     
   4992000   0.98306259     17.180515      5.1275761    
   4993000   1.0264649      16.288752      5.0961338    
   4994000   0.98683968     16.287523      5.0995944    
   4995000   1.0191123      17.15338       5.0995191    
   4996000   1.0113054      16.634937      5.0660164    
   4997000   1.0045677      16.389916      5.0827923    
   4998000   1.0073063      17.105497      5.058041     
   4999000   0.98054285     16.699726      5.079201     
   5000000   1.0239568      16.654667      5.0973427    
   5001000   0.99128122     16.176916      5.0863823    
   5002000   1.0179896      16.875984      5.0809534    
   5003000   0.97806695     16.439082      5.107376     
   5004000   1.0046776      16.906814      5.1161067    
   5005000   0.98740422     16.646624      5.1219539    
   5006000   1.0032102      17.27988       5.1000304    
   5007000   0.9863655      16.300643      5.1166418    
   5008000   0.99845856     17.141195      5.1384537    
   5009000   1.0038979      16.856493      5.0753487    
   5010000   0.98856809     16.493843      5.1067009    
   5011000   1.0264406      16.272529      5.0842775    
   5012000   1.0271994      17.071982      5.0662437    
   5013000   1.0190223      16.612187      5.0682636    
   5014000   1.0305009      16.475958      5.0904343    
   5015000   0.98379037     16.273898      5.1093386    
   5016000   1.0094278      17.180982      5.0669443    
   5017000   0.98074099     17.083409      5.0950777    
   5018000   0.98284648     16.397447      5.1135161    
   5019000   0.97050151     16.471867      5.0968845    
   5020000   1.004059       16.89709       5.0983782    
   5021000   1.0328631      16.342713      5.1141009    
   5022000   1.0294703      16.8102        5.154964     
   5023000   0.99620194     16.739297      5.1623866    
   5024000   1.0177161      16.818053      5.1539781    
   5025000   0.99775074     17.723725      5.1444775    
   5026000   1.0347516      16.790285      5.1552704    
   5027000   0.99666372     16.556775      5.1595994    
   5028000   0.9700577      16.753656      5.1296546    
   5029000   1.0206864      17.081727      5.1000993    
   5030000   1.0189501      16.608353      5.1118511    
   5031000   1.0250847      16.626804      5.0992037    
   5032000   0.99626177     17.669553      5.109617     
   5033000   0.99207973     16.95273       5.0759357    
   5034000   0.9816098      17.449801      5.0613599    
   5035000   0.93693412     15.683182      5.0731328    
   5036000   0.96921766     16.617283      5.0717226    
   5037000   0.99110737     16.357344      5.0870056    
   5038000   0.98595534     16.315875      5.0689533    
   5039000   1.0253387      16.742578      5.0462914    
   5040000   0.99628174     16.885812      5.0494686    
   5041000   1.0259642      16.845257      5.0581125    
   5042000   1.0169428      17.325157      5.0685793    
   5043000   0.98449399     17.244976      5.0644935    
   5044000   1.0243906      17.164093      5.0640935    
   5045000   0.95546626     16.761096      5.0524827    
   5046000   1.0353775      17.145958      5.0663196    
   5047000   0.97183299     16.757848      5.0932468    
   5048000   1.027478       17.016824      5.1112251    
   5049000   1.0155013      17.559306      5.0873951    
   5050000   0.9844854      16.878017      5.0931791    
   5051000   1.0107569      16.441606      5.1171943    
   5052000   0.99515743     16.377246      5.0704787    
   5053000   0.93748315     16.94242       5.0591529    
   5054000   0.9802048      17.04226       5.0719207    
   5055000   1.0267176      16.820056      5.0755686    
   5056000   0.98627759     17.122883      5.0696609    
   5057000   0.98701329     16.904753      5.081866     
   5058000   1.0290662      16.717847      5.0621987    
   5059000   0.98225018     16.8415        5.0957371    
   5060000   1.0186231      16.793829      5.0865722    
   5061000   0.97171331     16.647532      5.0703903    
   5062000   1.0230042      16.678846      5.0577142    
   5063000   1.0109895      16.708232      5.0575986    
   5064000   1.0085299      16.564442      5.0716177    
   5065000   0.97950171     17.368722      5.0615109    
   5066000   0.98044586     17.068922      5.0842749    
   5067000   0.98013556     17.038732      5.077664     
   5068000   1.047377       17.11826       5.1333272    
   5069000   0.99468211     16.577344      5.1302925    
   5070000   1.0096792      16.953404      5.1049238    
   5071000   0.99569047     17.38381       5.1074183    
   5072000   0.97918931     16.302231      5.1206512    
   5073000   1.0140323      16.839963      5.070134     
   5074000   0.98205196     16.799822      5.0737107    
   5075000   0.97878008     16.793928      5.0784497    
   5076000   0.96133734     16.589756      5.0947985    
   5077000   1.037225       16.774853      5.1368028    
   5078000   1.0174149      16.353521      5.1163274    
   5079000   1.0316005      16.997592      5.0610427    
   5080000   0.96194189     16.530423      5.0849831    
   5081000   0.95786696     17.361766      5.1230395    
   5082000   1.0438573      16.946383      5.1031022    
   5083000   0.98691114     17.153731      5.0819971    
   5084000   1.0160922      17.281925      5.09987      
   5085000   1.0051958      17.181463      5.1660624    
   5086000   0.99873178     16.961         5.0924927    
   5087000   0.9979266      16.885092      5.1004037    
   5088000   0.99132133     16.574817      5.0789857    
   5089000   0.99705834     16.918778      5.1134827    
   5090000   1.0211687      17.673075      5.0453154    
   5091000   1.0361062      17.343972      5.0630265    
   5092000   0.99491861     17.312266      5.0736205    
   5093000   1.0225441      16.915811      5.0768979    
   5094000   1.0044707      16.641657      5.0591651    
   5095000   1.0403377      16.150923      5.0950501    
   5096000   0.98932519     16.551899      5.0809557    
   5097000   0.98703372     16.526344      5.0967299    
   5098000   1.017688       17.351201      5.0862688    
   5099000   0.98779241     16.420578      5.1222546    
   5100000   0.99328592     16.726362      5.0699679    
Loop time of 5545.62 on 4 procs for 5000000 steps with 1000 atoms

Performance: 778992.712 tau/day, 901.612 timesteps/s
153.9% CPU use with 2 MPI tasks x 2 OpenMP threads

MPI task timing breakdown:
Section |  min time  |  avg time  |  max time  |%varavg| %total
---------------------------------------------------------------
Pair    | 127.4      | 1280.3     | 2433.1     |3222.0 | 23.09
Bond    | 24.837     | 71.818     | 118.8      | 554.4 |  1.30
Neigh   | 2624.3     | 2624.3     | 2624.3     |   0.0 | 47.32
Comm    | 95.008     | 424        | 753        |1597.7 |  7.65
Output  | 12.612     | 12.755     | 12.899     |   4.0 |  0.23
Modify  | 47.64      | 136.96     | 226.29     | 763.2 |  2.47
Other   |            | 995.5      |            |       | 17.95

Nlocal:            500 ave        1000 max           0 min
Histogram: 1 0 0 0 0 0 0 0 0 1
Nghost:              0 ave           0 max           0 min
Histogram: 2 0 0 0 0 0 0 0 0 0
Neighs:         134110 ave      268220 max           0 min
Histogram: 1 0 0 0 0 0 0 0 0 1

Total # of neighbors = 268220
Ave neighs/atom = 268.22
Ave special neighs/atom = 1.998
Neighbor list builds = 41304
Dangerous builds = 0

# This simulation is done
# Move onto the next one
clear
  using 2 OpenMP thread(s) per MPI task
package omp 0
using multi-threaded neighbor list subroutines
next f
jump SELF

###
# Reference paper:
# K. Kremer and G. S. Grest
# Dynamics of entangled linear polymer melts: A molecular-dynamics simulation
# J Chem Phys 92, 5057 (1990)

##################################
# MIHIR: for branched polymers
# LJ minimum first to expand and explore, then collapse
###

###
# Looping through the various linear polymers to simulate,
# define variables to switch through
variable f index bb100nuc0bl0bn0d30tot100 bb200nuc0bl0bn0d30tot200 bb300nuc0bl0bn0d30tot300 bb400nuc0bl0bn0d30tot400 bb500nuc0bl0bn0d30tot500 bb600nuc0bl0bn0d30tot600 bb700nuc0bl0bn0d30tot700 bb800nuc0bl0bn0d30tot800 bb900nuc0bl0bn0d30tot900 bb1000nuc0bl0bn0d30tot1000 bb1100nuc0bl0bn0d30tot1100 bb1200nuc0bl0bn0d30tot1200
###


###
# Box and units  (use LJ units and periodic boundaries)
###

units lj
log linear/logs/$f.log
log linear/logs/bb1100nuc0bl0bn0d30tot1100.log
