#atom_style bond #no stiffness
atom_style angle #with stiffness

boundary        p p p
###
# Pair interactions require lists of neighbours to be calculated
###

#neighbor 0.3 bin
neighbor 4 bin

neigh_modify every 1 delay 1 check yes
atom_modify sort 0 0
### Generate RESTART file, SPECIAL format, not a .txt file ###
### Useful if simulation crashes ###

restart 1000000 linear/restarts/$f.restart
restart 1000000 linear/restarts/bb1100nuc0bl0bn0d30tot1100.restart
#############################



### READ "start" data file ###

read_data linear/$f.dat
read_data linear/bb1100nuc0bl0bn0d30tot1100.dat
Reading data file ...
  orthogonal box = (-1000 -1000 -1000) to (1000 1000 1000)
  1 by 1 by 2 MPI processor grid
  reading atoms ...
  1100 atoms
  scanning bonds ...
  1 = max bonds/atom
  scanning angles ...
  1 = max angles/atom
  reading bonds ...
  1099 bonds
  reading angles ...
  1098 angles
Finding 1-2 1-3 1-4 neighbors ...
  special bond factors lj:    0        0        0       
  special bond factors coul:  0        0        0       
     2 = max # of 1-2 neighbors
     2 = max # of 1-3 neighbors
     4 = max # of 1-4 neighbors
     6 = max # of special neighbors
  special bonds CPU = 0.001 seconds
  read_data CPU = 0.061 seconds

######################

### READ "REstart" data file ###

######################



###
# Define groups (atom type 1 is group 'all')
###
group all type 1
1100 atoms in group all


###
# Dump configs - "simple dumpings"
###

###
# Dump configs + box coords
###

dump   1   all   custom   1000  linear/trjs/$f.lammpstrj  id  x y z  ix iy iz
dump   1   all   custom   1000  linear/trjs/bb1100nuc0bl0bn0d30tot1100.lammpstrj  id  x y z  ix iy iz
dump_modify   1   format line "%d %.5f %.5f %.5f %d %d %d"

########################################################################


###################################################################
# Stiffness term
#
# E = K * (1+cos(theta)), K>0
#
angle_style   cosine
#change this coefficient to change stiffness (e.g. 1,5,10)
angle_coeff   1 1.0
###################################################################

###################################################################
# Pair interaction between non-bonded atoms
#
#  Lennard-Jones 12-6 potential with cutoff:
#  potential E=4epsilon[ (sigma/r)^12 - (sigma/r)^6]  for r<r_cut
#
#  1.12246 = 2^(1/6) is the minimum of the potential


pair_style      lj/cut 1.12246152962189
#pair_style      lj/cut 3

#
#  pair_modify shift yes adds a constant to the potential such

#  that E(r_cut)=0. Forces remains unchanged.
#

pair_modify     shift yes

#
#  pair_coeff for lj/cut, specify 4:
#    * atom type interacting with
#    * atom type
#    * epsilon (energy units)
#    * sigma (distance units)
#

pair_coeff      1 1 1.0 1.0
###################################################################

###################################################################
# Pair interaction between non-bonded atoms
#
#  soft potential, for PUSHING apart overlapping atoms
#  potential E=A*(1 + cos(pi*r/r_c))
#
#  1.12246 = 2^(1/6) is the cut-off r_c

#pair_style     soft 1.12246152962189

#
#  pair_coeff for soft, specify 3:
#    * atom type interacting with
#    * atom type
#    * A
#
#

#pair_coeff      1 1 100.0
###################################################################

###################################################################
# Pair interaction between bonded atoms
#
# Fene potential + Lennard Jones 12-6:

#
#  E= - 0.5 K R0^2 ln[ 1- (r/R0)^2]
#     + 4epsilon[ (sigma/r)^12 - (sigma/r)^6] + epsilon
#

bond_style   fene


#
# For style fene, specify:
#   * bond type
#   * K (energy/distance^2)
#   * R0 (distance)
#   * epsilon (energy)  (LJ component)
#   * sigma (distance)  (LJ component)
#


special_bonds fene #<=== I M P O R T A N T (new command)
Finding 1-2 1-3 1-4 neighbors ...
  special bond factors lj:    0        1        1       
  special bond factors coul:  0        1        1       
     2 = max # of 1-2 neighbors
     6 = max # of special neighbors
  special bonds CPU = 0.000 seconds

bond_coeff   1   30   2   1.0   1.0


###################################################

###################################################################
# Pair interaction between bonded atoms
#
# Harmonic potential:
#
#  E= K * (R-R0)^2
#

#bond_style   harmonic

#
# For style harmonic, specify:
#   * bond type
#   * K (energy/distance^2)
#   * R0 (distance)
#

#bond_coeff   1   60.0   1.0
#bond_coeff   2   harmonic 0.1   1.0

###################################################
compute 1 all gyration
variable rog equal c_1
#compute 2 all coord/atom cutoff 1.1

#dump 2 all custom 10000 contact_number.dump id c_2


###
# Set up fixes
###
thermo_style   custom   step  temp enthalpy c_1
fix 1 all nve   ###NVE ensemble

fix 2 all   langevin   1.0 1.0 1.0  100103   ###Langevin integrator Tstart Tstop 1/friction rndseed


##### Sample thermodynamic info  (temperature, energy, pressure, etc.) #####
thermo 1000









############################################################################

###
# set timestep of integrator

timestep 0.01

###
# run integration for a number of steps
###
#run 0
#variable r equal c_1
#if "$r < 63.1" then "quit 1"

# lj potential minimum, cause molecule to explore
run 100000
Generated 0 of 0 mixed pair_coeff terms from geometric mixing rule
Last active /omp style is angle_style cosine/omp
Neighbor list info ...
  update: every = 1 steps, delay = 1 steps, check = yes
  max neighbors/atom: 2000, page size: 100000
  master list distance cutoff = 5.1224615
  ghost atom cutoff = 5.1224615
  binsize = 2.5612308, bins = 781 781 781
  1 neighbor lists, perpetual/occasional/extra = 1 0 0
  (1) pair lj/cut/omp, perpetual
      attributes: half, newton on, omp
      pair build: half/bin/newton/omp
      stencil: half/bin/3d
      bin: standard
WARNING: Communication cutoff 5.12246152962189 is shorter than a bond length based estimate of 5.455. This may lead to errors. (src/comm.cpp:723)
Per MPI rank memory allocation (min/avg/max) = 939.7 | 940.3 | 940.9 Mbytes
   Step          Temp         Enthalpy         c_1      
         0   0              13.414597      275.00021    
      1000   0.99508301     18.645559      275.06631    
      2000   1.0019494      18.498214      274.74762    
      3000   1.0141457      18.538512      274.26313    
      4000   0.95386053     18.789435      274.25754    
      5000   0.9866492      19.310671      273.99609    
      6000   0.95761612     19.018549      273.76949    
      7000   0.99000336     19.550189      273.46984    
      8000   0.99997139     19.195334      273.34305    
      9000   1.0235555      19.119482      273.05882    
     10000   0.97426398     18.709127      272.94662    
     11000   0.97581008     19.066983      272.78328    
     12000   0.96937905     19.222051      272.69871    
     13000   0.97248773     19.123433      272.64561    
     14000   1.0422524      19.20516       272.34315    
     15000   1.0429856      19.01651       272.11068    
     16000   1.0277288      19.40965       271.89728    
     17000   0.95923633     19.272241      271.72232    
     18000   1.0271097      18.759936      271.5128     
     19000   0.96867224     19.091008      271.42199    
     20000   1.0212971      18.996039      271.31363    
     21000   0.98201171     18.765655      271.23873    
     22000   0.97197115     18.687971      270.8478     
     23000   1.0098987      19.279507      270.59176    
     24000   1.0391274      19.011632      270.36489    
     25000   0.97154646     19.359286      270.05521    
     26000   1.0213295      19.363267      269.61772    
     27000   1.0623192      19.750205      269.26316    
     28000   0.97471669     18.974304      269.2981     
     29000   0.99051617     18.886529      269.40628    
     30000   0.99298125     18.815944      269.23518    
     31000   0.99976214     18.538112      269.20429    
     32000   0.97643417     18.653768      269.1269     
     33000   0.97616101     19.133247      268.97209    
     34000   1.0019743      19.131402      268.86834    
     35000   0.98383815     19.093834      268.35068    
     36000   0.99290853     19.226491      268.1737     
     37000   0.99819743     19.230421      268.07124    
     38000   1.0215196      19.230573      267.91289    
     39000   0.99741814     19.063904      267.85068    
     40000   1.0186311      19.342519      267.71649    
     41000   1.0246455      18.796013      267.64063    
     42000   1.0124076      19.667217      267.44579    
     43000   1.023901       19.238532      267.23507    
     44000   0.9746185      19.133891      267.12835    
     45000   0.97953889     18.985819      267.05784    
     46000   0.98691518     19.260936      266.75051    
     47000   0.99638353     19.511254      266.65232    
     48000   1.0055842      18.989658      266.46479    
     49000   0.99281739     18.7691        266.21938    
     50000   0.98316175     19.000944      265.90753    
     51000   1.0114381      19.31322       265.74586    
     52000   1.0371879      19.533627      265.55857    
     53000   1.0208945      19.443941      265.42975    
     54000   0.9804033      19             265.38967    
     55000   1.0083321      19.222218      265.36751    
     56000   0.97548093     19.187993      265.16328    
     57000   1.0334477      19.83322       265.03495    
     58000   1.0385955      19.853725      264.76458    
     59000   0.97396222     19.335784      264.69993    
     60000   0.98090878     19.421315      264.39736    
     61000   0.99301055     19.6223        264.05066    
     62000   1.0058725      19.02815       263.76464    
     63000   1.0180305      19.456014      263.49692    
     64000   0.99249383     19.113729      263.35336    
     65000   1.0173822      19.186518      263.10195    
     66000   0.99255187     19.328625      262.7225     
     67000   0.98835449     18.982875      262.49635    
     68000   0.99313545     19.202037      262.41843    
     69000   1.01803        19.107367      262.33736    
     70000   0.98332898     19.188634      262.35856    
     71000   0.99464273     19.331139      262.2941     
     72000   1.0098377      19.464471      262.2537     
     73000   0.98307978     19.169761      262.0021     
     74000   1.0326567      19.637107      262.04953    
     75000   0.99194471     19.377132      262.26285    
     76000   1.0067301      19.25634       262.1895     
     77000   1.0032948      19.189665      261.95641    
     78000   1.0122786      19.562624      261.77811    
     79000   1.0132213      19.210742      261.68472    
     80000   0.99006816     19.064725      261.60554    
     81000   0.97151765     19.263177      261.59684    
     82000   0.98608949     19.597983      261.51784    
     83000   1.0291161      19.491348      261.3272     
     84000   1.056492       19.32756       261.1928     
     85000   0.98159522     19.238378      261.24       
     86000   0.99339943     19.555192      261.12903    
     87000   1.0240246      19.587284      261.06253    
     88000   0.99742174     19.216422      261.11869    
     89000   1.0216103      18.968024      261.21458    
     90000   1.0486518      19.531402      261.09848    
     91000   0.98133641     19.37393       260.86732    
     92000   0.99989646     19.159016      260.63076    
     93000   1.0104272      19.613903      260.43941    
     94000   0.98509041     19.581222      260.32319    
     95000   0.99854441     19.525542      259.99251    
     96000   1.0114784      19.389152      259.79091    
     97000   0.98629811     19.564497      259.77653    
     98000   0.99508572     19.312664      259.69413    
     99000   1.0061941      19.497937      259.57172    
    100000   1.0115446      19.184768      259.30299    
Loop time of 175.075 on 4 procs for 100000 steps with 1100 atoms

Performance: 493504.054 tau/day, 571.185 timesteps/s
105.3% CPU use with 2 MPI tasks x 2 OpenMP threads

MPI task timing breakdown:
Section |  min time  |  avg time  |  max time  |%varavg| %total
---------------------------------------------------------------
Pair    | 0.67522    | 0.68174    | 0.68826    |   0.8 |  0.39
Bond    | 1.3346     | 1.4705     | 1.6064     |  11.2 |  0.84
Neigh   | 167.11     | 167.11     | 167.11     |   0.0 | 95.45
Comm    | 1.8949     | 1.9751     | 2.0552     |   5.7 |  1.13
Output  | 0.2274     | 0.23029    | 0.23318    |   0.6 |  0.13
Modify  | 2.4832     | 2.8067     | 3.1301     |  19.3 |  1.60
Other   |            | 0.7963     |            |       |  0.45

Nlocal:            550 ave         636 max         464 min
Histogram: 1 0 0 0 0 0 0 0 0 1
Nghost:          486.5 ave         537 max         436 min
Histogram: 1 0 0 0 0 0 0 0 0 1
Neighs:           2628 ave        3283 max        1973 min
Histogram: 1 0 0 0 0 0 0 0 0 1

Total # of neighbors = 5256
Ave neighs/atom = 4.7781818
Ave special neighs/atom = 1.9981818
Neighbor list builds = 1060
Dangerous builds = 0

# Replace lj potential, now collapse
pair_style      lj/cut 3

# Cutoff simul when gyration under 5
# Variable created with equal requires v_ + 'name'
fix 3 all halt 1000 v_rog < 5

run 5000000
Generated 0 of 0 mixed pair_coeff terms from geometric mixing rule
Last active /omp style is angle_style cosine/omp
Per MPI rank memory allocation (min/avg/max) = 939.7 | 940.3 | 940.9 Mbytes
   Step          Temp         Enthalpy         c_1      
    100000   1.0115446      18.756276      259.30299    
    101000   1.0291964      18.957529      259.10798    
    102000   0.99993774     19.101528      259.00618    
    103000   1.0195238      18.921617      258.73031    
    104000   0.97805227     18.962544      258.5329     
    105000   1.0002261      18.617157      258.21829    
    106000   1.0161552      18.449573      258.10062    
    107000   1.0140014      19.455436      257.95832    
    108000   1.0102338      19.281399      257.82       
    109000   1.0024222      18.875249      257.67355    
    110000   1.0207967      18.950437      257.47362    
    111000   1.0241928      19.002266      257.39451    
    112000   0.97970517     18.79736       257.41395    
    113000   0.97063538     18.759405      257.44533    
    114000   0.9590679      18.582131      257.33666    
    115000   0.97997352     18.833607      257.36525    
    116000   1.0156624      18.896539      257.37688    
    117000   1.0346397      18.93579       257.06832    
    118000   0.97750037     19.159927      256.87881    
    119000   1.031238       19.475976      256.67853    
    120000   0.95889496     18.710792      256.57682    
    121000   0.9754717      19.010534      256.38725    
    122000   1.0173469      19.007342      256.1086     
    123000   1.0099865      18.73434       256.02909    
    124000   1.0374626      19.088707      255.79583    
    125000   1.0154516      18.89819       255.47184    
    126000   1.0371257      19.350419      255.68205    
    127000   1.0615687      19.651021      255.69774    
    128000   0.9621757      18.978682      255.56518    
    129000   0.96780169     18.606094      255.24994    
    130000   1.0380227      18.723369      255.04108    
    131000   0.94629779     18.675978      254.86763    
    132000   0.96679378     18.979192      254.84547    
    133000   1.0167523      19.155834      254.59871    
    134000   1.027667       19.287884      254.44482    
    135000   1.0250457      19.192934      254.48132    
    136000   1.0425678      19.100113      254.28058    
    137000   1.0397654      19.204472      254.02435    
    138000   0.9614049      18.713396      253.85124    
    139000   0.98905278     18.570801      253.78772    
    140000   0.9987691      18.680938      253.66216    
    141000   0.99358286     19.289806      253.58873    
    142000   0.99618444     19.20026       253.4197     
    143000   1.0218979      18.666978      253.05026    
    144000   0.9725095      18.78388       252.7595     
    145000   0.9949086      19.000529      252.93116    
    146000   0.9869322      19.294235      252.87898    
    147000   0.97328077     19.107395      252.67858    
    148000   0.93981254     19.244007      252.42515    
    149000   1.019682       18.944968      252.20356    
    150000   0.9596411      18.697885      251.98411    
    151000   1.022466       19.050944      251.77884    
    152000   1.0213278      19.106781      251.44918    
    153000   0.96556961     19.437057      251.25878    
    154000   1.0365387      18.97776       251.17582    
    155000   0.99056318     19.312672      251.00335    
    156000   1.0280708      19.580001      251.04309    
    157000   1.0210251      18.96718       250.87065    
    158000   0.97854671     18.616539      250.8746     
    159000   1.0169092      19.06118       250.81505    
    160000   1.0111304      19.248102      250.67116    
    161000   0.97912313     18.985978      250.58683    
    162000   1.0025796      19.185193      250.56852    
    163000   0.98280898     18.89659       250.34364    
    164000   1.0107299      19.156294      250.30288    
    165000   1.0136501      19.311916      250.10402    
    166000   1.0027227      19.023889      250.08271    
    167000   0.9920936      19.240338      249.97219    
    168000   1.0020584      19.252337      249.85799    
    169000   1.0273955      19.305485      249.78527    
    170000   0.99411766     19.324293      249.91189    
    171000   0.98090997     18.409588      249.98599    
    172000   0.99223342     18.757666      249.91937    
    173000   1.006072       19.067613      249.99575    
    174000   1.0391288      18.857158      249.75476    
    175000   1.0191315      18.869329      249.69891    
    176000   0.99478982     19.421167      249.57859    
    177000   1.0353021      19.15311       249.60132    
    178000   1.0030505      19.07486       249.55954    
    179000   0.97923712     19.264117      249.35505    
    180000   0.98803636     18.913425      248.97837    
    181000   1.0314086      18.969217      248.98963    
    182000   1.0167865      18.849648      249.099      
    183000   1.0015865      18.850607      248.99442    
    184000   0.99940458     18.668483      248.702      
    185000   1.0130682      19.017785      248.54805    
    186000   1.0071698      19.114705      248.23869    
    187000   0.9724263      18.78249       248.32671    
    188000   1.0157493      19.459646      248.12899    
    189000   1.0182128      19.009         248.16419    
    190000   1.037868       19.379781      248.06611    
    191000   1.0438311      19.270685      247.79915    
    192000   0.99180436     19.089444      247.70049    
    193000   0.98621442     18.786033      247.51853    
    194000   0.96847803     18.858519      247.03       
    195000   1.0380755      19.58057       246.8576     
    196000   0.95757495     18.893714      246.88209    
    197000   0.98413539     19.246705      246.89051    
    198000   1.001768       19.161367      246.73124    
    199000   0.9885611      18.944502      246.47419    
    200000   1.0304375      19.492815      246.48333    
    201000   0.95083291     18.742189      246.20715    
    202000   0.95358235     19.023278      245.93824    
    203000   1.0230463      19.162381      245.8818     
    204000   0.98758666     19.106961      245.74001    
    205000   0.99287395     19.266101      245.6343     
    206000   1.0076553      18.552365      245.40389    
    207000   0.99209927     19.194533      245.31078    
    208000   0.98704056     18.750182      245.12887    
    209000   1.0080278      19.017458      244.97547    
    210000   1.0186808      18.542906      244.6679     
    211000   0.97857858     19.115053      244.44389    
    212000   1.0184077      18.738741      244.3193     
    213000   0.98193911     18.808946      244.15061    
    214000   0.96835005     18.912203      244.09659    
    215000   0.94562384     18.944562      244.06712    
    216000   0.9955996      19.858333      243.98187    
    217000   1.0339399      18.884247      244.00173    
    218000   0.99596703     18.643549      243.8012     
    219000   0.98688053     19.478706      243.71707    
    220000   1.0159958      19.153735      243.68475    
    221000   1.0266333      19.173334      243.51878    
    222000   0.97035076     19.224052      243.4488     
    223000   1.0186185      19.042561      243.36461    
    224000   1.0234418      19.333123      243.24734    
    225000   0.99241949     19.132512      243.27891    
    226000   1.0111438      19.316222      243.24585    
    227000   1.0202958      19.000338      243.08459    
    228000   1.0132492      19.342428      242.94581    
    229000   0.96553965     18.856429      242.75631    
    230000   0.97131086     19.043014      242.66517    
    231000   0.99812637     19.129078      242.64935    
    232000   0.9683098      18.571125      242.50954    
    233000   1.0215671      19.617713      242.17857    
    234000   0.98578371     19.348342      242.05928    
    235000   1.0148376      18.542551      242.00475    
    236000   1.0501299      19.302953      242.00276    
    237000   0.98930431     19.39218       241.98921    
    238000   1.0115579      18.772219      242.05276    
    239000   0.97028256     18.744919      241.99407    
    240000   0.98203966     19.149525      241.98359    
    241000   0.99157792     18.689483      242.00424    
    242000   0.98500684     18.681326      241.85934    
    243000   0.99786798     19.159679      241.61035    
    244000   0.99267302     18.885594      241.39828    
    245000   1.0147976      19.53206       241.35026    
    246000   1.0310802      19.282294      241.32442    
    247000   0.9828485      18.889272      241.31235    
    248000   0.9806602      19.149601      241.22102    
    249000   1.0373329      19.032712      241.28595    
    250000   0.99129423     18.785356      241.23264    
    251000   1.0060899      18.793429      241.02151    
    252000   0.98565562     18.735067      240.79472    
    253000   1.0456875      18.553811      240.54848    
    254000   1.0147295      19.018339      240.30406    
    255000   1.0140201      19.1268        239.91525    
    256000   0.98048521     18.972003      239.54594    
    257000   0.96480698     19.468475      239.64872    
    258000   0.99976117     18.908857      239.70951    
    259000   0.9878093      19.102152      239.73493    
    260000   0.99611145     18.69187       239.64347    
    261000   0.96777262     19.263826      239.44703    
    262000   1.0148888      19.428117      239.50138    
    263000   0.98747424     19.463678      239.20712    
    264000   1.0173533      18.862857      238.84825    
    265000   0.94076979     19.139783      238.65816    
    266000   1.0002514      19.441031      238.61183    
    267000   0.95313429     19.040834      238.51469    
    268000   0.98211979     18.668028      238.44752    
    269000   1.0439146      18.827637      238.56688    
    270000   1.0245585      19.093513      238.49823    
    271000   1.0518238      19.361083      238.48461    
    272000   1.0288506      18.883251      238.36474    
    273000   0.97284187     19.455348      238.24597    
    274000   0.97412071     18.938213      238.06566    
    275000   1.0019836      18.508458      238.01699    
    276000   0.97898469     19.240124      237.84892    
    277000   0.99071431     19.037714      237.76197    
    278000   0.98965914     18.843894      237.68827    
    279000   1.0002421      18.705007      237.51768    
    280000   1.0058207      19.460961      237.09025    
    281000   1.0092654      18.653073      236.94734    
    282000   0.98280435     18.506694      236.71449    
    283000   1.0026311      19.151974      236.53157    
    284000   0.99876859     19.02893       236.23186    
    285000   1.004037       18.745174      236.15074    
    286000   0.97788869     19.189846      236.17099    
    287000   1.0198954      19.335392      236.18032    
    288000   1.0178167      19.065248      236.22543    
    289000   1.0329747      19.109018      235.98002    
    290000   1.0531509      19.132166      235.71249    
    291000   0.9781171      18.570001      235.60386    
    292000   1.021416       19.22571       235.51137    
    293000   0.98734243     18.544428      235.42926    
    294000   0.97716932     18.859325      235.3243     
    295000   0.95520471     18.641486      235.28786    
    296000   0.97878096     19.253317      235.27179    
    297000   0.9797161      19.074226      235.32245    
    298000   1.0234129      19.511485      235.27077    
    299000   1.0228349      19.275072      235.24451    
    300000   0.94950154     18.677262      235.22271    
    301000   1.0170259      18.618736      235.21365    
    302000   1.0256284      18.989297      235.04882    
    303000   1.0140087      19.229008      234.98222    
    304000   0.9929153      18.530606      234.96005    
    305000   1.0159076      18.553018      234.783      
    306000   0.99949045     19.242504      234.83889    
    307000   1.0054202      19.189787      234.80074    
    308000   0.99818066     19.261254      234.69382    
    309000   1.002129       19.277326      234.4205     
    310000   0.98375591     19.45065       234.15253    
    311000   0.96791624     18.835328      233.98243    
    312000   1.0140098      18.730738      233.92468    
    313000   1.0296629      19.187244      234.17939    
    314000   0.99570811     18.343587      234.10821    
    315000   1.0163988      18.745088      234.01812    
    316000   1.0104744      18.823503      233.78493    
    317000   0.99769562     19.440217      233.53024    
    318000   1.0016834      19.171871      233.46337    
    319000   1.0004218      18.592546      233.15406    
    320000   1.0422886      19.287062      232.98144    
    321000   0.96568937     18.781401      232.74145    
    322000   1.0137033      18.672041      232.68186    
    323000   1.0246037      19.155379      232.41393    
    324000   0.96999797     18.952841      232.51528    
    325000   0.94168474     18.921244      232.65896    
    326000   1.0260601      18.852004      232.52765    
    327000   0.98038445     18.830847      232.11953    
    328000   1.0055865      18.714771      232.17914    
    329000   1.0177597      19.113016      232.18521    
    330000   0.99601872     19.626076      232.26705    
    331000   0.99564779     19.429164      231.99673    
    332000   0.96376848     19.321137      231.73701    
    333000   0.98721939     18.704678      231.75523    
    334000   0.99370746     18.466888      231.80072    
    335000   0.96429136     18.872988      231.8296     
    336000   0.94069532     18.932014      231.70182    
    337000   1.0117325      19.087443      231.60528    
    338000   0.99176992     18.902094      231.45642    
    339000   1.0155936      19.048529      231.29839    
    340000   0.97137325     19.048458      231.04423    
    341000   1.0199559      18.979768      230.91444    
    342000   0.99724598     18.956537      230.87909    
    343000   1.0001354      18.748051      230.69608    
    344000   1.011434       18.778628      230.8161     
    345000   0.96967028     19.118392      230.6544     
    346000   1.0204672      19.206189      230.63232    
    347000   1.0001572      19.200869      230.53499    
    348000   0.98609424     18.875712      230.31285    
    349000   0.97434188     18.703889      230.16049    
    350000   0.99120539     19.053207      230.11365    
    351000   0.99740413     19.006175      229.83425    
    352000   0.96188288     18.849622      229.72628    
    353000   0.99447782     19.087194      229.5359     
    354000   0.98813681     19.228456      229.30488    
    355000   1.0260053      18.622871      229.40686    
    356000   1.0144343      18.929605      229.23282    
    357000   0.95474989     18.592631      229.01428    
    358000   0.96178911     18.835887      228.98086    
    359000   1.0095821      18.863608      228.88064    
    360000   0.96323321     18.863011      228.89143    
    361000   0.99387837     18.855708      228.9642     
    362000   1.0250733      19.082281      229.09475    
    363000   1.0093915      19.260392      228.94655    
    364000   1.0004696      18.85633       228.72002    
    365000   1.0272968      19.71312       228.55746    
    366000   1.0087172      19.063914      228.40503    
    367000   0.96705696     18.683901      228.28449    
    368000   1.0192074      19.178348      228.11798    
    369000   0.97786396     19.049704      228.13927    
    370000   1.0189824      18.870451      228.34494    
    371000   1.0008615      18.640818      228.19361    
    372000   0.99099997     18.820005      227.96909    
    373000   1.0334703      19.326541      227.9919     
    374000   0.95889323     18.3508        227.64087    
    375000   1.0061127      18.924791      227.44127    
    376000   0.97225129     19.119621      227.19946    
    377000   0.98866714     19.309927      227.21987    
    378000   1.0248386      19.268585      227.10911    
    379000   0.99946046     18.810804      226.96029    
    380000   1.0053533      18.927703      226.77278    
    381000   0.98416715     18.926705      226.78695    
    382000   1.0105567      19.091679      226.72316    
    383000   1.0168462      18.505754      226.6732     
    384000   0.97395124     18.935154      226.4812     
    385000   0.9655391      18.556534      226.64672    
    386000   1.0315525      18.890847      226.47001    
    387000   0.99356918     18.531345      226.14051    
    388000   0.99969686     18.667362      225.89877    
    389000   0.97681901     19.081266      225.71998    
    390000   1.0318698      18.873673      225.65683    
    391000   0.9874033      18.699078      225.40154    
    392000   1.010449       19.086903      225.22938    
    393000   0.9771677      18.867541      225.02577    
    394000   0.99538861     18.903117      225.1125     
    395000   0.99992341     18.924935      225.13249    
    396000   1.0220805      18.422385      225.397      
    397000   1.0021395      18.633119      225.49227    
    398000   0.9681127      18.870065      225.21555    
    399000   0.9839305      18.994885      225.16249    
    400000   1.0662436      18.936302      225.17292    
    401000   1.0115319      19.007615      224.90569    
    402000   1.0290397      18.721355      224.91507    
    403000   0.99348265     18.776996      224.63421    
    404000   1.036138       19.141816      224.57415    
    405000   1.0342982      19.493351      224.43363    
    406000   0.99515553     18.906044      224.21488    
    407000   0.97015377     18.923402      223.98522    
    408000   0.99690528     18.834672      223.94915    
    409000   1.0071282      18.932054      223.66196    
    410000   0.99654452     18.874443      223.26837    
    411000   1.0236944      19.206257      223.24861    
    412000   0.99401674     18.74874       223.19001    
    413000   0.99262784     18.996933      222.93668    
    414000   1.0230519      19.273081      222.7799     
    415000   1.0140859      19.083341      222.89989    
    416000   1.0086994      19.052346      222.84759    
    417000   0.96760053     18.717471      222.92628    
    418000   1.0177906      19.007439      223.21748    
    419000   0.97261453     18.763989      222.98761    
    420000   1.0151375      18.705258      223.06486    
    421000   0.99310689     18.692411      223.00374    
    422000   1.0342532      18.980213      222.9939     
    423000   1.0528849      19.236361      222.82414    
    424000   1.0710919      19.530596      222.76008    
    425000   1.004372       18.52724       222.55391    
    426000   1.0131491      18.538531      222.24354    
    427000   0.97481647     19.082631      222.05278    
    428000   1.0068618      19.503044      221.92393    
    429000   1.0148907      19.039409      221.80849    
    430000   0.96388019     18.907569      221.60859    
    431000   0.9612254      19.109924      221.46584    
    432000   0.94177911     18.638788      221.31996    
    433000   0.94562829     18.305425      221.33149    
    434000   0.96821579     18.767946      221.10319    
    435000   1.0331846      18.952296      221.01306    
    436000   1.0184622      19.140547      220.97292    
    437000   0.97695428     18.782608      220.78495    
    438000   0.96791714     18.90885       220.64081    
    439000   1.033988       18.802478      220.63099    
    440000   0.99775702     19.071394      220.42498    
    441000   1.0258116      19.066087      220.20652    
    442000   0.99472648     18.679747      220.09777    
    443000   1.0193633      19.1628        219.88718    
    444000   1.0114161      19.05638       219.60762    
    445000   1.0054625      18.762418      219.56228    
    446000   0.99223517     18.769724      219.53993    
    447000   0.9929299      19.034229      219.52591    
    448000   0.99404901     18.979688      219.40163    
    449000   0.95576624     19.050665      219.05414    
    450000   1.0149032      18.639335      218.95197    
    451000   0.98319802     19.091019      218.88689    
    452000   1.0031556      19.081024      218.77676    
    453000   0.97861818     19.018455      218.77843    
    454000   0.96567503     18.965745      218.56513    
    455000   1.0267289      18.88725       218.49126    
    456000   1.0338001      19.2006        218.2043     
    457000   0.98016341     18.688758      218.06684    
    458000   1.0084941      19.276024      217.89199    
    459000   0.97561538     18.898131      217.67561    
    460000   1.0152482      18.843576      217.74756    
    461000   0.98864589     18.361599      217.51701    
    462000   1.0198452      18.817832      217.25003    
    463000   0.99088149     18.928096      217.05762    
    464000   1.0100533      19.364835      216.91757    
    465000   0.95289458     18.913152      217.00231    
    466000   0.97484639     19.171538      216.87542    
    467000   0.96061478     18.51613       216.92302    
    468000   0.96357031     18.322527      216.85164    
    469000   0.99454101     18.96011       216.77201    
    470000   1.0301254      19.370219      216.60446    
    471000   0.96962747     18.689325      216.48029    
    472000   0.96198913     19.180448      216.47926    
    473000   1.0158471      18.766329      216.22053    
    474000   0.99457291     18.75303       216.08098    
    475000   1.0321539      19.412662      215.85328    
    476000   0.99425308     18.510196      215.79114    
    477000   0.97829579     19.124474      215.96106    
    478000   1.0424127      19.161581      215.85422    
    479000   1.0264419      18.870076      215.73953    
    480000   0.99681544     19.079062      215.55681    
    481000   0.96630306     18.895817      215.51872    
    482000   0.96778623     18.838397      215.09196    
    483000   1.0075038      19.109894      214.8129     
    484000   0.99406057     18.723975      214.76277    
    485000   0.97845078     19.402831      214.68025    
    486000   0.9876974      18.623468      214.6206     
    487000   1.0230221      19.322053      214.63129    
    488000   1.0182389      18.938381      214.7352     
    489000   1.011837       18.855497      214.72119    
    490000   0.99680297     19.084822      214.56018    
    491000   0.98887289     18.781174      214.53287    
    492000   1.0190494      18.572503      214.32605    
    493000   0.98005553     18.60226       214.3642     
    494000   1.0053369      19.255402      214.18318    
    495000   0.99755526     18.880895      214.06908    
    496000   1.0158866      19.307083      214.17223    
    497000   1.0179459      18.366694      214.00615    
    498000   0.99256302     18.561109      213.5931     
    499000   0.96698793     18.672715      213.43032    
    500000   1.0632571      18.997623      213.40234    
    501000   1.0058931      19.174014      213.36738    
    502000   0.96862408     19.18577       213.40346    
    503000   0.98244565     18.751586      213.37492    
    504000   0.99959375     18.690862      213.19397    
    505000   0.96303195     18.940531      212.78934    
    506000   0.96699452     19.087629      212.60619    
    507000   0.98515992     18.692941      212.67314    
    508000   1.0240532      18.96276       212.62873    
    509000   1.0074341      19.428705      212.4604     
    510000   0.99065811     19.174147      212.18774    
    511000   1.0210499      19.207575      211.97352    
    512000   1.0065632      18.504551      211.96178    
    513000   1.0638032      19.088478      211.9135     
    514000   1.015905       18.993727      211.82859    
    515000   0.96942903     18.335765      211.72223    
    516000   1.0184167      18.797158      211.66217    
    517000   1.0145655      18.815492      211.62052    
    518000   0.98034649     18.728277      211.61397    
    519000   0.95889817     18.543122      211.38125    
    520000   0.98296285     18.441093      211.34812    
    521000   0.98812681     19.004767      211.02041    
    522000   1.0002344      19.241307      210.73983    
    523000   0.96117804     18.854301      210.58849    
    524000   0.98447413     18.889089      210.42096    
    525000   0.99916115     18.980524      210.42739    
    526000   1.0227984      18.63042       210.29673    
    527000   0.99998385     18.803342      209.97672    
    528000   1.0179621      18.84428       209.82394    
    529000   0.97307946     18.432586      209.98144    
    530000   1.0136495      18.979037      209.86463    
    531000   1.0295489      19.128495      209.56765    
    532000   1.0125821      19.046929      209.60029    
    533000   1.0208697      19.189503      209.59883    
    534000   0.99086132     18.425299      209.52554    
    535000   0.99083535     18.678727      209.50628    
    536000   0.97620215     19.210267      209.18806    
    537000   1.0111354      18.754533      209.00577    
    538000   1.0118803      18.728218      208.70252    
    539000   1.0279251      18.91067       208.6359     
    540000   1.0068235      18.762835      208.50362    
    541000   0.99115689     19.045929      208.38888    
    542000   0.99433644     19.580076      208.39872    
    543000   1.0108604      19.037044      208.60543    
    544000   0.99728224     19.172042      208.42456    
    545000   1.0314728      19.012798      208.31384    
    546000   0.99916946     18.966319      208.31817    
    547000   0.99188184     18.634096      208.17074    
    548000   0.95938674     18.823414      208.29276    
    549000   1.0292989      18.866066      208.08537    
    550000   0.98177916     19.114057      208.01761    
    551000   1.0168127      18.942838      207.86533    
    552000   0.96746567     18.759313      207.87012    
    553000   0.99229291     19.146258      207.89248    
    554000   1.0244947      18.846642      207.98605    
    555000   1.0015535      18.424851      207.70937    
    556000   1.0013581      18.995162      207.65243    
    557000   1.0138837      19.473928      207.46944    
    558000   1.0235076      18.881971      207.37141    
    559000   1.01524        19.09899       207.09816    
    560000   0.97570308     18.653407      206.9467     
    561000   0.99241273     18.6703        206.75393    
    562000   1.0033626      18.692329      206.63304    
    563000   0.99106379     19.448552      206.60824    
    564000   0.99826164     18.268338      206.3513     
    565000   1.0249399      18.434123      206.31539    
    566000   0.97849449     18.60483       206.34521    
    567000   1.0132228      18.843602      206.2755     
    568000   1.0050605      18.912165      206.19498    
    569000   1.0115792      19.033084      206.27097    
    570000   1.0249732      18.646027      206.32206    
    571000   0.95089477     18.332457      206.27267    
    572000   1.0091796      18.567669      205.90743    
    573000   1.0065969      18.823692      205.62015    
    574000   0.9342637      18.68155       205.61759    
    575000   0.98487875     18.159613      205.57897    
    576000   0.97034333     18.669149      205.47067    
    577000   0.97351316     18.762613      205.24621    
    578000   1.0589983      18.730414      204.89695    
    579000   1.0171135      19.418238      204.6815     
    580000   1.0451741      18.485278      204.51301    
    581000   0.99398605     18.556181      204.40453    
    582000   0.99552933     18.869836      204.23397    
    583000   0.99333654     18.757104      204.0968     
    584000   0.98418701     18.820623      203.94174    
    585000   0.96029753     18.784218      203.88139    
    586000   0.95992933     18.794842      203.91384    
    587000   0.97153602     19.068558      204.02872    
    588000   1.0480266      18.830937      203.78079    
    589000   1.0286048      19.164952      203.82106    
    590000   0.9551857      18.745155      203.68125    
    591000   0.99915433     18.752593      203.61237    
    592000   0.95796203     18.815281      203.68284    
    593000   1.0133166      18.918204      203.71715    
    594000   1.0124261      19.122091      203.59043    
    595000   0.99035307     18.828571      203.35483    
    596000   0.98787098     19.067543      203.38046    
    597000   1.016565       19.478625      203.33322    
    598000   0.98449473     18.468897      203.29656    
    599000   1.0164926      18.876808      203.13254    
    600000   0.99083233     18.981557      203.01956    
    601000   0.98779673     18.747581      203.02253    
    602000   1.0032961      18.387034      202.76314    
    603000   0.95604195     18.846638      202.61674    
    604000   1.0102282      19.013403      202.56664    
    605000   0.99923129     18.900729      202.45175    
    606000   0.99081087     18.669605      202.35972    
    607000   1.0129689      18.573257      202.09924    
    608000   1.0293478      18.959917      202.01915    
    609000   0.97243985     19.046763      201.79269    
    610000   0.99709309     18.778132      201.78243    
    611000   1.0254215      18.564349      201.70595    
    612000   1.0172585      18.593705      201.80418    
    613000   0.97869112     19.086182      201.66758    
    614000   0.9980977      18.922242      201.50342    
    615000   0.98046723     18.444886      201.3651     
    616000   1.0100363      18.934305      201.47325    
    617000   1.0290394      19.435136      201.41878    
    618000   0.98532644     18.663458      201.18733    
    619000   1.0080311      18.848967      201.01934    
    620000   0.98546002     18.435299      200.98493    
    621000   0.97676473     18.637316      200.82406    
    622000   0.96746408     18.816104      200.78378    
    623000   0.98094357     18.758929      200.66542    
    624000   0.98697839     19.058115      200.65214    
    625000   0.99465184     19.232551      200.43637    
    626000   0.97173964     19.113898      200.64162    
    627000   1.0024137      18.625152      200.51637    
    628000   1.0121178      19.238089      200.47153    
    629000   0.97463637     19.056234      200.47596    
    630000   1.0024224      18.996934      200.41145    
    631000   1.0130645      18.991259      200.5932     
    632000   0.99192704     19.052696      200.61474    
    633000   0.99621687     18.673687      200.68401    
    634000   1.0023404      19.166194      200.59056    
    635000   0.99920699     18.606613      200.48626    
    636000   0.98108606     18.911024      200.37357    
    637000   1.0068692      18.749872      200.01208    
    638000   0.9518159      18.809999      199.94965    
    639000   0.99770237     18.919494      199.99644    
    640000   1.0077696      18.793445      199.92105    
    641000   0.97172558     18.667848      199.97684    
    642000   1.0188145      18.906449      199.73681    
    643000   0.98523432     18.920149      199.6881     
    644000   0.99206229     18.333656      199.57601    
    645000   1.0120559      18.674742      199.42835    
    646000   1.0038418      18.309605      199.23691    
    647000   0.99947372     19.115264      199.37522    
    648000   0.97344237     18.902157      199.22195    
    649000   0.98660539     18.552027      199.29768    
    650000   1.0503892      19.294254      199.24557    
    651000   0.99496822     18.885862      199.39377    
    652000   0.9876093      19.157897      199.17508    
    653000   0.98144018     18.91159       199.15434    
    654000   1.0147816      18.407334      198.99985    
    655000   1.03552        18.263285      198.99611    
    656000   0.99439536     18.440643      198.81427    
    657000   1.0047698      19.050744      198.61407    
    658000   1.0006103      18.930505      198.42408    
    659000   1.0094301      19.180076      198.45312    
    660000   0.9929595      18.516374      198.55613    
    661000   0.99717277     18.945906      198.55036    
    662000   0.99851172     18.110115      198.35659    
    663000   1.0049331      19.454793      198.25356    
    664000   0.98268301     19.163022      198.34356    
    665000   1.0487107      19.241876      198.24419    
    666000   1.0203497      18.441511      198.40497    
    667000   1.0200645      19.039269      198.35       
    668000   1.0075379      18.601788      198.11073    
    669000   1.0078369      18.75877       198.06283    
    670000   0.93634404     19.022115      198.04553    
    671000   1.0221363      19.266153      197.86586    
    672000   1.0322949      18.720098      197.60475    
    673000   0.98510297     18.313378      197.49116    
    674000   1.0078599      18.759287      197.59791    
    675000   0.98749833     18.630543      197.47048    
    676000   0.97878732     18.753912      197.38005    
    677000   1.0229245      19.072746      197.42787    
    678000   1.0201961      18.815319      197.2859     
    679000   1.0180748      18.392449      197.08687    
    680000   1.0063769      18.876437      197.27355    
    681000   1.0042935      18.612818      197.34402    
    682000   1.0097198      18.629085      197.23254    
    683000   0.99459454     18.841037      197.11932    
    684000   0.98760041     18.785163      197.00841    
    685000   0.96091649     18.619366      197.12145    
    686000   1.0158539      19.432406      196.80689    
    687000   1.0022493      19.03765       196.76801    
    688000   1.0285713      18.894453      196.6256     
    689000   1.029911       19.149342      196.85815    
    690000   0.98199567     18.740764      196.55385    
    691000   0.99874958     18.769053      196.47103    
    692000   0.98689322     18.649482      196.50769    
    693000   1.0241018      18.596115      196.57303    
    694000   0.99532851     18.627479      196.64011    
    695000   1.0498801      19.09635       196.3472     
    696000   1.0473879      19.328154      196.16662    
    697000   1.0100743      18.606589      196.00512    
    698000   1.0339698      18.68894       195.74643    
    699000   1.0503282      18.996288      195.81698    
    700000   1.0242853      18.766297      195.84917    
    701000   1.0102057      19.075823      195.89002    
    702000   1.0173754      18.893845      196.02536    
    703000   0.9950659      18.865696      195.9225     
    704000   0.98973463     19.108179      196.11519    
    705000   1.006538       18.753468      196.14442    
    706000   0.98902871     18.584111      195.91169    
    707000   1.0074043      18.632531      195.71894    
    708000   1.0216428      18.938656      195.61469    
    709000   0.99299138     19.132443      195.51578    
    710000   1.000626       18.970351      195.55032    
    711000   1.015093       18.963281      195.70498    
    712000   0.94063311     18.399136      195.50836    
    713000   1.0194027      18.866035      195.6943     
    714000   1.0338563      19.308178      195.89722    
    715000   0.98765329     19.166161      195.78889    
    716000   0.98531543     19.228602      196.10231    
    717000   0.98723157     18.844849      196.27121    
    718000   1.0324506      18.900369      196.41579    
    719000   0.99286089     18.797941      196.48095    
    720000   1.0192001      19.239359      196.45236    
    721000   0.98639429     18.968136      196.53622    
    722000   1.0245249      18.992525      196.53752    
    723000   1.0366676      18.66562       196.40645    
    724000   0.98215638     18.528388      196.29927    
    725000   0.99410912     18.247143      196.24722    
    726000   0.99883483     18.707514      196.10637    
    727000   1.0189786      18.619237      196.03559    
    728000   0.98065575     18.433815      196.07711    
    729000   0.92341241     18.499317      195.83583    
    730000   1.0471385      18.580003      195.68685    
    731000   0.99135191     18.822931      195.58746    
    732000   1.0312337      19.084271      195.69915    
    733000   1.0202095      18.925261      195.49472    
    734000   0.98803798     19.058636      195.20191    
    735000   1.0386071      18.610868      195.03384    
    736000   1.0044947      18.387765      194.83525    
    737000   1.0325338      18.97297       194.72664    
    738000   1.0373735      18.666329      194.6362     
    739000   1.0315903      18.849071      194.41382    
    740000   0.9972568      18.353077      194.08261    
    741000   0.9560195      19.256317      193.83639    
    742000   1.0213366      18.644045      193.78037    
    743000   1.0154533      18.59973       193.60201    
    744000   1.0004378      18.992075      193.55356    
    745000   1.010224       18.902497      193.5616     
    746000   1.0096438      18.937822      193.40687    
    747000   0.95118564     18.705979      193.23319    
    748000   1.023154       18.9407        193.00855    
    749000   0.98925834     18.537467      192.82713    
    750000   0.99865464     18.673229      192.79963    
    751000   1.0177488      19.132259      192.67645    
    752000   1.0146633      18.69798       192.79691    
    753000   1.0482955      19.088445      192.74845    
    754000   1.0222271      18.811081      192.72109    
    755000   0.99193576     18.910173      192.81232    
    756000   1.0367501      18.677756      192.76313    
    757000   0.95222474     18.705638      192.70074    
    758000   1.0233919      18.941014      192.54326    
    759000   0.98598401     18.834747      192.38668    
    760000   0.96693742     18.875968      192.55862    
    761000   1.017338       18.701676      192.52369    
    762000   1.0391401      18.899466      192.39784    
    763000   0.97054003     19.057796      192.27959    
    764000   0.97588202     18.934728      192.31472    
    765000   1.0095462      18.384537      192.4887     
    766000   0.99529455     18.176002      192.29572    
    767000   1.0338889      18.915465      192.11382    
    768000   0.96856298     18.879154      192.03946    
    769000   0.98282609     18.411928      191.86363    
    770000   1.0136083      18.645221      191.81355    
    771000   0.9767277      18.5961        191.61077    
    772000   1.0265458      19.370532      191.66404    
    773000   0.95876562     18.931923      191.62338    
    774000   0.99726362     18.663458      191.67933    
    775000   1.0274159      18.730009      191.65482    
    776000   1.0166718      18.7267        191.62768    
    777000   1.025317       18.661908      191.59494    
    778000   0.97693116     18.777106      191.58131    
    779000   1.0157228      19.569506      191.36101    
    780000   1.0526963      18.480843      191.15649    
    781000   0.96945282     18.816795      191.06982    
    782000   1.0016266      18.074761      191.19159    
    783000   0.97888419     18.910925      191.22912    
    784000   0.98878325     18.875405      190.94749    
    785000   0.94029457     18.516373      190.63219    
    786000   1.034044       18.727826      190.57924    
    787000   1.0046063      18.753998      190.32048    
    788000   1.0242818      19.071709      190.36504    
    789000   1.0430379      18.645334      190.30271    
    790000   0.99022505     18.411101      190.19076    
    791000   0.99811499     18.431094      190.07229    
    792000   0.98089939     18.06731       190.12727    
    793000   1.0149309      18.807842      189.98883    
    794000   0.99000589     18.760816      189.7563     
    795000   1.0098058      18.841987      189.65213    
    796000   1.0236204      18.897095      189.69111    
    797000   1.0012684      18.673863      189.4907     
    798000   0.99113105     18.623874      189.3207     
    799000   0.98269455     18.715444      189.23094    
    800000   0.98163061     18.147846      189.1294     
    801000   0.98666503     18.44873       189.07553    
    802000   1.0102062      18.589893      188.86668    
    803000   1.010604       18.359878      188.66493    
    804000   0.97983765     18.350446      188.35612    
    805000   1.0122681      18.678668      188.5063     
    806000   0.97093874     19.027323      188.28301    
    807000   1.0489387      18.962711      188.12171    
    808000   0.97918065     18.407839      188.50287    
    809000   0.95476929     18.684301      188.5422     
    810000   1.023968       18.79464       188.38895    
    811000   1.0162107      18.744172      188.29572    
    812000   0.98527998     18.927921      188.16781    
    813000   1.0730748      18.48107       187.99444    
    814000   0.98443958     18.684747      187.92604    
    815000   0.98142081     18.831937      187.76975    
    816000   0.97544668     18.818098      187.64571    
    817000   1.009717       18.669164      187.45787    
    818000   0.996571       18.759483      187.37735    
    819000   0.99289308     18.585221      187.42932    
    820000   1.0005236      18.897071      187.3632     
    821000   0.97592477     18.550459      187.28998    
    822000   0.96880313     18.803178      187.10484    
    823000   0.98575862     18.474715      186.92045    
    824000   1.037826       18.82591       187.03066    
    825000   1.0061564      18.701651      187.27173    
    826000   0.99389382     18.862386      187.19489    
    827000   1.0165137      18.431008      186.87442    
    828000   0.96722131     18.874198      186.72372    
    829000   0.99895376     18.534178      186.55914    
    830000   1.0246617      18.951064      186.49031    
    831000   0.99485751     18.359789      186.40958    
    832000   0.98966205     18.476607      186.25006    
    833000   0.98469482     19.11388       186.05993    
    834000   1.018493       18.216911      185.83075    
    835000   1.008124       18.520527      185.73082    
    836000   0.96952086     18.74338       185.97153    
    837000   0.95826992     18.479795      185.94999    
    838000   1.0067615      18.927998      185.77515    
    839000   0.98741322     18.57052       185.69469    
    840000   0.99111786     18.787693      185.49459    
    841000   0.93391932     18.69515       185.33848    
    842000   1.0419837      18.907797      184.97215    
    843000   1.0007313      18.970291      184.80148    
    844000   1.0257553      19.218894      184.82027    
    845000   0.96651335     18.566498      184.93668    
    846000   1.0027554      19.062537      184.76954    
    847000   1.0141104      18.901172      184.6568     
    848000   1.0038947      18.737022      184.50061    
    849000   0.95348225     18.281725      184.5004     
    850000   0.98080298     18.880223      184.50886    
    851000   0.97905511     19.089211      184.55115    
    852000   0.99317528     18.899134      184.61916    
    853000   1.0329188      18.677066      184.69118    
    854000   1.0080859      18.754168      184.59005    
    855000   0.994125       18.393929      184.49053    
    856000   1.0010224      18.762546      184.35294    
    857000   0.98383451     18.751418      184.49127    
    858000   0.97164515     18.671939      184.67245    
    859000   1.0291278      18.81163       184.77989    
    860000   1.0148648      18.750697      184.64457    
    861000   0.95901614     18.505237      184.50579    
    862000   0.99025595     19.017566      184.35481    
    863000   0.98461587     18.830024      183.95941    
    864000   0.95193583     18.492542      183.84626    
    865000   0.99891577     17.99769       183.86896    
    866000   0.96836932     19.113684      183.5999     
    867000   1.0393848      18.515404      183.44425    
    868000   0.99439044     18.656831      183.44407    
    869000   0.9822639      18.382112      183.26108    
    870000   0.99970321     19.001274      183.15511    
    871000   0.99245355     18.564826      183.19592    
    872000   1.0052192      18.141465      183.12269    
    873000   0.98911655     18.558674      183.02038    
    874000   0.98381723     19.166813      182.90319    
    875000   0.96821857     18.782439      182.75872    
    876000   1.0223995      18.613818      182.70852    
    877000   0.97299467     18.842821      182.6166     
    878000   1.0387132      19.384303      182.3955     
    879000   1.0105849      19.019833      182.16048    
    880000   0.9999148      18.353455      182.17114    
    881000   0.99560552     18.724625      181.87943    
    882000   0.98873033     18.860644      181.99819    
    883000   0.99936752     18.288296      182.1291     
    884000   0.98192221     18.509722      181.91875    
    885000   0.98803705     18.65453       181.7106     
    886000   0.98837181     18.616296      181.58288    
    887000   1.0002924      18.574481      181.31572    
    888000   1.0296129      18.342549      181.208      
    889000   0.99647537     18.168953      180.96888    
    890000   0.999862       19.020604      180.70449    
    891000   0.99548281     18.443801      180.35915    
    892000   0.97598946     18.742519      180.14132    
    893000   0.98523458     19.106964      179.93018    
    894000   1.0118072      18.884703      179.97258    
    895000   1.0160003      18.762639      179.87613    
    896000   1.0212949      18.591404      179.98178    
    897000   1.0377328      18.853435      179.91908    
    898000   0.98185142     18.696954      179.94083    
    899000   0.97534201     18.213034      179.90522    
    900000   0.99168352     18.187996      179.77822    
    901000   0.99839028     18.782363      179.72738    
    902000   0.97019274     18.659117      179.67608    
    903000   1.0083797      18.987108      179.55614    
    904000   1.0027712      18.466937      179.29692    
    905000   1.0139919      18.467132      179.21418    
    906000   0.97713131     18.6777        179.10737    
    907000   1.0071311      18.470855      178.89927    
    908000   0.99882528     18.684991      178.94291    
    909000   1.0150065      18.787668      179.05639    
    910000   0.98159257     18.897207      178.7759     
    911000   1.01832        18.906151      178.72016    
    912000   0.98008176     18.67171       178.84025    
    913000   1.0272954      18.265316      178.71088    
    914000   0.96961317     18.90066       178.48827    
    915000   0.97354814     18.014271      178.56474    
    916000   1.0132891      18.95788       178.52263    
    917000   1.0006428      18.768852      178.44171    
    918000   0.97652495     18.321649      178.39687    
    919000   1.0119204      18.558082      178.19705    
    920000   1.0085774      18.598321      178.09079    
    921000   1.0130554      18.515979      178.20723    
    922000   1.0351469      18.696916      178.29932    
    923000   1.0154823      18.722786      178.28232    
    924000   0.99677882     18.345602      178.15629    
    925000   1.012403       18.555577      178.12118    
    926000   1.0285833      18.683717      178.28208    
    927000   0.9959014      18.459662      178.42842    
    928000   1.0005801      18.887101      178.40949    
    929000   0.97644219     18.438629      178.39288    
    930000   0.9432281      18.674562      178.14432    
    931000   0.95330032     18.279893      177.99889    
    932000   1.0218702      18.629557      177.74183    
    933000   0.95766118     18.536901      177.56034    
    934000   1.0048868      18.551137      177.73184    
    935000   1.0292137      19.12703       177.73504    
    936000   1.0353606      19.115936      177.56303    
    937000   0.97332809     18.694688      177.47896    
    938000   1.0482149      18.897637      177.53077    
    939000   0.96431165     18.812878      177.58614    
    940000   1.0086301      19.014249      177.46102    
    941000   0.98500981     18.707055      177.48551    
    942000   0.97439394     18.583691      177.49608    
    943000   1.0268186      18.188698      177.41041    
    944000   1.0134417      19.117452      177.3122     
    945000   1.0045257      18.636976      177.32518    
    946000   0.96608472     18.338524      177.20483    
    947000   1.0414587      18.741217      177.20432    
    948000   0.97193673     18.566056      177.14664    
    949000   1.001487       18.933599      177.27193    
    950000   0.97070217     18.851526      177.12336    
    951000   1.0000402      18.856789      177.1041     
    952000   1.0056816      18.261009      177.13125    
    953000   1.027687       18.62351       177.05565    
    954000   1.038876       18.578684      177.02879    
    955000   0.99610681     18.702585      176.92883    
    956000   0.99966364     18.262078      176.82238    
    957000   1.0113026      18.404212      176.69958    
    958000   0.9629278      19.079011      176.3484     
    959000   0.99527122     18.705684      176.13811    
    960000   0.96035724     18.651554      175.85935    
    961000   0.99971147     18.920811      175.70411    
    962000   1.0183431      18.851042      175.61745    
    963000   1.0202638      18.629298      175.62523    
    964000   1.019553       18.715199      175.59896    
    965000   0.98850622     18.950593      175.47266    
    966000   0.97944911     18.054112      175.42429    
    967000   0.98824521     18.413898      175.12114    
    968000   1.0180781      18.945371      175.1092     
    969000   1.02158        18.517606      175.1086     
    970000   0.98809912     18.717741      175.01948    
    971000   1.0145813      18.435199      174.86363    
    972000   0.99389152     18.054941      174.5728     
    973000   0.98724952     18.104121      174.64611    
    974000   0.96949245     18.213654      174.4576     
    975000   0.98345324     18.247362      174.37642    
    976000   1.0334427      18.548502      174.38653    
    977000   0.94528555     18.34174       174.16943    
    978000   1.0156162      18.997627      174.10474    
    979000   1.037942       19.349292      173.97491    
    980000   1.0114875      18.776704      173.86924    
    981000   0.99009978     18.808019      173.68536    
    982000   0.97251878     18.057562      173.53162    
    983000   1.0094105      18.496648      173.31972    
    984000   0.99166185     18.606315      173.42136    
    985000   0.97495552     18.137946      173.30194    
    986000   0.99150761     19.017485      173.2022     
    987000   0.99508049     18.372265      173.18584    
    988000   0.99382377     18.780723      173.26082    
    989000   1.0060402      18.280185      173.42694    
    990000   0.97281569     18.209163      173.32421    
    991000   0.98074053     18.367704      173.18579    
    992000   1.0060775      18.701145      173.32593    
    993000   1.0287111      18.857947      173.06808    
    994000   1.0012161      19.052723      172.98521    
    995000   1.0046671      18.562931      172.94716    
    996000   1.0245713      18.347592      172.85403    
    997000   1.0019038      18.772383      172.51451    
    998000   1.0030846      18.435474      172.49798    
    999000   1.019741       18.39526       172.50291    
   1000000   1.0544929      18.851864      172.60219    
   1001000   0.96548171     17.922258      172.6714     
   1002000   0.98192993     18.540478      172.63485    
   1003000   0.96436177     17.739876      172.53342    
   1004000   1.0168146      18.154009      172.44474    
   1005000   1.0197095      18.669009      172.2977     
   1006000   0.97800026     18.287409      172.29823    
   1007000   1.0077538      18.502147      172.07575    
   1008000   0.96517499     18.408968      172.02854    
   1009000   1.0220815      18.580123      172.02997    
   1010000   0.98749007     18.884115      171.97539    
   1011000   1.0355093      18.462306      171.96871    
   1012000   1.0053297      18.303645      172.0095     
   1013000   1.0036308      18.372145      172.05118    
   1014000   0.97177468     18.457804      172.0353     
   1015000   0.98871271     18.469985      172.27962    
   1016000   1.0374406      19.009193      172.38039    
   1017000   1.0080974      18.30799       172.07719    
   1018000   0.98119292     18.270573      172.06036    
   1019000   1.0189635      18.652959      172.22513    
   1020000   0.97094763     18.306513      172.16563    
   1021000   0.98847103     18.411881      171.99606    
   1022000   1.0495701      18.358604      171.62048    
   1023000   1.0187927      18.031161      171.46242    
   1024000   1.0024599      18.776713      171.42585    
   1025000   0.9540646      18.477367      171.18743    
   1026000   1.0195268      18.37724       171.29473    
   1027000   0.97462224     18.252567      171.33898    
   1028000   0.94291989     18.414457      171.1327     
   1029000   0.9768744      18.395848      171.02373    
   1030000   1.0466193      18.583789      170.74496    
   1031000   0.96110837     18.774467      170.75839    
   1032000   0.97739743     18.400682      170.71748    
   1033000   0.96679424     18.442334      170.60271    
   1034000   0.97934511     18.321584      170.54092    
   1035000   1.0063646      18.886001      170.34871    
   1036000   0.98912611     18.503801      170.69361    
   1037000   1.0340129      18.543551      170.63848    
   1038000   0.9616465      18.341564      170.51678    
   1039000   1.028233       19.056322      170.39592    
   1040000   1.048278       18.275331      170.3394     
   1041000   1.01336        18.269363      170.52572    
   1042000   1.0012047      18.519534      170.42314    
   1043000   0.99518704     18.573329      170.3083     
   1044000   1.0434393      19.014834      170.08649    
   1045000   1.032387       18.691208      170.15072    
   1046000   0.95588554     18.875855      170.50265    
   1047000   0.99582935     18.784853      170.50424    
   1048000   0.97519738     18.184969      170.407      
   1049000   1.0254942      18.495562      170.35432    
   1050000   0.97346253     18.221892      170.41238    
   1051000   0.98575426     18.290987      170.46445    
   1052000   1.0062503      18.24125       170.55821    
   1053000   1.0234699      18.4927        170.52099    
   1054000   1.0215832      18.378414      170.28479    
   1055000   1.0328506      18.708789      170.32562    
   1056000   0.94124221     18.723225      170.18781    
   1057000   0.99530772     18.649455      170.15513    
   1058000   0.97863451     18.41494       170.0752     
   1059000   0.99405979     18.420751      170.14262    
   1060000   1.04402        18.694937      170.00201    
   1061000   1.0413114      18.849611      169.9451     
   1062000   1.0194747      18.800402      169.98123    
   1063000   1.0204735      18.771564      170.02942    
   1064000   0.96652564     19.012791      170.03253    
   1065000   0.99101262     18.928462      169.86992    
   1066000   0.9995306      18.773556      169.79089    
   1067000   1.0051493      18.439055      169.80517    
   1068000   1.0215493      18.482555      169.53386    
   1069000   0.99403146     18.537463      169.61344    
   1070000   1.0215723      18.760468      169.49314    
   1071000   1.0020457      18.62825       169.36522    
   1072000   1.0079695      18.034154      169.48537    
   1073000   1.0179364      18.37669       169.31627    
   1074000   0.99708788     18.151771      169.17382    
   1075000   0.97315207     18.196025      169.0544     
   1076000   0.95912223     18.401         168.84778    
   1077000   0.99318365     18.633938      168.7476     
   1078000   0.98000891     18.6189        168.76501    
   1079000   1.0107794      18.51466       168.71718    
   1080000   1.0173766      18.624636      168.65587    
   1081000   1.0484872      18.89739       168.387      
   1082000   1.0267499      18.405933      168.35509    
   1083000   0.9526416      17.880509      168.19518    
   1084000   1.0482028      18.966507      168.00891    
   1085000   0.97332927     17.972432      167.80083    
   1086000   0.9971917      18.308101      167.73288    
   1087000   1.0237298      18.529058      167.80237    
   1088000   1.000277       18.165396      167.77567    
   1089000   0.98781112     18.362439      167.72526    
   1090000   1.0674452      18.484964      167.71254    
   1091000   0.99678793     18.013575      167.6394     
   1092000   0.99777388     18.559553      167.69135    
   1093000   0.9710918      18.233433      167.80652    
   1094000   1.0269403      18.391094      167.79345    
   1095000   1.0378673      18.670575      168.02428    
   1096000   1.0021075      18.611621      167.81879    
   1097000   0.94268901     18.178583      167.92451    
   1098000   0.99523648     17.993269      167.92311    
   1099000   0.99908492     18.750585      167.79531    
   1100000   0.95553031     18.176171      167.83115    
   1101000   1.0134675      18.101945      167.81123    
   1102000   1.0283034      18.143344      167.91583    
   1103000   1.0317848      18.703372      168.03638    
   1104000   1.0010717      18.581116      167.95848    
   1105000   1.0213882      19.012491      167.89277    
   1106000   0.97954976     18.627518      167.84126    
   1107000   1.0276605      18.27088       168.00193    
   1108000   1.0094319      18.388807      168.10897    
   1109000   1.0041015      18.596901      167.864      
   1110000   1.0288829      18.491094      167.8412     
   1111000   0.99761818     18.277836      167.62768    
   1112000   0.99987177     18.641421      167.54151    
   1113000   0.97896857     18.757871      167.31054    
   1114000   0.99565688     18.218567      167.21604    
   1115000   1.0079752      18.067329      167.24817    
   1116000   1.0067689      18.044677      167.25601    
   1117000   1.0456578      18.73968       167.27112    
   1118000   1.0154701      18.874443      167.28028    
   1119000   1.0325753      18.554222      167.17838    
   1120000   0.99490082     18.400502      167.11736    
   1121000   1.0037908      18.393931      167.08064    
   1122000   1.0085244      18.311155      167.31241    
   1123000   1.0011217      18.858597      167.29201    
   1124000   1.0120127      18.45427       167.48842    
   1125000   1.0175858      18.262159      167.26954    
   1126000   0.99629119     18.24751       166.91366    
   1127000   0.97677662     18.675488      166.61213    
   1128000   0.99299097     18.871316      166.42786    
   1129000   1.0206753      18.464457      166.44559    
   1130000   1.0000805      18.569338      166.37341    
   1131000   0.99193938     18.074875      166.10775    
   1132000   1.0036145      18.464204      165.84478    
   1133000   1.0345902      18.761747      165.83573    
   1134000   1.0526474      18.946168      165.70185    
   1135000   1.016343       18.487859      165.50811    
   1136000   1.000672       18.189737      165.28983    
   1137000   0.97127352     18.406942      165.25175    
   1138000   0.99720442     18.229546      165.20872    
   1139000   0.96606752     17.914942      165.16982    
   1140000   0.96844379     18.288356      164.87426    
   1141000   0.9552169      18.461457      164.77481    
   1142000   1.0132475      18.50197       164.59771    
   1143000   0.98936286     18.495989      164.49056    
   1144000   0.95051002     18.257254      164.52985    
   1145000   1.0339809      18.735677      164.47628    
   1146000   0.99506918     18.107311      164.36107    
   1147000   0.99915074     17.934311      164.31415    
   1148000   1.0013301      18.319446      164.25546    
   1149000   1.0528724      18.990017      164.11401    
   1150000   1.0067556      18.965396      164.14174    
   1151000   0.99921561     18.074283      164.07073    
   1152000   0.98291421     17.936288      164.04146    
   1153000   1.0367985      18.099148      163.91586    
   1154000   1.0319397      18.391638      163.78867    
   1155000   0.99490433     18.580137      163.55999    
   1156000   1.010481       18.833263      163.5408     
   1157000   1.0156086      18.702325      163.26423    
   1158000   0.98943292     17.970709      163.07573    
   1159000   1.0167063      18.230148      162.93424    
   1160000   0.98802932     18.889808      162.85547    
   1161000   0.94899774     17.810176      162.69953    
   1162000   1.03836        18.210074      162.59258    
   1163000   1.0240695      18.174339      162.63315    
   1164000   0.95036858     18.541677      162.66153    
   1165000   0.97980803     18.392532      162.61851    
   1166000   1.0205425      18.644477      162.71908    
   1167000   1.0563626      18.465947      162.44697    
   1168000   1.0192319      18.419641      162.36089    
   1169000   1.023002       18.427519      162.41699    
   1170000   1.0488553      18.582056      162.37794    
   1171000   1.0030759      18.489726      162.20627    
   1172000   1.0235247      18.528941      162.16475    
   1173000   0.98901466     18.86731       162.2148     
   1174000   0.98749465     18.813295      162.33298    
   1175000   1.02241        17.987905      162.18308    
   1176000   1.036591       18.661485      162.47432    
   1177000   1.0440526      18.359246      162.3659     
   1178000   0.99072774     18.72499       162.38787    
   1179000   1.0096883      18.278569      162.27021    
   1180000   0.9341008      18.51454       162.34489    
   1181000   0.96951846     18.515171      162.3941     
   1182000   0.97864774     18.188035      162.44176    
   1183000   0.98662989     18.043266      162.42219    
   1184000   0.97610153     18.294374      162.42418    
   1185000   1.0392037      18.797161      162.29875    
   1186000   0.99781229     18.123829      162.27515    
   1187000   0.99758827     18.206922      162.12192    
   1188000   1.0305984      18.733343      162.06444    
   1189000   1.0340239      18.429505      161.92019    
   1190000   0.98079073     18.638606      161.96383    
   1191000   0.97280291     18.45453       161.82947    
   1192000   0.99529452     18.390978      161.74068    
   1193000   1.0331948      18.871495      161.6163     
   1194000   0.96264924     18.087059      161.51776    
   1195000   0.98992825     18.870427      161.50815    
   1196000   0.9856876      18.185343      161.36922    
   1197000   1.0243395      18.992286      161.35921    
   1198000   0.97650702     18.841882      161.47873    
   1199000   0.98596151     18.167791      161.5836     
   1200000   1.0407607      17.786709      161.28448    
   1201000   0.95895991     18.371518      161.16149    
   1202000   1.0146486      18.292049      161.21358    
   1203000   0.98896019     18.957055      161.02377    
   1204000   1.0127497      19.048662      161.10313    
   1205000   0.98115542     18.449314      160.96023    
   1206000   1.0229204      18.234026      160.81219    
   1207000   0.97848864     18.464203      160.72445    
   1208000   1.0164139      18.388585      160.78967    
   1209000   1.0165639      18.660656      160.62007    
   1210000   0.98637939     18.710187      160.4076     
   1211000   0.98238162     18.237891      160.34035    
   1212000   0.99371507     18.134135      160.46959    
   1213000   0.99914999     18.035087      160.34903    
   1214000   0.99220423     18.716273      160.24389    
   1215000   0.99044694     18.627979      160.23193    
   1216000   0.98127298     18.33549       160.23772    
   1217000   0.97068892     18.531157      160.40146    
   1218000   1.0144157      18.567936      160.36879    
   1219000   1.0205857      18.304138      160.3703     
   1220000   0.99836633     18.148203      160.32638    
   1221000   0.93731283     18.449158      160.01647    
   1222000   0.99802069     18.800986      159.90606    
   1223000   1.023952       18.498989      159.82888    
   1224000   1.025404       18.742264      159.73969    
   1225000   1.0162749      18.593566      159.64025    
   1226000   0.97233831     19.083807      159.61751    
   1227000   1.0172372      18.667325      159.52336    
   1228000   1.0327069      18.650412      159.43593    
   1229000   0.99229387     18.244482      159.30914    
   1230000   1.0007367      18.501169      159.20585    
   1231000   1.0357156      18.111217      159.04882    
   1232000   1.0102812      18.341037      158.81961    
   1233000   0.99423662     18.455493      158.96044    
   1234000   0.977604       18.622367      158.948      
   1235000   0.993946       18.018745      158.89747    
   1236000   1.0144436      18.007362      158.75882    
   1237000   1.0037312      18.245859      158.865      
   1238000   0.9979227      18.397208      158.74533    
   1239000   0.94469993     18.141351      158.69967    
   1240000   0.99841341     18.537096      158.50165    
   1241000   1.013572       18.172703      158.22632    
   1242000   0.97583151     18.50398       158.19205    
   1243000   0.99549735     18.908981      158.09448    
   1244000   1.0208653      18.274119      158.30915    
   1245000   0.9984312      18.478457      158.39108    
   1246000   0.99568374     18.745062      158.40506    
   1247000   0.9966185      18.179111      158.71864    
   1248000   1.0408984      19.042198      158.70682    
   1249000   1.0308431      18.162892      158.63165    
   1250000   0.99801369     18.100133      158.88182    
   1251000   1.0190543      18.53028       158.71538    
   1252000   0.98849332     18.149145      158.61706    
   1253000   0.99240027     18.148201      158.60378    
   1254000   1.017966       18.477968      158.60929    
   1255000   0.98459579     18.38786       158.43152    
   1256000   1.0105659      18.571789      158.61172    
   1257000   0.97966781     17.931215      158.40277    
   1258000   0.99358349     18.55439       158.3328     
   1259000   0.98518375     18.042713      158.25244    
   1260000   0.98092046     18.672514      157.99401    
   1261000   0.96623414     17.747684      157.89051    
   1262000   1.0134619      18.579046      157.72056    
   1263000   0.99951435     18.875293      157.59027    
   1264000   0.98574044     18.357378      157.56873    
   1265000   0.99784617     18.615577      157.32757    
   1266000   1.0573018      18.302358      157.21008    
   1267000   1.0114742      18.736647      157.04339    
   1268000   0.99802024     18.984356      157.05182    
   1269000   1.011647       18.217361      157.1691     
   1270000   1.0226821      18.395779      157.08788    
   1271000   0.99726205     17.665947      156.95444    
   1272000   0.99792236     18.483668      156.78495    
   1273000   0.98357427     18.837393      156.60013    
   1274000   1.004392       18.202417      156.59062    
   1275000   0.98404645     18.174488      156.56074    
   1276000   0.98051442     19.360502      156.46353    
   1277000   0.97564225     18.564497      156.25433    
   1278000   0.9916634      18.237436      156.14341    
   1279000   1.0699655      18.905076      155.87062    
   1280000   1.036606       18.490995      155.79431    
   1281000   0.97849964     18.567416      155.57077    
   1282000   0.97833354     18.570503      155.46158    
   1283000   0.99132951     18.290802      155.38023    
   1284000   0.94832339     18.159652      155.42609    
   1285000   1.0238501      18.364774      155.32485    
   1286000   0.98501402     18.405357      154.90589    
   1287000   1.020128       18.212781      154.65044    
   1288000   1.0387421      17.99219       154.58561    
   1289000   1.0315806      18.560845      154.44083    
   1290000   1.0209689      18.372244      154.32995    
   1291000   0.95410075     17.876823      154.46285    
   1292000   1.0048072      18.302849      154.38834    
   1293000   1.0144612      18.094252      154.43129    
   1294000   1.0133525      18.580445      154.41682    
   1295000   1.033038       17.811759      154.60294    
   1296000   1.008796       18.356562      154.5583     
   1297000   0.99888799     18.356678      154.50508    
   1298000   0.995292       18.301535      154.28784    
   1299000   0.97192518     18.402784      154.28902    
   1300000   1.0687527      18.626617      153.95667    
   1301000   0.9760205      18.237708      153.62662    
   1302000   1.022813       18.957291      153.44246    
   1303000   1.0578719      18.437459      153.38057    
   1304000   0.99570599     18.319037      153.2483     
   1305000   1.0090591      18.657596      153.13012    
   1306000   1.0582107      17.929955      152.89743    
   1307000   1.0431723      18.129237      152.84557    
   1308000   0.99752503     18.921184      152.77395    
   1309000   0.97114325     18.428843      152.78622    
   1310000   0.97406312     18.519159      152.66278    
   1311000   1.0227288      18.462359      152.44603    
   1312000   1.0179712      18.404166      152.2598     
   1313000   1.0292384      18.265526      152.07251    
   1314000   0.99430078     18.105679      151.98198    
   1315000   0.97776957     18.512502      151.75472    
   1316000   0.98795253     18.208835      151.50639    
   1317000   0.99078383     18.156135      151.43345    
   1318000   0.97460394     18.109707      151.46533    
   1319000   0.96051589     18.149056      151.415      
   1320000   1.0327846      19.072245      151.17936    
   1321000   0.96911268     18.658135      151.23549    
   1322000   1.0018003      18.451595      151.32935    
   1323000   0.99728963     18.436298      151.33587    
   1324000   1.0466447      18.391548      151.28765    
   1325000   0.98887833     18.324539      151.27847    
   1326000   0.98223257     18.266619      150.91593    
   1327000   1.0181377      18.81971       150.84682    
   1328000   1.0005912      18.786942      150.59366    
   1329000   1.0306796      18.992295      150.64056    
   1330000   0.98230115     18.860567      150.45273    
   1331000   0.99333833     18.492422      150.44261    
   1332000   0.93815613     18.648311      150.32259    
   1333000   1.0179714      18.448651      150.30446    
   1334000   0.9587415      18.702357      150.31701    
   1335000   0.97783164     17.952617      150.46575    
   1336000   0.98299262     18.75142       150.25294    
   1337000   1.0398596      18.376929      150.31957    
   1338000   1.0311078      18.275639      150.37378    
   1339000   1.0235437      18.559217      150.39061    
   1340000   0.96900207     17.644997      150.44563    
   1341000   1.0181124      17.976428      150.52462    
   1342000   1.0312875      18.315078      150.47068    
   1343000   0.9833873      18.094729      150.54982    
   1344000   1.0086342      17.991446      150.41202    
   1345000   0.98543559     18.762663      150.13194    
   1346000   0.96889132     18.079804      150.24321    
   1347000   0.97097147     18.721722      150.37959    
   1348000   1.01733        18.941112      150.45004    
   1349000   1.0075734      18.664172      150.40295    
   1350000   0.97104302     18.328937      150.22183    
   1351000   1.02088        18.813673      150.05805    
   1352000   0.96817061     18.582625      149.96166    
   1353000   1.010594       18.074026      149.85047    
   1354000   1.020115       18.902916      149.54332    
   1355000   1.0073041      18.319697      149.36891    
   1356000   1.0311608      17.995881      149.37486    
   1357000   0.98153284     18.385707      149.29832    
   1358000   1.0051041      18.17642       149.21249    
   1359000   0.9937122      17.59736       148.94341    
   1360000   0.99058796     18.201501      148.83844    
   1361000   1.0326316      18.540361      148.81351    
   1362000   0.98812177     17.975048      148.90406    
   1363000   0.99781803     18.196317      148.66724    
   1364000   1.0174126      17.848825      148.67224    
   1365000   1.0195015      18.192821      148.73417    
   1366000   0.98700781     17.781204      148.67146    
   1367000   0.9816574      18.293728      148.46967    
   1368000   0.97948626     17.926775      148.43359    
   1369000   1.0050625      18.88911       148.17399    
   1370000   1.0004688      18.233872      148.18705    
   1371000   0.9976051      18.703045      148.14945    
   1372000   0.99462108     17.809065      148.11605    
   1373000   0.99694684     18.530461      148.24639    
   1374000   0.98769886     18.011339      148.11889    
   1375000   1.0083783      18.242674      148.19184    
   1376000   0.96773587     18.402102      148.21736    
   1377000   1.024405       18.079496      148.24671    
   1378000   1.0438716      18.090186      148.22904    
   1379000   1.0094007      18.154899      148.08938    
   1380000   0.99363327     17.719067      147.96648    
   1381000   0.96802612     18.625308      147.95239    
   1382000   1.0189162      18.202408      148.03931    
   1383000   1.01919        18.609129      147.7912     
   1384000   0.98401918     18.268153      147.72265    
   1385000   0.99239543     18.018587      147.81584    
   1386000   1.0271767      18.246902      148.16052    
   1387000   1.0087546      18.248831      148.1104     
   1388000   0.97736952     18.126634      147.86714    
   1389000   1.0038008      18.257395      147.7491     
   1390000   1.0361432      18.542236      147.69668    
   1391000   1.0117894      18.502385      147.7863     
   1392000   0.96235489     18.106477      147.76596    
   1393000   0.99531878     18.367937      147.6901     
   1394000   0.9690743      18.382276      147.62955    
   1395000   0.99909828     18.814607      147.51026    
   1396000   0.96646726     17.999626      147.46654    
   1397000   0.96003101     17.879561      147.28308    
   1398000   0.99357495     18.004017      147.21466    
   1399000   0.99474446     17.980109      147.16227    
   1400000   1.0169055      18.3783        147.09665    
   1401000   0.99978513     18.510491      147.12596    
   1402000   0.99575929     18.316814      147.2206     
   1403000   0.98545902     18.091118      147.04311    
   1404000   0.99331044     18.617618      146.92436    
   1405000   0.98953016     18.126016      147.01773    
   1406000   1.0089231      18.155286      147.05752    
   1407000   0.98854222     18.211806      147.21738    
   1408000   0.97153206     18.69048       147.06235    
   1409000   1.0116347      18.30086       146.92641    
   1410000   0.99101258     18.452233      147.14251    
   1411000   1.0374301      17.911932      147.15053    
   1412000   1.0040051      18.105874      147.12466    
   1413000   1.0057187      18.314245      146.97131    
   1414000   1.0228548      18.930323      146.99309    
   1415000   1.0184169      18.048548      146.94289    
   1416000   1.0114627      18.304777      146.86632    
   1417000   1.0114012      17.964739      146.9016     
   1418000   1.0177514      18.044308      146.74265    
   1419000   1.004689       18.086118      146.75922    
   1420000   1.0456329      18.576112      146.91925    
   1421000   0.95636879     18.995751      146.81857    
   1422000   1.0074621      17.834198      146.56768    
   1423000   0.97856076     18.46878       146.31101    
   1424000   1.0321683      18.360749      146.23163    
   1425000   1.0367787      18.656113      146.11711    
   1426000   1.0002216      17.767528      146.11154    
   1427000   1.0177016      17.861148      145.92463    
   1428000   0.94098445     17.919663      145.83682    
   1429000   1.0131393      17.971971      145.98587    
   1430000   1.0221252      18.236021      145.68497    
   1431000   0.98992186     18.133919      145.76769    
   1432000   0.98683362     18.559284      145.64163    
   1433000   1.0428762      18.234688      145.56343    
   1434000   0.98639726     18.519418      145.58043    
   1435000   0.9601939      18.756969      145.58353    
   1436000   1.0261151      18.736234      145.51805    
   1437000   0.97940884     18.227         145.49576    
   1438000   1.0141613      17.95473       145.44503    
   1439000   1.0099885      18.028423      145.34095    
   1440000   1.0103856      17.774296      145.29327    
   1441000   0.9655956      17.698685      145.10788    
   1442000   1.0090444      17.994285      144.94243    
   1443000   1.0198359      17.966928      144.96952    
   1444000   0.97552055     18.038917      144.7867     
   1445000   0.96952178     18.165479      144.72723    
   1446000   0.96401526     18.094308      144.55684    
   1447000   0.97625986     18.096301      144.63422    
   1448000   0.98954461     18.761493      144.53158    
   1449000   1.0073758      18.18374       144.39608    
   1450000   1.0325654      18.512917      144.29435    
   1451000   0.97167566     18.63914       144.18147    
   1452000   1.001809       18.521543      144.21558    
   1453000   0.97163811     18.472568      143.91693    
   1454000   0.99386211     19.091639      143.77026    
   1455000   1.022369       18.416988      143.70136    
   1456000   0.9587111      18.209766      143.70744    
   1457000   1.013742       18.67534       143.57456    
   1458000   1.0058287      18.234504      143.61661    
   1459000   0.97623231     18.600788      143.63977    
   1460000   0.99274135     17.966957      143.45722    
   1461000   1.0235825      18.305176      143.47776    
   1462000   0.95524595     17.734876      143.51222    
   1463000   1.0046958      18.740923      143.29986    
   1464000   1.0213226      18.685951      143.1656     
   1465000   1.0322129      17.950019      143.12601    
   1466000   0.96555676     18.326484      142.9143     
   1467000   1.0091803      17.992897      142.99638    
   1468000   0.98480712     18.439646      142.89109    
   1469000   1.0063402      18.464162      142.63887    
   1470000   0.97033306     18.150593      142.68884    
   1471000   0.97309204     18.11369       142.55171    
   1472000   0.9909832      18.333362      142.84298    
   1473000   0.99863879     18.181346      142.72096    
   1474000   1.047332       18.721803      142.72439    
   1475000   1.0075665      18.565212      142.60224    
   1476000   0.99784381     18.59413       142.52148    
   1477000   1.0040216      18.409384      142.55851    
   1478000   1.0014306      18.193394      142.41652    
   1479000   1.0123538      18.315577      142.14989    
   1480000   0.9875439      18.15839       141.9734     
   1481000   0.99582359     17.961854      141.78223    
   1482000   1.0230633      18.124308      141.60611    
   1483000   0.99574009     18.332695      141.55725    
   1484000   1.0104099      18.275028      141.43689    
   1485000   0.99242397     18.068339      141.3243     
   1486000   1.011029       18.669309      141.19692    
   1487000   0.9964778      18.104438      141.05192    
   1488000   0.98147412     17.977105      140.79527    
   1489000   1.0196997      18.382829      140.81318    
   1490000   0.98214181     18.773219      140.81809    
   1491000   0.97665961     18.495525      140.52501    
   1492000   0.9909594      18.463717      140.49054    
   1493000   0.99598413     18.402642      140.36672    
   1494000   1.0540775      17.770023      140.39607    
   1495000   1.054611       18.324375      140.35536    
   1496000   0.97182927     18.005157      140.33513    
   1497000   1.0057984      18.327332      140.25542    
   1498000   0.99237868     18.064065      140.15       
   1499000   0.97987007     18.289416      140.00089    
   1500000   0.97997962     18.153887      139.88096    
   1501000   0.97250632     17.602666      139.74253    
   1502000   1.0178637      18.239909      139.72774    
   1503000   0.99460404     18.202925      139.58235    
   1504000   1.0168993      18.254402      139.637      
   1505000   0.98820662     17.928253      139.71356    
   1506000   0.99784975     18.214892      139.4183     
   1507000   1.0220008      18.00939       139.23185    
   1508000   1.010544       18.040735      139.06824    
   1509000   0.96765723     18.177522      139.04775    
   1510000   0.99822145     18.20181       139.03887    
   1511000   0.9766806      17.95369       138.8868     
   1512000   1.0063436      17.841864      138.65293    
   1513000   1.0381332      18.019944      138.51613    
   1514000   1.0489836      18.454862      138.56071    
   1515000   0.97155611     18.233538      138.5448     
   1516000   0.99794332     18.126092      138.6495     
   1517000   0.99811237     18.082606      138.68631    
   1518000   1.003444       17.891055      138.59176    
   1519000   1.0213082      18.137598      138.46404    
   1520000   1.0271332      18.20994       138.55711    
   1521000   1.033848       18.858592      138.48783    
   1522000   0.98965309     18.343104      138.31856    
   1523000   0.99896155     18.273926      138.37055    
   1524000   1.0176206      18.031539      138.24539    
   1525000   0.96347622     18.479924      138.11957    
   1526000   1.0087703      18.003781      137.97321    
   1527000   0.98417318     17.788941      137.80008    
   1528000   1.0041669      18.239686      137.7758     
   1529000   0.95693391     18.463139      137.63499    
   1530000   1.0009597      18.450665      137.74543    
   1531000   1.0040097      18.322218      137.83376    
   1532000   1.0032224      18.528769      137.93695    
   1533000   1.0191635      18.375465      138.01179    
   1534000   1.0200686      18.861613      137.91951    
   1535000   1.0169166      18.758124      138.01287    
   1536000   0.97628504     18.175338      138.04989    
   1537000   1.0326521      18.067867      138.01855    
   1538000   0.96975573     18.457598      138.22292    
   1539000   1.0130223      18.524829      138.07165    
   1540000   1.010785       17.956938      138.10918    
   1541000   1.0246875      17.803253      138.10865    
   1542000   0.96699658     18.021604      137.89238    
   1543000   0.99360574     18.231946      137.66833    
   1544000   0.98231022     18.352398      137.60402    
   1545000   0.99144579     17.831301      137.55938    
   1546000   1.0508492      18.345385      137.56075    
   1547000   0.97296664     18.363985      137.59836    
   1548000   0.99086747     17.397334      137.66803    
   1549000   1.0094932      18.099812      137.42303    
   1550000   0.97689519     17.919168      137.17058    
   1551000   1.0219563      18.207091      137.22002    
   1552000   0.99239442     18.29211       137.19362    
   1553000   1.0171551      18.123661      137.06558    
   1554000   0.98229542     17.809314      136.94631    
   1555000   0.96426615     18.4395        137.22236    
   1556000   0.99246267     18.153552      137.10341    
   1557000   0.99292983     18.411011      137.01311    
   1558000   0.97616635     17.971931      136.97614    
   1559000   1.0007863      18.177868      136.79319    
   1560000   0.99555019     18.324468      136.51475    
   1561000   1.0012372      18.243375      136.28647    
   1562000   0.97933396     17.979647      136.32178    
   1563000   1.0373435      18.209942      136.18385    
   1564000   0.98880265     18.575203      136.17758    
   1565000   0.98033625     18.519699      136.03763    
   1566000   0.99659919     17.979295      135.87632    
   1567000   1.0034692      17.828923      135.90512    
   1568000   1.0167725      18.341305      135.71513    
   1569000   0.97501947     17.856426      135.66697    
   1570000   0.98468803     18.030695      135.6097     
   1571000   1.0235413      17.847369      135.53835    
   1572000   0.98059666     17.962749      135.39803    
   1573000   1.0097746      18.006834      135.3514     
   1574000   1.0171322      18.182931      135.49869    
   1575000   1.0152333      18.143998      135.55455    
   1576000   1.0232455      18.170978      135.26057    
   1577000   1.0112582      18.036113      135.12045    
   1578000   0.99723144     18.26371       135.10846    
   1579000   1.0147754      18.342453      134.93924    
   1580000   0.98309771     17.765955      134.90076    
   1581000   1.0007783      18.445556      134.6078     
   1582000   1.0370374      18.129782      134.52872    
   1583000   0.99764561     17.859782      134.59844    
   1584000   0.96334325     18.279499      134.43379    
   1585000   1.0247863      18.134913      134.55328    
   1586000   0.98821618     18.561126      134.43647    
   1587000   0.99599854     18.151417      134.35925    
   1588000   0.98823722     17.674115      134.42146    
   1589000   1.0053077      18.105985      134.38241    
   1590000   0.96825927     17.954069      134.42474    
   1591000   1.0262283      18.105194      134.28231    
   1592000   1.0179524      17.764244      134.2848     
   1593000   1.0202322      17.8357        134.10736    
   1594000   0.98319965     18.291469      133.95096    
   1595000   0.98466725     17.697987      133.74929    
   1596000   1.0345407      18.04728       133.7861     
   1597000   1.0121395      17.764748      134.05666    
   1598000   1.0196171      18.288561      134.23325    
   1599000   0.96173843     17.968969      134.15644    
   1600000   1.0155369      18.13819       133.89189    
   1601000   0.97500268     17.874757      133.89098    
   1602000   1.0121631      18.152791      134.07828    
   1603000   1.0059924      18.597262      133.93879    
   1604000   1.0138688      17.990436      133.76297    
   1605000   0.99009569     18.715699      133.4329     
   1606000   1.0134592      18.18711       133.33277    
   1607000   1.0625313      18.282497      133.2377     
   1608000   1.0227118      18.360708      133.35656    
   1609000   1.0230567      17.985522      133.34005    
   1610000   1.0402366      18.163318      133.44068    
   1611000   1.0211598      18.022739      133.32348    
   1612000   1.0062715      17.887807      133.18841    
   1613000   0.98582144     17.881388      133.27697    
   1614000   0.98702433     17.937052      133.19796    
   1615000   0.92737647     18.233822      133.1107     
   1616000   0.98215801     18.003071      132.87771    
   1617000   1.0029409      17.818717      132.78845    
   1618000   1.0151851      18.785196      132.68194    
   1619000   0.9778779      18.039777      132.70883    
   1620000   0.96277908     17.814306      132.68132    
   1621000   1.033815       17.880527      132.71911    
   1622000   1.0021081      17.515529      132.41346    
   1623000   1.009666       17.702577      132.35169    
   1624000   1.028816       18.231253      132.31823    
   1625000   1.0246861      18.303353      132.10695    
   1626000   1.029266       18.159743      131.72506    
   1627000   0.95614494     18.31435       131.4634     
   1628000   1.0543425      18.283238      131.46319    
   1629000   1.0188678      17.940687      131.36302    
   1630000   1.0076946      17.99015       131.16209    
   1631000   0.99489542     18.134028      131.02498    
   1632000   0.99659386     18.41443       130.81484    
   1633000   0.98264779     18.020229      130.70074    
   1634000   1.016601       17.839225      130.48833    
   1635000   1.0036534      18.372209      130.36066    
   1636000   0.97682118     18.112665      130.28916    
   1637000   0.96527018     18.008375      130.26802    
   1638000   0.99811649     18.620358      130.09446    
   1639000   0.98632395     18.574929      130.02445    
   1640000   1.0035996      18.059552      129.78137    
   1641000   0.99665757     18.148163      129.64087    
   1642000   1.0059551      17.852251      129.7205     
   1643000   1.0107061      18.746916      129.62977    
   1644000   0.9805001      18.426247      129.34582    
   1645000   0.99114301     18.168904      128.9727     
   1646000   0.97272412     17.783649      128.69952    
   1647000   0.9981402      17.986768      128.93314    
   1648000   1.012948       18.753207      129.0613     
   1649000   1.0342566      18.04604       128.93034    
   1650000   1.0235672      18.205208      129.11402    
   1651000   0.98874538     18.37517       129.18841    
   1652000   1.0154263      18.425626      129.34181    
   1653000   0.99426803     18.432611      129.18979    
   1654000   0.99757909     18.042893      129.06478    
   1655000   0.99065095     18.065489      129.10818    
   1656000   1.0361083      17.68387       128.91657    
   1657000   1.0396252      18.59548       128.66851    
   1658000   1.0105263      18.017941      128.48918    
   1659000   0.97732771     17.813626      128.42259    
   1660000   1.0406263      17.903848      128.30812    
   1661000   0.97913222     18.172267      127.94733    
   1662000   0.97622029     17.691596      127.80457    
   1663000   1.0158484      17.831584      127.72704    
   1664000   0.96972052     18.152716      127.4303     
   1665000   0.9740139      18.184562      127.23851    
   1666000   1.0288572      18.168093      127.16919    
   1667000   0.99729315     18.003641      127.16323    
   1668000   1.0256955      18.536529      127.02975    
   1669000   1.036936       18.38904       126.98315    
   1670000   0.98087386     17.840671      126.79151    
   1671000   1.0059591      17.851807      126.70879    
   1672000   0.99525165     17.717748      126.65248    
   1673000   0.97093919     17.840129      126.73505    
   1674000   0.96208141     18.047581      126.68553    
   1675000   0.97608503     18.24729       126.74913    
   1676000   0.97135375     17.945023      126.71285    
   1677000   1.0665418      18.631649      126.70618    
   1678000   0.99275948     18.129407      126.58624    
   1679000   1.0419487      18.336465      126.52312    
   1680000   1.0403751      18.747021      126.76861    
   1681000   0.99216239     18.426718      126.60482    
   1682000   0.96792886     18.085175      126.5307     
   1683000   1.0034502      17.800758      126.474      
   1684000   1.0435922      17.801876      126.59338    
   1685000   0.99511762     18.660561      126.68691    
   1686000   1.0217976      17.971864      126.65534    
   1687000   1.0257702      18.367217      126.31977    
   1688000   1.0162856      18.33191       126.29049    
   1689000   0.99493401     18.30945       126.18817    
   1690000   1.008698       17.540368      125.9694     
   1691000   1.0085198      18.503653      125.83326    
   1692000   0.97553433     18.415944      125.68334    
   1693000   0.99872251     18.001156      125.72504    
   1694000   0.96912222     17.975714      125.75879    
   1695000   0.98133043     17.980507      125.49926    
   1696000   0.97021653     18.22633       125.6212     
   1697000   1.0001552      18.08304       125.58736    
   1698000   0.99190364     18.151555      125.50684    
   1699000   1.013131       17.825873      125.47859    
   1700000   0.95970143     18.504591      125.30954    
   1701000   1.0138062      18.290919      125.15562    
   1702000   0.96625546     17.911789      125.15774    
   1703000   0.97699502     18.502739      124.99468    
   1704000   1.0494501      17.686053      124.86144    
   1705000   0.99548931     17.788823      124.53235    
   1706000   1.0265876      17.734251      124.4497     
   1707000   1.0073887      18.052054      124.39776    
   1708000   1.0177493      18.241798      124.26415    
   1709000   0.96788135     18.387198      124.27266    
   1710000   1.0360675      18.049295      124.16085    
   1711000   0.980732       17.485263      124.06328    
   1712000   1.0024886      17.787792      123.78457    
   1713000   0.98516555     17.949847      123.7821     
   1714000   1.0294193      18.260249      123.76034    
   1715000   0.99938431     18.120441      123.76787    
   1716000   1.0063077      17.35772       123.64893    
   1717000   0.99447483     18.13761       123.52877    
   1718000   0.97901437     17.960743      123.48448    
   1719000   1.0122508      17.492771      123.37259    
   1720000   0.95101092     18.236976      123.42052    
   1721000   0.97944389     18.254666      123.46617    
   1722000   1.0293153      17.921339      123.57217    
   1723000   0.99997104     17.961082      123.41385    
   1724000   0.97989446     17.978754      123.54447    
   1725000   0.98368379     18.242443      123.49136    
   1726000   1.0186325      18.388102      123.58381    
   1727000   1.0042835      17.97761       123.2356     
   1728000   0.99739903     18.050416      123.18178    
   1729000   0.98549494     17.64012       122.94268    
   1730000   1.062411       18.485148      122.96285    
   1731000   0.97192022     17.943615      123.05923    
   1732000   0.98795259     17.632476      123.09098    
   1733000   1.0064542      17.837009      123.11474    
   1734000   1.0198314      18.838205      123.08451    
   1735000   1.0675522      18.1771        122.87625    
   1736000   0.97169208     18.297217      122.75422    
   1737000   0.99311773     18.325305      122.52404    
   1738000   0.98579801     17.827722      122.41105    
   1739000   1.0055663      17.873369      122.24283    
   1740000   1.0163566      17.710425      122.05439    
   1741000   0.99872493     18.365339      121.98555    
   1742000   1.0239953      17.678922      122.07699    
   1743000   1.0068715      17.904035      121.84483    
   1744000   1.0095845      17.250155      121.8464     
   1745000   0.9879157      18.525811      121.75321    
   1746000   0.96809692     18.395408      121.57295    
   1747000   0.98938071     17.586881      121.67915    
   1748000   0.93751879     17.994848      121.30222    
   1749000   1.0107423      18.091182      121.72482    
   1750000   1.0111501      18.131779      121.70801    
   1751000   0.98259422     17.579704      121.74505    
   1752000   0.9901234      18.114097      121.45657    
   1753000   0.97962325     18.045534      121.28158    
   1754000   1.0355164      18.540523      121.26086    
   1755000   0.9776024      18.008444      121.24424    
   1756000   1.0033166      18.278911      121.24095    
   1757000   1.0339733      18.378006      121.13362    
   1758000   0.98971124     18.374698      121.18529    
   1759000   1.0244383      17.988487      120.99553    
   1760000   1.0381032      17.769917      120.97482    
   1761000   0.97352574     18.06396       120.7727     
   1762000   1.0037812      17.759148      120.64727    
   1763000   0.97449167     18.378927      120.58616    
   1764000   0.98315985     17.647653      120.40889    
   1765000   1.0016194      18.20921       120.37714    
   1766000   1.0184557      18.359829      120.24849    
   1767000   1.0745092      18.255731      119.9936     
   1768000   0.9760686      17.822349      119.77341    
   1769000   0.9863947      17.369054      119.70226    
   1770000   1.0528175      17.979         119.84766    
   1771000   0.98225448     18.109889      119.65639    
   1772000   0.97016643     18.127397      119.49967    
   1773000   0.97584283     17.953807      119.21023    
   1774000   1.0064515      18.343732      119.28425    
   1775000   0.97914994     17.760591      119.30776    
   1776000   1.0353644      17.972565      119.18908    
   1777000   1.0013688      17.767553      119.36901    
   1778000   1.003351       18.989952      119.2405     
   1779000   0.96596904     17.910949      119.12781    
   1780000   1.0058636      17.584315      119.09422    
   1781000   1.0293682      18.135256      118.66945    
   1782000   1.0173515      17.706094      118.70447    
   1783000   1.0043001      17.735673      118.38901    
   1784000   0.989053       18.019634      118.21106    
   1785000   0.9644592      18.479051      118.16357    
   1786000   1.0312992      18.646709      118.02822    
   1787000   1.0070824      18.734171      117.76882    
   1788000   0.98755602     18.198447      117.50003    
   1789000   0.99598873     18.075678      117.30158    
   1790000   0.97270441     18.267879      117.11414    
   1791000   1.0438814      18.339334      117.00223    
   1792000   1.0209299      18.137743      116.93946    
   1793000   1.0042829      18.049132      116.89001    
   1794000   1.0049978      17.67005       116.60151    
   1795000   1.0025804      18.326229      116.3624     
   1796000   0.99188963     18.050008      116.13493    
   1797000   1.0338647      18.242507      116.4351     
   1798000   0.99420615     18.405451      116.60651    
   1799000   0.99099231     17.932843      116.60245    
   1800000   0.99899873     17.656396      116.47939    
   1801000   0.99341296     17.679613      116.34602    
   1802000   1.0470229      17.677561      116.39245    
   1803000   0.9874497      18.060721      116.55342    
   1804000   0.97096957     17.906776      116.56459    
   1805000   0.98564072     18.070629      116.72292    
   1806000   0.9561299      18.28282       116.67665    
   1807000   1.0074517      17.995973      116.80287    
   1808000   0.95392576     17.780834      116.60989    
   1809000   1.0493307      17.801099      116.5493     
   1810000   1.0174871      18.350359      116.6686     
   1811000   1.0213309      17.896453      116.80646    
   1812000   1.0533263      18.105283      116.81378    
   1813000   0.9869673      17.725104      116.78329    
   1814000   1.0066071      17.891331      116.70487    
   1815000   1.0567804      18.633561      116.62213    
   1816000   1.0127967      18.05302       116.59212    
   1817000   0.99639266     17.59379       116.52947    
   1818000   1.0321289      18.260052      116.62693    
   1819000   0.9882128      17.594713      116.64301    
   1820000   1.0134959      18.024425      116.5265     
   1821000   0.99497881     18.403336      116.74739    
   1822000   1.0078967      18.27641       116.57501    
   1823000   0.98330402     17.769177      116.35742    
   1824000   0.98982099     18.305749      116.22222    
   1825000   1.0153384      17.965234      116.22727    
   1826000   1.0086297      17.88059       116.28801    
   1827000   1.0039397      18.635945      115.99087    
   1828000   0.97575441     17.672242      115.80486    
   1829000   1.0205978      17.886459      115.67683    
   1830000   0.96074712     18.088931      115.40208    
   1831000   1.0223987      18.017322      115.37553    
   1832000   1.0165034      18.317142      115.32381    
   1833000   1.0280713      17.639666      115.14359    
   1834000   1.0213309      18.120864      115.04669    
   1835000   1.0460842      17.920304      115.22261    
   1836000   0.98984003     17.684388      115.42399    
   1837000   0.977659       18.075782      115.30703    
   1838000   0.98601211     17.700526      115.50721    
   1839000   1.0081498      17.885582      115.34684    
   1840000   1.0264254      17.875616      115.40422    
   1841000   1.0042124      17.968951      115.39547    
   1842000   0.97954246     17.55493       115.31876    
   1843000   0.9844897      17.608746      115.42505    
   1844000   1.0037323      18.118674      115.35397    
   1845000   1.0111284      17.703759      115.32123    
   1846000   0.99678795     18.182856      115.29513    
   1847000   1.0213481      17.710451      115.3023     
   1848000   0.97486304     17.659175      115.45618    
   1849000   0.99891558     17.732372      115.49477    
   1850000   1.0008576      17.970088      115.26767    
   1851000   1.0416865      18.158631      115.01099    
   1852000   0.9752774      18.296757      114.88688    
   1853000   0.97425425     18.285782      114.93262    
   1854000   0.98268773     17.756738      114.6425     
   1855000   1.0133455      18.126478      114.42642    
   1856000   1.0059208      18.209875      114.4638     
   1857000   1.0500259      18.286965      114.42322    
   1858000   1.0093268      17.800395      114.23714    
   1859000   0.99270289     18.052065      114.0187     
   1860000   1.0111834      17.945767      113.79594    
   1861000   0.97834761     18.147505      113.80726    
   1862000   1.0039724      18.19712       113.92465    
   1863000   0.95459429     17.991956      113.86887    
   1864000   1.0316757      18.074155      113.76597    
   1865000   1.005212       17.760482      113.5717     
   1866000   0.99080333     17.989265      113.6294     
   1867000   1.004333       17.778134      113.47749    
   1868000   0.97121522     18.312774      113.44675    
   1869000   1.0168341      18.1842        113.26832    
   1870000   1.0118145      18.144138      113.16953    
   1871000   0.98917293     17.57244       113.0104     
   1872000   0.97058166     18.157813      112.85249    
   1873000   0.98523283     17.606298      112.67244    
   1874000   0.96964112     17.323568      112.79691    
   1875000   1.0363857      18.020616      112.78984    
   1876000   0.986033       17.557018      112.58445    
   1877000   1.0252852      18.49805       112.32069    
   1878000   0.98446216     17.567585      112.44487    
   1879000   1.0235369      17.891823      112.26372    
   1880000   1.0055783      17.752733      112.01516    
   1881000   0.98168382     17.461367      112.19043    
   1882000   0.95375073     18.258466      112.05418    
   1883000   1.0173633      17.998687      112.1177     
   1884000   0.99755573     17.893964      112.14445    
   1885000   1.0047822      17.862108      112.27925    
   1886000   1.008399       17.891147      112.36452    
   1887000   0.95420423     17.823421      112.31678    
   1888000   1.0342449      17.657332      112.41853    
   1889000   1.0095089      17.797232      112.40945    
   1890000   1.0195849      17.752126      112.42616    
   1891000   0.99748454     17.920397      112.43675    
   1892000   1.0238496      17.628553      112.56623    
   1893000   0.97699857     18.063627      112.63667    
   1894000   0.98426599     17.900846      112.40559    
   1895000   1.0059734      17.838627      112.48366    
   1896000   1.0183221      17.588006      112.60581    
   1897000   0.97719503     17.563664      112.52501    
   1898000   0.99121904     17.670141      112.33399    
   1899000   0.96712843     18.23446       112.32396    
   1900000   0.97591567     17.683767      112.32587    
   1901000   0.98319878     18.177321      112.11778    
   1902000   1.0356595      18.329574      112.01044    
   1903000   1.0416821      18.00696       111.88175    
   1904000   1.0020743      17.678271      111.90947    
   1905000   0.9692689      18.055487      111.95156    
   1906000   0.97232004     17.569544      111.8998     
   1907000   1.0012183      17.425741      111.94541    
   1908000   0.97219576     18.036674      111.94648    
   1909000   0.99864386     17.542584      112.01636    
   1910000   1.0061685      17.984864      112.08228    
   1911000   1.018357       18.162693      111.86176    
   1912000   1.0347841      17.541708      111.85915    
   1913000   0.96534654     17.930018      111.854      
   1914000   1.0463689      17.610016      111.79317    
   1915000   0.98093621     16.773492      111.53787    
   1916000   1.0319668      17.672384      111.5796     
   1917000   1.0272174      18.706488      111.37356    
   1918000   1.0326491      18.299593      111.30438    
   1919000   1.0113672      17.329828      111.46179    
   1920000   0.96698989     17.305866      111.461      
   1921000   1.0013341      17.347061      111.43398    
   1922000   0.98590995     17.652144      111.46615    
   1923000   0.98761184     17.981576      111.42828    
   1924000   0.98369689     18.131757      111.46888    
   1925000   0.98299538     17.752353      111.59991    
   1926000   0.99444435     17.549565      111.52429    
   1927000   1.0147084      18.056695      111.51283    
   1928000   0.96067529     17.64186       111.55777    
   1929000   0.9923692      17.735953      111.34654    
   1930000   0.98905253     17.741042      111.43047    
   1931000   0.9637911      17.50126       111.32817    
   1932000   1.0210423      18.026312      111.19951    
   1933000   0.97032976     18.049464      111.16782    
   1934000   1.0045215      17.292322      111.15421    
   1935000   0.99022877     17.18342       111.04622    
   1936000   1.0226336      18.073691      111.04884    
   1937000   0.9730028      17.416562      111.00229    
   1938000   1.0115438      17.335571      110.97949    
   1939000   1.0438163      17.879888      111.04763    
   1940000   1.0050048      17.607626      110.82181    
   1941000   0.98639458     18.565497      110.79895    
   1942000   1.0145032      17.855277      110.75969    
   1943000   1.0062851      17.838201      110.89893    
   1944000   0.97838402     17.735501      110.66905    
   1945000   1.054433       17.8647        110.5724     
   1946000   0.98927063     18.298713      110.24633    
   1947000   1.0491032      17.788893      110.26332    
   1948000   1.0358749      16.995593      110.08218    
   1949000   0.99482281     17.671824      110.18102    
   1950000   0.97742171     17.660617      110.16253    
   1951000   1.0164846      17.622509      109.96014    
   1952000   1.0201688      17.852926      109.88162    
   1953000   0.98507116     17.574733      109.90225    
   1954000   0.99949437     17.928588      110.1358     
   1955000   0.99005767     17.589099      110.12347    
   1956000   0.99965694     17.466193      110.05288    
   1957000   0.99165997     17.529917      109.87419    
   1958000   0.94296958     17.990122      109.85619    
   1959000   1.008197       17.423691      109.69487    
   1960000   1.0129405      17.72569       109.8351     
   1961000   0.99438532     17.470583      109.62201    
   1962000   0.97825629     18.681559      109.51031    
   1963000   1.0155169      17.893283      109.3402     
   1964000   0.99258301     17.822279      109.26876    
   1965000   1.0279538      17.482305      109.12506    
   1966000   0.98773254     17.80982       108.96966    
   1967000   0.98460336     17.829027      108.96321    
   1968000   1.0234593      17.980908      109.09129    
   1969000   1.0025344      17.378881      109.00231    
   1970000   1.0207602      17.993126      108.85375    
   1971000   1.025847       17.609694      108.69145    
   1972000   0.94887265     17.500595      108.3236     
   1973000   1.0528679      18.328746      108.23085    
   1974000   0.99490454     17.955711      108.08863    
   1975000   1.0358103      17.734567      107.99193    
   1976000   0.98674551     17.853854      108.0504     
   1977000   1.008607       17.785771      107.91992    
   1978000   0.99146598     17.493607      107.93206    
   1979000   0.98415519     17.806148      108.1317     
   1980000   1.0081817      17.544431      108.40462    
   1981000   1.0163151      17.943489      108.45705    
   1982000   0.95245022     17.793748      108.12905    
   1983000   0.96723726     17.495088      108.31896    
   1984000   0.98331777     18.530409      108.31227    
   1985000   1.012312       17.392498      108.12527    
   1986000   1.0329909      17.251838      108.03509    
   1987000   1.0241163      17.968256      107.89015    
   1988000   1.0045438      18.118973      107.75741    
   1989000   1.0185756      17.343113      107.52456    
   1990000   1.0584546      17.832682      107.42451    
   1991000   0.99791544     18.134311      107.30422    
   1992000   0.99239673     18.599809      107.12508    
   1993000   0.99654573     17.900896      107.21762    
   1994000   0.98929379     17.564842      107.20115    
   1995000   1.0021222      18.035258      107.15275    
   1996000   0.95765984     17.594551      107.08547    
   1997000   1.0012874      17.984935      106.93969    
   1998000   1.0130262      17.324595      106.77024    
   1999000   0.98736687     17.749925      106.64815    
   2000000   0.97985364     17.953188      106.70808    
   2001000   1.0042407      18.525229      106.78762    
   2002000   0.98626332     17.508016      106.66446    
   2003000   1.0073811      17.928285      106.46056    
   2004000   1.0191858      18.031205      106.47765    
   2005000   1.0637439      18.296766      106.49266    
   2006000   1.0319648      18.702853      106.53152    
   2007000   0.99432076     18.017195      106.29618    
   2008000   0.97188052     17.970688      106.25336    
   2009000   1.0000821      17.987362      106.03303    
   2010000   0.94351361     17.457354      106.01043    
   2011000   1.0091984      18.2213        105.93104    
   2012000   0.96031674     17.671064      105.64692    
   2013000   1.0363865      17.992155      105.43324    
   2014000   0.99318165     17.746695      105.55437    
   2015000   1.0334596      17.594183      105.80493    
   2016000   1.0285761      17.656298      106.01073    
   2017000   0.98819946     17.308075      105.85161    
   2018000   0.98357538     18.093803      106.07421    
   2019000   0.98010703     17.612637      106.18419    
   2020000   1.0316805      17.865938      106.19176    
   2021000   1.0085884      18.393493      106.13217    
   2022000   0.97446851     17.572765      106.21399    
   2023000   1.0220922      17.568777      106.08744    
   2024000   1.0212527      17.740953      105.98813    
   2025000   0.97746178     17.805817      105.8424     
   2026000   0.99498896     17.945533      105.81058    
   2027000   0.97380444     17.927994      105.98927    
   2028000   0.97934452     17.564621      106.07139    
   2029000   1.0043841      17.269663      106.29674    
   2030000   0.99180154     17.666645      106.15262    
   2031000   1.0114367      17.606109      106.08142    
   2032000   0.99234112     18.015914      106.1065     
   2033000   0.99694728     18.024725      105.97115    
   2034000   0.98915166     17.520841      106.00765    
   2035000   1.0131597      18.009674      106.02271    
   2036000   1.0310909      17.378875      106.07546    
   2037000   1.0493865      17.89381       106.04236    
   2038000   1.0197783      18.584382      106.11295    
   2039000   0.99384211     17.910215      106.25325    
   2040000   1.0222739      18.193038      106.09123    
   2041000   0.96959753     17.627032      105.93975    
   2042000   1.0444599      18.075591      105.84472    
   2043000   1.0155414      17.897917      105.63593    
   2044000   0.98773519     17.443829      105.45559    
   2045000   1.0208738      18.066262      105.15662    
   2046000   1.0007113      17.727589      105.11603    
   2047000   0.9975281      17.399069      104.98294    
   2048000   1.0028332      17.954078      104.52583    
   2049000   1.0173076      18.017909      104.38695    
   2050000   0.98499573     17.515221      104.51317    
   2051000   0.97838586     18.072626      104.45684    
   2052000   1.0077104      18.365647      104.31331    
   2053000   1.0708187      18.151648      104.36352    
   2054000   1.0367573      17.606874      104.03847    
   2055000   0.98921975     17.655179      103.97425    
   2056000   1.0091955      17.508611      103.96684    
   2057000   1.0681222      17.726607      104.06618    
   2058000   0.97473695     17.770783      104.04087    
   2059000   1.0084014      17.955269      103.8415     
   2060000   1.018115       17.829096      103.7792     
   2061000   1.0270655      17.97208       103.55959    
   2062000   1.0318734      17.920475      103.61234    
   2063000   1.0141567      18.285729      103.63235    
   2064000   1.0180783      17.359391      103.65671    
   2065000   1.0471772      18.07915       103.33864    
   2066000   1.0181178      17.835695      103.34036    
   2067000   0.99358733     17.869575      103.44037    
   2068000   0.94035243     17.951329      103.41929    
   2069000   0.97998376     18.131308      103.44305    
   2070000   1.0221151      17.894967      103.29833    
   2071000   0.96866077     18.21551       103.27457    
   2072000   1.0232745      17.986867      103.17501    
   2073000   0.98190396     17.849758      103.07957    
   2074000   1.0019946      17.639068      102.93676    
   2075000   0.99083505     17.885363      102.92471    
   2076000   1.0079738      18.041589      102.75362    
   2077000   0.97702342     18.25525       102.66373    
   2078000   0.92660607     17.945111      102.58215    
   2079000   1.0075388      17.745269      102.6159     
   2080000   0.97083292     17.51137       102.45723    
   2081000   1.0032313      17.694218      102.41499    
   2082000   1.0003585      17.531883      102.35       
   2083000   1.0041777      17.72875       102.24713    
   2084000   1.0053308      17.9408        102.20393    
   2085000   1.0154448      17.206804      102.22068    
   2086000   1.0165447      18.365965      102.26766    
   2087000   1.0520836      17.68367       102.14932    
   2088000   1.00173        17.692108      102.11917    
   2089000   1.0041967      17.377187      101.9955     
   2090000   0.99565029     17.720525      101.95696    
   2091000   0.9562258      17.908801      101.65779    
   2092000   0.96110243     17.554894      101.76837    
   2093000   0.95951721     17.459959      101.33769    
   2094000   1.0335451      17.875052      101.24075    
   2095000   1.0226339      17.812742      101.278      
   2096000   1.0161479      17.875126      101.2512     
   2097000   1.0069583      18.207671      101.22061    
   2098000   0.99908602     17.731689      100.93634    
   2099000   1.0069909      17.64883       100.89968    
   2100000   1.0377255      18.559721      100.70414    
   2101000   1.0285494      17.815624      100.78065    
   2102000   0.94804051     17.561196      100.52634    
   2103000   1.001324       18.011788      100.80282    
   2104000   0.97721506     17.372365      100.78598    
   2105000   0.97284768     17.450743      100.62741    
   2106000   0.96353461     17.275925      100.59601    
   2107000   1.0030398      17.624992      100.62341    
   2108000   1.0106513      18.053755      100.35997    
   2109000   0.97644928     18.279163      100.26792    
   2110000   0.98672316     18.068835      100.11939    
   2111000   1.0209242      17.832109      100.21962    
   2112000   0.97290929     18.53598       100.11554    
   2113000   0.97431061     17.528424      100.21622    
   2114000   0.97481167     17.353208      100.19007    
   2115000   0.98220497     17.38327       100.31925    
   2116000   0.97894318     17.777127      100.15066    
   2117000   1.0113938      17.723808      100.11831    
   2118000   1.01703        17.796737      100.14758    
   2119000   0.99434338     18.021877      100.30337    
   2120000   0.97955764     17.43748       100.15017    
   2121000   1.0500569      18.373368      99.900858    
   2122000   0.99480094     18.124394      99.811558    
   2123000   0.99662436     17.744412      99.687963    
   2124000   0.95858915     17.334744      99.73643     
   2125000   1.0354347      17.709455      99.423017    
   2126000   1.0192726      17.694619      99.322237    
   2127000   1.0078562      17.81225       99.332399    
   2128000   0.98731441     17.963301      99.29903     
   2129000   1.0024611      17.911473      99.307875    
   2130000   1.0310237      17.745595      99.341975    
   2131000   0.92721174     17.244656      99.053941    
   2132000   0.97786635     17.408285      98.82005     
   2133000   0.98632071     17.676971      98.513842    
   2134000   0.9736224      17.647459      98.521229    
   2135000   1.0318567      17.984512      98.420835    
   2136000   0.94596284     17.59965       98.463157    
   2137000   1.0400296      17.913302      98.269704    
   2138000   1.0831235      17.410111      98.269552    
   2139000   0.96818781     17.908744      98.186806    
   2140000   1.0190752      17.737206      98.034652    
   2141000   0.97356993     17.920132      98.021475    
   2142000   0.96636341     18.092877      97.814976    
   2143000   0.97621727     17.918149      97.758155    
   2144000   0.97483278     18.03191       97.903293    
   2145000   1.0261235      18.293179      97.779121    
   2146000   1.0276159      17.134635      97.555972    
   2147000   1.0018921      17.366841      97.313944    
   2148000   1.0399134      17.827653      97.076633    
   2149000   0.99471329     17.959083      96.937963    
   2150000   0.97602334     17.839016      96.85203     
   2151000   1.0572111      18.043603      96.702259    
   2152000   0.97919978     17.599716      97.001926    
   2153000   1.0124311      18.390011      97.065182    
   2154000   1.0059543      18.252576      97.274906    
   2155000   1.0040853      18.155436      97.343277    
   2156000   0.99013628     18.158292      97.330666    
   2157000   0.99660165     18.196881      97.308579    
   2158000   1.0063125      17.571898      97.343109    
   2159000   1.0102503      18.248687      97.691368    
   2160000   1.0116807      18.008131      97.747714    
   2161000   1.001263       17.760031      97.68699     
   2162000   1.0384402      17.833433      97.394298    
   2163000   1.0192674      17.355687      97.522504    
   2164000   1.0043002      17.468425      97.406266    
   2165000   1.0359611      17.678262      97.296457    
   2166000   0.98303141     17.710906      97.318603    
   2167000   0.98931656     18.056345      97.236683    
   2168000   1.0043264      18.771778      96.996757    
   2169000   0.99590215     17.22515       96.879387    
   2170000   0.99738526     17.906001      97.031112    
   2171000   1.0244974      17.821873      97.031626    
   2172000   1.0026046      17.452145      97.146564    
   2173000   1.0008818      18.023224      97.160526    
   2174000   1.0013494      17.740185      96.941586    
   2175000   0.99731543     17.789819      96.706183    
   2176000   1.0027061      17.987891      96.684455    
   2177000   1.03269        18.067547      96.604714    
   2178000   1.0251533      17.738272      96.722519    
   2179000   0.99416466     17.772601      96.63045     
   2180000   1.0203291      17.480423      96.549004    
   2181000   0.96733755     17.898053      96.695901    
   2182000   1.0352884      18.063705      96.541727    
   2183000   0.99699872     17.533134      96.558049    
   2184000   0.95599777     17.5064        96.607359    
   2185000   1.018065       17.612654      96.584746    
   2186000   1.004182       17.948549      96.324133    
   2187000   1.0109928      17.744739      96.1423      
   2188000   1.0234811      17.794113      96.14687     
   2189000   0.98547693     17.786577      96.150209    
   2190000   1.0122262      18.011335      96.053365    
   2191000   0.99373411     17.634623      95.991098    
   2192000   0.98289783     17.73018       95.679659    
   2193000   1.026077       17.320014      95.447422    
   2194000   1.0406908      17.856222      95.20179     
   2195000   1.0247011      18.184702      95.058861    
   2196000   1.0075467      17.910081      94.91082     
   2197000   1.0088187      17.633537      94.968969    
   2198000   1.0212768      17.626223      94.673897    
   2199000   0.98037426     18.224008      94.635845    
   2200000   0.98439751     17.959232      94.626508    
   2201000   1.0116577      18.06845       94.780974    
   2202000   0.96710623     18.099577      94.560961    
   2203000   1.0304404      18.100607      94.280969    
   2204000   1.0170138      17.609381      94.374905    
   2205000   0.99957795     17.93979       94.212665    
   2206000   0.96669692     17.738606      94.285457    
   2207000   0.99073574     18.22508       93.982436    
   2208000   1.0302002      17.428746      93.934621    
   2209000   0.98350829     17.74389       93.941039    
   2210000   0.98979874     17.818475      93.89364     
   2211000   1.0706516      17.497533      94.106283    
   2212000   0.98964131     17.997576      94.050882    
   2213000   1.0320728      17.550338      94.043796    
   2214000   0.97903216     18.139391      93.979577    
   2215000   0.99888715     18.091241      93.962804    
   2216000   1.0009808      18.46332       93.996449    
   2217000   0.9698747      17.335813      93.970091    
   2218000   1.0244806      17.920848      93.717688    
   2219000   0.99956739     17.403643      93.709785    
   2220000   0.99699146     17.955036      93.721821    
   2221000   0.98214409     17.676985      93.549937    
   2222000   0.99867205     17.973713      93.414495    
   2223000   1.0045073      17.895807      93.475438    
   2224000   0.95982542     17.270734      93.570568    
   2225000   0.95996113     17.713659      93.613395    
   2226000   1.0268983      17.936825      93.63758     
   2227000   0.98942164     17.914583      93.468899    
   2228000   1.0130675      17.795059      93.331667    
   2229000   1.0291808      17.66698       93.256602    
   2230000   0.98430613     17.987043      92.980783    
   2231000   0.96321781     17.699236      92.750708    
   2232000   1.0388293      17.335934      92.804176    
   2233000   1.0292908      17.845833      92.742668    
   2234000   0.97995189     17.589772      92.577923    
   2235000   0.98545466     17.811957      92.511224    
   2236000   0.99354006     17.730364      92.284268    
   2237000   0.99142285     17.764846      92.177738    
   2238000   1.0431892      17.089915      92.117194    
   2239000   1.0109595      17.945301      92.189661    
   2240000   0.97394365     17.93187       92.052606    
   2241000   1.0172357      18.102861      91.93481     
   2242000   1.0402618      17.823523      92.081317    
   2243000   1.0341165      18.26604       91.791589    
   2244000   1.0171062      18.17426       91.576248    
   2245000   0.96974636     18.306054      91.453262    
   2246000   1.0243799      17.45167       91.396492    
   2247000   1.0179267      17.698884      91.346013    
   2248000   0.97600598     17.23062       91.107445    
   2249000   0.98034779     17.687737      90.97502     
   2250000   1.0392731      17.69515       90.867106    
   2251000   0.98942294     17.588348      90.7305      
   2252000   0.97362273     17.700019      90.645646    
   2253000   1.0045239      17.392286      90.3482      
   2254000   0.98662476     17.359015      90.192515    
   2255000   0.97991707     17.826622      90.221778    
   2256000   1.0361151      18.064496      90.199525    
   2257000   1.009312       17.50036       90.187852    
   2258000   0.98161602     18.253466      90.089938    
   2259000   0.97809181     18.005006      89.824555    
   2260000   0.96132129     17.333614      89.676655    
   2261000   1.015909       18.214113      89.340702    
   2262000   0.98136842     17.470567      89.067371    
   2263000   1.0250252      17.476942      88.732651    
   2264000   1.0151039      18.080016      88.736288    
   2265000   0.94799468     17.194838      88.616844    
   2266000   0.99346801     17.660185      88.604238    
   2267000   0.98258945     17.787192      88.722958    
   2268000   1.0091631      17.266048      88.462304    
   2269000   1.0045266      17.593088      88.493567    
   2270000   0.97550352     17.651492      88.493622    
   2271000   1.0369465      17.697013      88.295862    
   2272000   1.0017801      17.456992      88.280053    
   2273000   1.0113217      17.556831      88.257546    
   2274000   1.0437972      17.808064      88.078019    
   2275000   0.99285239     17.710014      88.007182    
   2276000   0.95831442     17.547178      87.778527    
   2277000   0.96968783     18.023177      87.545912    
   2278000   0.99659019     17.267822      87.351109    
   2279000   0.98081136     17.435838      87.069594    
   2280000   1.0050289      17.974817      87.092895    
   2281000   0.98919651     17.789496      87.109107    
   2282000   0.98745497     18.037598      87.014777    
   2283000   1.0197636      17.601003      86.849138    
   2284000   1.019631       18.422016      86.774989    
   2285000   0.98436826     17.816954      86.718751    
   2286000   0.9822426      17.543483      86.591646    
   2287000   1.0109229      17.546557      86.51779     
   2288000   0.99588912     17.813817      86.462037    
   2289000   1.0167198      17.597924      86.42712     
   2290000   0.98918774     17.613425      86.346485    
   2291000   0.99273539     16.943211      86.164923    
   2292000   0.9855518      17.807484      86.20407     
   2293000   1.009559       17.882731      86.057429    
   2294000   1.0136571      17.461867      86.011209    
   2295000   0.98764922     17.573377      85.83507     
   2296000   1.0001741      18.264767      85.97287     
   2297000   0.98020498     17.486746      85.942125    
   2298000   1.0020706      17.583963      85.889737    
   2299000   0.98819908     17.961349      85.644832    
   2300000   1.0179269      18.401281      85.40311     
   2301000   1.0030536      18.043998      85.324504    
   2302000   0.95987346     17.463242      85.167038    
   2303000   1.0082295      17.669232      85.1681      
   2304000   0.98739873     17.633898      85.233788    
   2305000   0.98896643     18.096152      85.122802    
   2306000   0.94988423     18.15412       84.856045    
   2307000   0.95483051     17.72503       84.840661    
   2308000   0.98341106     17.968722      84.787558    
   2309000   0.98542772     17.678523      84.607858    
   2310000   0.99972553     18.182162      84.757843    
   2311000   0.99555873     17.97029       84.504136    
   2312000   1.0360581      17.714126      84.388045    
   2313000   0.97345822     17.484804      84.30108     
   2314000   1.0364585      17.875083      84.139568    
   2315000   0.97236644     17.563486      84.069906    
   2316000   0.93355464     17.532454      84.122079    
   2317000   0.97367241     17.242864      84.35422     
   2318000   1.0028853      17.635771      84.203556    
   2319000   1.0144993      18.051674      84.275715    
   2320000   0.99112672     17.638554      84.283436    
   2321000   1.0082017      18.009704      84.172116    
   2322000   0.98959334     17.796982      84.182996    
   2323000   0.97857625     17.249107      84.198869    
   2324000   0.98931144     18.186615      84.068482    
   2325000   1.008697       17.659262      84.07069     
   2326000   1.0315273      17.672492      84.163404    
   2327000   0.98887872     18.037229      84.02744     
   2328000   1.0190469      18.500434      84.074203    
   2329000   1.0480385      16.954805      84.298689    
   2330000   0.99087261     17.585975      84.088025    
   2331000   1.024379       17.201683      84.150372    
   2332000   0.99812951     17.1598        84.12821     
   2333000   0.99329432     17.700653      84.243211    
   2334000   0.9647173      17.341141      84.23933     
   2335000   0.97342096     17.326251      84.075814    
   2336000   0.98039026     17.807034      84.14946     
   2337000   1.0138909      18.035305      84.04715     
   2338000   1.0171019      18.000365      84.106061    
   2339000   0.98126951     17.373944      84.12724     
   2340000   0.98541671     17.97513       84.176174    
   2341000   0.99927699     17.544512      84.154684    
   2342000   1.0237017      17.980215      84.002022    
   2343000   1.0091717      17.401733      83.909979    
   2344000   0.94030539     17.410729      83.682168    
   2345000   0.98266592     17.695179      83.515464    
   2346000   0.99272032     17.256771      83.548712    
   2347000   1.035832       17.830735      83.55494     
   2348000   1.0542723      17.418454      83.4939      
   2349000   0.99306907     16.561811      83.427789    
   2350000   0.98236808     17.835842      83.134082    
   2351000   0.99927741     17.56314       83.071922    
   2352000   0.97865381     18.05658       82.69142     
   2353000   0.99662453     17.196637      82.625184    
   2354000   0.95972925     17.846155      82.496793    
   2355000   0.9828046      17.518534      82.506687    
   2356000   1.0166341      17.665604      82.55373     
   2357000   0.96533138     17.731914      82.591902    
   2358000   0.95980069     17.767239      82.627441    
   2359000   0.95953091     17.431625      82.745682    
   2360000   1.0214319      17.38811       82.869331    
   2361000   1.0350396      17.778084      82.938003    
   2362000   1.0232726      17.946534      82.988842    
   2363000   1.0228834      18.046678      82.993813    
   2364000   1.0168469      17.440409      82.925982    
   2365000   0.9918317      17.704623      83.055874    
   2366000   0.9638919      18.044547      82.799681    
   2367000   1.0067202      17.558655      82.600714    
   2368000   1.0342012      17.809294      82.56739     
   2369000   1.0625466      17.748981      82.34003     
   2370000   1.0450353      17.703872      82.428715    
   2371000   0.97358549     17.61282       82.371787    
   2372000   0.99265659     17.579426      82.441927    
   2373000   0.99600347     17.981538      82.264521    
   2374000   1.0426614      17.55166       82.305829    
   2375000   1.0448899      17.833524      82.393352    
   2376000   1.047422       18.058954      82.445732    
   2377000   0.96497809     17.404762      82.498174    
   2378000   1.0011619      17.843403      82.36984     
   2379000   0.97179273     17.209123      82.007417    
   2380000   1.0077384      17.492162      81.966417    
   2381000   1.0421031      17.515438      81.916408    
   2382000   0.96625624     17.941203      81.893184    
   2383000   0.96921168     17.077654      82.015841    
   2384000   0.97819533     17.775084      82.075997    
   2385000   0.96280447     16.852981      82.11998     
   2386000   0.99669799     17.824766      81.972793    
   2387000   1.0371922      17.375138      82.032961    
   2388000   1.0345138      17.56904       82.118563    
   2389000   0.99864447     17.866173      82.056533    
   2390000   1.0303902      17.697706      81.855253    
   2391000   0.9875355      17.64331       81.836471    
   2392000   0.99213269     17.769893      81.55369     
   2393000   1.0405197      18.081166      81.559427    
   2394000   1.0300025      17.405563      81.585184    
   2395000   0.96189751     17.460576      81.650398    
   2396000   1.0575604      18.012619      81.685377    
   2397000   0.98896796     17.51684       81.707121    
   2398000   0.97154664     18.274023      81.776806    
   2399000   1.0403492      17.357825      81.768819    
   2400000   1.0253054      17.941265      81.533081    
   2401000   0.99310773     18.047498      81.672125    
   2402000   0.99699913     18.246769      82.013598    
   2403000   1.0793969      18.256194      81.705401    
   2404000   0.9583124      17.766476      81.699171    
   2405000   1.0011722      17.877322      81.498408    
   2406000   1.0368422      17.568292      81.31789     
   2407000   1.0081184      18.171422      81.259513    
   2408000   0.97383264     17.438538      80.884525    
   2409000   1.0618863      18.043245      80.86435     
   2410000   0.97832856     17.839906      80.745313    
   2411000   1.0362265      17.701454      80.567794    
   2412000   1.013174       17.612113      80.370408    
   2413000   0.97883639     17.79242       80.159694    
   2414000   0.95709994     17.508182      79.953356    
   2415000   0.99683873     17.395875      79.814332    
   2416000   0.99745776     18.20311       79.664395    
   2417000   0.95696622     17.342331      79.313704    
   2418000   0.97403134     17.132966      79.214245    
   2419000   0.97071917     17.286541      78.943054    
   2420000   0.97475583     17.08364       78.735397    
   2421000   0.9886731      17.098152      78.646128    
   2422000   1.0268233      18.061718      78.769948    
   2423000   1.0354261      17.747857      78.735582    
   2424000   0.99340096     17.410307      78.628234    
   2425000   1.0295708      17.722468      78.65393     
   2426000   0.98758293     17.767389      78.575884    
   2427000   0.98159617     16.752165      78.582665    
   2428000   0.96212292     17.346068      78.517867    
   2429000   0.993572       17.368255      78.284886    
   2430000   1.0096658      18.009609      77.918005    
   2431000   0.98695238     17.333765      78.085996    
   2432000   0.99701693     17.868795      77.881664    
   2433000   0.96162003     17.524969      77.971947    
   2434000   0.97552451     17.311027      77.933066    
   2435000   0.99546331     17.755553      77.730649    
   2436000   1.0299766      17.77373       77.557931    
   2437000   0.98251789     17.522235      77.416319    
   2438000   0.97322297     17.50837       77.685105    
   2439000   0.97252931     17.342913      77.618575    
   2440000   1.0107333      17.418459      77.725131    
   2441000   1.0293481      17.502157      77.71727     
   2442000   1.035667       17.896737      77.73035     
   2443000   1.0234317      17.416108      77.491776    
   2444000   1.0049313      17.23382       77.495203    
   2445000   0.9860893      17.6671        77.366156    
   2446000   1.0094668      17.591514      77.235439    
   2447000   1.0212316      17.882113      77.140753    
   2448000   0.9587964      17.969095      77.147952    
   2449000   0.99395849     17.580274      77.198155    
   2450000   1.0434459      17.708211      77.013023    
   2451000   0.97156414     17.17314       76.991543    
   2452000   0.99020811     17.631586      76.960928    
   2453000   0.9736966      17.401891      76.951611    
   2454000   0.99372442     17.640947      76.809719    
   2455000   1.004016       17.928872      76.657026    
   2456000   0.99945829     17.547329      76.736198    
   2457000   0.99268212     17.558609      76.510112    
   2458000   0.99714906     17.509597      76.33375     
   2459000   0.99361562     17.572015      76.091215    
   2460000   0.97687289     17.816068      76.001658    
   2461000   0.99475196     17.671673      75.806499    
   2462000   1.0135111      17.712472      75.706857    
   2463000   1.0242713      17.72736       75.474824    
   2464000   1.0527702      17.532565      75.469283    
   2465000   1.0129413      17.805461      75.225608    
   2466000   0.97078128     17.637732      75.03072     
   2467000   0.95910454     17.413814      75.060745    
   2468000   1.0198503      17.65764       74.971655    
   2469000   0.99268354     17.92721       74.909909    
   2470000   1.0185223      17.575585      74.745344    
   2471000   1.0129643      17.851329      74.686831    
   2472000   1.0287206      17.584926      74.775657    
   2473000   1.0347357      16.885997      74.727291    
   2474000   1.0415854      18.376531      74.754951    
   2475000   1.0110899      17.717159      74.696225    
   2476000   1.052765       16.950606      74.40757     
   2477000   1.0079325      17.480203      74.201853    
   2478000   1.007951       17.589134      73.942914    
   2479000   1.0036468      17.687424      73.932147    
   2480000   0.99883353     17.047833      73.88432     
   2481000   1.002775       16.568744      73.762702    
   2482000   1.0279492      17.56107       73.754988    
   2483000   1.0054533      17.434458      73.690074    
   2484000   1.0350416      17.668124      73.673224    
   2485000   1.0326581      17.505547      73.45153     
   2486000   1.0751425      17.292727      73.461973    
   2487000   0.99667806     17.726702      73.539932    
   2488000   1.0287812      17.317245      73.384889    
   2489000   1.0589983      17.336165      73.275543    
   2490000   0.97376855     18.19407       73.137688    
   2491000   0.97634135     17.411342      73.024632    
   2492000   0.93198676     17.365046      72.938521    
   2493000   1.0398158      17.801157      72.714198    
   2494000   0.99532449     17.626288      72.53928     
   2495000   1.0029669      17.314609      72.406272    
   2496000   1.0014987      17.55537       72.285793    
   2497000   1.0036483      17.827456      72.30122     
   2498000   1.011423       17.463582      72.239513    
   2499000   0.97375277     17.518095      72.238421    
   2500000   0.99882427     18.121024      72.1512      
   2501000   1.0095402      16.86696       72.208896    
   2502000   1.039083       17.338308      72.065048    
   2503000   0.96169807     17.527933      71.965988    
   2504000   0.99409063     17.505616      71.812672    
   2505000   1.0156251      17.90323       71.749865    
   2506000   0.96788038     17.642793      71.683302    
   2507000   0.97938095     17.819303      71.64806     
   2508000   1.0010061      17.348001      71.543557    
   2509000   1.0054495      17.104009      71.526232    
   2510000   0.9835281      17.682605      71.568633    
   2511000   1.0043465      17.207687      71.290611    
   2512000   0.97403096     17.576461      71.385861    
   2513000   1.0247346      17.333014      71.394687    
   2514000   0.99789929     17.31819       71.372738    
   2515000   1.018289       17.851486      71.257197    
   2516000   0.95754994     17.537166      71.335904    
   2517000   1.0088822      17.931839      71.431315    
   2518000   1.0334735      17.330671      71.113001    
   2519000   0.97654558     17.006694      71.00626     
   2520000   1.0262264      17.20069       70.94162     
   2521000   1.0094153      17.886125      70.772736    
   2522000   0.9977827      17.622998      70.841153    
   2523000   0.97883533     17.145082      70.707841    
   2524000   0.98035256     17.704345      70.731686    
   2525000   0.99720524     17.128378      70.754267    
   2526000   1.0453177      17.823165      70.623237    
   2527000   1.0093399      17.286595      70.622857    
   2528000   1.0216936      17.054243      70.621159    
   2529000   0.99664914     17.572178      70.424582    
   2530000   1.0109365      18.230227      70.471867    
   2531000   1.0073547      17.937191      70.333041    
   2532000   0.97130476     17.026764      70.319144    
   2533000   0.99608084     17.292131      70.340129    
   2534000   0.98993986     17.660355      70.10394     
   2535000   1.0460215      17.913222      70.007747    
   2536000   0.98585016     17.41646       70.035442    
   2537000   1.0241599      18.346581      70.171784    
   2538000   0.99651263     18.203427      70.102581    
   2539000   0.99398818     17.424335      69.934476    
   2540000   0.982986       17.229197      69.70772     
   2541000   0.99566088     17.833236      69.619268    
   2542000   1.0016362      17.561941      69.6724      
   2543000   1.036619       17.708447      69.540296    
   2544000   0.97028017     17.507747      69.17493     
   2545000   0.99130395     17.56544       69.10143     
   2546000   1.0116138      18.153122      69.148417    
   2547000   0.98614997     16.67534       68.820407    
   2548000   0.93930552     18.057477      68.528217    
   2549000   0.98085289     17.350147      68.507591    
   2550000   1.003385       17.787096      68.586403    
   2551000   0.99480485     17.329546      68.534569    
   2552000   1.0043154      17.568271      68.452612    
   2553000   1.0135872      17.6156        68.371552    
   2554000   0.9989876      17.485725      68.072427    
   2555000   1.0281877      17.804894      68.158539    
   2556000   0.98382617     17.412177      67.994715    
   2557000   1.0301787      17.283282      67.809311    
   2558000   0.9853732      17.641646      67.825248    
   2559000   1.0134747      17.905392      67.510413    
   2560000   0.98187296     17.578346      67.372257    
   2561000   0.97154013     17.609105      67.255102    
   2562000   1.0293421      17.439987      66.82351     
   2563000   1.0056231      17.784389      66.598291    
   2564000   0.99080177     17.81658       66.373848    
   2565000   1.0230068      17.630369      66.344299    
   2566000   0.95167745     17.597212      66.34951     
   2567000   1.0241799      17.342659      66.031929    
   2568000   1.0267327      17.412001      65.831115    
   2569000   1.0050951      17.08046       65.74461     
   2570000   0.98057339     17.214702      65.579255    
   2571000   1.036659       17.503668      65.644429    
   2572000   0.99831042     17.644758      65.511694    
   2573000   0.99276108     17.982041      65.371246    
   2574000   0.98411454     17.187661      65.355453    
   2575000   0.98229869     17.744582      65.138736    
   2576000   0.98623479     17.445826      64.910265    
   2577000   0.98535801     17.524996      64.797923    
   2578000   1.0156141      17.634334      64.972511    
   2579000   1.014755       17.937499      65.034452    
   2580000   1.0080274      17.557116      65.058848    
   2581000   1.0116673      17.404089      64.892296    
   2582000   1.0087168      17.839969      64.86375     
   2583000   1.0476953      17.568835      64.951029    
   2584000   0.99951641     17.447924      64.981746    
   2585000   1.0109272      17.741072      64.856306    
   2586000   1.0365235      17.612291      64.720326    
   2587000   1.0294934      17.518363      64.722488    
   2588000   1.0158443      17.749082      64.57025     
   2589000   0.98420195     17.788033      64.526174    
   2590000   0.98845492     17.70435       64.449203    
   2591000   1.007017       17.806726      64.288642    
   2592000   0.95291756     17.566056      64.266938    
   2593000   1.0161563      17.145673      64.222535    
   2594000   0.98074637     17.242164      64.3401      
   2595000   1.0016574      17.07395       64.298867    
   2596000   1.0010909      17.445679      64.258466    
   2597000   0.98071064     16.766353      63.874463    
   2598000   1.0080155      17.582083      63.86147     
   2599000   1.0287524      17.92635       63.664143    
   2600000   1.0190527      17.084606      63.50441     
   2601000   0.94560695     17.361952      63.425066    
   2602000   0.99765911     17.248381      63.408713    
   2603000   0.97981036     17.094086      63.407156    
   2604000   1.0284425      17.474599      63.187301    
   2605000   0.98284434     17.762586      63.303795    
   2606000   0.98588635     17.370629      63.240511    
   2607000   1.004434       17.908776      63.08317     
   2608000   0.98476665     16.739671      62.883122    
   2609000   0.99795962     16.830954      62.859635    
   2610000   0.98781527     17.606197      62.840594    
   2611000   0.97526902     17.607161      62.849905    
   2612000   1.0100256      17.68993       62.871068    
   2613000   1.0019842      17.321406      62.875292    
   2614000   0.97958642     17.818467      63.098121    
   2615000   0.96466578     17.560287      62.975632    
   2616000   0.99558371     16.99478       63.009416    
   2617000   0.99435944     17.398075      63.029439    
   2618000   0.99544845     17.591334      63.029016    
   2619000   0.99132078     17.436778      63.08063     
   2620000   0.9827844      17.405401      63.124073    
   2621000   1.0022815      17.283891      63.179942    
   2622000   1.0225409      17.486117      63.164234    
   2623000   1.0140653      17.218728      63.164944    
   2624000   0.97335576     17.372787      63.09943     
   2625000   1.0001361      17.663547      63.126387    
   2626000   0.97345317     17.513103      63.118209    
   2627000   0.97399585     17.357369      63.323547    
   2628000   1.0421356      17.13691       63.280228    
   2629000   1.0190967      17.434116      63.286698    
   2630000   1.0260341      17.246032      63.275898    
   2631000   1.0223001      17.380058      63.443636    
   2632000   1.0122856      17.177915      63.470919    
   2633000   1.0347073      17.286221      63.604595    
   2634000   1.0352018      16.882514      63.532759    
   2635000   0.99155796     17.640043      63.621876    
   2636000   1.0165835      16.914046      63.428932    
   2637000   0.99984294     17.525332      63.453196    
   2638000   1.0010506      17.408982      63.427076    
   2639000   1.0181095      16.993951      63.555233    
   2640000   1.0337791      17.501161      63.51574     
   2641000   1.0107273      17.361267      63.355104    
   2642000   0.97993063     17.202853      63.07292     
   2643000   0.94939547     16.933908      62.888636    
   2644000   1.0050625      17.468152      62.843724    
   2645000   0.96551851     17.80976       62.471166    
   2646000   1.0027926      17.518612      62.434782    
   2647000   1.0513958      17.362458      62.372202    
   2648000   0.99316735     17.476168      62.370038    
   2649000   1.0480457      17.743795      62.067028    
   2650000   1.0138449      17.516085      61.755331    
   2651000   0.97979377     17.829958      61.604072    
   2652000   1.0294937      17.174578      61.628184    
   2653000   1.0339847      18.188086      61.44289     
   2654000   0.99599384     17.562932      61.37257     
   2655000   1.0340281      17.414461      61.113302    
   2656000   1.0038329      17.455806      61.18955     
   2657000   0.9790146      17.824087      61.253769    
   2658000   1.0343985      17.849749      60.952706    
   2659000   0.96695397     17.755645      60.688011    
   2660000   0.99334068     17.616987      60.598533    
   2661000   1.0243491      17.536819      60.533372    
   2662000   1.0362084      18.254285      60.457797    
   2663000   0.99531084     18.075996      60.303832    
   2664000   0.95356676     17.262125      60.23722     
   2665000   0.94997035     17.917964      60.32637     
   2666000   1.0222354      17.616598      60.367356    
   2667000   0.99081922     17.349976      60.330917    
   2668000   0.98879971     17.657085      60.105085    
   2669000   0.97094709     16.71908       60.115693    
   2670000   1.0304763      17.756804      59.890104    
   2671000   0.98572552     17.031714      59.66533     
   2672000   0.95876728     17.592138      59.522955    
   2673000   1.013634       17.338215      59.571783    
   2674000   0.99176498     17.153902      59.653275    
   2675000   1.0237581      17.220966      59.672425    
   2676000   0.97619392     17.264536      59.770612    
   2677000   1.0842458      17.865653      59.744935    
   2678000   1.0132555      17.416666      59.975531    
   2679000   0.96289301     17.759108      59.743971    
   2680000   1.0213941      17.282299      59.447221    
   2681000   1.0106357      17.313029      59.191679    
   2682000   0.9856766      17.330944      59.19028     
   2683000   0.98664895     17.251729      59.175302    
   2684000   1.0155553      17.775132      59.144415    
   2685000   0.99688528     17.318203      58.888157    
   2686000   0.9910016      17.114402      58.689613    
   2687000   1.002885       17.097367      58.683349    
   2688000   1.0249634      17.980496      58.680013    
   2689000   0.97782571     17.4178        58.474107    
   2690000   1.0588723      17.833148      58.4232      
   2691000   0.97727872     17.747702      58.555216    
   2692000   1.0168433      17.649626      58.304353    
   2693000   1.0595754      17.685527      58.177114    
   2694000   0.9666863      17.051092      58.259006    
   2695000   1.0489005      17.428085      58.166618    
   2696000   0.98958278     17.939118      58.022668    
   2697000   1.0356965      17.309145      57.94817     
   2698000   1.0173247      17.118836      57.815959    
   2699000   0.96719458     17.178316      57.778882    
   2700000   1.0414559      17.612582      57.775577    
   2701000   1.0210272      17.834893      57.651253    
   2702000   1.0048467      17.689539      57.584009    
   2703000   0.97557452     17.436097      57.495015    
   2704000   1.051017       17.515203      57.361515    
   2705000   1.0306276      17.34862       57.35478     
   2706000   0.99295757     16.938914      57.370915    
   2707000   1.0077573      17.740103      57.394433    
   2708000   1.0114049      17.747979      57.25041     
   2709000   0.98134623     16.657581      57.252983    
   2710000   1.0251832      17.441941      57.065935    
   2711000   1.0111288      17.683732      56.959855    
   2712000   1.0064687      17.806826      56.893648    
   2713000   1.0050109      17.440664      56.93957     
   2714000   1.0169913      17.206208      56.79329     
   2715000   1.0102962      18.019663      56.769019    
   2716000   1.0041089      16.739597      56.793857    
   2717000   1.0027746      16.883286      56.946218    
   2718000   0.95983512     16.868824      57.032034    
   2719000   0.98050615     17.222         56.773996    
   2720000   1.0065051      17.949143      56.567762    
   2721000   1.0331595      17.593659      56.295471    
   2722000   0.98662964     17.671725      56.257201    
   2723000   1.024399       17.562582      56.200076    
   2724000   0.98331585     17.247673      56.211945    
   2725000   0.98094969     17.434278      56.060336    
   2726000   1.0122851      17.095804      55.994779    
   2727000   1.0129648      17.526501      56.012647    
   2728000   1.0465175      17.378411      55.853479    
   2729000   1.0009171      16.683698      55.934232    
   2730000   0.97763907     17.231003      55.926226    
   2731000   1.0330069      17.424199      55.837628    
   2732000   0.98980174     17.468673      55.82525     
   2733000   0.99851793     17.092668      55.804329    
   2734000   1.0221955      17.549076      56.011928    
   2735000   1.0043046      17.923724      56.013757    
   2736000   1.0085271      17.535619      55.96047     
   2737000   0.97372806     17.425964      55.755816    
   2738000   1.0442555      17.361733      55.688355    
   2739000   1.0256453      17.039779      55.560081    
   2740000   0.97653125     17.370179      55.670812    
   2741000   0.95856095     17.507945      55.556235    
   2742000   1.004574       16.955083      55.549685    
   2743000   1.0272318      17.282434      55.438444    
   2744000   0.9695166      17.107934      55.346381    
   2745000   1.0039681      17.517188      55.311566    
   2746000   0.96760893     17.376081      55.181059    
   2747000   1.0107121      17.332322      55.137125    
   2748000   0.95398494     17.267265      55.032914    
   2749000   1.0228882      17.608131      55.035307    
   2750000   1.0127958      17.385568      54.899918    
   2751000   0.96163468     17.536887      54.77744     
   2752000   0.94440531     17.498525      54.77142     
   2753000   0.97820678     17.371386      54.720968    
   2754000   1.0156104      17.304783      54.935072    
   2755000   1.0417937      18.272156      54.829178    
   2756000   0.97396628     17.389737      54.734629    
   2757000   1.0156612      17.188643      54.409676    
   2758000   0.98541366     17.43904       54.269066    
   2759000   0.98665271     17.440028      54.439873    
   2760000   1.0047554      17.464759      54.542519    
   2761000   1.0134929      17.61789       54.570541    
   2762000   0.98585404     17.354147      54.352633    
   2763000   1.0071692      17.749871      54.20572     
   2764000   0.97991735     17.074504      53.924006    
   2765000   0.96873789     17.250478      53.846078    
   2766000   0.98461588     17.1545        53.884924    
   2767000   0.98260304     17.395859      53.910703    
   2768000   1.0162855      17.181017      53.884466    
   2769000   0.97733984     17.448542      53.926611    
   2770000   0.96718738     17.081551      53.798065    
   2771000   0.99832647     17.192937      53.692326    
   2772000   1.0266603      16.979126      53.743853    
   2773000   1.0041505      17.542431      53.779042    
   2774000   0.99294012     17.374473      53.632355    
   2775000   0.95866528     17.543953      53.622195    
   2776000   0.99976439     16.998133      53.405166    
   2777000   1.0291957      17.731887      53.373566    
   2778000   1.0038872      17.859164      53.199004    
   2779000   0.99578158     17.160442      53.213731    
   2780000   1.0070468      17.695267      53.302517    
   2781000   0.98887173     17.768786      53.252597    
   2782000   1.0067723      17.407596      53.121297    
   2783000   0.97492356     17.189138      53.013927    
   2784000   0.96793272     17.280267      52.94087     
   2785000   1.0080868      17.624616      52.711157    
   2786000   1.0710431      17.612237      52.738687    
   2787000   1.000715       17.339374      52.755212    
   2788000   0.96460466     17.642447      52.798783    
   2789000   1.0088717      17.478074      52.708003    
   2790000   0.9956418      17.07023       52.617698    
   2791000   1.0077797      17.427455      52.549124    
   2792000   1.0099929      17.470313      52.406384    
   2793000   0.98858416     17.356537      52.244517    
   2794000   1.0159976      16.817875      52.159355    
   2795000   0.98814203     17.698109      52.121365    
   2796000   0.99018953     17.499738      52.24997     
   2797000   0.98661278     17.212357      52.190766    
   2798000   1.0593788      17.750797      52.135988    
   2799000   1.0036323      17.490592      52.250016    
   2800000   1.0052409      17.50041       51.978582    
   2801000   0.97330475     17.368672      51.652913    
   2802000   1.0100901      17.585201      51.714599    
   2803000   0.95352418     17.404869      51.683599    
   2804000   1.0302354      17.214092      51.675222    
   2805000   1.0213085      17.575506      51.623221    
   2806000   1.025255       17.235612      51.372128    
   2807000   0.99534863     17.742159      51.379875    
   2808000   1.0424972      17.582413      51.394138    
   2809000   1.0359477      17.670233      51.511178    
   2810000   1.0147614      17.309509      51.455893    
   2811000   1.0055233      17.421392      51.621843    
   2812000   0.98428352     17.473715      51.565912    
   2813000   1.0283169      17.335573      51.540697    
   2814000   0.994619       17.425747      51.467485    
   2815000   1.0077143      17.254962      51.661748    
   2816000   1.0223748      17.650415      51.236281    
   2817000   0.98995081     17.13          51.10146     
   2818000   0.99190976     17.012093      50.94545     
   2819000   1.02151        16.920786      50.886027    
   2820000   0.98106012     17.094915      50.813461    
   2821000   0.98629356     17.152093      50.825173    
   2822000   1.0167968      17.128224      50.808221    
   2823000   1.0051859      17.304937      50.936736    
   2824000   1.032589       17.653405      50.823718    
   2825000   1.0433659      17.902915      50.952455    
   2826000   0.99351148     17.412679      51.025842    
   2827000   0.99695761     17.417355      50.932239    
   2828000   0.9610364      17.38386       50.891127    
   2829000   0.99038851     17.093325      50.936609    
   2830000   1.0090971      16.934019      51.092857    
   2831000   0.99508391     17.765469      51.0585      
   2832000   1.0190413      16.881438      50.690987    
   2833000   0.98623331     17.57241       50.662158    
   2834000   1.0108933      17.669339      50.634015    
   2835000   0.99507831     17.068921      50.936341    
   2836000   0.96620415     17.185083      50.973296    
   2837000   1.0468708      17.311123      51.040795    
   2838000   0.99091378     17.073943      51.145324    
   2839000   0.96355768     17.334095      51.062967    
   2840000   0.95895494     17.009207      51.04646     
   2841000   1.0243156      17.213054      51.123823    
   2842000   0.97958358     16.797369      51.046434    
   2843000   1.0429578      17.179228      50.86154     
   2844000   0.98525906     17.454137      50.584495    
   2845000   1.045771       17.100075      50.627437    
   2846000   1.0071169      17.345767      50.575891    
   2847000   1.0309758      17.587335      50.323802    
   2848000   0.95729782     17.316796      50.344112    
   2849000   0.98957147     17.145325      50.454425    
   2850000   0.96588068     17.305879      50.200012    
   2851000   0.99377684     17.413536      49.938707    
   2852000   0.98554827     17.086955      49.941554    
   2853000   0.93821371     16.867989      50.010373    
   2854000   0.9361989      17.669156      49.896751    
   2855000   0.99026446     17.315649      49.77492     
   2856000   0.98611386     16.796125      49.524044    
   2857000   0.9874041      16.965071      49.41003     
   2858000   0.99652253     17.572536      49.421148    
   2859000   1.0103531      17.347907      49.331584    
   2860000   0.96928692     17.111246      49.363559    
   2861000   0.98548223     17.146313      49.133724    
   2862000   0.99543477     17.178398      49.033791    
   2863000   1.0164681      17.576376      48.855307    
   2864000   1.0175047      17.092111      49.05252     
   2865000   1.0285468      17.453492      48.946126    
   2866000   0.95696577     17.494055      49.005108    
   2867000   0.98723462     17.031401      48.969129    
   2868000   1.0123684      17.27177       49.171381    
   2869000   0.99216016     17.75695       49.023169    
   2870000   1.0114657      17.637408      48.599642    
   2871000   1.033175       17.196178      48.315522    
   2872000   1.0085372      17.104125      48.248898    
   2873000   1.0267438      17.453754      48.143973    
   2874000   1.0158869      17.412173      48.095605    
   2875000   0.9697419      17.06614       48.002257    
   2876000   0.9765198      16.903528      48.045876    
   2877000   0.99032606     16.661488      48.275797    
   2878000   1.009743       17.402823      48.167036    
   2879000   0.96539239     18.077962      48.019021    
   2880000   1.0280019      16.826861      47.880203    
   2881000   0.97876868     17.556806      47.583644    
   2882000   1.000322       17.503087      47.52009     
   2883000   1.0044854      16.710772      47.537905    
   2884000   1.0012033      17.458039      47.55069     
   2885000   0.9790858      17.237584      47.568533    
   2886000   0.99638617     17.758527      47.547984    
   2887000   0.97617107     17.45651       47.436938    
   2888000   0.98873802     16.700182      47.165444    
   2889000   0.97587807     17.648494      47.204457    
   2890000   1.0211252      17.521592      47.002417    
   2891000   0.9998934      16.925794      47.086537    
   2892000   0.97030552     17.051343      47.092908    
   2893000   0.94672765     17.662557      47.059929    
   2894000   0.99916887     16.653031      47.088251    
   2895000   0.99001664     16.621625      47.110712    
   2896000   1.0121507      17.537082      47.102109    
   2897000   0.96798162     18.028561      46.940429    
   2898000   1.0111149      17.691407      46.800008    
   2899000   1.021922       17.535714      47.107076    
   2900000   1.0151797      17.725831      47.157854    
   2901000   1.004687       17.064665      46.951404    
   2902000   0.98671786     17.134956      46.933323    
   2903000   0.99317191     17.01702       46.995159    
   2904000   1.0278801      17.245936      46.934421    
   2905000   0.99372534     17.08824       46.719335    
   2906000   0.9910446      17.298851      46.566859    
   2907000   0.99753767     17.312208      46.288152    
   2908000   1.0320607      17.456558      46.002489    
   2909000   1.0551889      17.390096      45.889398    
   2910000   1.0042209      16.393136      46.073143    
   2911000   1.0007297      17.489587      46.105197    
   2912000   1.0257971      17.428909      45.895018    
   2913000   1.0222997      17.808119      45.736899    
   2914000   1.0285067      17.355308      45.648747    
   2915000   0.96808305     17.468939      45.51988     
   2916000   0.99896467     17.291749      45.45053     
   2917000   1.0400106      16.948963      45.367102    
   2918000   1.002084       17.404461      45.495577    
   2919000   0.99063444     17.220829      45.532798    
   2920000   0.99232207     17.448624      45.638063    
   2921000   1.000512       17.058528      45.710734    
   2922000   1.0619482      17.736314      45.888673    
   2923000   0.99994321     17.70478       45.563212    
   2924000   0.99347627     17.556925      45.601007    
   2925000   0.9855039      17.163952      45.622125    
   2926000   1.0204754      16.734163      45.435483    
   2927000   0.98637629     17.37119       45.504195    
   2928000   1.0227917      17.323971      45.404213    
   2929000   0.99884852     17.631259      45.485986    
   2930000   1.0206009      17.240988      45.455212    
   2931000   0.96947532     16.888669      45.391304    
   2932000   1.0095824      17.248951      45.327149    
   2933000   0.98634693     17.047617      45.382714    
   2934000   0.9883705      17.599711      45.443363    
   2935000   0.96864356     17.147243      45.20656     
   2936000   1.0274772      17.591917      45.300905    
   2937000   1.0005106      17.21657       45.273717    
   2938000   1.0216699      17.429398      45.191212    
   2939000   0.96496317     17.476379      45.41764     
   2940000   1.0402052      17.948845      45.300643    
   2941000   1.0202457      17.631181      45.082753    
   2942000   1.0271212      17.853696      45.010532    
   2943000   0.99228568     18.228903      44.843574    
   2944000   1.0384728      17.174556      44.644406    
   2945000   1.0041447      17.21484       44.442008    
   2946000   1.0342755      17.324149      44.563741    
   2947000   0.99977701     17.176431      44.441286    
   2948000   1.0271059      17.375184      44.478156    
   2949000   0.96471599     17.578713      44.430397    
   2950000   1.0091897      17.84982       44.360032    
   2951000   0.98487703     17.564681      44.234801    
   2952000   1.0056933      17.640417      44.240405    
   2953000   1.0051223      17.483602      44.19056     
   2954000   1.0005772      17.633052      44.144626    
   2955000   0.98343829     17.356933      43.974546    
   2956000   0.99211749     17.356999      43.922468    
   2957000   1.031625       17.415559      43.876403    
   2958000   1.0082721      17.523436      43.701927    
   2959000   0.98606737     17.514867      43.887849    
   2960000   0.96551098     17.647193      43.791604    
   2961000   1.0242384      17.129599      43.71519     
   2962000   0.96879916     16.907075      43.72028     
   2963000   0.98836282     17.475935      43.615048    
   2964000   0.96202886     16.991395      43.352026    
   2965000   1.0269521      17.218064      43.137443    
   2966000   0.96394672     17.026603      43.273352    
   2967000   0.99877982     16.9374        43.22767     
   2968000   1.0238331      17.490438      43.152207    
   2969000   0.980225       17.088624      43.182418    
   2970000   1.0144021      17.607355      43.119493    
   2971000   0.98930235     16.877251      42.980978    
   2972000   1.0263037      17.329011      42.921416    
   2973000   0.97865512     16.9864        43.001545    
   2974000   1.0086732      16.936433      42.635132    
   2975000   0.94564842     17.338592      42.726268    
   2976000   0.98802643     17.383909      42.692349    
   2977000   0.98354791     17.195917      42.696752    
   2978000   0.98405334     17.411039      42.744133    
   2979000   1.0380296      17.178548      42.663247    
   2980000   1.0072521      17.253815      42.437664    
   2981000   0.95687722     17.471522      42.404411    
   2982000   1.0010046      17.455945      42.493074    
   2983000   1.0213727      17.601151      42.401293    
   2984000   0.99778812     17.404496      42.475725    
   2985000   1.041926       17.109442      42.101485    
   2986000   0.99884186     17.955467      41.893394    
   2987000   1.0039247      17.828419      41.410251    
   2988000   0.96990311     17.31288       41.502825    
   2989000   1.0435529      17.461895      41.236534    
   2990000   1.0020251      17.097777      41.17049     
   2991000   1.0053571      17.543336      41.271827    
   2992000   1.0143343      17.410822      41.352378    
   2993000   1.0223748      17.183751      41.325488    
   2994000   0.97696343     17.088266      41.393315    
   2995000   1.0262297      17.130368      41.310106    
   2996000   0.99015992     16.90195       41.477439    
   2997000   1.0134499      16.501864      41.627143    
   2998000   1.0073946      17.439947      41.577734    
   2999000   0.99902317     17.276833      41.512302    
   3000000   1.0137209      17.176234      41.461485    
   3001000   0.99310584     17.144666      41.442791    
   3002000   0.97317842     17.450554      41.54465     
   3003000   0.97610471     17.184268      41.400824    
   3004000   1.0355728      17.25151       41.333176    
   3005000   1.0548264      17.665207      41.235372    
   3006000   0.97697423     16.803741      41.045       
   3007000   0.97286994     17.553455      40.996887    
   3008000   0.98590975     17.442621      40.863109    
   3009000   0.99215093     17.733329      40.874093    
   3010000   0.94913953     17.279084      40.962883    
   3011000   1.0090942      17.157438      40.905503    
   3012000   1.0052834      17.398871      40.682025    
   3013000   1.0157044      17.760578      40.904677    
   3014000   0.99855285     16.684293      40.700421    
   3015000   1.0088897      17.09712       40.634461    
   3016000   0.97931213     17.404305      40.471317    
   3017000   1.0079157      17.266022      40.58364     
   3018000   0.99495039     17.064574      40.653691    
   3019000   0.99853331     17.922562      40.546024    
   3020000   1.0150118      17.358258      40.459978    
   3021000   0.98560972     16.964579      40.417605    
   3022000   0.99816965     17.620468      40.425438    
   3023000   0.99563526     17.313918      40.458086    
   3024000   0.99574176     17.571063      40.297004    
   3025000   0.98408235     17.68978       39.949478    
   3026000   0.96678944     17.639256      40.104404    
   3027000   0.9812068      17.481836      39.926766    
   3028000   0.98888082     16.806698      39.780643    
   3029000   0.96175055     16.840741      39.411905    
   3030000   1.0239944      17.502038      39.414127    
   3031000   1.0131066      17.024205      39.236086    
   3032000   0.99075812     17.121059      39.152602    
   3033000   1.0154448      17.508456      39.024055    
   3034000   1.0069875      17.373992      39.026008    
   3035000   1.0138766      18.071922      38.944393    
   3036000   1.0178361      17.454224      38.823412    
   3037000   0.98069705     17.144837      38.550036    
   3038000   1.018097       17.369615      38.418752    
   3039000   0.99213199     17.217677      38.453541    
   3040000   0.96728329     16.873463      38.519322    
   3041000   0.95714061     16.938468      38.413246    
   3042000   0.99074606     17.484543      38.336979    
   3043000   1.0252795      17.42929       38.399034    
   3044000   1.0132867      16.822929      38.292555    
   3045000   1.0045808      17.610901      38.160369    
   3046000   1.0020853      17.579768      37.967969    
   3047000   1.0398867      17.600394      37.767527    
   3048000   1.0192252      17.769295      37.7127      
   3049000   0.97021048     16.790009      37.632253    
   3050000   1.0178117      17.159097      37.664737    
   3051000   1.0220705      17.084145      37.297995    
   3052000   1.0074665      17.388736      37.35855     
   3053000   1.004764       17.220906      37.478148    
   3054000   0.98813524     16.749568      37.482819    
   3055000   1.0310891      17.402719      37.25586     
   3056000   1.0027338      17.388587      37.267594    
   3057000   0.99751414     17.431672      37.230905    
   3058000   1.008975       17.002835      37.293343    
   3059000   0.9922812      16.974202      37.423867    
   3060000   0.98690655     17.030942      37.638536    
   3061000   0.96915052     17.213408      37.611718    
   3062000   1.03316        17.456673      37.619047    
   3063000   0.95960816     17.240237      37.56        
   3064000   1.0106636      16.829586      37.500865    
   3065000   0.96551276     17.134773      37.640161    
   3066000   0.96614833     17.773363      37.584759    
   3067000   1.0262506      17.088586      37.391836    
   3068000   1.0439302      17.4507        37.353715    
   3069000   1.0389906      17.601854      37.552369    
   3070000   0.97224013     17.638423      37.479245    
   3071000   1.0473263      17.240954      37.429106    
   3072000   0.99486879     17.5274        37.282962    
   3073000   1.0469956      17.600889      37.235885    
   3074000   1.0108561      17.543404      37.270923    
   3075000   1.0278735      17.434765      37.300507    
   3076000   1.025167       17.513953      37.26157     
   3077000   0.99635391     16.773598      37.217675    
   3078000   0.96028984     17.15955       37.121354    
   3079000   1.0210953      17.742772      36.740634    
   3080000   1.0087397      16.997488      36.678394    
   3081000   0.99975038     17.477595      36.513251    
   3082000   1.0290732      17.254882      36.648619    
   3083000   1.0068158      17.428449      36.676783    
   3084000   1.0244868      17.231221      36.800991    
   3085000   0.94976404     17.191759      36.85206     
   3086000   1.0490115      17.05298       36.753026    
   3087000   1.0052702      17.64523       36.628867    
   3088000   1.0058178      16.989497      36.438693    
   3089000   1.00027        16.896489      36.457603    
   3090000   1.0003143      17.28724       36.599577    
   3091000   1.0118594      16.597135      36.311279    
   3092000   0.99830685     17.686117      36.344737    
   3093000   1.0201874      17.46043       36.282651    
   3094000   1.0036232      17.274633      36.461083    
   3095000   0.9886904      17.731645      36.411186    
   3096000   0.9776715      16.972652      36.472993    
   3097000   1.0179498      17.454144      36.379512    
   3098000   0.9792033      17.713716      36.308661    
   3099000   0.99583972     17.872514      36.041659    
   3100000   1.0313055      17.490298      35.898515    
   3101000   0.99235956     17.064822      35.856301    
   3102000   1.0052978      17.480289      35.808257    
   3103000   1.0144389      17.060817      35.736142    
   3104000   1.0377176      17.722428      35.726555    
   3105000   1.0355688      17.266062      35.553033    
   3106000   0.96973754     17.268402      35.64244     
   3107000   0.9871781      17.232751      35.76107     
   3108000   1.008512       17.126528      35.863685    
   3109000   1.0005724      17.391864      35.822941    
   3110000   1.0151322      16.761359      35.943926    
   3111000   1.0131606      16.769379      35.784907    
   3112000   1.0118336      17.763647      35.741513    
   3113000   0.97392004     16.722995      35.860014    
   3114000   1.0302913      17.132555      35.757958    
   3115000   1.0457544      16.996848      35.448295    
   3116000   0.99190219     17.328174      35.400196    
   3117000   1.0224085      17.317401      35.268752    
   3118000   1.0128189      17.414676      35.116741    
   3119000   1.0116529      17.653953      35.143512    
   3120000   0.97913118     17.013391      35.136632    
   3121000   0.98777048     17.362016      34.937039    
   3122000   0.99155341     17.58583       34.94687     
   3123000   1.0478         17.786439      34.773834    
   3124000   1.0112629      16.971558      34.763767    
   3125000   1.003539       17.618027      34.619758    
   3126000   0.94824372     17.376849      34.481493    
   3127000   0.97703588     17.439536      34.474141    
   3128000   1.0073121      17.330465      34.576517    
   3129000   0.98198112     17.084036      34.54553     
   3130000   1.0483548      17.487589      34.524578    
   3131000   1.0052451      17.853858      34.541964    
   3132000   0.99680497     16.622123      34.577491    
   3133000   1.0282321      17.869695      34.657481    
   3134000   0.993175       16.577772      34.502319    
   3135000   1.0110162      17.464213      34.605205    
   3136000   1.0060515      16.654825      34.700761    
   3137000   0.99617751     17.385133      34.645262    
   3138000   0.97753111     17.079769      34.396202    
   3139000   0.96557033     17.628177      34.311782    
   3140000   1.0108351      16.949922      34.382184    
   3141000   1.0182401      17.353456      34.235634    
   3142000   1.0096672      17.520536      34.18338     
   3143000   1.0308366      17.082171      34.219814    
   3144000   0.98515063     17.177372      34.178922    
   3145000   0.95333453     17.299746      34.092437    
   3146000   0.993884       17.413243      33.97689     
   3147000   0.96666034     16.74185       34.09259     
   3148000   1.0026139      17.000663      33.959846    
   3149000   0.99212776     17.151447      33.971386    
   3150000   1.0004428      17.360043      34.032909    
   3151000   1.0088381      17.088718      34.046655    
   3152000   1.0266206      17.000103      33.818749    
   3153000   1.0296099      17.550754      33.547654    
   3154000   0.98381862     16.950855      33.533718    
   3155000   0.9928176      17.322342      33.483011    
   3156000   1.0141424      17.212043      33.547374    
   3157000   0.98612709     17.410119      33.44122     
   3158000   0.96971326     16.912725      33.303553    
   3159000   1.0084275      16.941303      33.419856    
   3160000   1.0212537      17.656556      33.4893      
   3161000   1.0096608      17.306804      33.605313    
   3162000   1.0337117      17.339067      33.524909    
   3163000   1.0272286      17.232678      33.704608    
   3164000   1.0062551      17.119322      33.818595    
   3165000   0.99762472     17.216755      33.875265    
   3166000   1.0015866      16.89847       33.70417     
   3167000   0.98977358     16.883241      33.711905    
   3168000   1.0185648      17.41667       33.300249    
   3169000   0.96899778     17.001952      33.46164     
   3170000   0.99928048     17.659566      33.489874    
   3171000   0.98335156     17.676983      33.27443     
   3172000   0.98475351     17.064309      33.333179    
   3173000   0.99805396     16.921083      33.336937    
   3174000   1.014521       17.447081      33.391329    
   3175000   0.98093139     16.688043      33.104516    
   3176000   0.97292669     17.639342      33.065408    
   3177000   0.98694362     16.786811      33.103115    
   3178000   0.96651601     17.410878      33.000446    
   3179000   0.97772278     17.317467      32.963016    
   3180000   0.98111711     17.264849      32.729493    
   3181000   1.0352611      17.179378      32.574996    
   3182000   1.0090324      17.361578      32.602259    
   3183000   1.0221534      17.670854      32.499095    
   3184000   1.014137       17.270885      32.203995    
   3185000   1.0062998      17.283899      32.101081    
   3186000   0.99961783     16.925894      32.2462      
   3187000   0.97513688     17.142571      32.094932    
   3188000   0.98138903     17.028122      31.987831    
   3189000   0.98293686     17.68754       31.892975    
   3190000   0.98152991     17.121712      31.626772    
   3191000   0.97394304     16.954278      31.696509    
   3192000   1.0151512      17.637359      31.776562    
   3193000   0.97796199     17.120336      31.886983    
   3194000   1.0274462      17.299956      31.956775    
   3195000   1.0088865      17.48527       31.93866     
   3196000   1.0220777      17.372055      31.968137    
   3197000   0.99022502     16.857444      31.803119    
   3198000   1.0337018      17.192507      31.748494    
   3199000   1.0019729      16.864537      31.439665    
   3200000   1.0221726      17.84118       31.311314    
   3201000   0.98291834     16.739167      31.157342    
   3202000   1.0304574      17.238712      31.123598    
   3203000   1.0333055      17.047693      30.961863    
   3204000   1.0075028      17.328234      30.775333    
   3205000   1.0138535      17.288422      30.570354    
   3206000   1.0154026      17.401545      30.43435     
   3207000   1.0194034      17.219997      30.126793    
   3208000   1.0046281      17.592621      30.065903    
   3209000   1.0152748      17.045552      30.053091    
   3210000   0.99344302     17.284417      29.910272    
   3211000   0.9534791      17.251643      29.660072    
   3212000   1.0210559      17.368412      29.77144     
   3213000   1.0249502      17.413747      29.781936    
   3214000   1.0047351      17.434173      29.675019    
   3215000   0.97865612     16.664287      29.566832    
   3216000   0.99525732     17.536796      29.606853    
   3217000   0.98893052     17.365763      29.379357    
   3218000   0.97967715     17.25598       29.27893     
   3219000   0.99077916     16.876889      29.343248    
   3220000   0.96173987     16.752486      29.399941    
   3221000   1.0276637      17.452071      29.522819    
   3222000   1.0013025      17.64224       29.443138    
   3223000   0.98228055     17.103935      29.449845    
   3224000   1.0150525      17.201369      29.529956    
   3225000   0.98717981     17.643739      29.49119     
   3226000   0.99833508     17.731626      29.41327     
   3227000   0.99008774     17.566106      29.441059    
   3228000   0.97706357     17.441721      29.384955    
   3229000   0.98329158     17.025721      29.218531    
   3230000   1.0257867      17.555383      29.138133    
   3231000   1.0066058      17.033014      29.105631    
   3232000   1.0143817      17.258505      28.743809    
   3233000   0.99225889     17.616806      28.699918    
   3234000   0.98157208     16.980053      28.747215    
   3235000   0.99958448     17.100505      28.788203    
   3236000   0.98829763     17.094348      28.796374    
   3237000   0.9810866      17.097637      28.785848    
   3238000   0.9980203      17.745606      28.506874    
   3239000   1.0104786      17.444165      28.478231    
   3240000   0.99593656     17.175376      28.417459    
   3241000   0.9605776      16.833753      28.500029    
   3242000   0.96520502     17.322182      28.506377    
   3243000   1.0078304      17.243172      28.56134     
   3244000   0.99016621     17.527779      28.792821    
   3245000   0.98882539     16.959692      28.731099    
   3246000   0.9874449      17.292201      28.804623    
   3247000   0.9493446      16.854239      28.674454    
   3248000   0.99430906     17.804651      28.733571    
   3249000   0.9760305      17.406047      28.853912    
   3250000   0.97880235     17.344638      28.786737    
   3251000   1.0331539      17.427981      28.605315    
   3252000   0.97510272     16.997865      28.522856    
   3253000   1.0427745      17.14842       28.403158    
   3254000   0.98737921     17.754914      28.377006    
   3255000   0.98487379     17.11937       28.331308    
   3256000   0.9818587      16.861566      28.478502    
   3257000   1.0610473      17.621121      28.499838    
   3258000   1.0268381      17.395884      28.456005    
   3259000   0.96560415     16.694777      28.513403    
   3260000   0.99752089     17.240642      28.368491    
   3261000   0.95720855     17.059359      28.185297    
   3262000   1.0238095      16.585047      28.314082    
   3263000   0.98866324     17.133057      28.336146    
   3264000   0.99917343     17.098791      28.269138    
   3265000   0.97403118     17.577911      28.013814    
   3266000   1.0299311      17.004392      28.186713    
   3267000   1.0094351      16.744669      28.32912     
   3268000   0.971442       16.636966      28.291719    
   3269000   0.95733952     16.479527      28.442082    
   3270000   1.0087093      17.446211      28.557674    
   3271000   1.0316714      17.44547       28.565075    
   3272000   1.0229787      17.290595      28.460823    
   3273000   0.99925306     17.317063      28.583015    
   3274000   1.0158919      17.046436      28.533695    
   3275000   1.0015867      17.640309      28.642706    
   3276000   1.0015975      16.964356      28.392211    
   3277000   0.98326672     17.084784      28.185822    
   3278000   1.0361519      16.707744      28.305324    
   3279000   1.0082984      16.941166      28.076833    
   3280000   0.9838941      17.053924      27.940879    
   3281000   1.042226       17.915887      28.006514    
   3282000   1.0260033      17.548895      27.911256    
   3283000   0.98163794     17.867596      27.949363    
   3284000   1.0210286      16.985411      28.079731    
   3285000   0.99139945     17.200972      27.841724    
   3286000   1.0431698      17.423582      27.846234    
   3287000   1.0194555      16.937498      27.855557    
   3288000   0.98016355     17.060382      27.84028     
   3289000   0.97490476     16.821677      27.682449    
   3290000   0.98027015     17.096175      27.752517    
   3291000   1.0176659      17.269416      27.663846    
   3292000   0.98532418     17.243644      27.552495    
   3293000   0.98524502     17.004757      27.641701    
   3294000   0.9783554      17.366533      27.658398    
   3295000   1.0399659      17.039701      27.640451    
   3296000   1.0394723      17.123866      27.580902    
   3297000   0.97739872     17.883126      27.517626    
   3298000   0.98460821     17.301998      27.572749    
   3299000   1.0042172      17.401754      27.570532    
   3300000   1.0252776      17.226084      27.42275     
   3301000   0.99783263     17.090366      27.583733    
   3302000   0.9948508      17.028554      27.513147    
   3303000   0.99992184     17.586271      27.513122    
   3304000   1.0366121      17.661478      27.786091    
   3305000   1.0295818      17.080217      27.616402    
   3306000   0.99718782     17.180989      27.305879    
   3307000   1.0077908      17.098884      27.106342    
   3308000   1.0281449      17.565439      27.033804    
   3309000   1.0199674      17.112829      26.962008    
   3310000   1.0342572      17.194618      26.880336    
   3311000   1.0044566      17.426186      26.851422    
   3312000   0.98608158     17.70979       26.829626    
   3313000   0.99346537     17.373965      26.675344    
   3314000   1.0134922      17.658295      26.478364    
   3315000   0.9655316      17.01089       26.479444    
   3316000   0.97925634     17.000324      26.609673    
   3317000   0.98925614     16.830714      26.472887    
   3318000   0.96800942     16.545295      26.421922    
   3319000   0.98619937     17.681873      26.448994    
   3320000   0.97222901     17.518701      26.182973    
   3321000   1.0251179      17.617625      26.008068    
   3322000   0.97932624     16.227378      25.738788    
   3323000   0.9892982      17.587631      25.630518    
   3324000   1.0432216      17.448768      25.645519    
   3325000   1.0242614      16.968817      25.612905    
   3326000   0.95203692     17.011619      25.701637    
   3327000   0.96847203     17.585852      25.552119    
   3328000   1.0067092      17.125706      25.577451    
   3329000   1.0258514      16.901531      25.371993    
   3330000   0.98205981     17.220872      25.478856    
   3331000   1.0094907      17.408089      25.360594    
   3332000   0.96285        16.984325      25.207485    
   3333000   0.97584276     17.375964      24.968747    
   3334000   0.95780062     16.779548      24.91881     
   3335000   0.99463283     16.782108      24.742003    
   3336000   1.0206313      16.941734      24.519156    
   3337000   0.95161566     17.155969      24.592191    
   3338000   1.0109003      16.626343      24.639848    
   3339000   0.98709211     16.924415      24.697897    
   3340000   1.0240192      17.378789      24.570672    
   3341000   0.98102854     17.631149      24.315507    
   3342000   1.0256684      17.528206      24.022575    
   3343000   1.00068        16.911501      24.022653    
   3344000   1.0421626      17.141513      23.920814    
   3345000   0.99886248     16.935528      23.871516    
   3346000   1.0123688      17.255312      23.838672    
   3347000   1.0127857      16.992575      23.894652    
   3348000   0.95710569     17.490951      23.703262    
   3349000   1.0052817      17.644231      23.617468    
   3350000   0.99373055     16.9933        23.639702    
   3351000   1.011222       16.854603      23.547252    
   3352000   0.98597149     17.56573       23.39928     
   3353000   1.0073929      17.559739      23.337044    
   3354000   0.99469804     16.851959      23.379553    
   3355000   1.0318572      17.003589      23.268168    
   3356000   1.0123899      17.080755      23.166834    
   3357000   1.0038442      17.605749      23.068531    
   3358000   1.02984        17.37086       23.044442    
   3359000   0.99461598     16.856742      23.088751    
   3360000   0.96830013     16.983049      23.063544    
   3361000   1.0269133      17.360564      23.205138    
   3362000   0.95714245     17.359617      23.079119    
   3363000   0.96122181     16.477691      23.05266     
   3364000   0.99206537     16.930176      22.899725    
   3365000   0.99479425     17.2961        22.621967    
   3366000   1.0053415      16.847253      22.668473    
   3367000   0.98036042     16.943662      22.675281    
   3368000   0.99740505     17.350802      22.572844    
   3369000   0.99098099     16.7571        22.328699    
   3370000   0.99077755     16.864767      22.187376    
   3371000   0.97254965     16.988388      21.892713    
   3372000   1.023879       17.018571      21.791151    
   3373000   0.9897228      17.175541      21.97616     
   3374000   1.0076364      16.849632      22.085129    
   3375000   1.0409277      17.068639      22.23458     
   3376000   0.97083493     16.859342      22.196217    
   3377000   1.0302973      17.260808      22.13123     
   3378000   0.96041363     17.298268      22.083075    
   3379000   0.97708545     16.861637      21.985493    
   3380000   0.98094729     16.881656      21.778723    
   3381000   1.032644       17.276221      21.831754    
   3382000   1.0081119      17.206442      21.761108    
   3383000   1.01407        16.944029      21.775203    
   3384000   0.9868598      17.425344      21.502171    
   3385000   0.99951196     16.936939      21.391573    
   3386000   1.0298488      17.262191      21.30778     
   3387000   0.9908         17.089995      21.184266    
   3388000   1.015831       17.760246      21.08922     
   3389000   1.0113432      17.430393      21.067654    
   3390000   1.0047427      17.360389      20.883341    
   3391000   1.0045734      16.866947      20.984603    
   3392000   0.99305528     17.115221      20.88303     
   3393000   0.94271797     17.191036      20.934346    
   3394000   1.0313913      17.329951      20.781514    
   3395000   0.98407334     16.858723      20.662805    
   3396000   1.0174763      17.302429      20.517935    
   3397000   1.0239831      17.554275      20.605743    
   3398000   0.97842781     17.159174      20.50375     
   3399000   0.98685984     16.525402      20.459374    
   3400000   0.977482       17.075611      20.720481    
   3401000   0.96668625     17.502169      20.552594    
   3402000   1.0355917      16.929122      20.624438    
   3403000   1.0035637      17.344002      20.663954    
   3404000   0.99952152     17.362519      20.597698    
   3405000   0.95712637     17.442366      20.474858    
   3406000   1.0246311      16.709354      20.544253    
   3407000   0.98989488     16.929146      20.438813    
   3408000   1.0341635      17.832843      20.309795    
   3409000   0.97751804     17.526033      20.148688    
   3410000   0.97868195     17.326738      20.189888    
   3411000   0.9874877      16.711897      20.150128    
   3412000   0.97201648     17.61979       20.045666    
   3413000   0.99113031     17.570519      19.859468    
   3414000   0.99669186     17.196649      19.830626    
   3415000   1.0212787      17.436568      19.913688    
   3416000   0.98903599     17.227363      20.010255    
   3417000   1.011678       16.914217      19.965819    
   3418000   0.9768699      17.567418      19.759844    
   3419000   0.9792732      17.325557      19.823213    
   3420000   0.99433555     17.014095      19.700649    
   3421000   1.0046259      17.442354      19.702333    
   3422000   1.0170587      17.169239      19.586153    
   3423000   1.0290405      17.673398      19.571671    
   3424000   0.99805793     16.649637      19.619925    
   3425000   1.0626332      17.647024      19.710727    
   3426000   0.99924364     17.469716      19.535966    
   3427000   1.0304978      17.313337      19.360354    
   3428000   1.0169242      17.228685      19.568139    
   3429000   1.0022989      17.383115      19.587372    
   3430000   1.0017725      17.430874      19.48918     
   3431000   0.9896584      16.907256      19.442558    
   3432000   1.0149133      16.819212      19.325185    
   3433000   0.99890582     16.924194      19.394071    
   3434000   1.0313956      17.566941      19.236812    
   3435000   1.0088048      17.313166      19.375786    
   3436000   1.0056995      17.240975      19.540367    
   3437000   0.96206901     17.030943      19.489357    
   3438000   0.93270377     16.773283      19.389488    
   3439000   0.99588933     17.43667       19.036195    
   3440000   0.96532248     17.340186      19.250456    
   3441000   1.0075385      17.117445      19.167274    
   3442000   0.95291847     16.938601      19.306829    
   3443000   0.985683       16.775052      19.403949    
   3444000   1.0068852      17.385747      19.490836    
   3445000   1.0559287      16.783406      19.349081    
   3446000   1.0055643      17.049986      19.450078    
   3447000   1.0103404      17.735011      19.488671    
   3448000   1.0146881      17.240469      19.381621    
   3449000   0.99622064     17.119452      19.222288    
   3450000   1.0101859      16.973069      19.212245    
   3451000   1.0311765      16.911146      19.119726    
   3452000   0.97539725     17.594998      19.042802    
   3453000   1.0352743      17.333468      18.896835    
   3454000   1.0068241      17.019836      18.975357    
   3455000   0.99787949     17.542909      18.882158    
   3456000   0.96724806     17.392653      18.865189    
   3457000   0.98654779     17.263591      18.707849    
   3458000   1.0118113      17.372969      18.466255    
   3459000   0.99236623     17.38952       18.483235    
   3460000   1.0389879      17.170245      18.53851     
   3461000   0.99380938     16.963875      18.411235    
   3462000   1.0131675      16.318851      18.484632    
   3463000   1.0698825      17.075873      18.165092    
   3464000   0.9607517      16.711257      18.285784    
   3465000   0.95011139     17.308886      18.200689    
   3466000   0.996557       17.099608      18.169027    
   3467000   0.9724154      16.832193      18.345556    
   3468000   0.99817902     17.569204      18.314664    
   3469000   1.0239602      16.786511      18.339845    
   3470000   1.0143563      17.012084      18.1442      
   3471000   1.0660122      17.294888      17.998       
   3472000   0.98637603     17.130053      17.931147    
   3473000   0.98301924     16.984166      17.980366    
   3474000   1.0082749      16.998625      17.786943    
   3475000   1.0128137      17.052608      17.678804    
   3476000   1.0257714      16.963803      17.623218    
   3477000   1.0270557      17.409705      17.50402     
   3478000   0.98646006     16.929171      17.36774     
   3479000   0.99384704     17.249275      17.512961    
   3480000   0.97760341     17.089786      17.555089    
   3481000   1.0254943      17.270511      17.520502    
   3482000   1.0224339      16.893561      17.461414    
   3483000   0.99863951     17.404174      17.578028    
   3484000   0.98777526     17.110278      17.494071    
   3485000   0.99535619     17.321894      17.441676    
   3486000   0.98416732     17.076949      17.369853    
   3487000   1.0006106      16.568605      17.355596    
   3488000   1.0293281      17.271863      17.511748    
   3489000   1.0049014      16.973034      17.36851     
   3490000   1.0079164      16.673178      17.224598    
   3491000   1.0308677      17.409462      17.287474    
   3492000   0.99704505     16.70004       17.310893    
   3493000   0.99967764     16.795129      17.190373    
   3494000   1.000395       16.994539      17.044717    
   3495000   1.0069476      17.124104      17.091485    
   3496000   1.004698       17.129371      17.099783    
   3497000   0.96743596     17.240443      17.096553    
   3498000   1.0031044      17.129989      17.000813    
   3499000   1.014005       17.294281      17.040237    
   3500000   0.94386349     16.97915       16.965612    
   3501000   0.97897269     17.728131      17.010026    
   3502000   1.078969       17.485819      17.045677    
   3503000   1.0282712      17.319686      17.124141    
   3504000   0.98850986     17.354308      16.777704    
   3505000   1.0372014      17.248165      16.508495    
   3506000   0.99401291     17.264277      16.444566    
   3507000   1.009229       17.320222      16.377342    
   3508000   1.0030628      17.148584      16.463303    
   3509000   1.0324022      17.507214      16.518905    
   3510000   0.99278383     17.077663      16.446529    
   3511000   1.0059421      17.026436      16.376863    
   3512000   0.9754315      16.82358       16.431286    
   3513000   0.98555388     17.32788       16.408743    
   3514000   1.0338375      16.654344      16.486442    
   3515000   0.99124412     17.240899      16.409642    
   3516000   1.0376843      17.496554      16.411938    
   3517000   0.95640269     17.752085      16.273621    
   3518000   0.96123501     17.06342       16.239986    
   3519000   1.0272983      17.412742      16.133873    
   3520000   0.95870525     17.152212      16.120513    
   3521000   1.0226798      16.61626       16.109883    
   3522000   0.99488933     16.73888       16.173644    
   3523000   1.0101816      16.822765      16.048739    
   3524000   0.98149508     16.951973      16.151985    
   3525000   1.0094201      16.467402      16.247775    
   3526000   0.99805174     16.74673       16.042148    
   3527000   1.0121509      16.936951      15.880709    
   3528000   1.0109392      16.65817       15.889502    
   3529000   0.97989339     16.881767      15.817984    
   3530000   1.0171886      16.486         15.89176     
   3531000   0.98842199     17.089827      15.787318    
   3532000   1.00403        17.067084      15.883177    
   3533000   1.0516515      16.897057      15.817609    
   3534000   0.98945327     17.420264      15.582808    
   3535000   1.0094478      17.868908      15.425498    
   3536000   0.98630204     17.518458      15.432021    
   3537000   1.0040145      16.92803       15.415511    
   3538000   1.0027061      17.441422      15.225846    
   3539000   0.99192755     17.113065      15.218775    
   3540000   1.0240187      16.973111      15.23444     
   3541000   0.96319566     17.188421      15.026453    
   3542000   1.0192907      17.509971      15.059579    
   3543000   1.0147473      16.979448      14.938679    
   3544000   0.99723436     16.781263      14.882795    
   3545000   1.0047539      17.189441      14.818426    
   3546000   1.0094983      17.614618      14.809495    
   3547000   0.94961184     16.48599       14.485412    
   3548000   1.0151573      16.756553      14.566203    
   3549000   1.0372753      17.48147       14.578563    
   3550000   1.0016037      17.190976      14.475143    
   3551000   1.0242665      17.152697      14.455528    
   3552000   0.9759388      17.159696      14.264303    
   3553000   1.0302804      16.773551      14.211918    
   3554000   0.99912663     17.429031      14.058953    
   3555000   0.99815873     17.09219       14.04035     
   3556000   1.0046898      17.119963      14.101525    
   3557000   0.99498117     17.602603      13.965158    
   3558000   1.018149       16.844803      13.789827    
   3559000   0.99121131     17.223241      13.507975    
   3560000   1.0368413      17.408547      13.429319    
   3561000   0.98029716     17.220255      13.641843    
   3562000   0.98509418     17.753251      13.734796    
   3563000   0.97632952     17.329051      13.584563    
   3564000   1.0224951      17.779861      13.568295    
   3565000   1.0354922      17.105753      13.663191    
   3566000   1.0321796      17.630235      13.628552    
   3567000   0.98852292     17.251427      13.610529    
   3568000   0.99608573     17.345911      13.543154    
   3569000   1.01675        17.602707      13.549558    
   3570000   1.0032224      17.313515      13.441971    
   3571000   0.99670421     16.909388      13.29393     
   3572000   1.0244556      16.683907      13.293438    
   3573000   0.99186724     16.924681      13.324996    
   3574000   0.99544773     16.971909      13.132908    
   3575000   1.0299143      17.769439      12.911894    
   3576000   1.0494702      17.007814      12.727886    
   3577000   0.99480858     17.274339      12.681119    
   3578000   0.98700705     17.052376      12.432469    
   3579000   0.99625613     16.722148      12.19496     
   3580000   1.0300982      17.014475      12.021129    
   3581000   0.98089195     17.323317      12.078241    
   3582000   0.99112762     16.882611      12.023361    
   3583000   0.96931307     17.583121      12.013738    
   3584000   0.97930477     17.013362      12.083086    
   3585000   0.9945031      17.123393      12.018404    
   3586000   0.99279093     17.365649      11.932731    
   3587000   0.9947194      17.148167      11.877672    
   3588000   1.0132882      17.097894      11.83738     
   3589000   1.0030162      17.194377      11.763352    
   3590000   1.0390614      17.260881      11.803646    
   3591000   1.0452818      17.122933      11.910946    
   3592000   0.98325698     17.075564      11.738115    
   3593000   0.99339678     17.539698      11.860624    
   3594000   1.018602       16.59298       11.79775     
   3595000   1.0204601      16.990773      11.783027    
   3596000   0.98409386     17.03109       11.616257    
   3597000   1.0401157      16.719793      11.534022    
   3598000   1.0383549      17.22459       11.519776    
   3599000   0.98804671     17.155031      11.480595    
   3600000   1.0226519      17.139013      11.276873    
   3601000   0.99272198     16.821332      11.136152    
   3602000   0.96401185     17.066365      11.105127    
   3603000   1.0048028      17.535601      11.226602    
   3604000   0.9600694      16.324345      11.237691    
   3605000   1.007501       16.31321       11.064473    
   3606000   1.0038757      17.887432      10.992869    
   3607000   1.0383418      17.434817      11.062048    
   3608000   0.99039941     16.977021      11.103393    
   3609000   1.0090127      17.024834      11.077093    
   3610000   1.009496       16.462807      11.103931    
   3611000   1.0064381      17.064482      11.174125    
   3612000   1.0075485      17.226955      11.115337    
   3613000   1.0081869      17.435192      11.198176    
   3614000   0.99793324     17.053396      11.092142    
   3615000   1.0281816      16.783897      11.208185    
   3616000   0.98812289     17.164809      11.113519    
   3617000   1.034891       17.251005      11.165262    
   3618000   1.0093688      17.437362      11.016476    
   3619000   0.98654018     16.674836      10.965839    
   3620000   1.0188325      16.726389      10.870176    
   3621000   0.98224817     17.05415       10.794882    
   3622000   1.0157635      17.164733      10.819957    
   3623000   1.0058435      16.072146      10.789948    
   3624000   1.0266658      17.335861      10.585061    
   3625000   1.0005147      17.264177      10.632854    
   3626000   0.99747811     17.447972      10.721508    
   3627000   0.96874614     16.861271      10.722682    
   3628000   0.97042817     16.808812      10.818683    
   3629000   1.0216317      17.104446      10.762601    
   3630000   1.0120251      17.062497      10.695863    
   3631000   1.0170253      17.429089      10.679653    
   3632000   0.97829617     17.203757      10.572794    
   3633000   0.95616364     16.765393      10.593116    
   3634000   0.99900318     16.48578       10.362236    
   3635000   0.98121655     17.179305      10.404066    
   3636000   1.0078566      17.061798      10.247727    
   3637000   1.0112952      17.578767      10.267496    
   3638000   1.0389361      16.836458      10.290804    
   3639000   0.99727809     17.08802       10.431612    
   3640000   1.0224326      16.593346      10.466556    
   3641000   1.0478115      17.042755      10.576433    
   3642000   0.97921102     16.734707      10.366976    
   3643000   1.0001517      17.285043      10.247601    
   3644000   1.0031358      16.981838      10.070714    
   3645000   1.0009619      16.754028      9.8865422    
   3646000   1.0150392      17.865699      10.124884    
   3647000   1.0038462      16.603368      10.128651    
   3648000   1.0302999      17.911553      10.011522    
   3649000   0.99589226     16.96119       9.9056766    
   3650000   1.0037234      17.118455      9.7468784    
   3651000   0.97900668     17.246882      9.7482914    
   3652000   1.0057878      17.472088      9.6548965    
   3653000   0.98088513     16.666559      9.6685819    
   3654000   1.0146148      17.035785      9.3127138    
   3655000   0.9855407      17.2605        8.9916846    
   3656000   0.99908057     16.735168      8.8178045    
   3657000   0.9711728      16.620563      8.8496909    
   3658000   1.0210915      17.696839      8.840686     
   3659000   0.98888296     17.467129      8.6822515    
   3660000   1.0142772      16.393052      8.5804919    
   3661000   1.0145332      17.581039      8.3489118    
   3662000   0.98841153     17.065573      8.2718873    
   3663000   0.9827956      16.618036      8.1412969    
   3664000   1.0054242      17.384353      8.0192826    
   3665000   1.0358085      16.624393      7.8736266    
   3666000   1.0288566      16.791405      7.6174528    
   3667000   0.97415135     16.83545       7.389751     
   3668000   0.98332791     17.058536      7.1873455    
   3669000   0.98161791     16.789969      7.0221695    
   3670000   0.9926175      16.837275      6.9859965    
   3671000   0.9525413      16.334371      6.8957291    
   3672000   0.99678509     16.805563      6.8529056    
   3673000   1.024786       16.849446      6.7685163    
   3674000   1.0154423      17.407833      6.5645532    
   3675000   1.0094833      16.333911      6.5813116    
   3676000   1.0229255      16.719018      6.3849838    
   3677000   0.95996439     17.126925      6.3051713    
   3678000   1.0110809      17.09048       6.1428577    
   3679000   0.98479608     16.579621      6.1484865    
   3680000   0.99619043     17.065395      5.9235203    
   3681000   0.99283433     16.390474      5.7157005    
   3682000   1.0212906      16.866376      5.6492672    
   3683000   0.97545993     16.787857      5.636989     
   3684000   0.96496209     17.099846      5.5528487    
   3685000   0.97246857     17.012006      5.5311103    
   3686000   1.0270759      16.794864      5.4922825    
   3687000   0.97512773     16.744196      5.4775488    
   3688000   0.94809907     16.429596      5.4391331    
   3689000   1.0181189      16.636236      5.4047199    
   3690000   0.99107793     17.295803      5.4403423    
   3691000   0.99471514     16.671895      5.3693521    
   3692000   0.94545114     16.711578      5.4151092    
   3693000   0.98185481     17.017457      5.4126778    
   3694000   0.98308374     17.088593      5.387989     
   3695000   0.98170233     16.822287      5.395456     
   3696000   0.97747476     16.822973      5.3587104    
   3697000   1.0034042      16.29531       5.3630958    
   3698000   0.99566363     16.795889      5.4290557    
   3699000   1.0543455      16.754938      5.3724369    
   3700000   1.0259736      16.870288      5.4136625    
   3701000   1.0135987      16.406011      5.4049221    
   3702000   1.0117202      16.271076      5.3685718    
   3703000   0.97997196     16.576267      5.3555216    
   3704000   1.0053962      16.988949      5.3602104    
   3705000   1.0179019      16.979845      5.3472282    
   3706000   1.0024078      17.0662        5.340389     
   3707000   1.0096419      17.185116      5.3125496    
   3708000   0.95426901     16.916862      5.3090032    
   3709000   0.96521446     16.198431      5.3380327    
   3710000   1.0271937      16.838064      5.3200488    
   3711000   0.96028142     17.152016      5.3300653    
   3712000   1.0165198      16.65959       5.3206564    
   3713000   0.98147907     16.833678      5.2940097    
   3714000   0.96819943     16.702282      5.2855291    
   3715000   0.98544458     16.281685      5.3030746    
   3716000   1.0142698      16.635159      5.2733197    
   3717000   0.95223654     16.673899      5.2796494    
   3718000   1.0226337      16.846216      5.3282886    
   3719000   1.0061123      16.43068       5.3013909    
   3720000   1.0071331      16.685379      5.3076918    
   3721000   0.98330891     17.147511      5.3667808    
   3722000   0.96709692     16.614077      5.3298081    
   3723000   0.99778239     17.068881      5.3099548    
   3724000   0.99345647     16.677539      5.2703591    
   3725000   0.94605608     16.395924      5.272586     
   3726000   1.0164753      17.075016      5.2907093    
   3727000   0.98608986     17.253851      5.2652506    
   3728000   0.98970042     16.823795      5.2856443    
   3729000   0.99040199     16.523179      5.2798086    
   3730000   1.0399611      16.715956      5.2888725    
   3731000   1.0195601      17.108395      5.2959334    
   3732000   1.0083933      16.786822      5.2757979    
   3733000   0.98051943     16.778388      5.2307817    
   3734000   0.99176624     17.150927      5.2500471    
   3735000   0.98640681     16.930904      5.2552012    
   3736000   1.0297505      17.154772      5.25797      
   3737000   0.97654089     16.792905      5.2559773    
   3738000   1.0060613      16.859026      5.2641879    
   3739000   1.0062892      16.440112      5.2468862    
   3740000   0.9806694      17.444022      5.2181048    
   3741000   0.98660016     16.63837       5.2606113    
   3742000   0.98295651     16.910096      5.2546041    
   3743000   1.0191868      16.617623      5.264081     
   3744000   0.98910237     16.947095      5.2977938    
   3745000   1.0169146      16.823713      5.2708118    
   3746000   0.96266195     17.076877      5.2674748    
   3747000   0.99848578     16.835057      5.2621976    
   3748000   0.97171488     17.159369      5.2154267    
   3749000   0.98450502     16.776612      5.237126     
   3750000   1.041988       16.764861      5.211144     
   3751000   0.98761249     16.588145      5.2603717    
   3752000   0.96839601     16.48603       5.2173064    
   3753000   0.98395042     16.902199      5.2456043    
   3754000   1.0109144      16.8849        5.2165765    
   3755000   0.97108906     16.705075      5.2118878    
   3756000   0.99789504     16.516795      5.2552743    
   3757000   0.9989776      16.64305       5.2289856    
   3758000   1.0265532      16.906981      5.2471447    
   3759000   0.97443315     17.042732      5.214777     
   3760000   0.99336069     16.97033       5.2342556    
   3761000   1.008131       16.305894      5.2321958    
   3762000   1.002073       16.433492      5.2414024    
   3763000   1.0238984      17.128367      5.2356866    
   3764000   0.94637399     17.218124      5.2015503    
   3765000   1.0078244      16.726606      5.2529577    
   3766000   0.98413411     16.776696      5.2379285    
   3767000   0.99404877     16.133244      5.2340905    
   3768000   0.980611       17.012889      5.2250659    
   3769000   0.98275644     16.722681      5.2610774    
   3770000   0.99595232     16.368866      5.2673743    
   3771000   1.0208487      17.446311      5.2766371    
   3772000   0.97795188     16.584706      5.2509916    
   3773000   0.99462741     16.82193       5.2516546    
   3774000   0.95877816     16.903131      5.2506487    
   3775000   0.98356306     16.405215      5.2428801    
   3776000   0.99312017     16.930778      5.256347     
   3777000   0.96613708     15.981455      5.2779906    
   3778000   0.97180046     16.511956      5.2888949    
   3779000   1.022166       16.469866      5.2799042    
   3780000   1.0010207      16.902547      5.2892906    
   3781000   0.99888472     17.396465      5.2616384    
   3782000   1.0276625      16.602475      5.2452539    
   3783000   1.0277191      16.658398      5.231197     
   3784000   1.0078827      16.977118      5.247667     
   3785000   0.95696344     17.398011      5.2217805    
   3786000   1.0022626      17.765466      5.2309629    
   3787000   0.97765756     16.256437      5.2319003    
   3788000   0.99880213     17.06754       5.2013407    
   3789000   0.98727779     17.053043      5.2011118    
   3790000   1.0485907      17.270031      5.204186     
   3791000   1.0021276      16.680518      5.203821     
   3792000   1.0151829      16.684194      5.2413745    
   3793000   1.003527       16.32066       5.2164591    
   3794000   0.99599498     16.286461      5.247271     
   3795000   0.9693485      16.819907      5.1998074    
   3796000   0.9819747      16.954862      5.2230872    
   3797000   0.97307993     16.427051      5.2085013    
   3798000   1.007532       17.459928      5.2701443    
   3799000   1.0107562      17.069292      5.2341151    
   3800000   1.0504529      16.632312      5.2259853    
   3801000   0.99520609     16.801074      5.2506004    
   3802000   0.99852988     17.02219       5.2190194    
   3803000   1.0494632      16.693512      5.2194475    
   3804000   1.0146005      16.195209      5.2243952    
   3805000   0.99422015     16.983184      5.2470748    
   3806000   0.99557367     16.69146       5.2364251    
   3807000   1.017694       17.179178      5.2521004    
   3808000   1.0222523      17.106097      5.2366366    
   3809000   1.0097233      16.905857      5.2238158    
   3810000   1.0242356      17.028265      5.222456     
   3811000   1.0055938      16.960459      5.2438849    
   3812000   0.94918745     16.231138      5.2600053    
   3813000   0.98604725     17.151122      5.2134514    
   3814000   1.0377256      16.777138      5.2509289    
   3815000   0.97221572     16.733569      5.2355271    
   3816000   1.0039891      16.464158      5.2113575    
   3817000   0.99967467     16.625856      5.2532255    
   3818000   1.0044112      17.24084       5.2501775    
   3819000   1.0318512      17.309615      5.2446761    
   3820000   0.98244472     16.748591      5.2454403    
   3821000   0.98341114     16.596521      5.2634206    
   3822000   0.99208436     16.255493      5.2743086    
   3823000   0.99348668     17.13738       5.2325262    
   3824000   0.9833016      16.887486      5.2471662    
   3825000   1.0571099      16.504787      5.2293264    
   3826000   0.99711554     17.202891      5.2481672    
   3827000   1.04547        17.044253      5.2562848    
   3828000   0.99618486     16.653054      5.2434901    
   3829000   0.99724991     16.927308      5.2439334    
   3830000   0.9676657      17.187776      5.2404361    
   3831000   0.97060434     16.930525      5.2466726    
   3832000   1.0213901      16.808073      5.2876298    
   3833000   1.0272758      16.788225      5.261868     
   3834000   1.0120904      16.239951      5.2534857    
   3835000   1.0112955      16.587394      5.2657171    
   3836000   0.95505704     16.653943      5.2562857    
   3837000   1.0068698      16.895805      5.248806     
   3838000   0.98121091     17.180947      5.2309906    
   3839000   1.0137406      17.494833      5.2193457    
   3840000   1.0307733      17.16715       5.275503     
   3841000   0.99817022     16.155737      5.2755265    
   3842000   0.98849613     16.512279      5.2445122    
   3843000   0.96616082     16.40023       5.2394542    
   3844000   1.0216342      16.648868      5.2601476    
   3845000   0.97403916     16.303055      5.2475519    
   3846000   0.99564392     17.284188      5.2615713    
   3847000   1.0066483      16.763005      5.2528307    
   3848000   0.98079325     16.433981      5.2355549    
   3849000   0.97238679     16.63039       5.2340544    
   3850000   1.0152611      17.433729      5.2390462    
   3851000   0.96018637     17.075659      5.248904     
   3852000   0.96742187     16.349638      5.2463299    
   3853000   1.0255582      16.824484      5.2420473    
   3854000   0.98655486     16.921508      5.227118     
   3855000   1.0255344      16.858688      5.2133253    
   3856000   1.0771566      16.679387      5.2051479    
   3857000   0.97275743     16.903705      5.2278253    
   3858000   0.9546135      16.508728      5.2376374    
   3859000   1.0033555      16.833681      5.2615204    
   3860000   0.97857474     16.491206      5.2676339    
   3861000   0.99142074     16.987356      5.2648742    
   3862000   0.99153132     16.803673      5.2465397    
   3863000   0.97753218     16.625626      5.2420548    
   3864000   0.98553631     16.838311      5.24366      
   3865000   0.99338162     17.119819      5.2170968    
   3866000   1.0023075      16.725211      5.2584869    
   3867000   0.97872204     17.035155      5.2429167    
   3868000   1.0254054      17.249011      5.267339     
   3869000   0.9691932      16.549029      5.2275642    
   3870000   1.0292541      16.436994      5.2391584    
   3871000   0.96916485     16.52631       5.2147073    
   3872000   1.0481164      16.792783      5.2408723    
   3873000   1.0036498      17.287937      5.252362     
   3874000   0.98912405     16.461177      5.2329719    
   3875000   1.0081069      17.092546      5.2258329    
   3876000   0.97318947     16.856405      5.2664719    
   3877000   1.0455303      16.475021      5.2048019    
   3878000   0.98477376     16.927179      5.2267638    
   3879000   1.017368       17.33652       5.216504     
   3880000   1.03198        17.096625      5.1957071    
   3881000   0.97535095     16.830154      5.250351     
   3882000   0.98828298     16.74068       5.2452371    
   3883000   0.97773605     17.199437      5.2277735    
   3884000   1.0004759      16.40651       5.2334425    
   3885000   0.9864008      16.802263      5.2560369    
   3886000   1.0098508      16.64974       5.2187818    
   3887000   1.0252953      16.854737      5.2066715    
   3888000   1.0406698      16.763351      5.2286975    
   3889000   1.0261116      16.96778       5.2226439    
   3890000   0.95809763     17.097515      5.2463893    
   3891000   0.99055408     16.540661      5.2186473    
   3892000   1.023339       17.093009      5.2149763    
   3893000   1.0024395      17.035127      5.2526355    
   3894000   1.0161532      16.168725      5.2523851    
   3895000   0.9809998      17.171139      5.2490363    
   3896000   0.98168583     16.871301      5.2667445    
   3897000   1.0096051      17.123336      5.1902503    
   3898000   1.0113294      16.774799      5.2429843    
   3899000   0.9893267      17.006259      5.2212571    
   3900000   0.98877999     16.27608       5.2352386    
   3901000   0.9670687      17.047872      5.2122123    
   3902000   0.98668564     16.753941      5.2297533    
   3903000   0.98661842     16.807692      5.2356791    
   3904000   0.99020351     16.611165      5.2440126    
   3905000   1.0127636      16.862933      5.272778     
   3906000   0.9942151      16.867138      5.2171872    
   3907000   0.95570634     16.96248       5.2332524    
   3908000   1.0246425      16.735742      5.2094764    
   3909000   1.0480625      16.951299      5.269968     
   3910000   1.0304653      16.511082      5.2131651    
   3911000   0.97223668     16.772737      5.1906771    
   3912000   0.99856724     16.786821      5.2178243    
   3913000   1.0209877      17.29018       5.2420662    
   3914000   1.0219606      16.750214      5.2418617    
   3915000   1.0040451      16.754414      5.2425593    
   3916000   1.0538966      16.912362      5.2282832    
   3917000   0.99512446     16.508477      5.2457769    
   3918000   0.97636476     17.201042      5.2424783    
   3919000   1.035494       16.781744      5.2237049    
   3920000   0.95769522     16.615718      5.2562999    
   3921000   1.0383203      16.977864      5.2350483    
   3922000   1.017914       16.806019      5.2484052    
   3923000   1.011594       16.414333      5.2341444    
   3924000   1.038019       16.497703      5.2526701    
   3925000   1.0453157      17.259991      5.2297499    
   3926000   1.003661       16.874417      5.2456437    
   3927000   1.0150679      16.654751      5.2129516    
   3928000   1.0452831      16.801318      5.2129306    
   3929000   1.0264631      16.692494      5.2427364    
   3930000   0.94613094     16.146498      5.2504815    
   3931000   0.98715788     16.747623      5.2202739    
   3932000   0.99909598     16.700101      5.2140986    
   3933000   1.0050887      16.774795      5.2185958    
   3934000   1.0064732      16.740608      5.2615621    
   3935000   0.99280188     16.670055      5.2134159    
   3936000   1.003601       16.482587      5.2497019    
   3937000   0.97219703     16.792889      5.2903093    
   3938000   1.0071491      17.235498      5.261825     
   3939000   0.97898984     16.364315      5.2805316    
   3940000   0.99974383     17.00205       5.2624487    
   3941000   0.98980831     16.775293      5.240193     
   3942000   0.97810214     17.085173      5.2712043    
   3943000   1.0045744      16.966237      5.2661761    
   3944000   1.0117182      16.859556      5.2571122    
   3945000   1.0505103      16.651213      5.2757246    
   3946000   0.99234153     16.842398      5.2773855    
   3947000   1.0040105      16.846171      5.2141712    
   3948000   1.0137735      16.494272      5.2588774    
   3949000   1.0262342      16.624558      5.2499191    
   3950000   0.96527731     16.824887      5.2523046    
   3951000   0.99394992     16.055256      5.2793355    
   3952000   1.0118291      17.261082      5.2546683    
   3953000   0.99252965     16.776522      5.2520757    
   3954000   0.96330196     16.747908      5.2489497    
   3955000   1.010404       17.040766      5.2456713    
   3956000   1.0078298      17.32396       5.245628     
   3957000   0.96310724     16.547308      5.2611827    
   3958000   0.95923871     16.903533      5.2460106    
   3959000   1.0120905      16.905023      5.2737994    
   3960000   0.99321203     16.841717      5.2224282    
   3961000   0.9708278      16.562388      5.2616841    
   3962000   0.98695446     16.426186      5.255929     
   3963000   1.0020822      17.044238      5.2519977    
   3964000   1.0160612      16.545795      5.2975612    
   3965000   0.97660883     16.719942      5.2898199    
   3966000   1.0395774      16.784707      5.2668305    
   3967000   1.0033625      16.491955      5.2523844    
   3968000   0.99454026     17.047544      5.2024452    
   3969000   1.0023728      16.986772      5.2155051    
   3970000   0.98103892     16.51016       5.235954     
   3971000   1.0157645      17.187609      5.2173796    
   3972000   0.9702724      16.489193      5.2640271    
   3973000   1.033291       16.618887      5.2351861    
   3974000   0.98643041     16.124557      5.2395146    
   3975000   0.99966681     16.635738      5.2382158    
   3976000   0.96922682     17.031436      5.2441508    
   3977000   1.006751       16.804144      5.2545009    
   3978000   0.98432904     17.073232      5.2359775    
   3979000   1.0547416      17.127553      5.2513487    
   3980000   1.0236291      16.7707        5.261897     
   3981000   1.0219549      16.641417      5.2313945    
   3982000   1.0101822      16.999122      5.2293773    
   3983000   1.0201907      16.916556      5.2560602    
   3984000   1.0046198      17.525447      5.2007525    
   3985000   1.0411102      17.088956      5.2495698    
   3986000   1.0071181      16.955016      5.2705888    
   3987000   1.0105989      16.831583      5.258318     
   3988000   1.013255       17.105649      5.2627466    
   3989000   1.0009383      16.782607      5.2622837    
   3990000   0.97480843     16.547615      5.2662163    
   3991000   0.99723496     16.502027      5.2634801    
   3992000   1.024798       16.779947      5.2771447    
   3993000   1.0323373      16.322477      5.3046036    
   3994000   1.014452       16.853845      5.3089891    
   3995000   1.0253688      17.020101      5.3221653    
   3996000   1.0059574      16.557728      5.2858996    
   3997000   0.94956969     17.021237      5.260478     
   3998000   1.0427067      16.844771      5.2555628    
   3999000   0.99724151     17.047381      5.2989101    
   4000000   1.019445       17.384615      5.3263645    
   4001000   1.0351595      16.724649      5.2612667    
   4002000   1.0236978      16.791599      5.2446114    
   4003000   1.0037571      16.755524      5.2608217    
   4004000   1.017952       16.766701      5.2436271    
   4005000   1.0154753      16.909691      5.2810419    
   4006000   1.003048       16.741484      5.2514242    
   4007000   0.97592748     17.14306       5.2237881    
   4008000   1.0401924      16.813413      5.2527428    
   4009000   1.0414658      16.784535      5.2426102    
   4010000   1.0035143      17.063079      5.2452706    
   4011000   0.99726986     16.426277      5.2845782    
   4012000   0.98379716     16.232602      5.2791466    
   4013000   0.98619801     17.043553      5.2519322    
   4014000   1.0212316      16.868492      5.2224366    
   4015000   0.99193863     16.774738      5.2476139    
   4016000   0.97597049     16.663717      5.2541533    
   4017000   1.0239201      16.610343      5.2890703    
   4018000   0.94602487     16.714133      5.2456267    
   4019000   1.0159052      16.740516      5.2454461    
   4020000   1.0135578      16.81944       5.2582751    
   4021000   1.0239978      17.118283      5.2419135    
   4022000   1.0185163      16.741313      5.2591113    
   4023000   1.03595        16.9769        5.2341957    
   4024000   1.0050525      16.907553      5.2142291    
   4025000   0.94529158     17.032635      5.2534365    
   4026000   1.0015581      16.749808      5.2884462    
   4027000   0.97875713     16.83217       5.2411677    
   4028000   0.98351102     16.942191      5.2518138    
   4029000   1.0004905      16.928018      5.2546611    
   4030000   1.0152632      16.893786      5.2146675    
   4031000   0.9890094      16.676723      5.2265856    
   4032000   0.99042559     16.648882      5.2373057    
   4033000   1.0121298      16.352331      5.2433573    
   4034000   0.99164031     16.418344      5.2261263    
   4035000   0.95200564     16.750464      5.266311     
   4036000   0.96905893     16.576943      5.2466911    
   4037000   0.98190638     16.431342      5.2191273    
   4038000   0.97811232     16.814641      5.2420645    
   4039000   0.9690828      17.005468      5.2403647    
   4040000   0.95856006     16.710022      5.2546467    
   4041000   0.96748599     16.972152      5.2361188    
   4042000   0.97511515     17.190413      5.2188626    
   4043000   1.0392626      17.146493      5.251109     
   4044000   1.0247536      16.689142      5.2363479    
   4045000   1.0446842      17.234739      5.2507193    
   4046000   1.0211728      16.94855       5.2729364    
   4047000   1.0068032      17.685991      5.2551991    
   4048000   0.99337684     16.621517      5.2837345    
   4049000   0.99123891     16.819804      5.2372234    
   4050000   1.0136839      16.237016      5.2277275    
   4051000   0.97424265     16.985704      5.2228884    
   4052000   1.0296983      16.594284      5.2125894    
   4053000   0.94603272     16.457662      5.235542     
   4054000   0.97698497     16.794684      5.2355209    
   4055000   0.99254879     16.893064      5.2563084    
   4056000   0.98984289     16.613514      5.2703302    
   4057000   1.0286199      16.2971        5.2584871    
   4058000   0.99166625     16.763702      5.2263841    
   4059000   1.0177475      16.593934      5.2484811    
   4060000   0.97399683     16.340211      5.2483684    
   4061000   1.0055865      16.578013      5.247327     
   4062000   0.98582888     16.395036      5.2793404    
   4063000   1.0601642      16.690874      5.2799809    
   4064000   1.0464289      17.243446      5.262862     
   4065000   0.9865164      16.751009      5.250239     
   4066000   1.0037497      17.021721      5.2634884    
   4067000   0.98051855     16.696439      5.2595876    
   4068000   0.97774361     17.277812      5.2565168    
   4069000   1.0016365      16.895045      5.2792106    
   4070000   0.99717528     16.918172      5.2993218    
   4071000   1.0281832      16.982621      5.2665907    
   4072000   1.0236745      16.887452      5.2726151    
   4073000   0.98514666     16.571501      5.2651131    
   4074000   1.0216358      16.766359      5.2490613    
   4075000   1.0090973      17.038175      5.2767817    
   4076000   1.0376456      17.023909      5.2373552    
   4077000   1.0199649      17.263028      5.2262736    
   4078000   0.9878726      16.099284      5.2224592    
   4079000   1.0069954      16.66417       5.2588708    
   4080000   1.0137944      16.585822      5.3008394    
   4081000   1.0024644      16.201385      5.3048491    
   4082000   1.0007559      16.718555      5.2917285    
   4083000   0.96828602     16.677731      5.2939693    
   4084000   1.0413612      17.262         5.2343057    
   4085000   0.97918445     16.280515      5.2836986    
   4086000   1.0499057      16.838155      5.2556051    
   4087000   1.0203668      16.745018      5.2448278    
   4088000   1.0060575      16.798876      5.2571334    
   4089000   1.0326097      16.792284      5.2241469    
   4090000   0.98857145     16.501174      5.2088904    
   4091000   1.0001915      16.575985      5.2232973    
   4092000   0.96998976     16.583612      5.2407336    
   4093000   1.0153536      16.663867      5.2152434    
   4094000   1.0193867      16.84653       5.2376796    
   4095000   0.97176341     16.514056      5.2441726    
   4096000   1.0295437      16.225354      5.2595078    
   4097000   1.0179077      16.779292      5.2476121    
   4098000   0.99800814     16.985724      5.2891204    
   4099000   1.0170818      16.755516      5.2401083    
   4100000   0.98004626     16.147825      5.2607027    
   4101000   0.97423021     16.659487      5.2649035    
   4102000   1.0083384      16.5123        5.2640024    
   4103000   0.99950271     17.036443      5.2444257    
   4104000   1.0030801      16.446763      5.2716157    
   4105000   1.0040315      16.659071      5.2676342    
   4106000   1.0599628      16.362251      5.2615595    
   4107000   0.95511094     17.272209      5.2750796    
   4108000   0.98841509     16.700768      5.3222595    
   4109000   0.95908819     16.563847      5.292816     
   4110000   0.94733146     17.032479      5.2309091    
   4111000   0.99800745     16.481231      5.2273331    
   4112000   1.0207458      17.317386      5.2598703    
   4113000   0.95269025     16.537344      5.3079796    
   4114000   1.0078145      16.752804      5.3097249    
   4115000   0.96935753     16.439544      5.2679598    
   4116000   0.98548381     17.020193      5.2409282    
   4117000   0.99311901     16.73324       5.2496333    
   4118000   0.97754333     16.404036      5.2623131    
   4119000   0.99036578     16.645042      5.2457096    
   4120000   1.0254241      16.676588      5.2390158    
   4121000   0.97898963     17.240709      5.2403128    
   4122000   1.0276943      16.251816      5.2129926    
   4123000   1.0489078      17.004376      5.2141748    
   4124000   1.0178971      16.995382      5.2681833    
   4125000   0.9609837      16.79664       5.3033437    
   4126000   1.0344149      17.124491      5.2393067    
   4127000   1.0000647      17.079637      5.260846     
   4128000   0.99660528     16.781537      5.2365101    
   4129000   0.98608415     16.998421      5.2779262    
   4130000   0.97286062     17.050548      5.2312838    
   4131000   1.0237637      16.832609      5.2359485    
   4132000   1.0256451      17.169663      5.2421058    
   4133000   0.96758906     16.380669      5.236691     
   4134000   1.0109809      16.504805      5.2596784    
   4135000   1.0288812      17.102377      5.2533067    
   4136000   1.002          16.865027      5.2734346    
   4137000   0.98427444     17.150667      5.2523723    
   4138000   0.93969009     16.580954      5.2169981    
   4139000   0.99188997     17.290206      5.2299455    
   4140000   0.96236414     16.943785      5.2281064    
   4141000   1.0755853      17.483397      5.2398926    
   4142000   1.0365503      17.164714      5.2377889    
   4143000   0.99401127     17.091092      5.2050297    
   4144000   1.0095738      16.999126      5.2367896    
   4145000   1.0544244      16.726038      5.256004     
   4146000   0.9873445      16.366897      5.2457221    
   4147000   1.075115       17.170248      5.2633188    
   4148000   0.95481553     16.10453       5.325086     
   4149000   1.0587792      16.554871      5.2838042    
   4150000   1.0098231      16.91247       5.3055539    
   4151000   1.0044738      17.120368      5.2872963    
   4152000   1.0062575      17.188474      5.2801673    
   4153000   0.99933863     16.92232       5.2156275    
   4154000   1.0314675      16.641095      5.2393355    
   4155000   1.0378306      16.9681        5.2378379    
   4156000   0.98061855     16.666889      5.2569425    
   4157000   1.0541744      17.599625      5.2323635    
   4158000   0.98568882     16.888546      5.2266758    
   4159000   1.04255        17.073028      5.2618384    
   4160000   1.0144826      17.027358      5.2334298    
   4161000   0.98400949     16.357851      5.2409926    
   4162000   1.029667       17.041221      5.2494364    
   4163000   1.0156452      16.990079      5.2444832    
   4164000   0.93037156     16.245403      5.2855842    
   4165000   1.0444157      16.450583      5.2739036    
   4166000   1.0142516      16.464565      5.2983415    
   4167000   1.0275639      16.719591      5.2445201    
   4168000   1.0180877      16.791021      5.2531851    
   4169000   0.9985308      16.635453      5.2664758    
   4170000   1.0091047      16.738166      5.2490162    
   4171000   1.017169       17.66764       5.2261694    
   4172000   1.0162357      17.015857      5.250219     
   4173000   0.99542776     16.876677      5.2728778    
   4174000   0.98896676     16.57016       5.2503576    
   4175000   0.948228       16.724367      5.266798     
   4176000   1.0263612      16.984038      5.2676427    
   4177000   1.0518245      17.132496      5.254901     
   4178000   1.0345119      17.124061      5.2299165    
   4179000   1.0266192      17.288138      5.2507427    
   4180000   0.98687336     16.358499      5.2115177    
   4181000   1.0161327      16.508522      5.2197497    
   4182000   1.0143701      17.143832      5.2224371    
   4183000   1.0246498      17.102892      5.2199275    
   4184000   1.0120722      16.801711      5.2003269    
   4185000   0.9948049      16.988268      5.2396908    
   4186000   0.99997273     16.436234      5.2294908    
   4187000   0.97971131     16.339067      5.2388461    
   4188000   1.0176168      16.655679      5.218173     
   4189000   1.0125755      17.049557      5.2345576    
   4190000   1.0109559      16.892248      5.2479045    
   4191000   1.0213712      17.035027      5.2296229    
   4192000   1.0096509      17.026334      5.2322491    
   4193000   0.9641298      16.448899      5.2205934    
   4194000   0.9948498      17.029983      5.217325     
   4195000   1.021171       16.889591      5.2385053    
   4196000   1.0309387      16.484009      5.2365629    
   4197000   0.98302137     17.10684       5.248634     
   4198000   0.96513632     17.500409      5.2642213    
   4199000   1.0122914      16.906481      5.2642575    
   4200000   0.9967516      16.564563      5.2771607    
   4201000   1.0054447      17.006335      5.2284663    
   4202000   1.0203366      17.456412      5.2592106    
   4203000   0.97131369     16.556515      5.2922986    
   4204000   0.98133501     16.365686      5.2325553    
   4205000   0.99467674     16.99059       5.2749339    
   4206000   1.014726       17.06828       5.2616389    
   4207000   0.99250322     17.562344      5.2710716    
   4208000   0.96283295     16.562706      5.2452808    
   4209000   1.0009581      16.809804      5.2797581    
   4210000   1.0553102      16.392567      5.2717834    
   4211000   0.99497699     16.634289      5.2568117    
   4212000   1.002873       17.327501      5.2482646    
   4213000   1.0171827      16.553541      5.2918734    
   4214000   0.98171955     16.811285      5.2841398    
   4215000   0.9915971      16.955275      5.2734404    
   4216000   0.97264207     16.690385      5.2523765    
   4217000   0.99534267     17.480023      5.254507     
   4218000   0.99111742     16.712095      5.2875461    
   4219000   1.0074808      17.294809      5.2521443    
   4220000   0.97829236     16.851641      5.2741254    
   4221000   0.96349597     16.756048      5.2718404    
   4222000   0.96440866     16.239378      5.2797193    
   4223000   1.0015398      16.995214      5.2491523    
   4224000   1.0102036      17.320481      5.2664183    
   4225000   0.99836861     16.823356      5.2483204    
   4226000   0.92321057     16.191446      5.2511189    
   4227000   0.98168387     17.256463      5.2717791    
   4228000   1.0354965      16.574409      5.2482475    
   4229000   0.9544849      16.812878      5.2636214    
   4230000   0.9751689      16.517397      5.2891286    
   4231000   0.97538532     16.463357      5.2493099    
   4232000   0.9921504      16.73039       5.281723     
   4233000   1.0345559      16.569006      5.2434089    
   4234000   0.99092854     16.472264      5.2805769    
   4235000   1.0194258      17.088841      5.23488      
   4236000   0.96559077     16.772565      5.2466588    
   4237000   0.98919219     17.108651      5.233749     
   4238000   1.0064072      16.58243       5.2632012    
   4239000   0.99091773     17.605808      5.2342498    
   4240000   0.98902723     17.002516      5.2075872    
   4241000   0.98909682     16.655821      5.2160911    
   4242000   1.0078087      16.384465      5.2658987    
   4243000   1.0183276      16.86123       5.2441808    
   4244000   1.0227232      17.141349      5.2533297    
   4245000   0.98025462     16.906978      5.2612305    
   4246000   0.99633602     17.023411      5.2420797    
   4247000   0.98666279     16.599013      5.2309638    
   4248000   1.018981       16.463305      5.2460312    
   4249000   1.0652496      16.835792      5.2842826    
   4250000   0.94578179     17.037125      5.2378155    
   4251000   0.99147743     17.153128      5.2535603    
   4252000   1.0002249      17.326433      5.2239779    
   4253000   0.98424791     16.282687      5.2665688    
   4254000   0.97769718     16.877461      5.2532789    
   4255000   1.0486025      16.485505      5.2938074    
   4256000   1.0262306      16.464784      5.3177813    
   4257000   0.97684756     16.376175      5.3604546    
   4258000   1.0053513      16.728684      5.354768     
   4259000   0.94050527     16.514734      5.2925779    
   4260000   1.0217397      16.85566       5.2657768    
   4261000   1.0172461      16.970981      5.2890948    
   4262000   0.98834355     16.856616      5.3133756    
   4263000   1.0188883      16.995022      5.2657213    
   4264000   0.97448538     16.04983       5.2790139    
   4265000   0.97648966     16.757179      5.2415042    
   4266000   0.99394269     17.301813      5.2373197    
   4267000   0.9978687      16.77531       5.2654944    
   4268000   0.96890489     16.561176      5.2497204    
   4269000   0.96606616     16.607725      5.2540329    
   4270000   0.98706954     17.433103      5.210362     
   4271000   0.98381464     16.30752       5.2070951    
   4272000   1.0066252      16.752987      5.2415423    
   4273000   0.97286414     16.704084      5.3018099    
   4274000   0.99168651     16.681555      5.2647126    
   4275000   1.015988       17.156591      5.2604463    
   4276000   1.0103553      16.726084      5.2330713    
   4277000   1.0338787      16.359617      5.2413114    
   4278000   1.0139044      17.14251       5.2236958    
   4279000   0.99880203     16.8106        5.2751952    
   4280000   0.99773159     16.824982      5.2323396    
   4281000   1.0075497      16.621779      5.2671633    
   4282000   0.99465877     17.089246      5.2691971    
   4283000   0.99690513     16.148259      5.2665467    
   4284000   0.93702785     16.883176      5.2154459    
   4285000   0.98935944     16.723179      5.2306057    
   4286000   0.97708987     17.261181      5.2456154    
   4287000   0.98413407     16.710573      5.2437404    
   4288000   0.97324564     16.438661      5.2700076    
   4289000   1.0607501      16.754042      5.2236521    
   4290000   0.98102483     17.013561      5.2785387    
   4291000   1.010237       16.620636      5.2780985    
   4292000   1.0031334      16.546197      5.2592071    
   4293000   1.0235316      16.890644      5.2389244    
   4294000   1.0195682      16.841479      5.2372872    
   4295000   1.047043       17.075224      5.2309051    
   4296000   0.99997774     17.162305      5.2708155    
   4297000   0.98305493     16.660788      5.2278354    
   4298000   0.96693865     16.775921      5.2507238    
   4299000   0.94201688     16.801672      5.2193738    
   4300000   0.99490988     16.703805      5.2144244    
   4301000   1.0465569      17.108484      5.2144571    
   4302000   0.97290769     16.974071      5.2263914    
   4303000   0.93972064     16.906834      5.2124528    
   4304000   0.99781374     16.832434      5.25938      
   4305000   1.0558074      16.646813      5.2544434    
   4306000   1.0699604      17.17302       5.2364188    
   4307000   0.99167414     16.189693      5.2233472    
   4308000   0.95857994     16.193742      5.2304797    
   4309000   0.9949907      16.85681       5.2519471    
   4310000   1.0248512      16.610492      5.2187608    
   4311000   0.99297961     17.449111      5.23983      
   4312000   1.0035668      16.724316      5.2215112    
   4313000   1.0446254      17.246202      5.2367313    
   4314000   0.94374416     17.153623      5.2401553    
   4315000   0.96579707     16.899871      5.2212396    
   4316000   0.99163189     16.264367      5.2563847    
   4317000   0.97960045     16.855047      5.2588966    
   4318000   0.96715563     17.106898      5.2659081    
   4319000   1.011687       16.629807      5.2561626    
   4320000   0.98509884     16.727464      5.2869617    
   4321000   0.99030624     16.745113      5.2260644    
   4322000   1.0192917      17.040013      5.2567886    
   4323000   0.99705314     16.381418      5.2902608    
   4324000   0.97521222     16.967695      5.2717522    
   4325000   1.0227836      17.14866       5.2487996    
   4326000   1.0117466      17.051005      5.2414788    
   4327000   1.0205126      16.673578      5.2547678    
   4328000   0.95520551     16.276034      5.2320505    
   4329000   0.9923415      16.27186       5.2361169    
   4330000   0.97804448     16.55757       5.2169866    
   4331000   1.0072534      16.394006      5.2388041    
   4332000   0.96835892     17.089586      5.2394555    
   4333000   1.0272453      17.180496      5.2243407    
   4334000   1.0024196      16.647264      5.250356     
   4335000   0.95284575     16.263634      5.2594351    
   4336000   0.99297915     17.107382      5.2582473    
   4337000   0.99841372     16.485799      5.2833477    
   4338000   0.97528465     16.741193      5.2773157    
   4339000   0.98320251     15.963319      5.2547203    
   4340000   1.0124624      16.61802       5.2259412    
   4341000   0.97135344     16.655181      5.240248     
   4342000   1.023708       17.420086      5.2387354    
   4343000   1.0054488      16.92021       5.2665564    
   4344000   0.99070605     16.092483      5.2930726    
   4345000   1.033841       17.067402      5.2391447    
   4346000   0.99253047     16.688831      5.197477     
   4347000   0.98844111     16.667705      5.220836     
   4348000   1.0134457      17.164379      5.2150724    
   4349000   0.98868902     16.595374      5.2432187    
   4350000   1.0237031      16.69536       5.2194198    
   4351000   0.9694814      17.241354      5.1842756    
   4352000   0.9522896      16.132267      5.2012197    
   4353000   1.005613       16.799216      5.2196551    
   4354000   1.0251009      16.821417      5.2128708    
   4355000   1.0543094      17.252838      5.2202851    
   4356000   1.0044686      16.827145      5.2417979    
   4357000   1.0091424      16.888523      5.2361223    
   4358000   0.96393468     16.690598      5.2533198    
   4359000   1.0128411      16.784555      5.1995637    
   4360000   1.0214312      17.379367      5.2388199    
   4361000   1.0035103      17.210459      5.2404879    
   4362000   0.98459721     16.659708      5.2329388    
   4363000   1.014016       17.300345      5.2235753    
   4364000   1.0194553      16.887739      5.2636415    
   4365000   0.98596878     17.362913      5.259855     
   4366000   1.0184721      16.725783      5.2534521    
   4367000   0.96660201     17.119724      5.2330644    
   4368000   1.0377239      17.04794       5.243748     
   4369000   0.96862094     16.866158      5.2203787    
   4370000   1.0442991      16.894647      5.1977331    
   4371000   0.98651818     16.673194      5.2569101    
   4372000   1.0027474      17.080398      5.2244138    
   4373000   0.99366166     16.983353      5.2603618    
   4374000   0.9849702      16.945208      5.2421199    
   4375000   0.99971914     17.518815      5.2463883    
   4376000   1.0328696      17.087095      5.2545955    
   4377000   1.0159316      16.326203      5.2544487    
   4378000   0.9709695      16.568099      5.2713243    
   4379000   0.9785106      16.949335      5.2609836    
   4380000   1.0003398      16.773208      5.2325189    
   4381000   0.95300325     16.188839      5.2357414    
   4382000   0.98120859     16.207062      5.2620075    
   4383000   0.97742721     16.513396      5.2619467    
   4384000   0.99544331     16.879303      5.2710782    
   4385000   1.0333772      16.683496      5.2357904    
   4386000   1.0076201      16.917518      5.2572314    
   4387000   0.95390712     16.783696      5.2727592    
   4388000   0.92403082     16.534178      5.2334296    
   4389000   1.000728       17.22452       5.2325879    
   4390000   1.0242094      17.008408      5.2302827    
   4391000   0.98295159     16.870117      5.2434005    
   4392000   1.0224716      17.080039      5.2268632    
   4393000   1.0243812      16.983162      5.213738     
   4394000   1.0190834      17.041922      5.2630323    
   4395000   0.99296286     16.285416      5.221016     
   4396000   1.0093349      16.94517       5.2435156    
   4397000   1.0040518      16.93276       5.2542311    
   4398000   0.98571879     16.7296        5.2630338    
   4399000   0.99315197     16.76828       5.2257418    
   4400000   1.048871       16.794755      5.2583421    
   4401000   0.9950376      16.963257      5.2549543    
   4402000   1.0196913      16.447809      5.2813236    
   4403000   1.0375526      17.429002      5.2592019    
   4404000   1.0119039      16.508884      5.2752227    
   4405000   1.0098581      17.101848      5.2920666    
   4406000   1.0059665      16.992562      5.2602817    
   4407000   1.0694852      16.990123      5.2713264    
   4408000   1.0211674      16.260373      5.3026054    
   4409000   1.0216906      17.342254      5.2337775    
   4410000   0.95619785     17.061408      5.2055493    
   4411000   0.99515636     16.877918      5.2504754    
   4412000   1.02247        16.364466      5.2172749    
   4413000   0.99322567     16.50508       5.2376159    
   4414000   0.98053654     16.667408      5.2489502    
   4415000   1.0043586      16.920905      5.2459353    
   4416000   1.0210302      16.913215      5.2522161    
   4417000   1.0014918      16.386858      5.2810114    
   4418000   0.95946398     16.708522      5.2509536    
   4419000   1.0135258      16.775558      5.2574846    
   4420000   1.0306383      17.051011      5.2420838    
   4421000   0.96645493     17.062461      5.258321     
   4422000   0.97077536     17.027448      5.2546193    
   4423000   1.0083936      17.19155       5.271393     
   4424000   1.0365832      16.485093      5.2392666    
   4425000   1.0423839      16.761923      5.2289242    
   4426000   0.9784399      16.580194      5.2316281    
   4427000   0.9789159      17.262247      5.2347432    
   4428000   1.0457436      16.906809      5.2478834    
   4429000   1.0570452      16.70909       5.2226302    
   4430000   0.97474708     16.571626      5.1871826    
   4431000   0.99715037     16.964235      5.2233786    
   4432000   1.0345203      16.741933      5.2577362    
   4433000   1.0127923      16.771909      5.2214596    
   4434000   0.97137364     16.947086      5.2344307    
   4435000   1.004013       17.261657      5.2660279    
   4436000   1.0353761      17.00879       5.2690327    
   4437000   1.0329405      16.728817      5.2730372    
   4438000   0.99376142     17.018567      5.2493717    
   4439000   0.99433216     16.523085      5.2537204    
   4440000   1.0074432      16.920855      5.2410446    
   4441000   0.99517533     16.162286      5.2414481    
   4442000   1.002993       16.878794      5.2269836    
   4443000   1.0139768      16.653396      5.2514591    
   4444000   1.0391738      17.494145      5.2153894    
   4445000   1.0003544      16.80458       5.280009     
   4446000   1.0325416      17.467529      5.2475184    
   4447000   0.97860237     17.334961      5.2694359    
   4448000   0.98669684     16.779808      5.2305543    
   4449000   1.0238974      17.041538      5.2514078    
   4450000   0.99223871     16.893059      5.2509216    
   4451000   0.94759053     16.344113      5.2308077    
   4452000   0.96702526     16.953867      5.261318     
   4453000   0.99588601     16.660679      5.2790525    
   4454000   1.0374771      17.457018      5.2307838    
   4455000   0.97475834     16.80008       5.2385131    
   4456000   1.0064335      16.747927      5.2499216    
   4457000   0.97175282     17.045429      5.2231604    
   4458000   1.0288002      16.80055       5.2440041    
   4459000   0.99781607     17.010569      5.2415789    
   4460000   0.98960724     17.018635      5.2400132    
   4461000   0.99143972     16.846516      5.261841     
   4462000   0.99070144     16.793866      5.2479097    
   4463000   1.0239037      17.018663      5.2270664    
   4464000   1.0279619      17.039614      5.2137275    
   4465000   1.0196202      16.46757       5.2376083    
   4466000   0.9817854      16.527299      5.2364848    
   4467000   0.99048528     16.463722      5.2352772    
   4468000   0.98532044     16.656097      5.2325935    
   4469000   0.99051832     16.378677      5.2341834    
   4470000   0.96326443     16.703692      5.244495     
   4471000   1.057168       16.960819      5.230872     
   4472000   1.0093187      17.141193      5.2392069    
   4473000   0.98905609     16.365455      5.2185285    
   4474000   1.0338437      17.112761      5.2414079    
   4475000   1.0064855      17.008371      5.2413685    
   4476000   1.0510946      16.996579      5.2148992    
   4477000   0.97341829     16.429842      5.2195618    
   4478000   1.0012899      16.017996      5.2278359    
   4479000   1.0085217      16.988677      5.2056591    
   4480000   1.0344827      17.126746      5.2459948    
   4481000   1.0288122      17.418375      5.2503303    
   4482000   0.97379909     16.922858      5.2727844    
   4483000   1.0267205      17.103173      5.2457792    
   4484000   0.96497616     17.029441      5.2597697    
   4485000   1.0144787      16.57248       5.2676587    
   4486000   1.0203779      16.146198      5.2700591    
   4487000   0.98428146     17.265978      5.2528019    
   4488000   0.95203653     16.814139      5.2597315    
   4489000   0.99416836     17.029337      5.2837705    
   4490000   0.99662601     16.537923      5.2974678    
   4491000   1.0423616      16.902117      5.2899665    
   4492000   0.97302669     16.653382      5.3193315    
   4493000   1.0306076      16.562531      5.3199774    
   4494000   1.0033504      16.620694      5.2779248    
   4495000   1.0002842      16.826499      5.3215898    
   4496000   1.0223824      16.705936      5.2676077    
   4497000   1.0039067      16.882159      5.2302438    
   4498000   1.0664905      17.139966      5.220229     
   4499000   0.97971252     17.036259      5.220975     
   4500000   1.0079057      16.124329      5.2452838    
   4501000   0.97400416     17.406352      5.2285198    
   4502000   1.0357861      16.527385      5.2536281    
   4503000   1.0259917      17.294056      5.2185169    
   4504000   0.99280307     16.994625      5.2328987    
   4505000   1.0465843      17.000763      5.2073684    
   4506000   1.0246087      16.856602      5.262543     
   4507000   1.0096997      16.817663      5.2536875    
   4508000   1.0037107      16.764056      5.2348995    
   4509000   0.98835988     16.713245      5.2436058    
   4510000   1.0120801      16.828494      5.2191474    
   4511000   0.97917541     16.604127      5.2418195    
   4512000   0.98708259     16.54236       5.271944     
   4513000   0.98533869     16.801285      5.2600963    
   4514000   1.0343458      16.622554      5.2528343    
   4515000   1.0057748      17.204553      5.3008699    
   4516000   1.0162033      16.79076       5.2228552    
   4517000   0.9881824      16.184505      5.2504493    
   4518000   0.98608975     17.075169      5.2365681    
   4519000   0.99900379     16.865734      5.2574269    
   4520000   1.0012194      16.211102      5.2829906    
   4521000   0.98890351     16.902825      5.2732961    
   4522000   0.9898485      16.496881      5.2860503    
   4523000   0.99314863     17.264587      5.2343549    
   4524000   0.97918896     16.759736      5.2646035    
   4525000   0.97139364     16.58034       5.324992     
   4526000   1.0653447      17.071431      5.2813734    
   4527000   1.0040352      16.817343      5.2715241    
   4528000   0.93868798     16.497194      5.3177       
   4529000   0.98652645     16.779262      5.3143739    
   4530000   1.0103707      17.059577      5.2580751    
   4531000   0.93693847     17.220454      5.2841981    
   4532000   0.99492024     16.941776      5.2833827    
   4533000   0.95100096     17.39984       5.2995313    
   4534000   1.0157589      16.972989      5.2697837    
   4535000   1.0335308      16.52849       5.2659233    
   4536000   1.009289       16.89046       5.2779229    
   4537000   1.0636077      17.054935      5.2460792    
   4538000   1.0201335      16.527748      5.2532088    
   4539000   0.9980934      16.643422      5.2463307    
   4540000   0.99757825     16.670389      5.2286697    
   4541000   1.0039268      17.077955      5.2318396    
   4542000   0.94724337     16.396192      5.260824     
   4543000   0.97847269     16.744705      5.2410058    
   4544000   0.92960738     16.945225      5.2205854    
   4545000   1.041678       17.172648      5.208247     
   4546000   1.0090411      16.758712      5.273339     
   4547000   1.012704       16.916932      5.2675292    
   4548000   0.97801347     17.002013      5.2678907    
   4549000   1.0012483      16.860938      5.2319761    
   4550000   0.99877378     16.634004      5.2372353    
   4551000   0.95069013     16.671284      5.2520762    
   4552000   0.99421252     16.682392      5.2327456    
   4553000   0.9902487      17.360798      5.2258166    
   4554000   1.0147523      17.038018      5.2428229    
   4555000   1.0489196      17.075612      5.237279     
   4556000   1.0001274      16.931843      5.2429574    
   4557000   0.96951047     16.86931       5.2354412    
   4558000   1.0338174      17.205352      5.2370822    
   4559000   1.0382377      17.171816      5.2093584    
   4560000   1.016632       16.823517      5.235035     
   4561000   1.0242677      17.040716      5.2581302    
   4562000   1.0160013      17.02289       5.2316741    
   4563000   1.0119259      16.936939      5.2555992    
   4564000   0.99656776     17.760478      5.2371078    
   4565000   0.99682466     16.640411      5.1997394    
   4566000   0.99095874     17.162533      5.2005251    
   4567000   1.0071845      16.756035      5.2171302    
   4568000   0.98923351     16.582678      5.24868      
   4569000   0.9795902      16.495482      5.2437715    
   4570000   1.0217844      16.724269      5.2172672    
   4571000   0.98267264     16.883156      5.2194562    
   4572000   1.0052299      16.629194      5.2432057    
   4573000   1.03518        16.866722      5.2001237    
   4574000   1.0256365      16.751641      5.225589     
   4575000   0.99158979     16.404271      5.2366793    
   4576000   1.0308083      16.674205      5.2229022    
   4577000   1.0349217      16.455846      5.240844     
   4578000   0.96929978     16.664093      5.2165474    
   4579000   1.0066507      17.118548      5.2221072    
   4580000   1.0049057      16.884271      5.2263535    
   4581000   0.97969548     16.601295      5.2308708    
   4582000   1.0174222      16.500774      5.2297126    
   4583000   0.9910814      17.290373      5.2284225    
   4584000   0.99745261     17.028845      5.2606233    
   4585000   1.0093251      16.419945      5.2769813    
   4586000   0.99531481     16.94325       5.2415632    
   4587000   0.98300841     16.471856      5.2252616    
   4588000   0.97165235     16.763538      5.2381236    
   4589000   0.9983112      16.812031      5.26277      
   4590000   1.0084997      16.709388      5.2744862    
   4591000   0.97535749     16.608973      5.2742422    
   4592000   1.0233082      16.949276      5.2593944    
   4593000   1.0159014      16.534326      5.2774467    
   4594000   0.97318336     16.792986      5.281887     
   4595000   1.0082387      16.783571      5.2805197    
   4596000   1.0316624      17.242501      5.273391     
   4597000   0.97505774     17.11794       5.2373769    
   4598000   1.0417711      17.339969      5.2519948    
   4599000   1.0034354      17.421368      5.2425537    
   4600000   1.0083543      16.935923      5.2954111    
   4601000   1.0212728      17.121122      5.2398529    
   4602000   0.98956678     16.694049      5.2564487    
   4603000   0.98947011     17.129833      5.2499411    
   4604000   0.99098264     16.856776      5.2257239    
   4605000   0.99769446     16.321993      5.2359121    
   4606000   1.0090337      17.11446       5.2944698    
   4607000   0.95736798     16.821043      5.2543786    
   4608000   1.0068138      17.153186      5.2067667    
   4609000   1.0154115      16.637922      5.2173401    
   4610000   0.9967221      16.954221      5.239008     
   4611000   1.0248189      16.960044      5.2451542    
   4612000   1.0206553      16.457492      5.2429731    
   4613000   1.0077549      16.709923      5.2785887    
   4614000   1.0095029      17.051751      5.2244778    
   4615000   0.9507893      17.101937      5.2147093    
   4616000   1.0232494      16.239593      5.2398549    
   4617000   1.0153737      16.743795      5.2541498    
   4618000   0.9910526      16.935325      5.2371745    
   4619000   0.97401114     17.265598      5.2267808    
   4620000   1.0168226      17.584587      5.2155842    
   4621000   1.0266958      17.0375        5.2891034    
   4622000   1.0270871      16.349823      5.2302065    
   4623000   1.0170697      16.967189      5.2579579    
   4624000   1.0063155      17.045704      5.2311484    
   4625000   1.0063388      16.779898      5.2172707    
   4626000   1.0678233      17.334783      5.269174     
   4627000   1.0441261      16.600541      5.2478369    
   4628000   0.98578502     16.811273      5.2558711    
   4629000   1.0049327      16.867751      5.2341901    
   4630000   0.96988244     16.99146       5.2157792    
   4631000   1.0288423      16.736018      5.1899285    
   4632000   1.0236392      16.583843      5.2109784    
   4633000   0.99878836     16.70827       5.2065732    
   4634000   1.0202327      17.324581      5.2326162    
   4635000   0.99885277     16.89372       5.2064015    
   4636000   1.0026707      16.957929      5.2604762    
   4637000   1.0284404      16.857144      5.259881     
   4638000   0.95149661     16.675385      5.2467158    
   4639000   0.96384443     16.817262      5.2249611    
   4640000   1.0192455      17.130175      5.2701729    
   4641000   1.0043474      16.51438       5.2900549    
   4642000   1.0093147      16.845965      5.2483679    
   4643000   0.99339912     16.108249      5.2499741    
   4644000   1.0017395      17.092776      5.2573108    
   4645000   0.99960721     16.840765      5.2252792    
   4646000   1.025569       16.943917      5.2546538    
   4647000   0.99130547     17.129546      5.2560927    
   4648000   1.0577918      16.658391      5.2832573    
   4649000   1.0239801      16.899361      5.2774558    
   4650000   1.0108569      16.838253      5.2565185    
   4651000   0.9540989      16.655076      5.2491584    
   4652000   1.0118736      16.879689      5.256907     
   4653000   1.0194509      17.009258      5.2511916    
   4654000   0.99895377     17.245353      5.2732093    
   4655000   1.0472639      16.706026      5.2646805    
   4656000   0.96725813     16.650353      5.2531148    
   4657000   0.99615472     17.103648      5.2690946    
   4658000   1.0305969      17.141776      5.2307034    
   4659000   1.0493558      17.231958      5.2093096    
   4660000   1.0068745      17.297947      5.24504      
   4661000   1.0275306      16.773691      5.2494077    
   4662000   1.0112496      16.800701      5.2328896    
   4663000   0.98981984     17.035104      5.2326256    
   4664000   0.99806265     16.57021       5.2392755    
   4665000   0.99350898     16.717968      5.2674326    
   4666000   0.97142204     16.751667      5.2462734    
   4667000   1.0315427      16.78456       5.2173833    
   4668000   1.0132444      16.187112      5.2656841    
   4669000   1.0264661      16.895987      5.2216168    
   4670000   0.99638523     16.894301      5.1970853    
   4671000   1.0104088      16.539589      5.2516775    
   4672000   1.0161174      16.503246      5.2208954    
   4673000   0.96576121     16.204051      5.2240147    
   4674000   0.97516669     16.753257      5.1976165    
   4675000   1.0126942      17.23625       5.2365299    
   4676000   1.0304008      17.068714      5.2263889    
   4677000   0.979866       16.506668      5.2339294    
   4678000   0.97515164     17.000462      5.2370189    
   4679000   1.0203086      17.088771      5.2304       
   4680000   0.98814047     16.877647      5.2134847    
   4681000   1.0401327      16.897648      5.2337687    
   4682000   1.0299321      16.948847      5.241569     
   4683000   0.96628756     17.5259        5.1997049    
   4684000   0.99366013     16.671004      5.2456939    
   4685000   1.0222416      16.812922      5.2005146    
   4686000   0.99396526     16.694988      5.2129639    
   4687000   1.0139861      16.813784      5.2502861    
   4688000   0.9636272      16.419783      5.2507337    
   4689000   0.98461588     16.800905      5.2926875    
   4690000   0.95864946     16.991475      5.3025903    
   4691000   0.99078159     16.135954      5.285745     
   4692000   1.0454793      17.068115      5.2823908    
   4693000   0.97494282     17.0811        5.2588153    
   4694000   1.0134713      16.644717      5.2602132    
   4695000   0.98101048     16.758466      5.2567721    
   4696000   1.0182762      16.958199      5.2153219    
   4697000   1.0104921      16.777605      5.2337534    
   4698000   0.99190407     16.813728      5.2274746    
   4699000   1.0114752      17.169346      5.258522     
   4700000   1.0104339      17.204392      5.2327915    
   4701000   0.98177705     16.535734      5.2547384    
   4702000   0.94615696     16.750176      5.2500968    
   4703000   1.0004674      16.929819      5.2797986    
   4704000   1.0059942      16.845517      5.2641397    
   4705000   1.0195323      16.830786      5.2708513    
   4706000   1.0035709      17.169883      5.2179542    
   4707000   1.0120612      16.989065      5.2545271    
   4708000   0.97481003     16.616255      5.226897     
   4709000   1.017848       17.260306      5.2234583    
   4710000   0.96925071     16.699216      5.2403796    
   4711000   1.0176862      16.676052      5.2428887    
   4712000   1.0247475      16.489849      5.260539     
   4713000   0.99920605     17.584119      5.2442798    
   4714000   1.0171369      16.939111      5.2411529    
   4715000   1.0023575      16.783829      5.2645847    
   4716000   0.97483306     17.683557      5.2751908    
   4717000   0.98857701     16.774931      5.2440112    
   4718000   1.0007239      16.603861      5.2557559    
   4719000   1.0109891      16.318146      5.2743467    
   4720000   1.0065897      16.439668      5.2496771    
   4721000   1.0313148      16.924235      5.2072573    
   4722000   1.0360285      16.914753      5.232613     
   4723000   0.99896682     16.806436      5.227002     
   4724000   1.0215405      17.254815      5.2098496    
   4725000   0.99833526     16.079187      5.2238399    
   4726000   1.0346846      17.249939      5.2048086    
   4727000   0.98533494     16.785528      5.2153782    
   4728000   1.0261863      17.117662      5.2371938    
   4729000   1.0086665      17.122111      5.2796944    
   4730000   1.0223991      16.915859      5.2442144    
   4731000   0.99665688     16.614783      5.2289902    
   4732000   0.98934962     17.170241      5.2288551    
   4733000   1.0112565      17.015787      5.2326878    
   4734000   1.0083075      16.314451      5.2188142    
   4735000   1.0055776      16.882607      5.2160526    
   4736000   0.99455352     16.397481      5.2095842    
   4737000   0.98915807     16.54875       5.2089936    
   4738000   1.0203595      17.203368      5.2343532    
   4739000   0.98061014     16.922006      5.2713216    
   4740000   0.97949577     16.659494      5.2710353    
   4741000   0.97726121     16.726329      5.2880854    
   4742000   1.0076703      16.465705      5.2753682    
   4743000   1.0127761      16.757132      5.2230479    
   4744000   1.0000179      16.691073      5.2601618    
   4745000   1.0219193      16.738458      5.2289889    
   4746000   1.0253314      17.066726      5.2373788    
   4747000   0.97638984     16.644942      5.2312207    
   4748000   0.99785802     16.782069      5.2438894    
   4749000   0.97046146     16.264739      5.2539323    
   4750000   1.0021965      17.322864      5.248792     
   4751000   0.93371918     16.357842      5.2455398    
   4752000   0.98235138     17.074381      5.2773252    
   4753000   0.98004658     16.657089      5.2367884    
   4754000   1.0112653      16.573075      5.2697005    
   4755000   0.98510041     16.309852      5.2608253    
   4756000   0.99439279     16.726093      5.2630897    
   4757000   0.9888921      17.41122       5.2116467    
   4758000   0.98139328     16.731678      5.2328463    
   4759000   1.0210689      16.830031      5.2209458    
   4760000   0.95601458     16.343955      5.2454727    
   4761000   0.97503476     16.66373       5.2792609    
   4762000   0.97379441     16.351356      5.2548285    
   4763000   1.0191055      17.238928      5.2056441    
   4764000   1.0073079      16.728163      5.2099824    
   4765000   1.0427229      16.893655      5.2601253    
   4766000   1.0038447      16.748939      5.2421537    
   4767000   1.0223839      17.091654      5.2515229    
   4768000   1.0485707      16.993927      5.2424916    
   4769000   1.0222539      16.929842      5.2063539    
   4770000   0.96324719     16.444708      5.2203248    
   4771000   1.0219764      17.216839      5.2130414    
   4772000   1.0223189      16.974491      5.2420187    
   4773000   0.99813635     16.560362      5.2743327    
   4774000   1.0353141      17.383052      5.2620762    
   4775000   0.97176743     16.742203      5.2428425    
   4776000   0.96091305     17.155329      5.2564883    
   4777000   1.0325414      17.523981      5.2354242    
   4778000   1.0393502      17.496915      5.2342852    
   4779000   0.99070128     17.143676      5.2128393    
   4780000   1.0072119      16.768951      5.263788     
   4781000   0.99770335     17.170957      5.2261757    
   4782000   0.98356835     16.920586      5.2433103    
   4783000   0.98444593     16.987728      5.2619254    
   4784000   0.97150931     16.640031      5.2384836    
   4785000   1.0422421      16.921267      5.2282879    
   4786000   1.0492791      16.593867      5.2181414    
   4787000   1.0158791      17.176499      5.2526828    
   4788000   0.97741689     16.702233      5.290111     
   4789000   0.99776702     16.975568      5.2301086    
   4790000   0.9782354      16.600027      5.2276553    
   4791000   0.9956895      16.662394      5.2129171    
   4792000   1.002883       16.099168      5.2123749    
   4793000   1.0223073      16.752252      5.2116776    
   4794000   1.0175474      16.427717      5.2287725    
   4795000   1.0003438      17.140721      5.2433753    
   4796000   0.98275025     16.445106      5.2262256    
   4797000   1.0067623      16.940288      5.2081587    
   4798000   1.0287972      16.401961      5.2036887    
   4799000   1.00995        16.589313      5.2276948    
   4800000   1.0033553      16.881469      5.2171068    
   4801000   0.95762052     16.084661      5.2499652    
   4802000   1.0460043      16.553997      5.275434     
   4803000   0.99883127     16.593607      5.2428633    
   4804000   0.97747651     16.694668      5.2703004    
   4805000   0.98353643     17.276155      5.2089419    
   4806000   0.98961034     17.104638      5.2620205    
   4807000   0.99198866     16.998604      5.255035     
   4808000   1.0664328      16.927962      5.2558382    
   4809000   1.0257035      17.414349      5.2461711    
   4810000   1.0389657      16.698228      5.2828499    
   4811000   1.0351283      16.627469      5.283511     
   4812000   1.0227609      16.647677      5.2797757    
   4813000   1.0579691      17.19954       5.2571805    
   4814000   0.99731947     16.824869      5.222916     
   4815000   0.9811513      16.499952      5.2507663    
   4816000   1.0187674      16.905509      5.1773045    
   4817000   0.99268703     16.721409      5.1952198    
   4818000   1.0490663      17.202055      5.2234649    
   4819000   1.0451893      17.05941       5.2123571    
   4820000   1.015527       17.42868       5.2171441    
   4821000   0.98796836     16.709224      5.2306647    
   4822000   1.0134238      16.642667      5.2219109    
   4823000   1.0015453      16.127189      5.2472654    
   4824000   0.98637821     16.763785      5.2349081    
   4825000   1.0335033      17.245362      5.2228404    
   4826000   0.98133601     16.83209       5.213526     
   4827000   0.97111616     16.658768      5.2426188    
   4828000   1.003592       16.487987      5.2285431    
   4829000   0.9482476      16.67167       5.2120323    
   4830000   0.99457209     16.687925      5.2339838    
   4831000   0.93306827     16.594978      5.2300057    
   4832000   0.99660923     17.051094      5.2083586    
   4833000   1.0034158      16.829641      5.2307839    
   4834000   1.0388447      17.330712      5.2316466    
   4835000   0.99278029     17.046356      5.2273799    
   4836000   0.99784349     16.935305      5.2204888    
   4837000   1.0368753      16.789228      5.2890217    
   4838000   1.0199732      16.761648      5.2613855    
   4839000   0.98786531     16.901419      5.2582654    
   4840000   0.99634885     16.333129      5.233387     
   4841000   0.92886848     16.854928      5.2016598    
   4842000   1.0029181      16.622532      5.2325427    
   4843000   0.95473896     16.577258      5.1984806    
   4844000   0.96873369     16.730223      5.2346288    
   4845000   1.0138166      16.895924      5.2274946    
   4846000   1.0023556      16.943088      5.2288649    
   4847000   1.057528       17.125283      5.2329412    
   4848000   1.0148937      17.111661      5.2219655    
   4849000   1.0231523      16.637289      5.2296151    
   4850000   1.0135887      16.616711      5.2690765    
   4851000   0.98791669     16.764701      5.2452757    
   4852000   0.99790377     16.959105      5.2031323    
   4853000   0.97609294     16.993911      5.2223588    
   4854000   0.99940557     16.79656       5.2350757    
   4855000   1.0082806      16.016037      5.2580696    
   4856000   0.99748076     16.940138      5.2681493    
   4857000   0.98769942     16.623314      5.2479079    
   4858000   0.99849521     17.519387      5.2118193    
   4859000   1.0008592      16.669199      5.2766272    
   4860000   0.98465194     16.534687      5.2627404    
   4861000   1.0364646      17.34431       5.2405983    
   4862000   0.99525756     16.928132      5.2583238    
   4863000   1.0173709      16.506426      5.252839     
   4864000   0.99303682     16.23438       5.2321161    
   4865000   1.0030888      16.693993      5.2301032    
   4866000   1.0402493      16.397894      5.265715     
   4867000   0.98641447     16.816996      5.3036963    
   4868000   0.99583211     16.892082      5.2586104    
   4869000   1.0148602      16.603905      5.2386828    
   4870000   1.0167738      16.80447       5.2358364    
   4871000   1.0060783      16.865698      5.2233321    
   4872000   0.99781616     16.747566      5.2162286    
   4873000   1.0260036      17.139867      5.2323782    
   4874000   0.96303643     16.783002      5.2034337    
   4875000   0.99693822     16.027021      5.224362     
   4876000   0.97720872     16.461264      5.2361819    
   4877000   0.99717383     17.079247      5.2102387    
   4878000   1.0128121      16.629937      5.2054779    
   4879000   1.0053459      17.124167      5.2127505    
   4880000   1.0125406      16.549457      5.209538     
   4881000   0.9979892      16.817816      5.2011613    
   4882000   1.0173052      16.746969      5.2231989    
   4883000   0.98848184     17.194941      5.2348329    
   4884000   0.97812351     16.849412      5.2503258    
   4885000   1.0379505      16.895374      5.2359602    
   4886000   0.98499267     16.125193      5.2704506    
   4887000   1.0271175      16.583161      5.2579196    
   4888000   0.99711431     17.471065      5.2686053    
   4889000   1.0419747      16.66792       5.2869631    
   4890000   1.0527084      17.111182      5.2362189    
   4891000   0.9712863      16.513797      5.2161687    
   4892000   0.96469943     17.036688      5.2283009    
   4893000   1.0550567      16.705401      5.272039     
   4894000   1.0526851      17.35907       5.2877839    
   4895000   1.0084103      16.915603      5.2528877    
   4896000   1.0026227      16.627909      5.24147      
   4897000   1.0584734      17.305143      5.222149     
   4898000   1.060163       17.324783      5.2599948    
   4899000   0.98929245     16.972015      5.2857149    
   4900000   0.9985783      16.919854      5.2674926    
   4901000   0.97193742     17.244492      5.2323561    
   4902000   1.0189268      17.427282      5.2435273    
   4903000   0.99825313     16.725948      5.2405124    
   4904000   1.0402465      17.051229      5.2350665    
   4905000   0.98546175     16.660904      5.2559434    
   4906000   0.99661596     16.525535      5.2325287    
   4907000   1.0322335      17.709564      5.2324619    
   4908000   0.98111462     17.350796      5.2396324    
   4909000   1.0326629      16.880926      5.2587003    
   4910000   1.0400749      16.532102      5.2708635    
   4911000   1.0022105      16.852428      5.2529583    
   4912000   0.99264646     16.892943      5.2693758    
   4913000   1.0297435      17.359435      5.2460388    
   4914000   1.0009297      16.58453       5.2635937    
   4915000   1.02762        17.093372      5.2347164    
   4916000   1.0268207      17.563381      5.2395316    
   4917000   1.0193375      16.739567      5.2823975    
   4918000   1.0214254      17.040771      5.2641228    
   4919000   1.0405481      17.234118      5.2430304    
   4920000   0.98752931     16.796228      5.2473655    
   4921000   1.0045221      16.609768      5.2404216    
   4922000   0.98606647     16.514207      5.2611294    
   4923000   1.0165027      16.925999      5.2508615    
   4924000   0.98545134     17.256618      5.2480999    
   4925000   1.0199007      17.008898      5.2422309    
   4926000   0.96279877     16.169753      5.2697743    
   4927000   0.99904945     16.868522      5.2436747    
   4928000   0.97092994     17.147257      5.2469873    
   4929000   1.0372145      16.900749      5.2782879    
   4930000   1.0482322      17.159757      5.2067576    
   4931000   1.016648       16.329907      5.2091995    
   4932000   1.0194164      17.021713      5.1879353    
   4933000   1.0018426      17.111559      5.2315887    
   4934000   1.0352749      16.314509      5.2342101    
   4935000   1.0252705      16.878126      5.2464084    
   4936000   0.97532763     16.869739      5.2299956    
   4937000   1.013035       17.209819      5.231162     
   4938000   0.99874965     16.599118      5.2301909    
   4939000   0.94452657     16.885604      5.1979154    
   4940000   0.97339505     16.553737      5.2408633    
   4941000   1.0355938      16.840316      5.2389833    
   4942000   1.0308521      16.552558      5.23257      
   4943000   1.0245075      17.164211      5.1832372    
   4944000   1.0058414      16.934575      5.1969909    
   4945000   0.96679769     16.551659      5.2274259    
   4946000   1.0132845      17.027894      5.2061976    
   4947000   1.0201979      16.738254      5.2229038    
   4948000   1.0025579      17.032847      5.2198683    
   4949000   0.99961465     16.282775      5.2285319    
   4950000   0.96674565     16.551147      5.2611893    
   4951000   1.0085569      16.808137      5.2249669    
   4952000   1.0013942      17.043577      5.252013     
   4953000   0.97924637     16.501256      5.2261443    
   4954000   1.0332806      17.008885      5.208425     
   4955000   1.0489737      16.737351      5.2019734    
   4956000   1.024154       17.228379      5.2335199    
   4957000   0.99092309     16.910555      5.2302817    
   4958000   1.0563739      16.943185      5.2395127    
   4959000   1.0284092      16.747433      5.259241     
   4960000   1.0051812      16.670673      5.2107745    
   4961000   1.0313587      17.550171      5.1665678    
   4962000   0.99293702     16.749642      5.2205123    
   4963000   0.98726571     17.022029      5.2492564    
   4964000   1.0158183      16.56791       5.1958105    
   4965000   1.0083284      16.594463      5.2427153    
   4966000   0.98410647     16.623869      5.2496558    
   4967000   1.0076659      17.243889      5.2121749    
   4968000   1.019826       16.833042      5.2271744    
   4969000   0.97011865     17.015267      5.2012533    
   4970000   0.94095263     16.066859      5.2151492    
   4971000   1.0193424      16.564323      5.2250509    
   4972000   1.0126694      15.89624       5.2102265    
   4973000   0.99104665     17.008388      5.2093273    
   4974000   1.0303195      16.905835      5.2306323    
   4975000   1.0027356      16.806215      5.2567026    
   4976000   0.99576421     17.212869      5.2383529    
   4977000   1.0213366      16.678506      5.2210101    
   4978000   1.0225553      17.148349      5.2241202    
   4979000   1.006283       16.493776      5.2139864    
   4980000   0.99929133     16.682501      5.2434762    
   4981000   0.9837257      16.497781      5.2717247    
   4982000   1.0231422      16.60251       5.2373173    
   4983000   0.97662551     16.916829      5.2520231    
   4984000   0.97559828     16.957484      5.233686     
   4985000   1.0337334      17.039609      5.21754      
   4986000   1.0036349      17.088277      5.2464722    
   4987000   1.0071455      17.35037       5.2578935    
   4988000   0.9542436      16.916675      5.2134849    
   4989000   0.98202373     16.789971      5.2332842    
   4990000   0.9581947      16.567088      5.2863262    
   4991000   0.98381592     16.824295      5.2425568    
   4992000   1.0243825      16.99285       5.2598597    
   4993000   1.0302737      16.406131      5.2470236    
   4994000   0.95080525     16.600483      5.2749918    
   4995000   1.0006442      16.04649       5.2311083    
   4996000   1.0082365      16.767181      5.2477657    
   4997000   1.0013811      17.115273      5.2356707    
   4998000   1.0403773      16.836687      5.2189393    
   4999000   0.98241107     16.81954       5.2579357    
   5000000   0.96425023     16.860689      5.2571932    
   5001000   0.97949787     16.5311        5.2600625    
   5002000   0.99878831     16.521331      5.2845369    
   5003000   1.0067156      16.469144      5.2074953    
   5004000   1.010194       17.152696      5.2496545    
   5005000   1.0082888      17.103217      5.265554     
   5006000   1.0606364      16.754853      5.2964274    
   5007000   0.9747036      16.714879      5.2553045    
   5008000   0.99439835     16.820538      5.2723626    
   5009000   0.97481827     16.845178      5.2725331    
   5010000   0.98025437     16.72156       5.277631     
   5011000   1.0001738      17.115226      5.2734326    
   5012000   1.0393051      16.991339      5.2397388    
   5013000   0.97661593     16.667022      5.2501673    
   5014000   0.96756813     16.68301       5.2231166    
   5015000   0.98591037     17.114125      5.2681084    
   5016000   0.97492319     16.713136      5.2549086    
   5017000   1.0150517      16.530904      5.2362068    
   5018000   1.0505487      16.548961      5.249148     
   5019000   1.0161636      17.283882      5.2374483    
   5020000   1.0211081      16.738658      5.2388321    
   5021000   0.99379216     16.282981      5.2088746    
   5022000   1.0247559      16.964314      5.2576433    
   5023000   1.027126       16.444998      5.2533474    
   5024000   0.95302733     17.128619      5.239686     
   5025000   0.99617356     16.91315       5.2008977    
   5026000   1.0072247      17.004384      5.2124614    
   5027000   0.99862631     17.034484      5.2736542    
   5028000   1.0028222      17.132616      5.2690559    
   5029000   1.0324305      16.112031      5.2797564    
   5030000   0.99354828     16.942891      5.2214302    
   5031000   0.93813057     17.289774      5.2245796    
   5032000   1.0021383      16.771429      5.1973348    
   5033000   0.99496737     16.829823      5.2211936    
   5034000   1.0288111      16.358355      5.2376394    
   5035000   1.0009633      16.938583      5.2449446    
   5036000   0.9771108      16.623035      5.2664834    
   5037000   0.99076029     16.557398      5.2537028    
   5038000   1.0034845      16.200853      5.2350749    
   5039000   1.0058803      16.518786      5.264874     
   5040000   1.016796       16.426251      5.2483204    
   5041000   0.99421699     16.799029      5.222399     
   5042000   1.0257941      16.747132      5.230162     
   5043000   0.99427974     16.609669      5.2361068    
   5044000   1.013468       16.675853      5.2343947    
   5045000   0.98538094     16.563469      5.2255661    
   5046000   0.99250717     16.883175      5.268559     
   5047000   0.93765545     16.573763      5.2579889    
   5048000   1.0159758      17.081707      5.2028519    
   5049000   0.98356244     16.850999      5.2498309    
   5050000   0.99561891     16.930235      5.2398647    
   5051000   1.0197267      17.022224      5.2334774    
   5052000   0.99500568     16.89043       5.2427689    
   5053000   1.0210641      17.005556      5.2361872    
   5054000   1.0325149      16.497508      5.2440631    
   5055000   0.95102888     16.608215      5.2682054    
   5056000   0.96130862     16.29472       5.2384123    
   5057000   1.0160757      16.750766      5.2741257    
   5058000   1.026511       17.244718      5.2587071    
   5059000   0.99064893     17.199663      5.242271     
   5060000   1.0421279      17.493878      5.2315239    
   5061000   0.99101714     16.531838      5.2202796    
   5062000   1.001941       17.173407      5.206963     
   5063000   0.94012475     16.131547      5.2547527    
   5064000   0.97387205     16.876935      5.2244509    
   5065000   0.94213138     17.060994      5.2542989    
   5066000   1.0181124      16.922888      5.2402816    
   5067000   0.97252587     16.870795      5.2292373    
   5068000   1.0365592      17.269396      5.2400714    
   5069000   1.0296092      16.668368      5.3237066    
   5070000   0.98829867     16.656194      5.268789     
   5071000   1.0275599      17.204672      5.2439213    
   5072000   1.0041076      16.330374      5.2482091    
   5073000   1.0049555      16.850462      5.2510127    
   5074000   1.0261063      16.605976      5.2368746    
   5075000   0.98186754     16.434548      5.2531524    
   5076000   1.0254302      17.59654       5.2250091    
   5077000   0.98204009     16.870035      5.2284255    
   5078000   1.015598       16.63294       5.2228817    
   5079000   1.0339282      16.77862       5.2422822    
   5080000   1.0075066      16.399581      5.2464842    
   5081000   1.010927       16.811064      5.2530129    
   5082000   1.0196166      16.515152      5.2552158    
   5083000   1.0235835      17.456609      5.2711161    
   5084000   0.97957609     16.704533      5.240568     
   5085000   0.95564471     16.936239      5.233183     
   5086000   0.97950289     16.985576      5.2231566    
   5087000   0.97652762     16.27847       5.2368908    
   5088000   0.971678       16.975588      5.2184848    
   5089000   1.0195516      16.598874      5.2353909    
   5090000   1.0228267      16.680947      5.2699617    
   5091000   0.96866396     16.632709      5.2729292    
   5092000   1.0037343      16.146662      5.2126376    
   5093000   0.95922813     16.702135      5.2326963    
   5094000   0.99629262     17.01056       5.2737402    
   5095000   0.97047424     16.782752      5.2520059    
   5096000   1.0174328      17.059766      5.2540488    
   5097000   0.98929247     16.784154      5.2614971    
   5098000   1.0521776      16.771285      5.2467859    
   5099000   0.98525421     16.49764       5.2222036    
   5100000   1.0294997      17.33734       5.2250245    
Loop time of 6365.53 on 4 procs for 5000000 steps with 1100 atoms

Performance: 678654.896 tau/day, 785.480 timesteps/s
150.9% CPU use with 2 MPI tasks x 2 OpenMP threads

MPI task timing breakdown:
Section |  min time  |  avg time  |  max time  |%varavg| %total
---------------------------------------------------------------
Pair    | 214.18     | 1410.3     | 2606.4     |3185.0 | 22.15
Bond    | 29.437     | 83.069     | 136.7      | 588.4 |  1.30
Neigh   | 3187.9     | 3188       | 3188       |   0.1 | 50.08
Comm    | 105.01     | 351.86     | 598.72     |1316.0 |  5.53
Output  | 14.004     | 14.161     | 14.319     |   4.2 |  0.22
Modify  | 64.313     | 166.02     | 267.73     | 789.4 |  2.61
Other   |            | 1152       |            |       | 18.10

Nlocal:            550 ave        1100 max           0 min
Histogram: 1 0 0 0 0 0 0 0 0 1
Nghost:              0 ave           0 max           0 min
Histogram: 2 0 0 0 0 0 0 0 0 0
Neighs:         152633 ave      305266 max           0 min
Histogram: 1 0 0 0 0 0 0 0 0 1

Total # of neighbors = 305266
Ave neighs/atom = 277.51455
Ave special neighs/atom = 1.9981818
Neighbor list builds = 43777
Dangerous builds = 0

# This simulation is done
# Move onto the next one
clear
  using 2 OpenMP thread(s) per MPI task
package omp 0
using multi-threaded neighbor list subroutines
next f
jump SELF

###
# Reference paper:
# K. Kremer and G. S. Grest
# Dynamics of entangled linear polymer melts: A molecular-dynamics simulation
# J Chem Phys 92, 5057 (1990)

##################################
# MIHIR: for branched polymers
# LJ minimum first to expand and explore, then collapse
###

###
# Looping through the various linear polymers to simulate,
# define variables to switch through
variable f index bb100nuc0bl0bn0d30tot100 bb200nuc0bl0bn0d30tot200 bb300nuc0bl0bn0d30tot300 bb400nuc0bl0bn0d30tot400 bb500nuc0bl0bn0d30tot500 bb600nuc0bl0bn0d30tot600 bb700nuc0bl0bn0d30tot700 bb800nuc0bl0bn0d30tot800 bb900nuc0bl0bn0d30tot900 bb1000nuc0bl0bn0d30tot1000 bb1100nuc0bl0bn0d30tot1100 bb1200nuc0bl0bn0d30tot1200
###


###
# Box and units  (use LJ units and periodic boundaries)
###

units lj
log linear/logs/$f.log
log linear/logs/bb1200nuc0bl0bn0d30tot1200.log
