#atom_style bond #no stiffness
atom_style angle #with stiffness

boundary        p p p
###
# Pair interactions require lists of neighbours to be calculated
###

#neighbor 0.3 bin
neighbor 4 bin

neigh_modify every 1 delay 1 check yes
atom_modify sort 0 0
### Generate RESTART file, SPECIAL format, not a .txt file ###
### Useful if simulation crashes ###

restart 1000000 linear/restarts/$f.restart
restart 1000000 linear/restarts/bb300nuc0bl0bn0d30tot300.restart
#############################



### READ "start" data file ###

read_data linear/$f.dat
read_data linear/bb300nuc0bl0bn0d30tot300.dat
Reading data file ...
  orthogonal box = (-1000 -1000 -1000) to (1000 1000 1000)
  1 by 1 by 2 MPI processor grid
  reading atoms ...
  300 atoms
  scanning bonds ...
  1 = max bonds/atom
  scanning angles ...
  1 = max angles/atom
  reading bonds ...
  299 bonds
  reading angles ...
  298 angles
Finding 1-2 1-3 1-4 neighbors ...
  special bond factors lj:    0        0        0       
  special bond factors coul:  0        0        0       
     2 = max # of 1-2 neighbors
     2 = max # of 1-3 neighbors
     4 = max # of 1-4 neighbors
     6 = max # of special neighbors
  special bonds CPU = 0.001 seconds
  read_data CPU = 0.020 seconds

######################

### READ "REstart" data file ###

######################



###
# Define groups (atom type 1 is group 'all')
###
group all type 1
300 atoms in group all


###
# Dump configs - "simple dumpings"
###

###
# Dump configs + box coords
###

dump   1   all   custom   1000  linear/trjs/$f.lammpstrj  id  x y z  ix iy iz
dump   1   all   custom   1000  linear/trjs/bb300nuc0bl0bn0d30tot300.lammpstrj  id  x y z  ix iy iz
dump_modify   1   format line "%d %.5f %.5f %.5f %d %d %d"

########################################################################


###################################################################
# Stiffness term
#
# E = K * (1+cos(theta)), K>0
#
angle_style   cosine
#change this coefficient to change stiffness (e.g. 1,5,10)
angle_coeff   1 1.0
###################################################################

###################################################################
# Pair interaction between non-bonded atoms
#
#  Lennard-Jones 12-6 potential with cutoff:
#  potential E=4epsilon[ (sigma/r)^12 - (sigma/r)^6]  for r<r_cut
#
#  1.12246 = 2^(1/6) is the minimum of the potential


pair_style      lj/cut 1.12246152962189
#pair_style      lj/cut 3

#
#  pair_modify shift yes adds a constant to the potential such

#  that E(r_cut)=0. Forces remains unchanged.
#

pair_modify     shift yes

#
#  pair_coeff for lj/cut, specify 4:
#    * atom type interacting with
#    * atom type
#    * epsilon (energy units)
#    * sigma (distance units)
#

pair_coeff      1 1 1.0 1.0
###################################################################

###################################################################
# Pair interaction between non-bonded atoms
#
#  soft potential, for PUSHING apart overlapping atoms
#  potential E=A*(1 + cos(pi*r/r_c))
#
#  1.12246 = 2^(1/6) is the cut-off r_c

#pair_style     soft 1.12246152962189

#
#  pair_coeff for soft, specify 3:
#    * atom type interacting with
#    * atom type
#    * A
#
#

#pair_coeff      1 1 100.0
###################################################################

###################################################################
# Pair interaction between bonded atoms
#
# Fene potential + Lennard Jones 12-6:

#
#  E= - 0.5 K R0^2 ln[ 1- (r/R0)^2]
#     + 4epsilon[ (sigma/r)^12 - (sigma/r)^6] + epsilon
#

bond_style   fene


#
# For style fene, specify:
#   * bond type
#   * K (energy/distance^2)
#   * R0 (distance)
#   * epsilon (energy)  (LJ component)
#   * sigma (distance)  (LJ component)
#


special_bonds fene #<=== I M P O R T A N T (new command)
Finding 1-2 1-3 1-4 neighbors ...
  special bond factors lj:    0        1        1       
  special bond factors coul:  0        1        1       
     2 = max # of 1-2 neighbors
     6 = max # of special neighbors
  special bonds CPU = 0.000 seconds

bond_coeff   1   30   2   1.0   1.0


###################################################

###################################################################
# Pair interaction between bonded atoms
#
# Harmonic potential:
#
#  E= K * (R-R0)^2
#

#bond_style   harmonic

#
# For style harmonic, specify:
#   * bond type
#   * K (energy/distance^2)
#   * R0 (distance)
#

#bond_coeff   1   60.0   1.0
#bond_coeff   2   harmonic 0.1   1.0

###################################################
compute 1 all gyration
variable rog equal c_1
#compute 2 all coord/atom cutoff 1.1

#dump 2 all custom 10000 contact_number.dump id c_2


###
# Set up fixes
###
thermo_style   custom   step  temp enthalpy c_1
fix 1 all nve   ###NVE ensemble

fix 2 all   langevin   1.0 1.0 1.0  100103   ###Langevin integrator Tstart Tstop 1/friction rndseed


##### Sample thermodynamic info  (temperature, energy, pressure, etc.) #####
thermo 1000









############################################################################

###
# set timestep of integrator

timestep 0.01

###
# run integration for a number of steps
###
#run 0
#variable r equal c_1
#if "$r < 63.1" then "quit 1"

# lj potential minimum, cause molecule to explore
run 100000
Generated 0 of 0 mixed pair_coeff terms from geometric mixing rule
Last active /omp style is angle_style cosine/omp
Neighbor list info ...
  update: every = 1 steps, delay = 1 steps, check = yes
  max neighbors/atom: 2000, page size: 100000
  master list distance cutoff = 5.1224615
  ghost atom cutoff = 5.1224615
  binsize = 2.5612308, bins = 781 781 781
  1 neighbor lists, perpetual/occasional/extra = 1 0 0
  (1) pair lj/cut/omp, perpetual
      attributes: half, newton on, omp
      pair build: half/bin/newton/omp
      stencil: half/bin/3d
      bin: standard
WARNING: Communication cutoff 5.12246152962189 is shorter than a bond length based estimate of 5.455. This may lead to errors. (src/comm.cpp:723)
Per MPI rank memory allocation (min/avg/max) = 939.5 | 940.1 | 940.8 Mbytes
   Step          Temp         Enthalpy         c_1      
         0   0              13.379946      75.000771    
      1000   0.9840289      18.329387      74.259947    
      2000   0.96883729     18.750774      73.539947    
      3000   0.98583102     18.920598      72.931794    
      4000   0.92856385     18.788509      72.724393    
      5000   1.0011332      19.733469      72.073708    
      6000   0.94129957     18.903531      71.550737    
      7000   1.0163046      19.877586      70.681402    
      8000   1.0093698      19.048059      70.20969     
      9000   1.0247191      18.942195      69.788996    
     10000   1.0030872      20.175291      69.444436    
     11000   1.0701487      20.800112      68.881927    
     12000   1.0302514      19.769824      68.372294    
     13000   1.0102128      19.879626      68.238803    
     14000   1.0193056      20.571532      67.827926    
     15000   0.96719117     19.847273      67.677857    
     16000   1.0461031      20.241002      67.383554    
     17000   0.99747788     19.993167      67.273721    
     18000   0.98313801     19.705208      67.117287    
     19000   1.0901106      20.485266      66.91434     
     20000   0.96113476     19.238037      66.714863    
     21000   0.9671765      19.646992      66.15479     
     22000   1.0261638      20.088225      66.196127    
     23000   0.99190387     20.150976      65.989549    
     24000   1.0233104      20.17071       65.787625    
     25000   1.0231037      19.53451       65.437465    
     26000   1.0632864      21.06005       65.31635     
     27000   0.99541713     19.791638      65.147882    
     28000   1.0082489      19.941763      64.593892    
     29000   0.93948919     20.020102      64.024737    
     30000   0.97788172     19.951696      63.445207    
     31000   1.0567742      19.443503      62.941166    
     32000   0.9709078      19.44832       62.748444    
     33000   0.99725409     19.848452      62.479193    
     34000   0.99816832     20.263056      62.466819    
     35000   0.93505487     20.126372      62.29645     
     36000   1.0093968      20.445496      62.146585    
     37000   1.0130932      19.754813      62.173295    
     38000   0.9760354      19.584779      61.821307    
     39000   0.92375107     20.516456      61.66021     
     40000   1.0181167      19.811792      61.587852    
     41000   1.0247474      20.110695      61.062036    
     42000   1.0232421      20.05513       60.920612    
     43000   0.99437597     20.116333      60.76105     
     44000   1.0038318      19.362122      60.160661    
     45000   0.95570474     20.509382      60.059902    
     46000   0.98017936     19.844297      59.802309    
     47000   0.91460217     19.607123      59.239913    
     48000   1.0142574      19.953636      58.99894     
     49000   1.0308146      21.189769      58.708998    
     50000   1.0499414      19.620397      58.524668    
     51000   1.0381441      20.17902       58.18857     
     52000   0.94381742     19.963264      58.060427    
     53000   1.1133051      20.859954      57.727669    
     54000   0.99988737     19.888346      58.063999    
     55000   0.96587475     20.341426      57.493486    
     56000   1.0607656      20.227226      57.259592    
     57000   1.0225031      19.879314      56.903849    
     58000   0.94542105     18.968602      56.991116    
     59000   1.0015012      20.034599      56.59207     
     60000   0.9733879      19.39827       56.133488    
     61000   0.98545128     19.650823      55.858772    
     62000   1.0659186      19.253821      56.040847    
     63000   0.95441673     19.174468      56.010035    
     64000   1.000981       20.978964      55.821932    
     65000   0.9765311      21.337203      55.539114    
     66000   1.0648369      20.384678      55.595714    
     67000   1.0815755      20.872959      55.536829    
     68000   1.0180318      19.124803      55.554804    
     69000   0.97212592     20.324787      55.67097     
     70000   0.96931255     20.834812      55.315196    
     71000   0.9872005      20.772093      55.134781    
     72000   0.97432455     20.155387      55.344049    
     73000   0.96258253     19.927537      55.245247    
     74000   1.0509089      20.539469      55.252328    
     75000   0.9903453      19.655119      55.48097     
     76000   0.92239479     20.059517      55.612841    
     77000   1.1204007      20.624885      55.165977    
     78000   0.96746549     19.817519      55.25145     
     79000   0.99635836     20.297588      55.24172     
     80000   1.0071984      19.912054      54.757044    
     81000   0.93087655     20.21936       54.410646    
     82000   1.0442938      19.760488      54.758912    
     83000   1.0498965      19.989378      54.567456    
     84000   0.93730408     19.436663      54.261895    
     85000   1.0101164      20.896104      54.07209     
     86000   1.0299321      19.464927      53.908919    
     87000   0.96107962     19.799929      53.859389    
     88000   0.95365428     19.944278      53.923452    
     89000   0.92091735     19.759296      53.715994    
     90000   0.98330199     19.946996      53.574593    
     91000   0.9988133      19.858361      53.091342    
     92000   0.96721576     20.428339      52.941106    
     93000   0.93448614     21.121652      52.861348    
     94000   0.9582952      20.235383      52.736217    
     95000   0.94488119     20.65733       52.426257    
     96000   0.96056334     19.633022      52.437759    
     97000   1.0107515      20.342142      52.386273    
     98000   0.94389217     20.094722      52.380405    
     99000   1.0369489      20.833287      51.932557    
    100000   1.0861026      20.156171      51.272387    
Loop time of 179.884 on 4 procs for 100000 steps with 300 atoms

Performance: 480309.850 tau/day, 555.914 timesteps/s
102.6% CPU use with 2 MPI tasks x 2 OpenMP threads

MPI task timing breakdown:
Section |  min time  |  avg time  |  max time  |%varavg| %total
---------------------------------------------------------------
Pair    | 0.23163    | 0.25058    | 0.26953    |   3.8 |  0.14
Bond    | 0.41024    | 0.49097    | 0.5717     |  11.5 |  0.27
Neigh   | 176.7      | 176.7      | 176.7      |   0.0 | 98.23
Comm    | 0.77076    | 0.85425    | 0.93774    |   9.0 |  0.47
Output  | 0.17751    | 0.18109    | 0.18466    |   0.8 |  0.10
Modify  | 0.733      | 0.94004    | 1.1471     |  21.4 |  0.52
Other   |            | 0.4713     |            |       |  0.26

Nlocal:            150 ave         258 max          42 min
Histogram: 1 0 0 0 0 0 0 0 0 1
Nghost:            134 ave         226 max          42 min
Histogram: 1 0 0 0 0 0 0 0 0 1
Neighs:            957 ave        1747 max         167 min
Histogram: 1 0 0 0 0 0 0 0 0 1

Total # of neighbors = 1914
Ave neighs/atom = 6.38
Ave special neighs/atom = 1.9933333
Neighbor list builds = 995
Dangerous builds = 0

# Replace lj potential, now collapse
pair_style      lj/cut 3

# Cutoff simul when gyration under 5
# Variable created with equal requires v_ + 'name'
fix 3 all halt 1000 v_rog < 5

run 5000000
Generated 0 of 0 mixed pair_coeff terms from geometric mixing rule
Last active /omp style is angle_style cosine/omp
Per MPI rank memory allocation (min/avg/max) = 939.8 | 940.3 | 940.8 Mbytes
   Step          Temp         Enthalpy         c_1      
    100000   1.0861026      19.462919      51.272387    
    101000   0.98291372     19.410279      51.086618    
    102000   1.0414218      19.79582       50.786002    
    103000   1.0003842      20.452064      50.695763    
    104000   1.0136154      19.971018      50.39616     
    105000   1.0417758      19.444044      50.479723    
    106000   0.94619811     19.037548      50.499678    
    107000   1.0153421      19.481559      50.310959    
    108000   1.0413109      19.747852      49.785309    
    109000   1.0797913      19.787254      49.340985    
    110000   0.99479461     19.038409      49.441653    
    111000   0.85901124     19.221368      48.814998    
    112000   0.93750971     18.70547       48.916998    
    113000   0.98426019     20.327164      48.784687    
    114000   1.0521873      20.016307      48.585757    
    115000   1.0845563      19.282404      48.356033    
    116000   0.9338156      19.172604      48.13949     
    117000   0.98018927     18.918769      47.813655    
    118000   0.98686244     19.518564      47.227688    
    119000   0.94152354     19.364587      47.102877    
    120000   0.95695134     18.888367      46.82144     
    121000   1.0250161      18.950317      46.672109    
    122000   1.0588639      19.253929      46.659929    
    123000   0.91636248     19.711771      46.330202    
    124000   1.0339501      19.014425      46.024791    
    125000   0.92018691     18.813048      45.881535    
    126000   0.98234399     19.202313      45.699206    
    127000   1.0105502      19.747741      45.654067    
    128000   0.90361475     19.106169      45.130879    
    129000   0.95297255     19.019545      44.723103    
    130000   0.93001209     19.227635      44.551564    
    131000   0.93986321     18.446148      44.117914    
    132000   1.0121193      19.462727      43.741208    
    133000   1.0480779      18.648226      43.450859    
    134000   0.88967276     18.603141      42.702126    
    135000   0.95779954     20.103958      42.594158    
    136000   0.94263169     18.844955      42.089868    
    137000   0.91998989     19.570574      42.010373    
    138000   1.0069731      18.896316      41.794353    
    139000   1.0091415      18.144352      41.211773    
    140000   1.042794       19.091092      40.453658    
    141000   1.0388778      18.271735      39.611993    
    142000   1.0297432      19.129602      39.334049    
    143000   0.92156103     19.30215       39.145127    
    144000   1.0528937      19.035026      39.101378    
    145000   1.0042926      18.662892      38.855372    
    146000   1.0556683      19.005284      38.873429    
    147000   1.0402927      18.340737      38.434249    
    148000   1.0671586      20.259597      38.437489    
    149000   1.0156408      18.128635      38.689794    
    150000   1.0622918      18.788707      38.321958    
    151000   0.90100246     19.172841      38.57583     
    152000   0.98137529     18.396368      38.859287    
    153000   0.90793398     19.349387      38.070231    
    154000   1.0169034      18.701336      37.611667    
    155000   0.96163895     18.246041      37.658236    
    156000   1.02502        18.172954      37.587354    
    157000   1.0253852      18.298912      37.081526    
    158000   0.89898325     18.246233      36.585095    
    159000   1.0030263      18.694084      36.08331     
    160000   1.0144157      18.394493      35.739847    
    161000   1.045759       18.154903      35.412018    
    162000   1.0436356      19.383794      34.866549    
    163000   0.98649415     19.325902      34.767523    
    164000   0.97440253     19.070085      34.678586    
    165000   1.0433984      18.67553       34.767141    
    166000   0.98057699     19.330793      34.582768    
    167000   1.002742       18.845791      34.570808    
    168000   1.0514773      18.897229      34.448272    
    169000   0.99995684     18.818723      34.37551     
    170000   0.979502       19.427757      34.040583    
    171000   0.98317943     18.024614      33.769091    
    172000   0.95033756     17.889068      33.806444    
    173000   0.95214362     18.150348      33.808824    
    174000   0.97244934     18.661078      33.327655    
    175000   0.98637549     19.391374      32.925941    
    176000   0.98368873     19.834086      32.727715    
    177000   0.98310925     17.832544      32.848073    
    178000   1.0542451      18.787212      33.1373      
    179000   0.99216421     18.47661       32.99451     
    180000   1.088266       18.633324      32.510435    
    181000   1.0862571      18.97003       32.834197    
    182000   0.95056141     18.732476      32.490959    
    183000   1.0236899      19.184282      32.269499    
    184000   1.0291906      18.604632      31.860977    
    185000   1.0372904      18.430219      31.533552    
    186000   1.0198652      18.72184       31.091958    
    187000   0.96849823     18.674622      31.074711    
    188000   0.98938588     18.651705      31.01352     
    189000   1.0100323      19.343263      30.796143    
    190000   1.0441328      18.549811      30.438975    
    191000   1.0545621      18.806747      30.536932    
    192000   1.0410349      19.940898      30.38101     
    193000   0.98583408     18.430644      30.186144    
    194000   0.97814579     18.937927      29.901713    
    195000   0.96693872     18.277755      29.312233    
    196000   1.0551283      18.417401      29.106718    
    197000   0.94677353     18.287534      28.919092    
    198000   1.0489215      18.13289       28.872349    
    199000   1.0835918      18.0637        28.831047    
    200000   1.0194402      18.790416      28.843649    
    201000   1.0278937      17.73644       28.700615    
    202000   0.98161019     18.424154      28.599989    
    203000   0.94543433     18.46431       28.056673    
    204000   1.0862363      19.35622       27.924355    
    205000   0.93207866     18.655326      28.396869    
    206000   1.0094918      18.03641       27.538634    
    207000   1.0095641      17.65463       27.16934     
    208000   1.0662777      18.137512      27.184959    
    209000   0.95514181     17.978277      27.022441    
    210000   0.98767398     17.714172      27.020067    
    211000   0.98825004     18.734192      26.735981    
    212000   1.0275843      18.976896      26.363206    
    213000   1.001264       17.990521      26.000185    
    214000   1.0146701      17.51097       25.949746    
    215000   0.92723949     17.750709      25.884171    
    216000   1.0090632      17.551781      25.656283    
    217000   0.99643119     17.939056      25.378629    
    218000   1.0287759      17.421088      24.706609    
    219000   0.9902473      17.33802       24.22583     
    220000   1.0435798      17.275515      24.182548    
    221000   1.1169785      18.113169      24.151122    
    222000   1.0186227      18.593791      24.279064    
    223000   0.92623436     18.5957        23.990465    
    224000   0.95997942     18.544174      23.596309    
    225000   1.0904195      18.352327      23.447906    
    226000   0.94766177     17.817036      23.225292    
    227000   0.98425559     17.591409      23.242447    
    228000   1.0124144      18.654405      22.750297    
    229000   0.99528099     18.799137      22.589055    
    230000   0.98133998     18.767136      22.228057    
    231000   1.0442537      17.625568      21.92968     
    232000   1.0313227      18.218653      21.653399    
    233000   1.0934595      18.55905       21.171083    
    234000   0.93143544     17.923551      21.416042    
    235000   0.99483205     18.448781      21.248139    
    236000   1.0023133      17.367876      21.429895    
    237000   0.97567862     17.359063      20.957157    
    238000   1.027222       18.217593      20.735283    
    239000   0.94949913     18.231339      20.567479    
    240000   1.0222387      17.646727      20.185617    
    241000   1.0413464      17.594846      19.950744    
    242000   0.94007417     18.47123       19.766467    
    243000   1.0303741      17.74996       19.687771    
    244000   1.0178687      17.415482      19.790243    
    245000   0.98889152     17.936241      19.47033     
    246000   0.91596262     17.353302      19.130168    
    247000   1.0017049      18.914415      18.678236    
    248000   1.0217258      17.419068      18.421184    
    249000   1.0688818      17.406692      18.134385    
    250000   0.98624093     18.201066      18.110424    
    251000   1.0661226      17.794052      17.647551    
    252000   1.0008623      19.83854       17.188302    
    253000   0.93712226     17.932984      17.119956    
    254000   0.93496279     18.469411      16.569416    
    255000   1.0146036      18.3984        16.927009    
    256000   1.091757       18.553965      16.873167    
    257000   1.042          18.253795      16.660291    
    258000   1.0729457      18.869899      16.456264    
    259000   0.93591694     18.075012      16.274698    
    260000   1.0703595      17.841657      15.929605    
    261000   1.0644418      18.675376      15.864514    
    262000   0.9856156      17.535386      15.776221    
    263000   0.94991626     18.606271      15.538495    
    264000   0.94803451     17.394426      15.214991    
    265000   1.0375043      18.150722      14.833158    
    266000   0.99478032     17.235346      14.811567    
    267000   1.010207       17.88256       14.767721    
    268000   0.95238962     17.857213      14.611291    
    269000   0.94893184     17.019436      14.428137    
    270000   1.0622452      17.622182      13.954301    
    271000   1.0511147      17.668676      13.574699    
    272000   0.94607469     18.135053      12.941063    
    273000   1.0909151      18.126109      12.757127    
    274000   1.1079863      18.824272      12.872011    
    275000   1.0209462      18.488548      12.651295    
    276000   0.97471729     17.500245      12.324044    
    277000   0.99938487     18.457866      12.277452    
    278000   0.99555946     18.973653      12.085763    
    279000   1.0272265      18.15279       12.222816    
    280000   1.0085614      18.986369      12.353522    
    281000   1.0302461      16.813526      12.044524    
    282000   1.032015       17.37036       11.877565    
    283000   0.96127405     17.652653      11.128861    
    284000   0.94176031     15.990353      10.582088    
    285000   1.0438125      18.116339      10.120271    
    286000   1.0200982      18.413633      9.8997101    
    287000   0.93993813     17.407227      9.9949446    
    288000   0.98821276     18.224698      9.730827     
    289000   0.95834381     18.47096       9.4592839    
    290000   0.97641065     18.206542      9.4622149    
    291000   1.0436503      17.503152      8.6890297    
    292000   0.90252852     18.36833       8.3740619    
    293000   1.0082489      18.021886      8.5662958    
    294000   1.0250289      18.1203        8.396519     
    295000   0.93878738     18.262181      8.3139934    
    296000   0.99677156     18.648359      7.9510497    
    297000   0.98507421     17.362793      7.5465476    
    298000   1.0045477      17.301833      7.1311814    
    299000   1.0290543      17.503186      6.8401662    
    300000   0.98457436     18.693969      6.653179     
    301000   1.0228976      17.752749      6.3954911    
    302000   1.0397055      18.399673      6.2590369    
    303000   1.063765       16.816791      6.0857038    
    304000   1.0062742      18.542752      5.6621265    
    305000   0.99164379     17.608158      5.2863361    
Fix halt condition for fix-id 3 met on step 306000 with value 4.781917792740854 (src/fix_halt.cpp:237)
    306000   0.97974237     16.856474      4.7819178    
Loop time of 114.318 on 4 procs for 206000 steps with 300 atoms

Performance: 1556926.944 tau/day, 1801.999 timesteps/s
113.3% CPU use with 2 MPI tasks x 2 OpenMP threads

MPI task timing breakdown:
Section |  min time  |  avg time  |  max time  |%varavg| %total
---------------------------------------------------------------
Pair    | 3.1572     | 4.5146     | 5.8719     |  63.9 |  3.95
Bond    | 0.8593     | 0.97016    | 1.081      |  11.3 |  0.85
Neigh   | 101.2      | 101.2      | 101.2      |   0.0 | 88.53
Comm    | 2.943      | 4.3928     | 5.8426     |  69.2 |  3.84
Output  | 0.33486    | 0.34064    | 0.34642    |   1.0 |  0.30
Modify  | 1.5252     | 1.8348     | 2.1444     |  22.9 |  1.61
Other   |            | 1.061      |            |       |  0.93

Nlocal:            150 ave         282 max          18 min
Histogram: 1 0 0 0 0 0 0 0 0 1
Nghost:            150 ave         282 max          18 min
Histogram: 1 0 0 0 0 0 0 0 0 1
Neighs:          14357 ave       26255 max        2459 min
Histogram: 1 0 0 0 0 0 0 0 0 1

Total # of neighbors = 28714
Ave neighs/atom = 95.713333
Ave special neighs/atom = 1.9933333
Neighbor list builds = 1721
Dangerous builds = 0

# This simulation is done
# Move onto the next one
clear
  using 2 OpenMP thread(s) per MPI task
package omp 0
using multi-threaded neighbor list subroutines
next f
jump SELF

###
# Reference paper:
# K. Kremer and G. S. Grest
# Dynamics of entangled linear polymer melts: A molecular-dynamics simulation
# J Chem Phys 92, 5057 (1990)

##################################
# MIHIR: for branched polymers
# LJ minimum first to expand and explore, then collapse
###

###
# Looping through the various linear polymers to simulate,
# define variables to switch through
variable f index bb100nuc0bl0bn0d30tot100 bb200nuc0bl0bn0d30tot200 bb300nuc0bl0bn0d30tot300 bb400nuc0bl0bn0d30tot400 bb500nuc0bl0bn0d30tot500 bb600nuc0bl0bn0d30tot600 bb700nuc0bl0bn0d30tot700 bb800nuc0bl0bn0d30tot800 bb900nuc0bl0bn0d30tot900 bb1000nuc0bl0bn0d30tot1000 bb1100nuc0bl0bn0d30tot1100 bb1200nuc0bl0bn0d30tot1200
###


###
# Box and units  (use LJ units and periodic boundaries)
###

units lj
log linear/logs/$f.log
log linear/logs/bb400nuc0bl0bn0d30tot400.log
