#atom_style bond #no stiffness
atom_style angle #with stiffness

boundary        p p p
###
# Pair interactions require lists of neighbours to be calculated
###

#neighbor 0.3 bin
neighbor 4 bin

neigh_modify every 1 delay 1 check yes
atom_modify sort 0 0
### Generate RESTART file, SPECIAL format, not a .txt file ###
### Useful if simulation crashes ###

restart 1000000 linear/restarts/$f.restart
restart 1000000 linear/restarts/bb400nuc0bl0bn0d30tot400.restart
#############################



### READ "start" data file ###

read_data linear/$f.dat
read_data linear/bb400nuc0bl0bn0d30tot400.dat
Reading data file ...
  orthogonal box = (-1000 -1000 -1000) to (1000 1000 1000)
  1 by 1 by 2 MPI processor grid
  reading atoms ...
  400 atoms
  scanning bonds ...
  1 = max bonds/atom
  scanning angles ...
  1 = max angles/atom
  reading bonds ...
  399 bonds
  reading angles ...
  398 angles
Finding 1-2 1-3 1-4 neighbors ...
  special bond factors lj:    0        0        0       
  special bond factors coul:  0        0        0       
     2 = max # of 1-2 neighbors
     2 = max # of 1-3 neighbors
     4 = max # of 1-4 neighbors
     6 = max # of special neighbors
  special bonds CPU = 0.001 seconds
  read_data CPU = 0.025 seconds

######################

### READ "REstart" data file ###

######################



###
# Define groups (atom type 1 is group 'all')
###
group all type 1
400 atoms in group all


###
# Dump configs - "simple dumpings"
###

###
# Dump configs + box coords
###

dump   1   all   custom   1000  linear/trjs/$f.lammpstrj  id  x y z  ix iy iz
dump   1   all   custom   1000  linear/trjs/bb400nuc0bl0bn0d30tot400.lammpstrj  id  x y z  ix iy iz
dump_modify   1   format line "%d %.5f %.5f %.5f %d %d %d"

########################################################################


###################################################################
# Stiffness term
#
# E = K * (1+cos(theta)), K>0
#
angle_style   cosine
#change this coefficient to change stiffness (e.g. 1,5,10)
angle_coeff   1 1.0
###################################################################

###################################################################
# Pair interaction between non-bonded atoms
#
#  Lennard-Jones 12-6 potential with cutoff:
#  potential E=4epsilon[ (sigma/r)^12 - (sigma/r)^6]  for r<r_cut
#
#  1.12246 = 2^(1/6) is the minimum of the potential


pair_style      lj/cut 1.12246152962189
#pair_style      lj/cut 3

#
#  pair_modify shift yes adds a constant to the potential such

#  that E(r_cut)=0. Forces remains unchanged.
#

pair_modify     shift yes

#
#  pair_coeff for lj/cut, specify 4:
#    * atom type interacting with
#    * atom type
#    * epsilon (energy units)
#    * sigma (distance units)
#

pair_coeff      1 1 1.0 1.0
###################################################################

###################################################################
# Pair interaction between non-bonded atoms
#
#  soft potential, for PUSHING apart overlapping atoms
#  potential E=A*(1 + cos(pi*r/r_c))
#
#  1.12246 = 2^(1/6) is the cut-off r_c

#pair_style     soft 1.12246152962189

#
#  pair_coeff for soft, specify 3:
#    * atom type interacting with
#    * atom type
#    * A
#
#

#pair_coeff      1 1 100.0
###################################################################

###################################################################
# Pair interaction between bonded atoms
#
# Fene potential + Lennard Jones 12-6:

#
#  E= - 0.5 K R0^2 ln[ 1- (r/R0)^2]
#     + 4epsilon[ (sigma/r)^12 - (sigma/r)^6] + epsilon
#

bond_style   fene


#
# For style fene, specify:
#   * bond type
#   * K (energy/distance^2)
#   * R0 (distance)
#   * epsilon (energy)  (LJ component)
#   * sigma (distance)  (LJ component)
#


special_bonds fene #<=== I M P O R T A N T (new command)
Finding 1-2 1-3 1-4 neighbors ...
  special bond factors lj:    0        1        1       
  special bond factors coul:  0        1        1       
     2 = max # of 1-2 neighbors
     6 = max # of special neighbors
  special bonds CPU = 0.000 seconds

bond_coeff   1   30   2   1.0   1.0


###################################################

###################################################################
# Pair interaction between bonded atoms
#
# Harmonic potential:
#
#  E= K * (R-R0)^2
#

#bond_style   harmonic

#
# For style harmonic, specify:
#   * bond type
#   * K (energy/distance^2)
#   * R0 (distance)
#

#bond_coeff   1   60.0   1.0
#bond_coeff   2   harmonic 0.1   1.0

###################################################
compute 1 all gyration
variable rog equal c_1
#compute 2 all coord/atom cutoff 1.1

#dump 2 all custom 10000 contact_number.dump id c_2


###
# Set up fixes
###
thermo_style   custom   step  temp enthalpy c_1
fix 1 all nve   ###NVE ensemble

fix 2 all   langevin   1.0 1.0 1.0  100103   ###Langevin integrator Tstart Tstop 1/friction rndseed


##### Sample thermodynamic info  (temperature, energy, pressure, etc.) #####
thermo 1000









############################################################################

###
# set timestep of integrator

timestep 0.01

###
# run integration for a number of steps
###
#run 0
#variable r equal c_1
#if "$r < 63.1" then "quit 1"

# lj potential minimum, cause molecule to explore
run 100000
Generated 0 of 0 mixed pair_coeff terms from geometric mixing rule
Last active /omp style is angle_style cosine/omp
Neighbor list info ...
  update: every = 1 steps, delay = 1 steps, check = yes
  max neighbors/atom: 2000, page size: 100000
  master list distance cutoff = 5.1224615
  ghost atom cutoff = 5.1224615
  binsize = 2.5612308, bins = 781 781 781
  1 neighbor lists, perpetual/occasional/extra = 1 0 0
  (1) pair lj/cut/omp, perpetual
      attributes: half, newton on, omp
      pair build: half/bin/newton/omp
      stencil: half/bin/3d
      bin: standard
WARNING: Communication cutoff 5.12246152962189 is shorter than a bond length based estimate of 5.455. This may lead to errors. (src/comm.cpp:723)
Per MPI rank memory allocation (min/avg/max) = 939.5 | 940.2 | 940.8 Mbytes
   Step          Temp         Enthalpy         c_1      
         0   0              13.391857      100.00058    
      1000   0.96945127     19.178137      99.684112    
      2000   0.98209223     18.886557      99.213564    
      3000   1.0425588      18.156827      99.062655    
      4000   1.0126496      18.148677      98.571835    
      5000   1.0252833      18.939843      98.263255    
      6000   1.0307255      19.213165      97.967871    
      7000   1.0070888      19.235687      97.815571    
      8000   1.0531239      19.224701      97.436564    
      9000   1.0419384      19.792962      97.372743    
     10000   0.94888719     19.590302      96.971223    
     11000   1.0755174      19.36367       96.709402    
     12000   1.0054706      18.923331      96.426011    
     13000   0.94008098     18.867749      96.236899    
     14000   0.98354504     18.642077      95.694061    
     15000   1.0158476      18.860025      95.333011    
     16000   0.95093775     20.38254       95.077393    
     17000   0.99408967     19.480532      94.730311    
     18000   1.0323925      19.935576      94.215143    
     19000   0.94754988     19.942417      94.127727    
     20000   1.0023949      19.502623      93.700411    
     21000   0.99236295     20.388077      93.251163    
     22000   0.94263761     18.887958      92.663982    
     23000   1.0204107      19.585765      92.523777    
     24000   1.0085182      19.95738       92.463504    
     25000   1.0582144      19.640283      92.203548    
     26000   0.96562599     19.591342      91.828329    
     27000   0.9916469      19.929881      91.448946    
     28000   0.99407985     19.774177      91.040301    
     29000   1.0129759      19.701101      90.832609    
     30000   0.96767493     19.111323      90.699744    
     31000   1.0306293      20.35682       90.854047    
     32000   0.9631883      19.457801      90.875621    
     33000   0.98291348     20.164668      90.623512    
     34000   1.0152476      19.102554      90.415757    
     35000   0.97835023     19.499213      90.096217    
     36000   0.9989208      19.915332      89.535937    
     37000   0.99570829     19.798667      89.631369    
     38000   1.0145177      19.684021      89.282896    
     39000   1.0371844      19.901697      89.097336    
     40000   0.93526405     19.754894      88.858849    
     41000   1.0471073      19.053923      88.439126    
     42000   1.0573888      20.77421       88.432679    
     43000   0.98956345     20.314323      88.211137    
     44000   0.98813515     19.864046      87.894751    
     45000   0.97409763     19.463595      87.734369    
     46000   1.0100086      18.951181      87.65918     
     47000   0.9717426      20.052492      87.586304    
     48000   0.99903214     19.16681       86.668679    
     49000   1.0066961      19.84569       86.308737    
     50000   0.94276392     19.347448      85.889102    
     51000   0.95754002     20.291747      85.719819    
     52000   0.95571256     19.353936      85.393723    
     53000   0.85320659     19.733172      84.885351    
     54000   1.0051274      19.930722      84.731639    
     55000   0.99733826     19.723802      84.662935    
     56000   1.0317911      19.111144      84.143017    
     57000   1.001882       19.548798      83.836853    
     58000   0.93479099     20.311699      83.425225    
     59000   1.0930111      20.239389      83.452498    
     60000   1.0560002      20.202903      83.428485    
     61000   0.95578916     19.43117       83.693766    
     62000   0.99281695     21.300723      83.388691    
     63000   0.98372797     19.820009      83.202756    
     64000   0.98867978     19.565491      82.922255    
     65000   1.0261398      20.738155      82.779036    
     66000   1.0224635      20.452803      82.706369    
     67000   1.0400551      20.094088      82.4052      
     68000   1.0298139      20.179358      82.24438     
     69000   0.98656305     19.341222      82.162257    
     70000   0.97394117     20.754928      82.004202    
     71000   0.94257431     20.554671      81.724134    
     72000   1.0239765      20.487604      81.664035    
     73000   1.0147555      20.740415      81.624667    
     74000   1.0149509      19.989194      81.311734    
     75000   0.98662974     19.844996      81.103151    
     76000   0.96362292     20.678313      80.685153    
     77000   1.0097328      19.752162      80.584486    
     78000   1.0238593      20.182737      80.474149    
     79000   0.95669265     19.667121      80.038736    
     80000   1.0165027      20.131253      79.843102    
     81000   0.96630792     19.95067       79.810159    
     82000   0.97387386     20.154919      79.942373    
     83000   0.94016495     19.847741      79.771337    
     84000   1.0835992      20.364131      79.741609    
     85000   1.0684547      20.418471      79.655305    
     86000   1.0640651      19.910263      79.690843    
     87000   1.0645977      19.388261      79.70202     
     88000   0.98531988     19.608768      79.630176    
     89000   1.0487025      20.653114      79.513886    
     90000   1.0163485      19.523457      79.139895    
     91000   1.0422326      20.810333      78.979764    
     92000   1.0643808      20.281153      78.878836    
     93000   1.0191311      20.049321      78.773983    
     94000   1.0315772      20.333693      78.551865    
     95000   0.98381955     20.824479      78.060024    
     96000   0.97586165     20.371687      77.950124    
     97000   0.94761276     19.677589      77.579373    
     98000   0.95362481     20.057916      77.397963    
     99000   1.0005116      20.218252      77.162848    
    100000   0.96958459     19.935305      76.520911    
Loop time of 165.962 on 4 procs for 100000 steps with 400 atoms

Performance: 520600.874 tau/day, 602.547 timesteps/s
103.0% CPU use with 2 MPI tasks x 2 OpenMP threads

MPI task timing breakdown:
Section |  min time  |  avg time  |  max time  |%varavg| %total
---------------------------------------------------------------
Pair    | 0.28387    | 0.29694    | 0.31001    |   2.4 |  0.18
Bond    | 0.52398    | 0.58297    | 0.64197    |   7.7 |  0.35
Neigh   | 162.35     | 162.35     | 162.35     |   0.0 | 97.83
Comm    | 0.93412    | 0.99258    | 1.051      |   5.9 |  0.60
Output  | 0.17397    | 0.177      | 0.18003    |   0.7 |  0.11
Modify  | 0.96661    | 1.091      | 1.2154     |  11.9 |  0.66
Other   |            | 0.4667     |            |       |  0.28

Nlocal:            200 ave         269 max         131 min
Histogram: 1 0 0 0 0 0 0 0 0 1
Nghost:          197.5 ave         264 max         131 min
Histogram: 1 0 0 0 0 0 0 0 0 1
Neighs:         1184.5 ave        1704 max         665 min
Histogram: 1 0 0 0 0 0 0 0 0 1

Total # of neighbors = 2369
Ave neighs/atom = 5.9225
Ave special neighs/atom = 1.995
Neighbor list builds = 1009
Dangerous builds = 0

# Replace lj potential, now collapse
pair_style      lj/cut 3

# Cutoff simul when gyration under 5
# Variable created with equal requires v_ + 'name'
fix 3 all halt 1000 v_rog < 5

run 5000000
Generated 0 of 0 mixed pair_coeff terms from geometric mixing rule
Last active /omp style is angle_style cosine/omp
Per MPI rank memory allocation (min/avg/max) = 939.8 | 940.3 | 940.8 Mbytes
   Step          Temp         Enthalpy         c_1      
    100000   0.96958459     19.228142      76.520911    
    101000   1.1051439      20.024891      76.128458    
    102000   0.98066151     19.091391      75.950977    
    103000   1.005984       20.576967      75.751182    
    104000   1.0043767      19.990665      75.745906    
    105000   1.0319877      19.603913      75.708664    
    106000   1.0110762      20.083017      75.477505    
    107000   1.0041837      19.466122      75.497171    
    108000   1.0776915      19.592256      75.207366    
    109000   1.036593       19.705493      75.171865    
    110000   1.0772601      20.095439      74.806936    
    111000   0.97294701     20.293448      74.459984    
    112000   1.0148003      19.019414      74.316418    
    113000   0.94502049     18.950649      73.948099    
    114000   1.0249434      19.151969      73.336588    
    115000   0.98943583     19.318001      73.226205    
    116000   0.97786099     19.047955      72.867697    
    117000   1.0210118      20.172068      72.890226    
    118000   0.99431927     18.32356       73.048597    
    119000   1.0020279      18.498321      72.938766    
    120000   1.0362668      19.714057      72.80097     
    121000   1.1228937      19.64257       72.751534    
    122000   0.99687024     19.649387      72.609706    
    123000   1.054977       19.462464      72.625206    
    124000   1.008994       18.851737      72.542938    
    125000   1.0305         19.86842       72.411883    
    126000   0.97098873     19.786275      72.475645    
    127000   0.98922696     19.690011      72.003559    
    128000   0.96477107     18.731713      71.757454    
    129000   1.0142835      19.10075       71.542936    
    130000   0.97304908     19.116582      71.551856    
    131000   0.95076705     19.51504       71.53285     
    132000   1.0408977      19.381948      71.316856    
    133000   0.93027645     19.364969      70.886778    
    134000   0.92520392     19.225258      71.03064     
    135000   1.0301185      19.471205      71.199603    
    136000   1.0791813      18.957641      70.766865    
    137000   1.0154286      19.176638      70.436065    
    138000   0.99363236     18.619882      70.624933    
    139000   0.97003086     18.925925      70.688395    
    140000   0.97719086     19.857104      70.557973    
    141000   1.0395047      19.387973      70.698647    
    142000   0.97432937     19.145148      70.658192    
    143000   0.9369394      18.501962      70.332835    
    144000   0.91943785     17.970442      69.867725    
    145000   1.0270925      19.350313      69.562362    
    146000   0.99317346     18.906983      69.372384    
    147000   1.0403076      19.619827      69.326591    
    148000   0.96191382     19.13837       69.162468    
    149000   1.0750657      19.333992      69.294538    
    150000   0.9977769      18.647392      68.94092     
    151000   0.93340636     19.370773      68.81514     
    152000   0.95880927     19.000244      68.562006    
    153000   1.0333258      18.878989      68.425773    
    154000   1.0080831      18.627364      68.144289    
    155000   0.9779533      19.103201      68.081588    
    156000   0.97892948     19.224421      68.156829    
    157000   0.93679703     18.926407      67.969686    
    158000   0.92986376     19.050425      67.843818    
    159000   1.0528199      19.328228      67.549134    
    160000   0.95483069     19.180591      67.227421    
    161000   1.0243344      19.523114      66.927532    
    162000   1.0439986      19.340372      66.749155    
    163000   1.0373141      19.005207      66.788108    
    164000   0.99757791     18.959239      67.088684    
    165000   1.0688732      19.101223      66.856566    
    166000   1.038367       18.195344      66.505645    
    167000   0.98321592     19.100922      66.442956    
    168000   1.0192324      19.13811       66.328446    
    169000   0.95356153     18.963513      65.984733    
    170000   0.94159301     18.520593      65.870067    
    171000   0.94435727     18.598452      65.740414    
    172000   0.98468985     19.726056      66.036603    
    173000   1.0439221      19.036161      65.764506    
    174000   1.0148519      19.043128      65.607223    
    175000   1.0072921      18.893767      65.22901     
    176000   1.0471252      19.249014      65.071164    
    177000   1.0122909      19.272978      64.480389    
    178000   0.96014107     18.660783      64.437544    
    179000   0.99083339     19.405824      64.471043    
    180000   1.0110742      19.191967      64.383435    
    181000   0.96431664     18.735132      64.180064    
    182000   1.0171316      19.948297      63.680357    
    183000   0.94562122     18.667534      63.047645    
    184000   0.99832539     19.000124      62.989395    
    185000   0.95270183     18.616512      62.955658    
    186000   0.99346456     18.193604      62.536098    
    187000   0.97347867     18.563819      62.506869    
    188000   1.009115       19.001305      62.534446    
    189000   0.9906825      18.85023       62.180584    
    190000   0.99809824     18.479057      61.821802    
    191000   0.97321765     19.134238      61.911934    
    192000   1.0230411      19.270124      62.067885    
    193000   0.96482084     18.932663      61.890001    
    194000   1.0028514      19.072318      61.364168    
    195000   0.94595732     18.533374      61.318392    
    196000   0.98371397     19.345774      61.309845    
    197000   1.0038383      18.395044      60.958558    
    198000   0.93600408     18.73006       60.983448    
    199000   0.97928638     18.032643      60.674281    
    200000   0.89322655     19.569422      60.360336    
    201000   1.0719226      19.23003       60.050003    
    202000   0.96268424     18.620209      60.327945    
    203000   0.98966802     19.109041      60.353505    
    204000   1.0288751      18.907758      60.163036    
    205000   1.0018542      18.770087      59.788738    
    206000   1.0134141      18.269901      59.35442     
    207000   0.94830234     17.970335      59.488848    
    208000   1.0923258      19.430771      59.469622    
    209000   1.0596409      18.847451      59.630924    
    210000   1.0249949      19.232033      59.420931    
    211000   0.99038619     18.589939      59.484162    
    212000   0.93229126     18.211864      59.090761    
    213000   1.0222182      18.787307      58.817362    
    214000   1.0023854      18.452436      58.490556    
    215000   1.0537132      18.403314      58.262313    
    216000   1.0191482      18.699234      57.901236    
    217000   0.97239477     18.744689      57.96087     
    218000   1.0045604      19.087165      57.856305    
    219000   1.043412       19.102731      57.481218    
    220000   0.97141852     18.470423      57.279695    
    221000   1.0401393      18.487009      56.928359    
    222000   0.99830079     18.745338      56.755372    
    223000   0.91879359     17.890191      56.630922    
    224000   1.0300069      19.783194      56.648518    
    225000   1.0221896      18.606322      56.572267    
    226000   0.93999758     19.450516      56.421623    
    227000   0.98377317     19.324181      56.028331    
    228000   0.96066726     17.844254      55.658767    
    229000   1.0023593      18.073928      55.472612    
    230000   1.0336334      18.058742      55.391964    
    231000   0.9404053      18.530827      55.386712    
    232000   0.97058234     19.06906       55.14943     
    233000   1.0254401      18.520648      55.12017     
    234000   0.98146152     18.462211      54.935172    
    235000   0.94448429     18.902739      54.752151    
    236000   0.96635642     18.669034      54.715673    
    237000   0.94049284     19.04118       54.176403    
    238000   1.0310154      18.517612      53.739143    
    239000   1.0356763      19.234477      53.856908    
    240000   0.95918316     18.288535      53.771876    
    241000   1.0179373      18.458658      53.875961    
    242000   0.96484002     17.729233      53.735121    
    243000   0.97961355     18.005509      53.574853    
    244000   1.0522263      17.578761      53.357444    
    245000   1.0229242      18.394579      52.863889    
    246000   1.046405       18.245272      52.681596    
    247000   1.0186832      17.501902      52.592062    
    248000   1.0407579      18.970882      52.216745    
    249000   1.020061       19.413826      51.40805     
    250000   0.96881723     19.018481      50.864886    
    251000   1.0451469      18.880983      50.57999     
    252000   0.92829359     17.693229      50.589087    
    253000   1.0310522      19.00164       50.188542    
    254000   1.0061978      19.327187      50.250356    
    255000   0.97353047     18.388732      50.110611    
    256000   1.0569312      18.261032      49.739732    
    257000   0.97174223     18.806561      49.429896    
    258000   0.96258108     18.65611       48.985198    
    259000   0.9691985      19.099734      49.019706    
    260000   0.97928029     18.507823      48.590637    
    261000   1.0415457      17.72062       48.556808    
    262000   1.01474        18.59856       48.501833    
    263000   1.0116123      18.209867      48.404705    
    264000   1.0805791      19.268638      48.219596    
    265000   0.92502691     19.088373      47.983747    
    266000   1.0773042      19.31767       47.952108    
    267000   0.98669977     17.792035      47.72782     
    268000   0.91621647     18.069319      47.668       
    269000   0.98326033     19.008197      47.385643    
    270000   1.0302178      17.93223       47.320587    
    271000   0.9495944      18.488169      47.374404    
    272000   0.9511059      18.728274      46.963796    
    273000   1.0671808      18.871442      46.622975    
    274000   0.98590492     19.445299      46.379024    
    275000   1.0742549      18.481413      46.395126    
    276000   0.95974361     18.317434      46.219047    
    277000   0.95427235     17.994512      45.926767    
    278000   1.0280593      17.614974      46.118547    
    279000   0.95187911     18.431506      45.906099    
    280000   0.95048147     18.34311       45.858738    
    281000   1.0226818      18.07686       45.878719    
    282000   1.0670116      18.451401      46.178755    
    283000   1.0481549      19.468963      46.23927     
    284000   0.9731039      17.108412      46.078079    
    285000   0.99018077     19.301312      45.612973    
    286000   1.0298626      18.862756      45.581354    
    287000   1.0257786      18.518239      45.104326    
    288000   1.0755259      18.124261      45.057202    
    289000   0.97463872     17.950045      44.892481    
    290000   0.99317353     18.181701      44.680812    
    291000   0.9705966      17.909318      44.59025     
    292000   1.0373011      17.977414      44.382124    
    293000   1.0209878      18.225978      44.005219    
    294000   1.0061595      18.116033      43.781052    
    295000   1.0201177      19.086318      43.542457    
    296000   1.0652432      18.896874      43.1591      
    297000   0.96438025     19.2579        42.862802    
    298000   1.1064864      18.561557      42.439887    
    299000   1.007897       18.134958      42.388063    
    300000   1.0331003      18.424904      41.917315    
    301000   0.93922127     17.250142      41.67217     
    302000   0.93825723     18.127963      41.565138    
    303000   0.97934407     18.600555      41.113582    
    304000   1.0745903      18.517625      40.753949    
    305000   0.96009192     19.177417      40.274701    
    306000   0.9307407      18.21236       39.92353     
    307000   1.0740736      18.520246      39.631471    
    308000   0.97644682     18.381042      39.496483    
    309000   1.0651648      18.263993      38.942862    
    310000   1.0682732      18.547754      38.494876    
    311000   0.97438553     17.918582      38.172219    
    312000   0.91873958     17.105229      38.014716    
    313000   0.92628542     17.406076      37.825521    
    314000   0.95621711     18.064096      37.989264    
    315000   1.0231033      18.794649      38.09917     
    316000   1.0525201      19.559875      38.182403    
    317000   0.99494081     18.006598      38.037609    
    318000   0.94941536     17.947402      38.015071    
    319000   1.0257831      18.169596      37.812279    
    320000   0.99550284     19.063578      37.544573    
    321000   1.003991       18.530401      37.386136    
    322000   0.97644266     18.266996      37.314445    
    323000   1.0102346      17.67531       37.426541    
    324000   0.91957991     17.607117      37.201545    
    325000   1.0511929      17.583816      37.099826    
    326000   0.97670709     19.037377      36.739838    
    327000   1.0109524      18.604807      36.501178    
    328000   1.0008733      18.060019      35.750234    
    329000   1.0052486      17.559498      35.849555    
    330000   1.0183027      18.068969      35.684581    
    331000   0.93661958     17.941964      35.425979    
    332000   1.0375297      18.836405      35.257449    
    333000   1.025975       18.584218      35.129179    
    334000   0.99703476     18.478016      35.047871    
    335000   0.96003878     17.891214      35.228862    
    336000   1.0396033      16.928527      34.792771    
    337000   1.0279571      18.824702      34.601257    
    338000   1.0304662      17.58149       34.567348    
    339000   1.0392504      18.186101      34.022457    
    340000   0.9789801      18.391037      33.811674    
    341000   0.94859556     17.633491      33.524914    
    342000   0.98315475     17.251122      33.391238    
    343000   0.98737303     17.880589      33.598739    
    344000   1.0854815      18.14584       33.594298    
    345000   1.0824078      18.671281      33.690769    
    346000   1.0409141      17.683195      33.627359    
    347000   1.059423       18.039118      33.41103     
    348000   0.96930261     18.556118      33.172064    
    349000   0.96718305     18.643411      33.235305    
    350000   0.99755662     18.118153      33.006479    
    351000   0.96492023     18.350892      32.767594    
    352000   0.97455321     18.106717      32.426202    
    353000   1.0283359      17.924303      32.490187    
    354000   0.96524056     17.800742      32.69335     
    355000   0.96831939     17.165291      32.360492    
    356000   0.98412787     18.712307      31.821147    
    357000   1.0159594      17.656601      31.68344     
    358000   0.9907935      18.136077      31.464973    
    359000   1.0340579      18.166204      31.319906    
    360000   0.97805139     17.008839      31.461033    
    361000   1.0314162      17.508745      31.292077    
    362000   1.0082022      17.353871      31.29952     
    363000   1.0150115      17.698129      30.785285    
    364000   1.0396193      18.203137      30.760295    
    365000   0.9106899      18.428113      30.664811    
    366000   1.1112403      18.453105      30.561383    
    367000   1.0144562      17.66127       30.249048    
    368000   0.99367039     18.340643      30.382935    
    369000   0.9873722      17.228207      30.444018    
    370000   1.0004427      18.947277      30.095617    
    371000   0.94924682     17.843998      30.223154    
    372000   0.97161516     17.83738       29.801391    
    373000   1.0265256      18.64857       29.694009    
    374000   1.0605895      17.847377      29.514819    
    375000   0.95624382     18.891954      29.235611    
    376000   0.96205688     18.143696      29.066621    
    377000   0.9794405      17.955096      28.93494     
    378000   1.0182299      18.709584      28.704453    
    379000   1.0244725      18.149412      28.765781    
    380000   1.0483944      18.718716      28.610102    
    381000   1.0029847      17.719201      28.584969    
    382000   0.93302062     17.708894      28.762044    
    383000   1.0327685      17.989491      28.267398    
    384000   0.96620175     17.927336      28.254001    
    385000   0.96315476     17.162363      28.068852    
    386000   1.0099603      17.793892      27.835846    
    387000   1.0455954      18.117918      27.783171    
    388000   0.97565782     17.885102      27.330035    
    389000   0.88779332     17.589782      27.352286    
    390000   0.97799769     17.902648      27.207915    
    391000   1.0046798      17.649355      26.866761    
    392000   1.073901       18.095876      26.902787    
    393000   1.0390532      17.755191      26.968929    
    394000   0.96926879     17.97763       26.953045    
    395000   0.98316486     17.183924      27.232222    
    396000   0.95635809     17.523146      26.768883    
    397000   0.92925085     17.822532      26.336124    
    398000   1.0821544      17.847594      26.239884    
    399000   0.97897925     17.427019      25.783814    
    400000   0.93715922     18.004259      25.839108    
    401000   0.94236778     19.207039      25.858293    
    402000   0.9478971      18.054053      25.827796    
    403000   1.0858209      17.560141      25.524776    
    404000   0.96361413     16.94932       25.499251    
    405000   1.0125607      18.372847      25.361641    
    406000   0.96747041     17.664768      25.258641    
    407000   1.0291073      18.345732      24.939689    
    408000   0.97829501     17.902034      24.660238    
    409000   1.0159349      17.468918      24.792996    
    410000   1.0903946      17.810161      24.399655    
    411000   0.99669834     18.182695      24.448448    
    412000   1.0067365      18.519901      23.94473     
    413000   0.98355249     17.746136      23.495243    
    414000   1.0357264      18.465946      23.321966    
    415000   1.0352583      17.680349      23.069921    
    416000   0.93686629     17.841499      22.67774     
    417000   0.99384657     18.289817      22.509043    
    418000   0.98107884     17.831981      22.214573    
    419000   0.98129287     18.196428      21.904733    
    420000   1.0162961      18.011947      21.998935    
    421000   1.0468396      17.438837      21.649551    
    422000   0.95745221     17.908099      21.899127    
    423000   0.95044818     18.484116      21.818626    
    424000   1.1247976      18.776723      21.641255    
    425000   1.038775       17.627741      21.775911    
    426000   1.0230455      17.897415      21.721965    
    427000   1.0068738      17.688496      22.040787    
    428000   1.0740086      18.171633      22.262613    
    429000   0.99044086     17.613751      22.255127    
    430000   1.0091103      18.600403      22.126063    
    431000   0.99005692     18.582454      21.980097    
    432000   1.0608875      18.226552      21.882876    
    433000   0.95838396     17.59973       21.71072     
    434000   0.97098153     16.766615      21.856154    
    435000   0.9176554      17.774939      21.375905    
    436000   1.05674        18.082383      21.006189    
    437000   1.0343063      18.296923      20.856816    
    438000   1.0904644      19.167185      21.064696    
    439000   1.0441875      18.268567      21.060054    
    440000   1.0536723      18.781167      21.011288    
    441000   0.979621       17.94197       20.790199    
    442000   1.00662        17.802084      20.523471    
    443000   1.0365975      17.813835      20.109678    
    444000   1.0073263      17.425681      19.75808     
    445000   1.0315115      18.136566      19.315956    
    446000   1.0289557      17.654808      18.736416    
    447000   1.0607769      17.848064      18.577881    
    448000   0.95956741     17.67602       18.664152    
    449000   0.97736603     17.577768      18.535031    
    450000   0.96509023     18.183078      18.598381    
    451000   0.93568305     18.314759      18.310162    
    452000   1.0537476      17.395035      18.173103    
    453000   0.98809049     18.026937      17.973924    
    454000   1.0431935      17.237244      17.840543    
    455000   1.0390563      17.727591      17.720818    
    456000   1.0339024      18.214343      17.558126    
    457000   1.016322       17.190407      17.330034    
    458000   1.0449032      18.187276      17.418744    
    459000   1.0067343      17.344002      17.238688    
    460000   0.98874872     18.775668      17.481704    
    461000   1.0340685      17.592044      17.292408    
    462000   0.99331339     17.445115      17.375099    
    463000   1.0068212      17.896646      17.311578    
    464000   1.0086156      17.807928      17.310097    
    465000   0.94238901     17.248705      17.291268    
    466000   0.98647827     17.34589       16.836818    
    467000   0.93573404     18.970976      16.446092    
    468000   0.9508634      17.438894      16.072892    
    469000   0.96946606     17.517548      15.777238    
    470000   0.98707514     17.589057      15.598854    
    471000   0.95814702     17.145983      15.763637    
    472000   0.94287456     18.396999      15.606777    
    473000   1.1020893      18.368262      15.596677    
    474000   0.95328377     17.143464      15.206666    
    475000   0.93968245     18.475094      15.388814    
    476000   0.99612472     17.038548      14.833364    
    477000   0.99857663     17.533581      14.767098    
    478000   1.0206484      17.401752      14.184335    
    479000   1.0187128      17.7411        14.179292    
    480000   0.94328425     17.808156      14.360042    
    481000   1.0737989      18.243472      13.755846    
    482000   1.0229558      17.385918      13.53722     
    483000   1.0187716      17.316949      13.507231    
    484000   1.0178392      17.479793      13.357467    
    485000   1.018656       16.962572      13.052435    
    486000   0.93927959     17.897856      12.960296    
    487000   0.97163212     18.124513      12.800666    
    488000   1.0028603      18.339696      12.519286    
    489000   0.99444514     17.83037       12.309314    
    490000   1.021042       18.496784      12.399131    
    491000   0.93590727     17.086217      12.043282    
    492000   0.9924186      18.904089      11.828038    
    493000   0.95546239     17.763243      11.691702    
    494000   1.0012309      17.943749      11.335708    
    495000   1.0549737      17.495082      11.573097    
    496000   1.0139569      18.039314      11.273097    
    497000   0.98094807     17.429243      11.572131    
    498000   1.0254981      17.94613       11.429372    
    499000   1.0223397      17.379318      11.233611    
    500000   1.0950874      19.048981      10.909784    
    501000   0.93142786     18.03288       10.907784    
    502000   0.97194411     18.165357      10.713097    
    503000   0.99476649     17.886045      10.778719    
    504000   1.0272766      17.560786      10.617303    
    505000   1.0260327      18.563434      10.437242    
    506000   1.0648972      17.837621      10.456162    
    507000   1.010017       17.750851      10.494955    
    508000   0.9672257      17.941568      10.199159    
    509000   0.95565129     17.318397      10.121951    
    510000   0.95863689     18.281091      10.055831    
    511000   1.0426663      17.119523      9.6472873    
    512000   1.0912564      18.180454      9.5350444    
    513000   0.98403842     17.420176      9.7178548    
    514000   0.96186777     17.91348       9.4750234    
    515000   0.99639304     17.387266      9.603591     
    516000   1.014577       17.218796      9.775059     
    517000   0.98451992     17.177409      9.4006493    
    518000   1.0079912      17.622883      9.1615418    
    519000   1.0280558      17.821315      8.9562265    
    520000   1.0941849      18.359604      8.4961635    
    521000   0.96612399     17.942946      8.1496503    
    522000   0.99697208     17.53681       8.3820401    
    523000   1.0328075      18.166701      8.1502806    
    524000   0.91733803     17.145719      7.8786166    
    525000   1.0012103      17.341116      7.8147002    
    526000   1.0254213      18.584173      7.6345088    
    527000   0.98703147     17.981781      7.455134     
    528000   1.0097884      18.295445      7.3351287    
    529000   1.0346608      18.283713      7.2980609    
    530000   1.0321481      17.544375      7.2503597    
    531000   0.98547933     17.046726      7.007974     
    532000   1.0081205      17.275712      6.9498544    
    533000   1.0118192      17.486653      6.7654291    
    534000   0.99525863     17.022181      6.5010141    
    535000   0.97671975     17.912489      6.336674     
    536000   1.0386654      17.014406      6.1565837    
    537000   1.017591       17.200238      5.9840875    
    538000   0.99876348     17.497608      6.1419001    
    539000   1.0119184      17.711158      6.2675444    
    540000   1.0955728      19.041337      6.1620004    
    541000   1.0430921      17.200574      5.9153456    
    542000   1.0580905      17.558293      5.745209     
    543000   1.0165733      17.381908      5.4760098    
    544000   0.97526815     19.117301      5.0957154    
Fix halt condition for fix-id 3 met on step 545000 with value 4.721312691067217 (src/fix_halt.cpp:237)
    545000   0.96479178     16.699064      4.7213127    
Loop time of 280.782 on 4 procs for 445000 steps with 400 atoms

Performance: 1369319.735 tau/day, 1584.861 timesteps/s
115.3% CPU use with 2 MPI tasks x 2 OpenMP threads

MPI task timing breakdown:
Section |  min time  |  avg time  |  max time  |%varavg| %total
---------------------------------------------------------------
Pair    | 10.989     | 15.781     | 20.573     | 120.6 |  5.62
Bond    | 2.1607     | 2.6361     | 3.1115     |  29.3 |  0.94
Neigh   | 242.35     | 242.35     | 242.35     |   0.0 | 86.31
Comm    | 6.6107     | 11.804     | 16.997     | 151.2 |  4.20
Output  | 0.75244    | 0.76568    | 0.77891    |   1.5 |  0.27
Modify  | 3.7579     | 4.9413     | 6.1247     |  53.2 |  1.76
Other   |            | 2.502      |            |       |  0.89

Nlocal:            200 ave         400 max           0 min
Histogram: 1 0 0 0 0 0 0 0 0 1
Nghost:          192.5 ave         385 max           0 min
Histogram: 1 0 0 0 0 0 0 0 0 1
Neighs:          26287 ave       52574 max           0 min
Histogram: 1 0 0 0 0 0 0 0 0 1

Total # of neighbors = 52574
Ave neighs/atom = 131.435
Ave special neighs/atom = 1.995
Neighbor list builds = 3772
Dangerous builds = 0

# This simulation is done
# Move onto the next one
clear
  using 2 OpenMP thread(s) per MPI task
package omp 0
using multi-threaded neighbor list subroutines
next f
jump SELF

###
# Reference paper:
# K. Kremer and G. S. Grest
# Dynamics of entangled linear polymer melts: A molecular-dynamics simulation
# J Chem Phys 92, 5057 (1990)

##################################
# MIHIR: for branched polymers
# LJ minimum first to expand and explore, then collapse
###

###
# Looping through the various linear polymers to simulate,
# define variables to switch through
variable f index bb100nuc0bl0bn0d30tot100 bb200nuc0bl0bn0d30tot200 bb300nuc0bl0bn0d30tot300 bb400nuc0bl0bn0d30tot400 bb500nuc0bl0bn0d30tot500 bb600nuc0bl0bn0d30tot600 bb700nuc0bl0bn0d30tot700 bb800nuc0bl0bn0d30tot800 bb900nuc0bl0bn0d30tot900 bb1000nuc0bl0bn0d30tot1000 bb1100nuc0bl0bn0d30tot1100 bb1200nuc0bl0bn0d30tot1200
###


###
# Box and units  (use LJ units and periodic boundaries)
###

units lj
log linear/logs/$f.log
log linear/logs/bb500nuc0bl0bn0d30tot500.log
