#atom_style bond #no stiffness
atom_style angle #with stiffness

boundary        p p p
###
# Pair interactions require lists of neighbours to be calculated
###

#neighbor 0.3 bin
neighbor 4 bin

neigh_modify every 1 delay 1 check yes
atom_modify sort 0 0
### Generate RESTART file, SPECIAL format, not a .txt file ###
### Useful if simulation crashes ###

restart 1000000 linear/restarts/$f.restart
restart 1000000 linear/restarts/bb500nuc0bl0bn0d30tot500.restart
#############################



### READ "start" data file ###

read_data linear/$f.dat
read_data linear/bb500nuc0bl0bn0d30tot500.dat
Reading data file ...
  orthogonal box = (-1000 -1000 -1000) to (1000 1000 1000)
  1 by 1 by 2 MPI processor grid
  reading atoms ...
  500 atoms
  scanning bonds ...
  1 = max bonds/atom
  scanning angles ...
  1 = max angles/atom
  reading bonds ...
  499 bonds
  reading angles ...
  498 angles
Finding 1-2 1-3 1-4 neighbors ...
  special bond factors lj:    0        0        0       
  special bond factors coul:  0        0        0       
     2 = max # of 1-2 neighbors
     2 = max # of 1-3 neighbors
     4 = max # of 1-4 neighbors
     6 = max # of special neighbors
  special bonds CPU = 0.001 seconds
  read_data CPU = 0.027 seconds

######################

### READ "REstart" data file ###

######################



###
# Define groups (atom type 1 is group 'all')
###
group all type 1
500 atoms in group all


###
# Dump configs - "simple dumpings"
###

###
# Dump configs + box coords
###

dump   1   all   custom   1000  linear/trjs/$f.lammpstrj  id  x y z  ix iy iz
dump   1   all   custom   1000  linear/trjs/bb500nuc0bl0bn0d30tot500.lammpstrj  id  x y z  ix iy iz
dump_modify   1   format line "%d %.5f %.5f %.5f %d %d %d"

########################################################################


###################################################################
# Stiffness term
#
# E = K * (1+cos(theta)), K>0
#
angle_style   cosine
#change this coefficient to change stiffness (e.g. 1,5,10)
angle_coeff   1 1.0
###################################################################

###################################################################
# Pair interaction between non-bonded atoms
#
#  Lennard-Jones 12-6 potential with cutoff:
#  potential E=4epsilon[ (sigma/r)^12 - (sigma/r)^6]  for r<r_cut
#
#  1.12246 = 2^(1/6) is the minimum of the potential


pair_style      lj/cut 1.12246152962189
#pair_style      lj/cut 3

#
#  pair_modify shift yes adds a constant to the potential such

#  that E(r_cut)=0. Forces remains unchanged.
#

pair_modify     shift yes

#
#  pair_coeff for lj/cut, specify 4:
#    * atom type interacting with
#    * atom type
#    * epsilon (energy units)
#    * sigma (distance units)
#

pair_coeff      1 1 1.0 1.0
###################################################################

###################################################################
# Pair interaction between non-bonded atoms
#
#  soft potential, for PUSHING apart overlapping atoms
#  potential E=A*(1 + cos(pi*r/r_c))
#
#  1.12246 = 2^(1/6) is the cut-off r_c

#pair_style     soft 1.12246152962189

#
#  pair_coeff for soft, specify 3:
#    * atom type interacting with
#    * atom type
#    * A
#
#

#pair_coeff      1 1 100.0
###################################################################

###################################################################
# Pair interaction between bonded atoms
#
# Fene potential + Lennard Jones 12-6:

#
#  E= - 0.5 K R0^2 ln[ 1- (r/R0)^2]
#     + 4epsilon[ (sigma/r)^12 - (sigma/r)^6] + epsilon
#

bond_style   fene


#
# For style fene, specify:
#   * bond type
#   * K (energy/distance^2)
#   * R0 (distance)
#   * epsilon (energy)  (LJ component)
#   * sigma (distance)  (LJ component)
#


special_bonds fene #<=== I M P O R T A N T (new command)
Finding 1-2 1-3 1-4 neighbors ...
  special bond factors lj:    0        1        1       
  special bond factors coul:  0        1        1       
     2 = max # of 1-2 neighbors
     6 = max # of special neighbors
  special bonds CPU = 0.000 seconds

bond_coeff   1   30   2   1.0   1.0


###################################################

###################################################################
# Pair interaction between bonded atoms
#
# Harmonic potential:
#
#  E= K * (R-R0)^2
#

#bond_style   harmonic

#
# For style harmonic, specify:
#   * bond type
#   * K (energy/distance^2)
#   * R0 (distance)
#

#bond_coeff   1   60.0   1.0
#bond_coeff   2   harmonic 0.1   1.0

###################################################
compute 1 all gyration
variable rog equal c_1
#compute 2 all coord/atom cutoff 1.1

#dump 2 all custom 10000 contact_number.dump id c_2


###
# Set up fixes
###
thermo_style   custom   step  temp enthalpy c_1
fix 1 all nve   ###NVE ensemble

fix 2 all   langevin   1.0 1.0 1.0  100103   ###Langevin integrator Tstart Tstop 1/friction rndseed


##### Sample thermodynamic info  (temperature, energy, pressure, etc.) #####
thermo 1000









############################################################################

###
# set timestep of integrator

timestep 0.01

###
# run integration for a number of steps
###
#run 0
#variable r equal c_1
#if "$r < 63.1" then "quit 1"

# lj potential minimum, cause molecule to explore
run 100000
Generated 0 of 0 mixed pair_coeff terms from geometric mixing rule
Last active /omp style is angle_style cosine/omp
Neighbor list info ...
  update: every = 1 steps, delay = 1 steps, check = yes
  max neighbors/atom: 2000, page size: 100000
  master list distance cutoff = 5.1224615
  ghost atom cutoff = 5.1224615
  binsize = 2.5612308, bins = 781 781 781
  1 neighbor lists, perpetual/occasional/extra = 1 0 0
  (1) pair lj/cut/omp, perpetual
      attributes: half, newton on, omp
      pair build: half/bin/newton/omp
      stencil: half/bin/3d
      bin: standard
WARNING: Communication cutoff 5.12246152962189 is shorter than a bond length based estimate of 5.455. This may lead to errors. (src/comm.cpp:723)
Per MPI rank memory allocation (min/avg/max) = 939.6 | 940.2 | 940.8 Mbytes
   Step          Temp         Enthalpy         c_1      
         0   0              13.399004      125.00046    
      1000   0.97539832     18.937665      124.57127    
      2000   0.95908369     18.485188      124.31951    
      3000   0.9727798      18.723965      124.07969    
      4000   0.99018719     19.031701      124.04288    
      5000   0.97728887     18.729296      123.89542    
      6000   1.0355732      19.566248      123.28204    
      7000   1.0006217      19.054791      123.0182     
      8000   1.0078712      18.997525      122.75866    
      9000   0.97344864     19.113085      122.94876    
     10000   0.96559279     19.221819      122.78134    
     11000   0.98984408     19.753191      122.43175    
     12000   1.0708432      19.068391      122.15898    
     13000   0.97664006     19.257945      121.92868    
     14000   1.006649       18.643589      121.61413    
     15000   0.98538155     19.489858      121.47985    
     16000   0.95082825     19.276062      121.13059    
     17000   0.98560334     20.095537      120.88733    
     18000   0.99205693     18.702694      120.76345    
     19000   1.0444687      19.064321      120.34199    
     20000   1.0178822      19.002614      119.9352     
     21000   0.97334773     20.126748      119.62878    
     22000   0.96916317     18.990887      119.38832    
     23000   1.0269869      18.572544      118.75064    
     24000   1.0041869      19.215869      118.47393    
     25000   1.0037502      19.833349      118.06817    
     26000   0.98321268     19.300941      117.89821    
     27000   0.98888406     18.870549      117.86421    
     28000   1.0070062      18.964584      117.74075    
     29000   1.0061594      19.530234      117.31343    
     30000   0.95773027     19.370837      116.98932    
     31000   0.96518192     19.664554      116.89888    
     32000   0.94614034     19.397066      116.65791    
     33000   0.99084549     19.49013       116.52703    
     34000   1.045778       19.293161      115.88239    
     35000   0.97372495     19.61614       115.80098    
     36000   1.0513094      19.546898      115.85868    
     37000   1.0853773      20.220613      115.67848    
     38000   1.0613076      20.187203      115.25567    
     39000   1.0377785      19.705797      114.99449    
     40000   0.98734302     19.34664       114.80354    
     41000   0.92749983     19.6875        114.67535    
     42000   0.99693423     19.333326      114.66477    
     43000   0.98076216     19.108197      114.3244     
     44000   0.94927622     19.978496      114.03647    
     45000   1.0049549      19.959312      113.73818    
     46000   0.96539056     19.545859      113.43014    
     47000   0.98786143     19.025518      113.30283    
     48000   0.96803908     19.54065       113.29103    
     49000   0.99518964     19.2891        113.01453    
     50000   0.9965136      20.043388      112.77458    
     51000   1.0518472      19.823986      112.59688    
     52000   1.0270203      20.022685      112.19117    
     53000   1.0088538      20.231074      112.16741    
     54000   1.0252444      19.461097      111.99904    
     55000   1.048495       19.862854      111.79957    
     56000   1.0232191      20.196267      111.9203     
     57000   1.0061884      19.800078      111.71342    
     58000   0.98880108     19.827952      111.4594     
     59000   0.98591922     20.467186      110.89531    
     60000   1.0099966      20.27578       110.44781    
     61000   0.97774967     19.958851      110.19349    
     62000   1.038694       20.249626      109.75426    
     63000   0.97772236     19.8693        109.74908    
     64000   1.024927       20.14997       109.76562    
     65000   1.0887377      19.63683       109.39876    
     66000   0.95448107     19.967883      109.15298    
     67000   1.0292959      19.813634      109.246      
     68000   0.97777194     19.984875      109.13815    
     69000   1.0591876      19.49133       109.07907    
     70000   1.0523138      19.376876      108.79202    
     71000   1.0342787      19.481821      108.57799    
     72000   1.0299169      19.974498      108.69077    
     73000   0.98756626     19.012699      108.80853    
     74000   1.0130826      20.143267      108.7033     
     75000   0.97683729     19.805158      108.55507    
     76000   1.0142987      19.691399      108.01797    
     77000   1.0286454      20.649707      107.93359    
     78000   0.98351592     19.274557      107.62127    
     79000   0.98910655     19.352048      107.64192    
     80000   0.98996127     20.102637      107.71159    
     81000   0.97982505     19.576584      107.21359    
     82000   0.97404987     19.989047      107.18295    
     83000   1.0503769      19.420964      106.9952     
     84000   1.0167449      18.69783       106.81668    
     85000   1.0298042      20.231131      106.65903    
     86000   0.98337371     19.712458      106.58645    
     87000   0.95294922     19.967718      106.34699    
     88000   0.9959606      19.779111      106.35573    
     89000   1.0357271      19.542636      106.56029    
     90000   1.0388444      20.101879      106.47083    
     91000   1.0479431      19.753891      106.52249    
     92000   1.0195975      19.97287       106.39825    
     93000   0.95220753     19.919028      106.35208    
     94000   1.0944874      20.123341      105.82495    
     95000   0.99409197     20.22216       105.76444    
     96000   1.0032665      20.067784      105.68558    
     97000   0.97901847     19.976752      105.50477    
     98000   1.032986       19.987538      105.28395    
     99000   1.0166603      19.957722      105.14394    
    100000   1.0237962      19.781886      105.18633    
Loop time of 153.962 on 4 procs for 100000 steps with 500 atoms

Performance: 561177.808 tau/day, 649.511 timesteps/s
103.6% CPU use with 2 MPI tasks x 2 OpenMP threads

MPI task timing breakdown:
Section |  min time  |  avg time  |  max time  |%varavg| %total
---------------------------------------------------------------
Pair    | 0.31746    | 0.32919    | 0.34092    |   2.0 |  0.21
Bond    | 0.65189    | 0.67869    | 0.70549    |   3.3 |  0.44
Neigh   | 149.81     | 149.81     | 149.81     |   0.0 | 97.31
Comm    | 1.1423     | 1.1445     | 1.1468     |   0.2 |  0.74
Output  | 0.17387    | 0.17649    | 0.17911    |   0.6 |  0.11
Modify  | 1.2227     | 1.3129     | 1.4032     |   7.9 |  0.85
Other   |            | 0.5061     |            |       |  0.33

Nlocal:            250 ave         317 max         183 min
Histogram: 1 0 0 0 0 0 0 0 0 1
Nghost:            240 ave         302 max         178 min
Histogram: 1 0 0 0 0 0 0 0 0 1
Neighs:         1388.5 ave        1906 max         871 min
Histogram: 1 0 0 0 0 0 0 0 0 1

Total # of neighbors = 2777
Ave neighs/atom = 5.554
Ave special neighs/atom = 1.996
Neighbor list builds = 1013
Dangerous builds = 0

# Replace lj potential, now collapse
pair_style      lj/cut 3

# Cutoff simul when gyration under 5
# Variable created with equal requires v_ + 'name'
fix 3 all halt 1000 v_rog < 5

run 5000000
Generated 0 of 0 mixed pair_coeff terms from geometric mixing rule
Last active /omp style is angle_style cosine/omp
Per MPI rank memory allocation (min/avg/max) = 939.8 | 940.3 | 940.8 Mbytes
   Step          Temp         Enthalpy         c_1      
    100000   1.0237962      19.22036       105.18633    
    101000   0.93532584     18.874769      105.03289    
    102000   1.0114517      20.126235      105.07824    
    103000   0.90973399     19.444475      105.07338    
    104000   0.9868869      19.53607       104.96765    
    105000   0.98105411     19.882354      104.98323    
    106000   1.0663798      19.288815      104.87875    
    107000   0.99090673     19.334838      104.70834    
    108000   0.9842542      19.929987      105.10358    
    109000   1.080652       19.920877      104.67009    
    110000   0.9581385      18.972448      104.29137    
    111000   0.96679487     19.618658      104.19093    
    112000   1.0113364      19.352311      103.91703    
    113000   1.0185229      19.625455      103.92502    
    114000   1.0339073      19.426405      103.74517    
    115000   0.96941061     19.216353      103.48853    
    116000   1.004883       19.414118      103.2475     
    117000   0.99833451     18.834365      102.86775    
    118000   1.0133466      20.512927      102.48322    
    119000   0.88514099     18.973949      102.46695    
    120000   1.0217792      18.906714      102.40362    
    121000   0.97730348     19.696761      102.12162    
    122000   0.90968871     19.114722      102.04726    
    123000   1.012122       19.187614      101.829      
    124000   1.0343049      18.946548      101.80513    
    125000   0.98854594     19.394301      101.63457    
    126000   0.96175394     19.178423      101.76109    
    127000   1.02675        19.511931      101.49972    
    128000   1.0546671      19.425905      101.41847    
    129000   0.97047945     19.356595      101.03633    
    130000   1.0061454      19.820426      101.03992    
    131000   0.97516574     19.265158      100.95966    
    132000   0.97039486     18.867651      101.22125    
    133000   0.96491387     19.397655      101.21923    
    134000   0.98840697     19.847732      101.0112     
    135000   0.99376073     19.208832      100.7548     
    136000   0.9514409      18.183137      100.51547    
    137000   1.0276816      20.055916      100.1832     
    138000   0.99132442     19.632475      99.971007    
    139000   0.99528345     18.554092      99.876323    
    140000   1.0223556      18.905229      99.471847    
    141000   0.97297314     18.953447      99.330587    
    142000   0.96431192     19.07798       99.030748    
    143000   0.95120633     18.645648      98.948852    
    144000   1.0198558      18.426572      98.733233    
    145000   1.0047872      19.278627      98.022306    
    146000   0.97637516     19.510458      97.757879    
    147000   1.0361824      19.184745      97.421165    
    148000   1.0435368      19.192324      97.38237     
    149000   1.0446103      19.247232      97.322591    
    150000   1.0069695      19.548544      97.190247    
    151000   0.93347198     19.370005      96.896064    
    152000   1.0504594      19.999641      96.669244    
    153000   1.0193814      18.949937      96.314664    
    154000   0.97054071     19.870926      96.258779    
    155000   1.0127809      19.09054       96.507533    
    156000   1.0455479      19.19346       96.452177    
    157000   1.0464689      19.177294      96.280795    
    158000   0.98354761     18.962056      95.663592    
    159000   0.97290449     19.090581      95.154056    
    160000   1.0529919      20.0566        95.184181    
    161000   0.9760131      19.33461       95.435059    
    162000   1.0083283      19.771627      94.950657    
    163000   0.98762471     18.90347       94.547735    
    164000   1.0380209      19.133682      94.330649    
    165000   1.0353953      19.653178      94.021406    
    166000   0.99155496     18.742694      93.75346     
    167000   0.99137255     19.307685      93.481179    
    168000   1.0243355      19.617647      93.133576    
    169000   0.97707049     19.71508       93.01018     
    170000   1.0080775      19.481317      92.869057    
    171000   1.0400001      18.893907      92.528353    
    172000   1.0295418      19.423922      92.556475    
    173000   0.99615838     19.151054      92.106516    
    174000   1.0045394      18.63367       91.717522    
    175000   1.048335       19.447664      91.378416    
    176000   1.0081334      19.86406       91.060535    
    177000   1.0114636      19.317469      90.788811    
    178000   0.91856737     19.9001        90.488326    
    179000   0.95411403     18.79143       90.528223    
    180000   0.93007694     18.795538      90.563738    
    181000   1.0132354      19.232516      90.743818    
    182000   0.94358481     19.40639       90.596148    
    183000   0.95848652     18.954235      90.070612    
    184000   1.0325922      19.732116      90.168186    
    185000   1.002811       18.693644      90.183326    
    186000   0.94647402     18.730768      90.105771    
    187000   0.94281283     18.564289      90.247548    
    188000   1.001604       18.898197      90.313726    
    189000   1.0538188      19.145521      90.502251    
    190000   0.98785536     19.063961      90.321037    
    191000   1.0334976      19.776973      89.960932    
    192000   1.0028424      19.325834      89.487826    
    193000   0.9754395      19.178411      89.339842    
    194000   1.0249777      18.754114      89.005278    
    195000   1.0116643      19.520505      88.718397    
    196000   1.0402297      19.096934      88.392018    
    197000   1.0379508      19.870982      87.957526    
    198000   1.0170445      19.409994      87.894086    
    199000   1.0101814      18.92329       87.475727    
    200000   1.0606406      19.780379      87.26456     
    201000   1.0149509      19.111312      87.014143    
    202000   1.0151699      18.84739       87.075996    
    203000   0.96368043     18.810065      86.726299    
    204000   1.0190472      19.239643      86.808979    
    205000   1.0344614      19.769898      86.723884    
    206000   1.0485839      19.600141      86.695804    
    207000   0.95163572     19.391279      86.799782    
    208000   1.0075315      18.498904      86.598624    
    209000   1.0166283      18.920953      86.35696     
    210000   1.0485645      19.283879      86.144282    
    211000   1.0239807      19.784412      85.921839    
    212000   1.0000168      19.526829      85.76634     
    213000   1.035598       19.45215       85.788798    
    214000   0.93497691     19.434863      85.410648    
    215000   0.97531059     18.956538      85.123176    
    216000   1.0137045      18.305102      84.862074    
    217000   0.97760165     18.611824      84.31979     
    218000   1.0669073      19.830422      84.184913    
    219000   1.0176608      18.992704      84.185627    
    220000   0.95376675     18.81962       83.917285    
    221000   1.0125837      18.855673      83.608471    
    222000   0.99941176     19.026649      83.56541     
    223000   1.0379311      18.565038      83.298154    
    224000   0.94324826     18.78986       82.983903    
    225000   0.94695524     19.175726      83.111915    
    226000   0.99208501     19.538992      82.84169     
    227000   1.0300232      19.157881      82.709745    
    228000   1.0322858      18.908492      82.984956    
    229000   0.93754492     19.731073      82.990495    
    230000   1.0435929      18.979246      82.767256    
    231000   1.0371374      18.593225      82.631944    
    232000   1.007731       18.299096      82.520616    
    233000   0.97653129     18.994858      82.593878    
    234000   0.99036539     18.517539      82.427289    
    235000   1.0322154      19.089795      82.585289    
    236000   1.0717768      19.492018      82.287246    
    237000   1.0549484      19.904096      82.092974    
    238000   1.0705894      18.445471      81.986783    
    239000   1.0066475      18.913916      82.066954    
    240000   1.0614536      19.45408       81.931402    
    241000   1.0351622      20.001469      81.525296    
    242000   1.0183839      19.525763      81.545962    
    243000   0.96510877     19.173222      81.623744    
    244000   0.99348763     18.577345      81.363725    
    245000   1.0174762      18.849073      81.591473    
    246000   1.0050789      18.921142      81.081598    
    247000   1.0725332      20.021604      80.808534    
    248000   0.98599989     19.019897      80.329092    
    249000   1.082516       18.878536      80.240055    
    250000   0.99734857     18.419434      80.307004    
    251000   1.0445456      18.576045      80.240281    
    252000   1.0281724      19.287422      80.111715    
    253000   1.0736686      20.011837      79.800078    
    254000   0.96165294     18.004121      79.544938    
    255000   0.98023391     18.556802      79.506965    
    256000   0.99740806     19.097346      79.453367    
    257000   1.0110284      18.421482      79.267348    
    258000   1.0204562      18.865584      79.209868    
    259000   0.92730954     18.646474      79.0979      
    260000   0.98255392     19.077798      79.190281    
    261000   1.0254077      18.630549      79.156253    
    262000   1.0844339      18.396059      78.483346    
    263000   1.0090188      18.331451      78.442946    
    264000   1.007309       18.267467      78.410024    
    265000   1.0047242      18.575522      78.312914    
    266000   1.0052517      19.139337      77.881381    
    267000   0.97361512     18.301088      77.810539    
    268000   0.96815892     19.354985      77.608403    
    269000   1.0026759      19.583189      77.19313     
    270000   1.0441002      18.983066      77.004745    
    271000   0.97181719     18.907913      76.745887    
    272000   1.0393061      18.792506      77.021579    
    273000   1.0211042      18.383351      77.119179    
    274000   1.007169       18.409659      76.836207    
    275000   1.0196408      18.824809      76.894937    
    276000   0.99514317     19.085052      76.849448    
    277000   0.95233721     19.630068      76.790342    
    278000   1.0351989      18.694226      76.33723     
    279000   0.96237466     18.85236       76.309798    
    280000   1.0364815      18.486983      76.172451    
    281000   1.0985956      19.05948       75.817598    
    282000   0.9990908      19.032547      75.653413    
    283000   1.0159546      18.776234      75.261485    
    284000   1.0215173      18.865665      75.367099    
    285000   1.0223619      18.828063      75.148508    
    286000   1.0098057      19.322608      74.850085    
    287000   0.9366725      18.879547      74.555731    
    288000   0.95886689     18.037181      74.426177    
    289000   0.95204229     18.461225      74.376303    
    290000   0.96224379     19.13232       74.202533    
    291000   0.97681383     18.202672      73.965714    
    292000   0.99643184     18.663218      73.895976    
    293000   1.0656534      19.550022      74.000572    
    294000   1.0133882      18.838175      73.680426    
    295000   1.0122505      18.804437      73.931206    
    296000   1.0631635      18.844071      74.071859    
    297000   1.0033464      18.570813      74.049324    
    298000   0.9718614      18.577536      74.660993    
    299000   1.0777811      18.454908      74.290649    
    300000   1.0258086      19.346935      74.180999    
    301000   1.0258928      19.026446      74.014988    
    302000   1.0218656      19.411719      74.151618    
    303000   1.0539348      18.43397       73.412702    
    304000   1.0543019      19.526922      73.173341    
    305000   0.93795978     18.994426      72.798418    
    306000   1.0941517      19.041931      72.747134    
    307000   0.93397091     19.153006      72.58826     
    308000   1.018177       18.850783      72.176311    
    309000   1.0043288      18.665461      72.271061    
    310000   0.97395033     18.546211      72.173351    
    311000   0.99164195     19.337774      72.243851    
    312000   1.0051522      18.269255      72.202949    
    313000   1.0582143      18.839752      72.281241    
    314000   0.99725242     19.050058      72.300704    
    315000   0.93550501     18.544696      72.045412    
    316000   0.97028702     19.278239      72.001824    
    317000   1.0174847      18.285168      71.941503    
    318000   0.98547995     18.933732      71.704987    
    319000   1.0501631      18.602136      71.360334    
    320000   1.0083145      18.39925       71.213524    
    321000   1.0022312      18.113204      71.019094    
    322000   0.97849947     18.934379      70.951893    
    323000   0.96080704     18.596757      70.6191      
    324000   0.97716108     18.96491       70.637559    
    325000   0.9566944      18.427994      70.291456    
    326000   1.0495215      19.310635      70.333733    
    327000   1.0346503      19.480363      70.491296    
    328000   0.9901304      19.360676      70.288124    
    329000   1.0014506      18.640191      70.483954    
    330000   1.0390641      18.630141      70.519193    
    331000   0.97145334     17.941864      70.334313    
    332000   1.0393732      19.128657      70.177572    
    333000   1.0482251      19.21558       69.991601    
    334000   0.99126019     18.152467      69.856689    
    335000   0.88030395     18.928854      69.505301    
    336000   0.97159722     19.032697      69.361759    
    337000   1.0010872      18.620227      69.274397    
    338000   0.97161668     17.832878      69.402461    
    339000   0.92521384     19.497116      69.425123    
    340000   1.0259737      19.173543      69.423028    
    341000   0.97900138     19.374465      69.204717    
    342000   1.0088926      18.513226      68.92616     
    343000   1.0118922      18.178854      68.717194    
    344000   1.0044294      18.157499      68.488463    
    345000   0.96219978     18.7675        68.065783    
    346000   0.95111611     18.324848      67.582412    
    347000   1.0371187      18.357804      67.835251    
    348000   0.97369189     18.109502      67.638274    
    349000   0.96507617     18.550039      67.406399    
    350000   0.99008895     18.297433      67.184294    
    351000   0.96209291     18.669009      67.068362    
    352000   0.98984939     19.656533      67.025404    
    353000   0.9996487      19.84011       66.740652    
    354000   1.0062345      19.014417      66.753306    
    355000   0.97208585     17.775847      66.525949    
    356000   1.0293447      18.969396      66.59985     
    357000   0.9986172      18.501237      66.774107    
    358000   1.036887       19.339179      66.792064    
    359000   0.97189033     19.27642       66.497211    
    360000   1.0398349      19.128912      66.279143    
    361000   0.93570364     18.805137      66.279395    
    362000   0.99281629     18.243301      66.375835    
    363000   0.96226371     18.683563      66.087233    
    364000   0.96555187     18.456836      66.15717     
    365000   1.0244701      18.656914      65.909783    
    366000   1.0254941      18.693614      66.043684    
    367000   1.0609774      18.965849      66.10179     
    368000   1.0093494      17.428905      65.523679    
    369000   1.0454913      18.116327      65.497926    
    370000   1.0198588      17.944088      65.611637    
    371000   1.0383849      18.448359      65.641117    
    372000   1.025823       18.51493       65.267221    
    373000   1.0039212      17.755875      65.379463    
    374000   0.95322173     19.308366      65.589477    
    375000   1.0097848      18.560058      65.868483    
    376000   1.0292592      18.984911      66.101744    
    377000   0.98058965     18.429968      65.901746    
    378000   0.98080609     18.759136      65.912579    
    379000   0.98533731     19.005669      65.793645    
    380000   1.0455291      17.554699      65.751186    
    381000   0.96378487     18.384244      65.353659    
    382000   0.98624718     18.106351      65.301926    
    383000   0.99463173     18.496429      65.284411    
    384000   0.94673931     18.426487      65.215196    
    385000   0.97376829     18.304635      64.763325    
    386000   0.96274084     18.780377      64.513772    
    387000   1.0025675      18.189044      64.118445    
    388000   1.0502435      18.303733      63.858315    
    389000   0.99075331     18.70523       63.948061    
    390000   1.0503767      18.754035      63.736917    
    391000   1.0216668      18.713602      63.595497    
    392000   1.0368665      19.714309      63.777001    
    393000   0.96749503     17.6817        63.891397    
    394000   1.0123842      18.635536      63.598821    
    395000   0.96360057     18.367365      63.388134    
    396000   1.0246706      18.558591      63.161689    
    397000   1.0220213      18.10175       63.048075    
    398000   1.0533398      18.197094      62.766148    
    399000   1.0013781      18.172911      62.261001    
    400000   1.0744783      18.553964      61.836794    
    401000   1.0250065      19.036479      61.754334    
    402000   1.0200804      17.533725      61.622361    
    403000   0.99740845     18.439298      61.501835    
    404000   1.0245416      19.579893      61.034869    
    405000   0.99379314     18.513768      60.764898    
    406000   1.0140099      18.044666      60.613171    
    407000   1.0008111      18.559383      60.604803    
    408000   1.0071364      18.26804       60.561368    
    409000   0.96831308     18.326921      60.315622    
    410000   0.94112566     17.787399      60.074465    
    411000   0.99587338     18.292849      59.907408    
    412000   0.99924866     17.390011      59.457371    
    413000   0.95634415     19.208148      59.06058     
    414000   0.99806982     17.990927      58.956684    
    415000   1.0982362      19.355303      58.55367     
    416000   1.0267035      18.249902      58.106229    
    417000   0.99484192     17.654452      57.78598     
    418000   1.0298065      18.165746      57.37638     
    419000   1.0107535      18.040654      57.423007    
    420000   1.0017328      17.654645      57.496445    
    421000   0.98755408     18.160832      57.592292    
    422000   1.0251351      19.003371      57.224821    
    423000   1.0879845      17.307396      57.267444    
    424000   1.0251243      19.19778       56.751267    
    425000   1.0247651      18.625589      56.496025    
    426000   1.0000383      18.350235      56.462481    
    427000   0.98586712     18.652933      56.464576    
    428000   1.0017719      18.029501      56.067847    
    429000   0.97521328     17.898229      55.691922    
    430000   1.0059464      18.049054      55.362598    
    431000   1.0307675      19.142674      55.07766     
    432000   1.0671258      18.301512      55.020296    
    433000   1.0834043      18.117215      55.003009    
    434000   0.95635369     17.963123      54.926121    
    435000   0.99488335     18.790458      54.669238    
    436000   1.0709143      18.921259      54.491234    
    437000   1.0127521      17.814662      54.399989    
    438000   0.92886946     18.519895      54.305491    
    439000   1.0146042      18.033134      53.980576    
    440000   1.0334848      18.157721      53.913845    
    441000   0.99190171     18.353019      54.042787    
    442000   1.0043525      18.41026       54.145502    
    443000   0.96661724     18.709059      53.769544    
    444000   1.0246398      19.275556      53.398504    
    445000   0.9580751      17.606243      52.952446    
    446000   0.99154731     18.056943      52.608312    
    447000   0.98776783     18.597798      52.34841     
    448000   0.97729058     17.741873      52.460479    
    449000   1.001756       18.700358      52.132326    
    450000   1.0074243      18.18673       52.238553    
    451000   0.98703603     18.588871      51.75271     
    452000   0.98705906     18.225903      51.658704    
    453000   0.9995403      17.874002      51.987185    
    454000   1.0641005      17.689148      51.723141    
    455000   0.98347281     18.595974      51.634448    
    456000   1.0084698      18.858763      51.658343    
    457000   1.0262579      17.912269      51.540378    
    458000   1.0264059      17.977968      51.342409    
    459000   0.99769244     18.018446      51.100797    
    460000   0.95543098     17.448297      51.130507    
    461000   0.89863022     17.818185      51.133267    
    462000   1.0004996      17.940575      51.164122    
    463000   0.95774138     18.474675      50.971542    
    464000   0.96011052     17.80215       51.026437    
    465000   0.96893224     18.242508      50.632781    
    466000   0.99768563     18.148423      50.74293     
    467000   0.95807845     18.831679      50.561958    
    468000   1.0223842      18.673977      50.375598    
    469000   0.97822341     18.275591      50.125128    
    470000   1.0074517      18.184225      49.875026    
    471000   1.0268694      18.124017      49.80949     
    472000   0.97304173     18.067835      49.804022    
    473000   1.045753       18.548715      50.283923    
    474000   1.0810094      18.347756      50.163345    
    475000   0.99801082     17.995055      50.096306    
    476000   0.98750946     18.418474      50.289055    
    477000   1.0096647      18.272793      50.079234    
    478000   1.1149899      18.278243      49.880725    
    479000   1.0240715      19.072834      50.020203    
    480000   1.0065557      18.9227        49.753482    
    481000   1.0284742      18.061158      49.657202    
    482000   1.051334       17.842589      49.575918    
    483000   0.97167686     18.08021       49.8336      
    484000   1.0299113      18.41535       49.917818    
    485000   0.92411523     18.348271      49.693432    
    486000   1.0708425      18.502907      49.502031    
    487000   0.98049761     17.726308      49.373358    
    488000   0.92804339     18.53997       49.282644    
    489000   0.99274993     17.61019       48.797621    
    490000   1.0089093      18.022192      48.779208    
    491000   0.97779138     18.093473      48.652628    
    492000   0.95965492     17.752213      48.992422    
    493000   0.99825353     17.856884      48.861879    
    494000   0.9918425      17.619574      48.791599    
    495000   1.0295973      18.046579      48.511451    
    496000   1.0063703      17.525296      48.413882    
    497000   1.0163502      18.912628      48.360709    
    498000   0.96586434     17.748191      48.132921    
    499000   1.0312445      17.803752      48.001036    
    500000   0.97780069     17.376291      47.933011    
    501000   0.9870534      19.122301      47.377374    
    502000   0.98953683     17.493909      47.556597    
    503000   1.0046613      18.102433      47.319134    
    504000   0.98804547     18.504257      47.291914    
    505000   0.97263092     18.093278      47.154269    
    506000   0.94946282     17.95135       46.973747    
    507000   1.0424107      17.71416       46.620495    
    508000   0.95297146     17.355631      46.454996    
    509000   0.93018677     18.063811      46.358803    
    510000   1.0546108      18.581449      46.194774    
    511000   1.0386663      18.234241      46.005306    
    512000   0.99711274     17.98124       46.013506    
    513000   0.99064578     18.158216      45.949411    
    514000   1.0037654      18.961671      45.800387    
    515000   1.0405193      17.382777      45.996865    
    516000   1.0313349      18.021734      45.562784    
    517000   1.0469287      19.071645      45.659834    
    518000   1.0163079      18.136913      45.577286    
    519000   1.0284695      18.146765      45.31198     
    520000   0.97507924     17.6558        44.905626    
    521000   0.93497727     17.786132      44.589994    
    522000   1.00036        18.263518      44.439976    
    523000   0.95272363     17.862452      44.773214    
    524000   0.97682791     18.379591      44.432428    
    525000   0.87397008     17.888051      44.058301    
    526000   0.99464359     18.566394      43.756875    
    527000   0.96466083     17.42643       43.604844    
    528000   1.0060903      17.269301      43.475242    
    529000   0.954324       18.154857      43.59583     
    530000   0.94613267     18.171266      43.312633    
    531000   0.93924592     17.767314      43.231997    
    532000   1.0235387      17.936086      43.394248    
    533000   0.98705489     18.534774      43.548071    
    534000   0.96691805     18.116206      43.084536    
    535000   1.0778851      17.784677      42.988553    
    536000   1.0372404      18.106594      42.888713    
    537000   0.9827581      18.155632      42.924408    
    538000   1.0012675      18.484131      43.117982    
    539000   0.98858152     18.895928      42.978534    
    540000   0.95622158     17.012143      42.991982    
    541000   1.018251       17.835298      42.540975    
    542000   0.93821201     18.055224      42.63768     
    543000   0.9408246      17.678101      42.71403     
    544000   0.96354688     17.991042      42.656052    
    545000   1.0441615      17.591266      42.549657    
    546000   0.98643537     18.008122      42.05457     
    547000   1.0071306      18.48753       41.903122    
    548000   0.93813854     17.544013      41.851198    
    549000   1.0430283      18.226793      41.679703    
    550000   0.97935263     18.128626      41.517033    
    551000   0.99642245     18.362765      41.683947    
    552000   0.99977064     18.13065       41.850514    
    553000   0.97726442     17.751181      41.495722    
    554000   1.0305838      17.586014      41.584034    
    555000   0.9711633      18.13099       41.476702    
    556000   1.0387676      17.891758      41.230062    
    557000   0.98713344     18.656328      40.765534    
    558000   0.99960079     18.2535        40.616576    
    559000   1.0074526      17.60461       40.375955    
    560000   0.98683693     17.415826      39.983639    
    561000   1.0235639      17.327102      39.619546    
    562000   0.93366444     17.695654      39.692988    
    563000   1.0598225      17.853565      39.571368    
    564000   0.98968116     18.591531      39.867133    
    565000   0.97141008     17.643687      39.697856    
    566000   1.0200196      18.093545      39.494134    
    567000   0.95998282     17.7465        39.263787    
    568000   0.97978275     17.781379      38.734157    
    569000   1.0008052      17.777606      38.568792    
    570000   0.94114299     17.982207      38.514624    
    571000   1.0229065      19.037231      38.38765     
    572000   0.98890506     17.474374      38.632631    
    573000   0.91084082     17.343607      38.574968    
    574000   1.0478309      18.504747      38.590999    
    575000   1.008355       17.719547      38.66148     
    576000   0.9896301      18.034787      38.512174    
    577000   0.99088329     16.815647      38.427454    
    578000   0.97167389     17.951153      38.367517    
    579000   0.97123492     17.416166      38.121162    
    580000   1.0562491      19.011926      38.039118    
    581000   0.99995508     17.543636      38.350322    
    582000   0.97631746     17.763246      38.308722    
    583000   1.0296845      17.93738       38.117143    
    584000   1.1031296      18.741384      37.875291    
    585000   1.0474161      18.179104      37.879278    
    586000   1.0087966      17.886729      37.632821    
    587000   1.0063552      17.019889      37.456737    
    588000   1.0247704      18.718075      37.796926    
    589000   1.0333006      18.149785      37.570819    
    590000   0.97220342     17.45421       37.338505    
    591000   0.91056545     17.310787      37.32283     
    592000   1.0318027      18.160433      37.553288    
    593000   1.0209589      18.414421      37.354672    
    594000   0.9646979      16.966773      37.160296    
    595000   1.0287386      17.735505      37.076404    
    596000   0.97959635     17.453487      36.942052    
    597000   0.94796679     18.157185      37.007154    
    598000   1.0046371      18.041288      37.023944    
    599000   1.0343381      18.396891      37.283286    
    600000   0.99678136     17.96205       37.391912    
    601000   1.0108914      17.668702      37.200672    
    602000   1.0345602      17.901684      36.946771    
    603000   1.0122687      17.785046      36.814767    
    604000   0.98526844     17.615579      37.086396    
    605000   0.95598563     17.723741      36.772292    
    606000   1.0105591      17.612259      36.609915    
    607000   1.05369        17.933163      36.247834    
    608000   1.0228118      17.490349      35.880866    
    609000   0.96584051     17.83085       35.800044    
    610000   0.99176067     16.864197      35.664249    
    611000   0.99630985     17.094196      35.276379    
    612000   1.0402091      18.14246       35.255077    
    613000   0.95287688     17.729978      35.145232    
    614000   1.0054849      18.29685       35.170545    
    615000   1.0112071      18.368649      34.861423    
    616000   1.0132262      18.265457      34.896345    
    617000   1.0809736      18.152173      34.534766    
    618000   1.0115623      17.637388      34.671434    
    619000   0.97478532     17.284971      34.705122    
    620000   0.97473041     17.94376       34.598501    
    621000   0.9477614      17.438412      34.763819    
    622000   1.0310403      18.294161      34.500338    
    623000   0.9914926      18.079116      34.428202    
    624000   1.0159955      18.564224      34.55647     
    625000   0.95950583     17.864526      34.324626    
    626000   1.008328       18.029719      34.195379    
    627000   0.9961761      18.130003      34.314067    
    628000   1.0052939      17.813337      34.241925    
    629000   0.95677269     17.654732      34.064127    
    630000   0.97620886     18.111933      33.471933    
    631000   0.96342857     18.115371      33.251506    
    632000   1.0153926      17.507053      33.139436    
    633000   0.98846674     18.002188      32.929935    
    634000   1.0328016      17.75393       32.987817    
    635000   1.0149561      17.903803      32.782991    
    636000   1.0124276      17.426334      32.719826    
    637000   1.0294959      17.349448      32.716582    
    638000   1.0313371      18.13368       32.647727    
    639000   0.99131178     18.310071      32.476456    
    640000   1.0397892      17.042252      32.369001    
    641000   0.99222892     18.036965      31.956424    
    642000   1.036597       17.737548      31.926029    
    643000   1.0193531      17.334838      31.864966    
    644000   0.98037803     17.449178      31.926088    
    645000   1.0275208      18.617087      31.729067    
    646000   1.0467382      17.83298       31.702781    
    647000   1.0045044      17.866684      31.616184    
    648000   0.96015284     17.934208      31.776729    
    649000   1.0061198      18.095117      31.538608    
    650000   1.0306439      17.00335       31.194664    
    651000   0.98505855     17.754923      30.958202    
    652000   0.96049717     17.501817      30.880094    
    653000   0.97200502     17.482628      30.685935    
    654000   1.0041161      18.174087      30.352995    
    655000   1.0425547      17.791546      30.43951     
    656000   1.0269243      18.310584      30.260796    
    657000   0.9927697      18.087416      30.303977    
    658000   1.0335702      17.710774      30.036802    
    659000   1.0593124      17.943464      29.982558    
    660000   1.0478483      17.738949      29.833497    
    661000   1.0272833      17.841157      29.73397     
    662000   0.96898331     17.161798      29.642357    
    663000   1.0142225      18.506155      29.490022    
    664000   1.0399829      18.451939      29.368788    
    665000   0.99372769     17.556936      29.05236     
    666000   1.037755       18.866157      28.681387    
    667000   0.97893533     17.532379      28.914107    
    668000   0.95824555     18.028902      28.771794    
    669000   1.0295906      18.347587      28.412611    
    670000   1.0741146      17.683267      28.450356    
    671000   0.93910997     17.508177      28.360784    
    672000   0.96997679     18.174311      27.924813    
    673000   1.0873151      17.35952       27.563194    
    674000   0.99559021     17.771527      27.3105      
    675000   0.99617765     17.30916       27.301556    
    676000   1.030454       18.010826      27.100624    
    677000   0.9773693      17.693036      27.016173    
    678000   1.0709833      18.311113      26.722138    
    679000   0.98358131     17.491736      26.571654    
    680000   1.0130931      18.109998      26.343024    
    681000   0.981945       17.203818      26.095404    
    682000   0.99745157     17.882665      25.906023    
    683000   1.038487       18.622029      26.151056    
    684000   1.0295098      17.973072      26.09817     
    685000   1.0112823      17.607734      26.258047    
    686000   1.0068323      17.509469      26.165294    
    687000   0.95440355     17.36411       25.788086    
    688000   1.0191822      18.064348      25.589368    
    689000   0.93880121     16.919705      25.511045    
    690000   1.0537181      18.210744      25.251964    
    691000   0.97447887     17.245878      25.137177    
    692000   1.0267016      17.521719      25.282272    
    693000   0.95917116     16.916906      25.734819    
    694000   1.0394454      17.701212      25.929132    
    695000   1.0512087      18.452235      25.836561    
    696000   1.0053532      17.418518      25.457249    
    697000   0.94239886     17.779354      25.372057    
    698000   0.98173965     17.652975      25.182022    
    699000   0.98900866     18.009855      25.001763    
    700000   1.0616064      18.7525        24.572907    
    701000   0.97447037     17.485104      24.333827    
    702000   1.0196952      17.804648      24.12033     
    703000   0.98822485     17.680041      24.069695    
    704000   0.98888759     17.938953      23.897781    
    705000   1.0525476      17.864629      24.02637     
    706000   1.0732997      17.93231       23.996182    
    707000   1.0482194      17.978042      24.166344    
    708000   1.0115257      16.737862      24.26089     
    709000   0.98354288     18.119926      24.198945    
    710000   1.0648207      17.763551      23.585766    
    711000   0.92128304     17.191237      23.099037    
    712000   0.99811488     17.114442      23.123572    
    713000   1.0240571      17.169747      23.028775    
    714000   1.0544368      17.675507      23.159608    
    715000   1.0130451      17.426345      23.046279    
    716000   0.99196681     17.641364      23.123563    
    717000   0.97182256     17.000135      22.926561    
    718000   1.0014295      17.854833      22.751265    
    719000   1.0155017      18.431443      22.542123    
    720000   1.0653165      18.470104      22.331213    
    721000   1.0949249      17.909032      22.175066    
    722000   0.99665263     17.241372      21.987063    
    723000   1.0100325      17.767555      21.952382    
    724000   1.0211127      17.796035      21.703242    
    725000   1.0155937      17.595711      21.945017    
    726000   0.96161563     17.608942      21.973432    
    727000   0.99113799     18.333138      22.002883    
    728000   0.98436555     17.428198      22.147194    
    729000   1.0093129      17.77761       22.039851    
    730000   1.023385       18.455431      21.807452    
    731000   0.98861775     17.525396      21.687393    
    732000   1.0285583      17.620593      21.450565    
    733000   1.0046867      17.66681       21.053755    
    734000   1.0198233      17.174653      20.729604    
    735000   0.94052048     17.971323      20.295374    
    736000   1.0536091      17.912973      20.260299    
    737000   1.0269213      17.957583      20.156609    
    738000   0.98885614     17.743483      19.993547    
    739000   0.98357505     17.862508      19.941793    
    740000   1.036721       17.903193      19.713167    
    741000   1.0215074      18.542891      19.323128    
    742000   0.94718542     17.517624      19.136966    
    743000   1.0149184      17.575056      18.845263    
    744000   1.0420606      18.223096      18.667795    
    745000   1.0535444      17.486049      18.453025    
    746000   1.0270874      17.354634      18.343051    
    747000   0.98435781     17.484276      18.246743    
    748000   0.98765053     17.662024      18.430039    
    749000   1.0296895      17.72859       18.345647    
    750000   1.1034276      18.265644      17.909283    
    751000   1.0207362      17.979206      17.492669    
    752000   1.0302679      16.820096      17.421567    
    753000   0.96105798     17.445491      17.287143    
    754000   0.93694582     17.121669      17.281054    
    755000   1.0187556      17.447101      17.187582    
    756000   0.96112922     18.771401      16.834967    
    757000   0.93354841     17.152652      16.686547    
    758000   1.0497073      18.316017      16.80266     
    759000   1.0406299      17.891856      16.745087    
    760000   1.1119742      17.949617      16.569524    
    761000   1.0288569      18.219379      16.4786      
    762000   1.0004307      17.648412      16.113249    
    763000   0.99396207     16.748406      16.369613    
    764000   1.0626928      17.173519      16.252864    
    765000   1.0578522      18.383499      16.355641    
    766000   1.0266209      17.246873      15.910022    
    767000   1.046241       16.823822      15.598475    
    768000   1.0719118      18.292037      15.414393    
    769000   1.060363       18.098207      14.99683     
    770000   1.0127061      18.111481      14.900338    
    771000   0.9856433      18.064822      14.675477    
    772000   0.96495157     17.864602      14.897149    
    773000   1.0395341      17.153303      14.906502    
    774000   0.97003475     17.942175      15.019133    
    775000   1.0037744      17.295001      14.851792    
    776000   0.98233144     17.99757       14.376837    
    777000   1.0117432      18.108895      14.299175    
    778000   0.99800458     16.601588      14.156199    
    779000   1.0020757      18.027266      13.924612    
    780000   1.0109724      18.049895      13.754414    
    781000   1.0173579      17.540241      13.695113    
    782000   1.0375307      17.86173       13.612085    
    783000   0.98357928     17.227607      13.317939    
    784000   0.9670624      17.0802        13.32832     
    785000   0.96186719     17.228477      13.226435    
    786000   1.0444511      17.514192      13.08104     
    787000   1.0490822      17.827774      13.041415    
    788000   1.0358804      17.824784      13.343875    
    789000   0.99517948     17.208992      13.2717      
    790000   0.98325853     17.611624      13.149331    
    791000   0.96761542     17.92595       12.921368    
    792000   0.97401492     17.352456      12.787282    
    793000   0.91846689     18.452557      12.472523    
    794000   0.97130293     17.987276      12.049655    
    795000   0.98355388     16.63627       11.919182    
    796000   1.0403825      17.997535      11.450469    
    797000   0.99279259     18.262316      11.071045    
    798000   1.0594449      17.206263      10.693334    
    799000   1.0304161      17.408717      10.327201    
    800000   0.98373787     17.808536      10.198121    
    801000   0.98916116     17.022503      9.7833953    
    802000   1.0244085      17.268051      9.4861016    
    803000   1.0055117      18.615675      9.4502915    
    804000   0.93206721     17.974628      9.5388311    
    805000   0.94634088     17.934912      9.4112472    
    806000   1.0129557      17.28483       9.0892213    
    807000   1.0771623      17.698659      9.2094448    
    808000   1.0265858      17.736662      9.0217882    
    809000   0.9292754      17.96976       8.8322064    
    810000   1.0172248      17.563188      8.5582394    
    811000   0.98981842     16.661807      8.3162404    
    812000   0.93092782     17.721776      8.3004581    
    813000   1.0270291      17.099727      8.0906241    
    814000   0.96405697     17.209905      7.8552462    
    815000   1.0622483      17.946524      7.916148     
    816000   1.0261916      16.904496      7.8191114    
    817000   0.97107203     16.554057      7.9283961    
    818000   0.98847872     17.29958       7.9636305    
    819000   0.97152565     16.866408      7.5879677    
    820000   0.95648715     16.646419      7.1745065    
    821000   1.0154655      17.51355       7.2873674    
    822000   1.0580667      17.632088      7.1776602    
    823000   0.99873097     17.934564      6.9476138    
    824000   1.0450159      17.51621       6.5677209    
    825000   0.95491771     17.507004      6.4392117    
    826000   0.99354539     17.291737      6.3568279    
    827000   1.1092178      17.98868       6.2751789    
    828000   1.0581521      17.842682      6.2731891    
    829000   1.0281791      17.284246      5.7230179    
    830000   1.0390181      17.994918      5.1307363    
Fix halt condition for fix-id 3 met on step 831000 with value 4.997923112992677 (src/fix_halt.cpp:237)
    831000   1.0508374      16.852962      4.9979231    
Loop time of 1022.49 on 4 procs for 731000 steps with 500 atoms

Performance: 617690.341 tau/day, 714.919 timesteps/s
112.1% CPU use with 2 MPI tasks x 2 OpenMP threads

MPI task timing breakdown:
Section |  min time  |  avg time  |  max time  |%varavg| %total
---------------------------------------------------------------
Pair    | 37.719     | 60.644     | 83.569     | 294.4 |  5.93
Bond    | 38.343     | 40.033     | 41.724     |  26.7 |  3.92
Neigh   | 785.15     | 785.16     | 785.16     |   0.0 | 76.79
Comm    | 37.799     | 61.989     | 86.179     | 307.2 |  6.06
Output  | 1.6877     | 1.7158     | 1.7439     |   2.1 |  0.17
Modify  | 50.227     | 53.899     | 57.571     |  50.0 |  5.27
Other   |            | 19.05      |            |       |  1.86

Nlocal:            250 ave         500 max           0 min
Histogram: 1 0 0 0 0 0 0 0 0 1
Nghost:           45.5 ave          91 max           0 min
Histogram: 1 0 0 0 0 0 0 0 0 1
Neighs:          38571 ave       77142 max           0 min
Histogram: 1 0 0 0 0 0 0 0 0 1

Total # of neighbors = 77142
Ave neighs/atom = 154.284
Ave special neighs/atom = 1.996
Neighbor list builds = 6567
Dangerous builds = 0

# This simulation is done
# Move onto the next one
clear
  using 2 OpenMP thread(s) per MPI task
package omp 0
using multi-threaded neighbor list subroutines
next f
jump SELF

###
# Reference paper:
# K. Kremer and G. S. Grest
# Dynamics of entangled linear polymer melts: A molecular-dynamics simulation
# J Chem Phys 92, 5057 (1990)

##################################
# MIHIR: for branched polymers
# LJ minimum first to expand and explore, then collapse
###

###
# Looping through the various linear polymers to simulate,
# define variables to switch through
variable f index bb100nuc0bl0bn0d30tot100 bb200nuc0bl0bn0d30tot200 bb300nuc0bl0bn0d30tot300 bb400nuc0bl0bn0d30tot400 bb500nuc0bl0bn0d30tot500 bb600nuc0bl0bn0d30tot600 bb700nuc0bl0bn0d30tot700 bb800nuc0bl0bn0d30tot800 bb900nuc0bl0bn0d30tot900 bb1000nuc0bl0bn0d30tot1000 bb1100nuc0bl0bn0d30tot1100 bb1200nuc0bl0bn0d30tot1200
###


###
# Box and units  (use LJ units and periodic boundaries)
###

units lj
log linear/logs/$f.log
log linear/logs/bb600nuc0bl0bn0d30tot600.log
