#atom_style bond #no stiffness
atom_style angle #with stiffness

boundary        p p p
###
# Pair interactions require lists of neighbours to be calculated
###

#neighbor 0.3 bin
neighbor 4 bin

neigh_modify every 1 delay 1 check yes
atom_modify sort 0 0
### Generate RESTART file, SPECIAL format, not a .txt file ###
### Useful if simulation crashes ###

restart 1000000 linear/restarts/$f.restart
restart 1000000 linear/restarts/bb600nuc0bl0bn0d30tot600.restart
#############################



### READ "start" data file ###

read_data linear/$f.dat
read_data linear/bb600nuc0bl0bn0d30tot600.dat
Reading data file ...
  orthogonal box = (-1000 -1000 -1000) to (1000 1000 1000)
  1 by 1 by 2 MPI processor grid
  reading atoms ...
  600 atoms
  scanning bonds ...
  1 = max bonds/atom
  scanning angles ...
  1 = max angles/atom
  reading bonds ...
  599 bonds
  reading angles ...
  598 angles
Finding 1-2 1-3 1-4 neighbors ...
  special bond factors lj:    0        0        0       
  special bond factors coul:  0        0        0       
     2 = max # of 1-2 neighbors
     2 = max # of 1-3 neighbors
     4 = max # of 1-4 neighbors
     6 = max # of special neighbors
  special bonds CPU = 0.001 seconds
  read_data CPU = 0.090 seconds

######################

### READ "REstart" data file ###

######################



###
# Define groups (atom type 1 is group 'all')
###
group all type 1
600 atoms in group all


###
# Dump configs - "simple dumpings"
###

###
# Dump configs + box coords
###

dump   1   all   custom   1000  linear/trjs/$f.lammpstrj  id  x y z  ix iy iz
dump   1   all   custom   1000  linear/trjs/bb600nuc0bl0bn0d30tot600.lammpstrj  id  x y z  ix iy iz
dump_modify   1   format line "%d %.5f %.5f %.5f %d %d %d"

########################################################################


###################################################################
# Stiffness term
#
# E = K * (1+cos(theta)), K>0
#
angle_style   cosine
#change this coefficient to change stiffness (e.g. 1,5,10)
angle_coeff   1 1.0
###################################################################

###################################################################
# Pair interaction between non-bonded atoms
#
#  Lennard-Jones 12-6 potential with cutoff:
#  potential E=4epsilon[ (sigma/r)^12 - (sigma/r)^6]  for r<r_cut
#
#  1.12246 = 2^(1/6) is the minimum of the potential


pair_style      lj/cut 1.12246152962189
#pair_style      lj/cut 3

#
#  pair_modify shift yes adds a constant to the potential such

#  that E(r_cut)=0. Forces remains unchanged.
#

pair_modify     shift yes

#
#  pair_coeff for lj/cut, specify 4:
#    * atom type interacting with
#    * atom type
#    * epsilon (energy units)
#    * sigma (distance units)
#

pair_coeff      1 1 1.0 1.0
###################################################################

###################################################################
# Pair interaction between non-bonded atoms
#
#  soft potential, for PUSHING apart overlapping atoms
#  potential E=A*(1 + cos(pi*r/r_c))
#
#  1.12246 = 2^(1/6) is the cut-off r_c

#pair_style     soft 1.12246152962189

#
#  pair_coeff for soft, specify 3:
#    * atom type interacting with
#    * atom type
#    * A
#
#

#pair_coeff      1 1 100.0
###################################################################

###################################################################
# Pair interaction between bonded atoms
#
# Fene potential + Lennard Jones 12-6:

#
#  E= - 0.5 K R0^2 ln[ 1- (r/R0)^2]
#     + 4epsilon[ (sigma/r)^12 - (sigma/r)^6] + epsilon
#

bond_style   fene


#
# For style fene, specify:
#   * bond type
#   * K (energy/distance^2)
#   * R0 (distance)
#   * epsilon (energy)  (LJ component)
#   * sigma (distance)  (LJ component)
#


special_bonds fene #<=== I M P O R T A N T (new command)
Finding 1-2 1-3 1-4 neighbors ...
  special bond factors lj:    0        1        1       
  special bond factors coul:  0        1        1       
     2 = max # of 1-2 neighbors
     6 = max # of special neighbors
  special bonds CPU = 0.000 seconds

bond_coeff   1   30   2   1.0   1.0


###################################################

###################################################################
# Pair interaction between bonded atoms
#
# Harmonic potential:
#
#  E= K * (R-R0)^2
#

#bond_style   harmonic

#
# For style harmonic, specify:
#   * bond type
#   * K (energy/distance^2)
#   * R0 (distance)
#

#bond_coeff   1   60.0   1.0
#bond_coeff   2   harmonic 0.1   1.0

###################################################
compute 1 all gyration
variable rog equal c_1
#compute 2 all coord/atom cutoff 1.1

#dump 2 all custom 10000 contact_number.dump id c_2


###
# Set up fixes
###
thermo_style   custom   step  temp enthalpy c_1
fix 1 all nve   ###NVE ensemble

fix 2 all   langevin   1.0 1.0 1.0  100103   ###Langevin integrator Tstart Tstop 1/friction rndseed


##### Sample thermodynamic info  (temperature, energy, pressure, etc.) #####
thermo 1000









############################################################################

###
# set timestep of integrator

timestep 0.01

###
# run integration for a number of steps
###
#run 0
#variable r equal c_1
#if "$r < 63.1" then "quit 1"

# lj potential minimum, cause molecule to explore
run 100000
Generated 0 of 0 mixed pair_coeff terms from geometric mixing rule
Last active /omp style is angle_style cosine/omp
Neighbor list info ...
  update: every = 1 steps, delay = 1 steps, check = yes
  max neighbors/atom: 2000, page size: 100000
  master list distance cutoff = 5.1224615
  ghost atom cutoff = 5.1224615
  binsize = 2.5612308, bins = 781 781 781
  1 neighbor lists, perpetual/occasional/extra = 1 0 0
  (1) pair lj/cut/omp, perpetual
      attributes: half, newton on, omp
      pair build: half/bin/newton/omp
      stencil: half/bin/3d
      bin: standard
WARNING: Communication cutoff 5.12246152962189 is shorter than a bond length based estimate of 5.455. This may lead to errors. (src/comm.cpp:723)
Per MPI rank memory allocation (min/avg/max) = 939.6 | 940.2 | 940.8 Mbytes
   Step          Temp         Enthalpy         c_1      
         0   0              13.403768      150.00039    
      1000   1.0411762      18.916949      149.57351    
      2000   0.96369937     18.66655       149.18021    
      3000   0.98498344     18.935906      148.47972    
      4000   1.0108144      19.00355       148.13514    
      5000   1.0073105      19.537         147.7652     
      6000   1.0074854      18.971663      147.35709    
      7000   1.0090031      19.326065      147.14648    
      8000   0.93466563     18.367019      147.09257    
      9000   0.9985496      19.017634      146.45723    
     10000   1.0014783      19.579928      146.16601    
     11000   0.96594486     18.439785      145.8235     
     12000   0.94487506     18.53886       145.39374    
     13000   0.96790438     18.619846      144.90753    
     14000   1.0453051      19.79452       144.92358    
     15000   0.98926625     19.392011      145.04757    
     16000   1.0272375      19.3514        144.77019    
     17000   1.0001107      19.357304      144.41741    
     18000   1.0330048      19.458928      144.08487    
     19000   1.0303894      19.713351      144.02405    
     20000   0.98797031     18.731463      143.50708    
     21000   1.0346055      18.924937      143.42664    
     22000   1.0043327      19.146903      143.47435    
     23000   0.96900611     19.314512      143.19535    
     24000   0.95260283     20.160924      142.98276    
     25000   1.0421193      19.374324      142.57914    
     26000   0.93896989     18.948687      142.67414    
     27000   1.0313625      20.133829      142.33996    
     28000   1.0104343      19.847566      141.97904    
     29000   1.0089262      18.93617       141.87859    
     30000   0.96526741     18.930534      141.71981    
     31000   1.0209702      19.958061      141.33216    
     32000   0.97284804     19.239307      140.77522    
     33000   1.0082962      19.282592      140.48891    
     34000   1.033307       19.171928      140.16239    
     35000   0.97593153     19.612323      139.68322    
     36000   1.0229449      19.884286      139.49325    
     37000   1.0197641      19.293042      139.55503    
     38000   1.0122066      19.271961      139.46938    
     39000   0.99007914     18.895767      139.60613    
     40000   0.94458267     18.93216       139.45155    
     41000   1.033482       20.284459      139.31663    
     42000   1.0073492      19.662878      139.26121    
     43000   1.02264        19.763988      139.17748    
     44000   1.0049697      20.269784      139.25593    
     45000   1.0339508      19.696306      139.16129    
     46000   1.0044508      19.478306      138.65719    
     47000   0.9809437      19.309094      138.51223    
     48000   1.0438826      19.566443      138.14618    
     49000   1.0586731      20.138411      138.0702     
     50000   0.95047463     19.487732      137.77105    
     51000   1.0304082      19.860211      137.58359    
     52000   1.0039551      19.276879      137.37841    
     53000   1.0445044      19.460675      137.11466    
     54000   1.0556987      20.23559       136.95302    
     55000   1.0062425      19.586259      136.45439    
     56000   1.0296247      19.670752      136.56792    
     57000   1.0711635      19.564334      136.31231    
     58000   1.0571343      19.721007      136.04634    
     59000   1.0314849      19.769697      136.16453    
     60000   0.97203545     18.934324      135.78633    
     61000   0.97076472     19.728442      135.52163    
     62000   0.96690939     19.639223      135.32971    
     63000   1.0297998      19.635757      135.55128    
     64000   0.9938782      19.728045      135.25432    
     65000   1.0192861      20.018592      135.20387    
     66000   1.0355117      20.180041      135.31425    
     67000   0.99304084     19.424145      135.22966    
     68000   1.0544469      19.84927       134.87862    
     69000   1.0208474      19.372133      135.06179    
     70000   0.99389992     19.830401      135.03987    
     71000   1.0393048      19.524772      134.69309    
     72000   1.0019153      20.083015      134.41513    
     73000   1.0269676      19.7465        134.28066    
     74000   0.99915407     19.701469      134.23609    
     75000   0.97769463     19.796567      134.04539    
     76000   1.0497202      19.963566      133.61431    
     77000   1.0076249      19.468829      133.41264    
     78000   0.95868272     19.23395       133.11402    
     79000   1.0326979      20.35267       132.71435    
     80000   0.98516808     19.520562      132.3628     
     81000   1.014947       19.526513      132.3451     
     82000   0.97173998     19.426955      132.21644    
     83000   1.0526252      20.547381      132.27097    
     84000   0.99926941     19.877018      131.93548    
     85000   1.0104175      19.139007      131.73503    
     86000   0.97649758     19.420171      132.03478    
     87000   1.0499503      19.732927      131.93842    
     88000   0.99920214     20.506663      131.80859    
     89000   1.034624       20.204314      131.44496    
     90000   1.0174906      19.875422      131.29988    
     91000   0.99860378     19.547501      131.34707    
     92000   1.0051185      19.817582      131.12908    
     93000   0.99168991     20.028644      130.99206    
     94000   0.96303033     19.30713       130.75414    
     95000   1.0480124      20.158729      130.68547    
     96000   1.0097019      19.613047      130.61333    
     97000   0.96836221     20.219662      130.44574    
     98000   1.0133259      20.06201       130.56097    
     99000   1.0288563      20.163701      130.38538    
    100000   0.98246495     19.435337      130.53269    
Loop time of 657.56 on 4 procs for 100000 steps with 600 atoms

Performance: 131394.897 tau/day, 152.077 timesteps/s
101.3% CPU use with 2 MPI tasks x 2 OpenMP threads

MPI task timing breakdown:
Section |  min time  |  avg time  |  max time  |%varavg| %total
---------------------------------------------------------------
Pair    | 0.5932     | 0.61401    | 0.63482    |   2.7 |  0.09
Bond    | 1.2379     | 1.3058     | 1.3737     |   5.9 |  0.20
Neigh   | 649.39     | 649.39     | 649.39     |   0.0 | 98.76
Comm    | 2.3854     | 2.4087     | 2.432      |   1.5 |  0.37
Output  | 0.24146    | 0.24519    | 0.24892    |   0.8 |  0.04
Modify  | 2.4537     | 2.5352     | 2.6168     |   5.1 |  0.39
Other   |            | 1.062      |            |       |  0.16

Nlocal:            300 ave         303 max         297 min
Histogram: 1 0 0 0 0 0 0 0 0 1
Nghost:          260.5 ave         283 max         238 min
Histogram: 1 0 0 0 0 0 0 0 0 1
Neighs:           1627 ave        1904 max        1350 min
Histogram: 1 0 0 0 0 0 0 0 0 1

Total # of neighbors = 3254
Ave neighs/atom = 5.4233333
Ave special neighs/atom = 1.9966667
Neighbor list builds = 1026
Dangerous builds = 0

# Replace lj potential, now collapse
pair_style      lj/cut 3

# Cutoff simul when gyration under 5
# Variable created with equal requires v_ + 'name'
fix 3 all halt 1000 v_rog < 5

run 5000000
Generated 0 of 0 mixed pair_coeff terms from geometric mixing rule
Last active /omp style is angle_style cosine/omp
Per MPI rank memory allocation (min/avg/max) = 939.6 | 940.2 | 940.8 Mbytes
   Step          Temp         Enthalpy         c_1      
    100000   0.98246495     18.888315      130.53269    
    101000   1.0224656      20.04978       130.445      
    102000   1.0499235      19.343679      130.51296    
    103000   1.0138418      19.548628      130.42839    
    104000   1.014754       19.116356      130.22316    
    105000   1.0166075      19.083833      130.30006    
    106000   1.0055962      19.265655      130.28345    
    107000   1.022567       19.711185      130.20301    
    108000   0.98322588     19.501728      130.08649    
    109000   1.0076126      19.357223      130.10835    
    110000   0.99722437     19.82613       130.13867    
    111000   1.0298973      20.075259      130.13279    
    112000   1.0595917      19.258883      129.97774    
    113000   0.99359379     19.318057      130.02868    
    114000   1.0171246      19.552107      129.72188    
    115000   0.98840914     18.356039      129.20262    
    116000   0.98561744     18.943878      129.11923    
    117000   1.0061204      18.980918      128.89274    
    118000   1.0212807      18.807419      128.8837     
    119000   0.9910949      19.486858      128.78979    
    120000   1.0187517      19.192013      128.86991    
    121000   1.0482726      19.500151      128.71347    
    122000   0.98171674     19.319573      128.42165    
    123000   1.0403667      19.042102      128.16303    
    124000   1.0499222      19.592902      127.89484    
    125000   1.0358885      20.080088      127.73853    
    126000   1.0101949      19.43156       127.72395    
    127000   0.98891075     19.209339      127.69943    
    128000   1.0270001      19.455452      127.90201    
    129000   0.98592335     19.545835      127.31012    
    130000   1.0399205      19.142715      127.08144    
    131000   1.0337655      19.085935      126.99285    
    132000   0.98655627     18.513385      126.72987    
    133000   0.9943582      19.096473      126.38681    
    134000   1.0471128      19.359793      126.21386    
    135000   0.97784782     18.665539      126.12817    
    136000   0.98645642     19.201211      126.11519    
    137000   1.0017597      19.57714       125.90159    
    138000   0.96678011     19.474498      125.89666    
    139000   1.0493302      19.17405       125.44515    
    140000   0.94601547     19.351977      125.11953    
    141000   0.99596232     19.551286      124.72993    
    142000   1.0136022      19.426179      124.79284    
    143000   0.97702223     19.370692      124.75622    
    144000   0.99067619     19.459249      124.31781    
    145000   1.0052709      19.192495      124.042      
    146000   0.98836015     18.748441      124.08915    
    147000   1.0145676      19.200103      123.98128    
    148000   1.0826545      18.888765      123.503      
    149000   1.032466       19.070827      123.06172    
    150000   1.0232899      19.853067      123.07889    
    151000   1.015771       20.069754      122.90175    
    152000   1.0031337      19.169458      122.62971    
    153000   0.99025309     19.55048       122.39315    
    154000   1.1000169      18.736449      122.43508    
    155000   0.99050953     18.914282      121.85193    
    156000   0.93076319     19.127358      121.74344    
    157000   0.97701789     18.418818      121.35232    
    158000   0.99015817     18.370816      120.9921     
    159000   1.0775239      19.687451      120.91629    
    160000   0.9859239      19.317753      120.90994    
    161000   0.93991306     19.111561      120.71798    
    162000   1.0149624      18.630655      120.4707     
    163000   0.96899114     19.115649      120.50219    
    164000   0.96374691     18.944811      120.42166    
    165000   1.0480411      19.079707      120.60008    
    166000   1.0299092      19.337515      120.69503    
    167000   1.0419084      19.501788      120.30414    
    168000   0.96437179     19.267529      119.8807     
    169000   0.98514531     18.877978      119.9315     
    170000   1.0571193      18.981018      119.81098    
    171000   1.0109036      19.583902      119.628      
    172000   0.97665452     18.394706      119.56423    
    173000   1.0461053      19.198955      119.229      
    174000   0.98757106     18.790649      119.06861    
    175000   1.00395        19.040167      118.96778    
    176000   0.99894565     18.297449      118.62036    
    177000   1.0067049      18.535867      118.19059    
    178000   0.99846925     18.85392       117.84465    
    179000   0.96765537     18.736786      117.44722    
    180000   1.0245482      19.07574       116.92705    
    181000   0.97452099     19.702644      116.92282    
    182000   0.99566188     19.298815      116.7521     
    183000   0.95568471     18.876776      116.2597     
    184000   1.0041117      18.978466      116.06963    
    185000   0.9805936      19.363843      116.12796    
    186000   1.0235689      19.209318      115.96974    
    187000   1.0162347      19.387971      115.59606    
    188000   0.99971097     19.873264      115.52279    
    189000   1.0144168      18.682589      115.55322    
    190000   0.97683473     18.948566      114.95808    
    191000   1.0404396      18.825635      114.50789    
    192000   0.99554795     19.000621      114.40629    
    193000   0.98313936     19.424183      113.96473    
    194000   0.98295614     18.845568      114.0422     
    195000   1.0714653      19.538544      113.73977    
    196000   1.0158986      18.949342      113.34272    
    197000   0.98532239     19.492039      113.17834    
    198000   0.95282059     18.76401       113.28474    
    199000   0.97167097     19.109481      113.31626    
    200000   0.97111551     18.596993      113.03416    
    201000   0.95713786     18.771579      112.90616    
    202000   0.94185509     19.398507      112.7312     
    203000   0.98076167     18.786046      112.59322    
    204000   0.92742015     18.639589      112.62834    
    205000   1.0582774      19.341917      112.63403    
    206000   1.0404907      19.447977      112.69159    
    207000   0.97489915     19.145399      112.64929    
    208000   1.0006825      19.328359      112.58405    
    209000   1.0431392      19.335425      112.17719    
    210000   0.9657642      18.766582      112.00277    
    211000   0.96937586     18.937763      111.72638    
    212000   1.0060669      18.74911       111.67618    
    213000   0.96810791     18.648509      111.5878     
    214000   0.94917388     18.786479      111.45736    
    215000   0.9714933      19.428109      111.33275    
    216000   1.0321808      19.297791      111.00261    
    217000   1.0036554      18.537681      110.90527    
    218000   1.0279297      19.693136      110.79944    
    219000   0.94350889     19.609459      110.57548    
    220000   1.0178358      19.612565      110.599      
    221000   1.0420183      19.616168      110.59059    
    222000   0.99645135     19.318248      110.43644    
    223000   0.98523111     19.359879      110.24584    
    224000   0.98711707     19.123633      109.7624     
    225000   0.962722       18.764267      109.68919    
    226000   1.0823866      19.36593       109.44246    
    227000   1.0185554      19.233755      109.36981    
    228000   0.96135731     19.436901      109.00432    
    229000   0.94342965     18.440998      108.90569    
    230000   0.96539726     18.734282      109.1015     
    231000   1.0139224      19.175277      109.20604    
    232000   0.96710436     18.46085       108.95317    
    233000   0.96615668     19.616968      109.01509    
    234000   1.044054       18.296136      109.06963    
    235000   1.0736498      19.195129      108.84513    
    236000   1.01874        18.964537      108.80035    
    237000   1.0566452      18.898481      108.44337    
    238000   0.96820991     19.181054      108.14185    
    239000   0.99421873     18.78897       107.77759    
    240000   1.0339691      18.882952      107.65649    
    241000   1.0200341      18.653479      107.40485    
    242000   1.0150146      19.031698      107.48223    
    243000   1.0082689      18.670592      107.09291    
    244000   1.0379723      19.144663      106.67079    
    245000   1.0261426      19.700252      106.25026    
    246000   0.99957013     19.545876      106.26428    
    247000   1.0045709      19.359489      106.40015    
    248000   0.98193413     18.66198       106.17575    
    249000   0.99465538     19.116825      106.00469    
    250000   0.93328864     18.489648      105.8865     
    251000   1.0245048      19.086083      105.7722     
    252000   1.0184476      18.566738      105.6327     
    253000   1.0194245      19.662713      105.41016    
    254000   0.99723691     19.046395      105.10321    
    255000   1.0046073      18.697155      104.70074    
    256000   0.97753183     18.612703      104.24892    
    257000   0.98467438     19.110992      103.83774    
    258000   1.0612852      18.664278      103.73558    
    259000   1.0728375      19.317555      103.62715    
    260000   1.0464651      19.073702      103.30852    
    261000   0.99267231     19.350029      103.01838    
    262000   0.98402304     19.629865      102.98504    
    263000   1.0482201      19.293137      102.72627    
    264000   0.99535926     19.182314      102.33745    
    265000   1.0182396      18.625617      102.0251     
    266000   0.96767577     19.06947       101.72494    
    267000   1.0038859      18.688389      101.62818    
    268000   0.95645328     18.928927      101.59762    
    269000   1.0247452      19.02406       101.47368    
    270000   0.98832617     18.7374        101.24252    
    271000   0.98422426     18.594318      101.1007     
    272000   0.97368066     18.708169      100.82201    
    273000   1.0381671      18.77692       100.75589    
    274000   0.94274098     18.655034      100.87667    
    275000   1.037553       19.161385      100.84274    
    276000   0.98484753     18.993759      100.65814    
    277000   1.0224452      18.442658      100.29428    
    278000   1.0899998      18.653557      100.22211    
    279000   0.98739892     19.072663      100.28208    
    280000   1.0464282      19.754484      100.23833    
    281000   1.0554569      18.932065      100.23836    
    282000   0.98478514     18.623517      100.20116    
    283000   0.94060381     18.893142      100.00746    
    284000   0.98800089     18.695787      99.387871    
    285000   0.98962533     18.523516      99.275611    
    286000   1.002114       19.208922      99.089814    
    287000   1.0237345      18.328022      99.214117    
    288000   0.96655576     18.71738       99.222367    
    289000   0.99648874     18.580621      99.137351    
    290000   1.0246095      19.423032      99.340397    
    291000   0.98954748     18.384409      99.412135    
    292000   0.99266456     19.17905       98.868072    
    293000   1.0443876      19.318287      98.93557     
    294000   1.0226433      19.131401      98.444237    
    295000   0.96897358     18.741251      98.388606    
    296000   0.93896896     18.618295      98.236145    
    297000   0.99253308     18.492308      98.116552    
    298000   0.9714167      19.364645      97.913327    
    299000   0.98916337     18.171287      97.709014    
    300000   0.99615436     19.060246      97.685943    
    301000   1.0184921      18.88284       97.337278    
    302000   0.99222289     18.338399      97.019476    
    303000   1.0485191      18.766825      97.180703    
    304000   0.97784109     18.581407      97.064177    
    305000   0.96457902     18.774189      96.763813    
    306000   0.99252085     19.275017      96.888367    
    307000   0.9848047      18.747709      96.983709    
    308000   0.93914479     18.269574      97.126003    
    309000   1.0118117      19.12487       96.890741    
    310000   1.0136027      19.206975      96.890111    
    311000   0.97802933     18.67635       96.740589    
    312000   0.96712261     18.924461      96.936522    
    313000   0.99698496     19.078122      96.676703    
    314000   1.02485        18.638156      96.354633    
    315000   0.97903012     18.316366      96.409514    
    316000   1.0192856      18.656485      96.366282    
    317000   1.017131       18.504638      96.35536     
    318000   0.96033993     18.774194      96.418719    
    319000   0.95725539     18.793394      96.113064    
    320000   1.0320209      19.763235      95.802813    
    321000   1.005354       19.035427      95.54796     
    322000   0.97698027     18.190994      95.267082    
    323000   0.95320491     18.513752      95.0347      
    324000   0.98876225     18.674017      94.881797    
    325000   0.9451537      18.944032      94.751513    
    326000   0.93347629     18.330568      94.3755      
    327000   1.0765395      19.459432      94.093438    
    328000   0.99366653     18.440611      93.944228    
    329000   0.98639805     18.6293        93.509409    
    330000   0.99844161     18.757893      93.740925    
    331000   1.0664709      19.072366      93.762939    
    332000   1.0161433      19.488177      94.023685    
    333000   1.0161859      18.482963      94.251529    
    334000   1.0056024      18.340098      94.193487    
    335000   1.1134149      18.841987      93.829227    
    336000   0.99763486     18.979152      93.601712    
    337000   0.97840871     18.228246      93.420221    
    338000   1.0054068      18.950547      93.326614    
    339000   1.0218884      18.652621      93.319459    
    340000   1.0223062      18.72445       93.341369    
    341000   1.050042       18.836018      93.167373    
    342000   0.95632783     18.49658       93.145121    
    343000   0.91984655     18.653414      93.007512    
    344000   1.0229119      18.733312      93.000772    
    345000   1.017406       18.715955      93.210078    
    346000   1.0336235      18.185163      93.035144    
    347000   1.0474797      18.331791      93.294324    
    348000   0.99925992     18.856196      93.254636    
    349000   1.0271941      18.966639      93.319001    
    350000   1.0298042      19.213849      93.456428    
    351000   1.0056248      18.64079       93.527802    
    352000   0.99604747     18.641266      93.901053    
    353000   0.9676552      18.596657      94.036457    
    354000   1.0099825      18.97177       93.758251    
    355000   1.0072447      18.649789      93.731349    
    356000   1.0334987      19.302997      93.59895     
    357000   1.0614582      18.727375      93.610571    
    358000   1.0213453      18.667013      93.014434    
    359000   0.99759186     19.35735       92.932831    
    360000   1.0406825      18.836111      92.818926    
    361000   0.98392818     18.859065      92.83495     
    362000   1.0135747      19.371427      92.856919    
    363000   1.0267669      18.65727       92.629436    
    364000   1.0045702      19.139239      92.518484    
    365000   0.97161895     18.287146      92.506501    
    366000   0.96967849     18.323702      92.434226    
    367000   0.97273564     18.726918      92.23007     
    368000   0.9799         18.544879      92.345313    
    369000   0.97316156     18.401571      92.206298    
    370000   0.99006956     19.09616       92.250599    
    371000   0.98714045     18.791697      92.291503    
    372000   0.97063303     18.813404      91.984316    
    373000   1.0626326      19.390613      91.823036    
    374000   0.99831129     18.53515       91.37853     
    375000   1.0372436      19.054195      91.130851    
    376000   0.92671661     18.852813      90.931328    
    377000   0.9850596      17.590557      90.776673    
    378000   0.98257258     18.395272      90.630359    
    379000   0.94846785     18.460667      90.565453    
    380000   1.0029023      18.601646      90.48802     
    381000   0.9807898      18.08631       90.423986    
    382000   0.98412093     18.614847      90.505755    
    383000   1.016592       18.714291      90.195033    
    384000   1.019746       19.062213      90.250138    
    385000   0.98627406     18.481762      90.085382    
    386000   0.96710809     18.92054       90.004133    
    387000   0.99932561     18.883738      89.922173    
    388000   1.0514739      19.326627      89.947939    
    389000   0.98145082     18.22972       89.628997    
    390000   0.98375216     18.005017      89.52112     
    391000   0.97720861     18.649331      89.57561     
    392000   0.97914249     18.332487      89.452084    
    393000   0.99122126     18.735811      89.079169    
    394000   1.0423311      19.228424      89.222797    
    395000   1.0141713      18.739976      89.109479    
    396000   1.0023757      18.908995      89.252364    
    397000   0.9503928      18.194583      89.309326    
    398000   1.1081018      18.242203      89.380055    
    399000   0.99560046     18.190827      89.243209    
    400000   1.0295227      18.333709      89.138334    
    401000   1.0257719      19.180802      89.227717    
    402000   0.95316597     17.451033      89.102105    
    403000   0.93551598     18.339096      89.004376    
    404000   1.0058621      18.547001      89.086542    
    405000   1.0161304      19.044933      88.964647    
    406000   1.0167685      18.351876      88.815445    
    407000   0.96930902     18.661553      88.546022    
    408000   1.0436351      18.49067       88.397772    
    409000   1.0014815      18.866378      88.375825    
    410000   0.97796394     18.730837      88.352206    
    411000   1.049373       18.593773      88.285203    
    412000   0.95944632     18.83079       88.099411    
    413000   0.99876837     18.508512      87.84591     
    414000   1.0093504      18.704976      87.782382    
    415000   0.99331498     17.733873      87.275217    
    416000   1.0486258      18.730764      87.347894    
    417000   0.99918786     18.935669      87.096694    
    418000   0.9670341      18.221734      87.120935    
    419000   1.0375273      18.893883      86.802788    
    420000   0.98678269     18.2478        86.616805    
    421000   0.99399786     19.012481      86.548255    
    422000   1.0498356      18.125707      86.17904     
    423000   0.96254842     18.0852        86.104063    
    424000   0.9787464      18.066813      85.846427    
    425000   1.013599       18.823561      85.442323    
    426000   1.0199529      18.599726      85.437002    
    427000   1.0250549      17.906863      85.329794    
    428000   0.95266029     18.137438      85.126447    
    429000   1.0108612      18.115099      84.859725    
    430000   0.97861238     18.529861      84.649671    
    431000   0.99662684     18.804301      84.163541    
    432000   0.96384798     18.038979      84.11782     
    433000   1.0099548      18.447083      83.777521    
    434000   1.0091392      18.434378      83.560606    
    435000   1.0117387      18.40541       83.246426    
    436000   0.9979435      18.788453      83.321249    
    437000   0.98360324     18.469198      83.47781     
    438000   0.98875524     18.502102      83.460073    
    439000   1.0147755      18.521091      83.347339    
    440000   1.0411399      17.862823      83.279578    
    441000   0.94375499     18.614573      82.996033    
    442000   0.94829501     18.092198      82.82861     
    443000   0.98188255     18.885992      82.708692    
    444000   0.95645528     18.915498      82.927119    
    445000   1.0047697      18.144798      82.711968    
    446000   1.0106403      18.754108      82.619363    
    447000   1.0239763      18.841862      82.446953    
    448000   0.97891971     18.327555      82.398031    
    449000   1.0185397      18.466778      82.210892    
    450000   0.99700866     18.338097      82.071659    
    451000   1.0544658      18.808173      81.852225    
    452000   1.0142887      18.41008       81.724857    
    453000   1.0513861      17.99214       81.435134    
    454000   0.98185022     18.563931      81.196897    
    455000   1.031062       17.727414      80.845957    
    456000   0.93582353     18.130584      80.961331    
    457000   0.97495342     18.283012      80.967766    
    458000   1.0547992      18.758194      80.851355    
    459000   0.99991177     19.034566      80.851636    
    460000   0.97186341     18.496386      80.75888     
    461000   0.98016851     18.691835      80.954666    
    462000   1.0055128      18.843668      81.011025    
    463000   0.99506535     18.500304      81.12398     
    464000   1.0132829      17.954853      80.90098     
    465000   0.99207968     18.627058      80.644682    
    466000   1.014537       18.8583        80.56134     
    467000   1.0002395      17.394971      80.271211    
    468000   1.0420976      18.751373      80.026095    
    469000   0.99970056     18.084061      79.907853    
    470000   0.99806223     18.576986      80.003552    
    471000   0.97847268     18.849949      79.71201     
    472000   1.0139103      18.134269      79.560044    
    473000   0.95493078     18.469165      79.676581    
    474000   1.0322928      18.44988       79.48335     
    475000   1.0643421      18.028591      79.246637    
    476000   1.0131648      18.663408      79.038152    
    477000   0.97704339     18.493987      78.98048     
    478000   1.0165194      18.843592      79.157417    
    479000   0.97173248     18.216216      78.984952    
    480000   0.98247867     17.921547      78.973892    
    481000   0.98155942     18.27025       79.203672    
    482000   0.966894       18.282593      79.154562    
    483000   0.95977341     18.06647       78.991715    
    484000   1.0451546      17.953679      79.04989     
    485000   0.99226524     18.928953      78.843881    
    486000   1.0169725      18.17981       78.508503    
    487000   1.0202581      18.312838      78.227806    
    488000   1.0408545      18.241156      77.944894    
    489000   1.00893        18.472154      77.594365    
    490000   1.0243805      17.977917      77.281451    
    491000   0.98449639     18.477907      76.896973    
    492000   1.009284       18.588554      76.979279    
    493000   1.039745       18.52462       76.664399    
    494000   1.0332007      19.079283      76.555855    
    495000   0.92254222     17.256543      76.608484    
    496000   1.0058449      19.061418      76.769201    
    497000   1.0299475      18.149495      76.65317     
    498000   1.0099795      18.887245      76.274944    
    499000   0.97093232     18.778545      76.050714    
    500000   1.0193379      18.573392      76.02982     
    501000   1.0309398      18.209326      75.826981    
    502000   1.0119774      18.741576      75.670706    
    503000   0.95041309     18.588809      75.610778    
    504000   1.0574307      18.398989      75.215258    
    505000   0.98093971     19.04243       75.013638    
    506000   1.0251127      18.614542      74.701441    
    507000   0.98662689     18.19935       74.703415    
    508000   0.96094143     18.771319      74.59206     
    509000   0.95693549     18.663852      74.226032    
    510000   0.99376707     18.372561      74.52962     
    511000   1.0089294      18.570905      74.531993    
    512000   0.95246486     18.14367       74.166693    
    513000   0.99228051     18.429251      74.221634    
    514000   1.0129181      18.270962      74.080665    
    515000   0.97713879     18.860833      74.01916     
    516000   1.0247572      18.32956       73.937598    
    517000   0.9753369      18.328001      73.778323    
    518000   1.0041234      18.127023      73.945594    
    519000   0.95847458     18.206667      74.299441    
    520000   1.0125524      18.658401      74.042121    
    521000   1.0106117      18.339883      74.010441    
    522000   0.99800952     18.467602      74.137219    
    523000   1.0530076      18.60247       74.098073    
    524000   0.93721573     17.907104      74.060238    
    525000   0.98001773     18.40597       73.896804    
    526000   0.97423298     18.543394      73.487958    
    527000   1.0388753      18.550888      73.130914    
    528000   0.98060524     18.000106      72.814167    
    529000   1.0026044      18.07113       72.931753    
    530000   1.0511544      18.397139      72.794768    
    531000   1.0176902      18.674527      72.58904     
    532000   0.95324169     18.29664       72.619093    
    533000   1.0364578      18.444955      72.459845    
    534000   1.0497381      18.19656       72.090301    
    535000   0.96682212     18.197898      71.748487    
    536000   1.0226263      18.094588      71.500665    
    537000   1.0067357      18.701461      71.640758    
    538000   0.9996418      18.116706      71.333952    
    539000   0.97473931     17.276978      71.153972    
    540000   1.0210166      18.058671      71.177254    
    541000   0.96638322     18.59182       70.811388    
    542000   1.017445       17.607317      70.669297    
    543000   1.0352744      17.841811      70.853682    
    544000   0.95613183     18.50409       71.098583    
    545000   1.0312598      18.296729      70.920176    
    546000   0.93677885     18.942292      70.825869    
    547000   1.0003791      18.457941      70.853664    
    548000   1.0326222      17.183195      70.780982    
    549000   1.019473       18.575084      70.960592    
    550000   0.95716528     18.74613       71.105167    
    551000   1.0758734      18.634228      70.962852    
    552000   1.0469803      19.894391      70.884042    
    553000   1.0116542      18.304068      70.851643    
    554000   0.9850307      18.766926      70.752196    
    555000   0.98405614     18.106894      70.722979    
    556000   1.0405733      18.367344      70.765593    
    557000   0.94085394     18.048401      70.460128    
    558000   1.0664204      17.801922      70.327247    
    559000   1.0471347      17.749843      70.086149    
    560000   0.98467017     18.082548      70.062403    
    561000   1.0361624      18.022566      70.094687    
    562000   1.0151794      18.182721      70.166997    
    563000   0.98542403     17.961014      70.219535    
    564000   0.96676036     17.949821      70.127296    
    565000   0.93574542     18.224022      70.203549    
    566000   1.0332148      18.637388      69.984942    
    567000   1.0193916      18.01807       69.806328    
    568000   1.0138133      18.356443      69.540021    
    569000   0.97152338     18.386004      69.275819    
    570000   0.97763955     18.72266       69.00881     
    571000   0.99560852     18.118359      68.615511    
    572000   0.98219244     18.909009      68.560148    
    573000   0.99126237     18.068872      68.38729     
    574000   1.0246254      17.797039      68.09439     
    575000   1.0384096      18.440678      67.8219      
    576000   1.0284225      18.696499      68.138965    
    577000   0.97047634     17.817075      67.877837    
    578000   0.98449662     17.760923      67.988429    
    579000   0.96939381     18.04306       67.549652    
    580000   0.97720866     18.591497      67.668687    
    581000   0.9944323      18.37812       67.295029    
    582000   1.0450976      18.223887      66.844659    
    583000   0.99629298     18.505455      66.411753    
    584000   0.98420524     17.623997      66.399335    
    585000   0.94392151     18.579191      66.230751    
    586000   1.0366129      17.654473      66.00984     
    587000   0.95019904     18.148515      65.811514    
    588000   1.0360242      17.360026      65.739368    
    589000   1.0215495      18.275162      65.742144    
    590000   0.97375345     18.55404       65.953985    
    591000   0.9828335      17.78945       65.765294    
    592000   0.9936633      19.123153      65.697453    
    593000   1.0036046      17.44448       65.625561    
    594000   1.0188517      19.132926      65.560037    
    595000   1.0122745      18.60571       65.553139    
    596000   0.97635359     18.317839      65.821623    
    597000   0.95639044     18.566856      65.80922     
    598000   0.98571198     17.604326      65.634718    
    599000   1.0166527      17.97639       65.915677    
    600000   1.007481       17.53051       65.873592    
    601000   0.95754574     18.841088      65.653167    
    602000   1.0658459      19.054394      65.601062    
    603000   1.0396919      18.236746      65.564429    
    604000   1.0237855      19.051968      65.673793    
    605000   1.0411428      18.323213      65.333503    
    606000   0.95559094     18.370236      65.008697    
    607000   0.96053329     18.537121      64.937707    
    608000   1.0268254      18.231613      65.092847    
    609000   0.97702807     18.327418      65.07387     
    610000   0.98953832     18.439724      64.793811    
    611000   0.99376374     17.681173      64.761948    
    612000   1.0030122      18.127851      64.495929    
    613000   1.0418479      18.180167      64.252686    
    614000   1.0055997      18.739096      64.08604     
    615000   0.98872279     18.321211      63.978178    
    616000   0.97916257     18.672289      63.756369    
    617000   1.0206099      17.810288      63.757317    
    618000   0.9879759      18.11598       63.608392    
    619000   1.0352378      17.661016      63.748022    
    620000   1.000296       18.452325      63.67092     
    621000   1.030296       18.038795      63.728825    
    622000   1.0092151      17.120702      63.485313    
    623000   0.93949113     18.253711      63.311962    
    624000   1.0216513      17.767813      63.217708    
    625000   1.0416708      18.4437        62.938008    
    626000   1.0265921      18.542375      62.806888    
    627000   0.95382126     18.020355      62.689137    
    628000   1.0420803      18.5449        62.296503    
    629000   0.97600274     18.286095      61.973081    
    630000   1.0057198      18.14845       61.815735    
    631000   1.0135819      18.090335      61.585593    
    632000   1.049095       18.25357       61.649057    
    633000   0.99879754     18.142517      61.403753    
    634000   1.0002381      17.759856      61.489772    
    635000   0.9805921      17.823418      61.234088    
    636000   1.0479155      18.577001      61.329145    
    637000   1.0076247      17.473222      61.071398    
    638000   1.0621647      17.615785      60.95521     
    639000   1.0163474      17.98281       61.297606    
    640000   0.99669926     18.269095      61.039924    
    641000   0.99320046     18.147616      60.799705    
    642000   1.0106096      17.643142      60.582987    
    643000   0.98935807     18.1464        60.741566    
    644000   1.0067872      17.552369      60.382167    
    645000   1.0050608      18.650261      60.6323      
    646000   0.98324435     19.073735      60.624913    
    647000   1.0147319      17.409902      60.584518    
    648000   0.99586277     17.99649       60.470747    
    649000   1.0798017      18.301221      60.25378     
    650000   1.0868178      18.609401      59.821486    
    651000   1.0399035      17.721437      59.739622    
    652000   0.99668903     18.464126      59.561593    
    653000   1.0087489      18.632136      59.551409    
    654000   0.98233146     17.251365      59.257897    
    655000   0.99117256     17.727494      59.162849    
    656000   1.0388698      18.041981      59.198214    
    657000   1.042016       17.945453      59.287002    
    658000   1.0069486      18.130663      59.094371    
    659000   0.92365283     18.083972      58.986642    
    660000   0.95147767     18.429609      58.793973    
    661000   0.99826285     18.216761      58.362241    
    662000   1.0592852      17.965528      58.265095    
    663000   1.0215607      18.052766      58.438819    
    664000   0.99654762     17.72001       58.27466     
    665000   0.95635011     18.350083      58.178163    
    666000   0.97798873     18.549472      58.017435    
    667000   0.98539418     18.643281      58.168015    
    668000   0.9810942      18.250153      58.33686     
    669000   1.0055492      18.630854      58.231791    
    670000   0.96827372     18.54513       58.32907     
    671000   0.97459244     18.457624      58.514916    
    672000   1.0095451      17.851848      58.358875    
    673000   1.0712821      18.822542      58.236131    
    674000   0.99059978     18.029186      58.124539    
    675000   1.0047791      17.812089      58.105324    
    676000   1.0542271      18.802574      58.33087     
    677000   1.0427354      18.721685      58.125662    
    678000   0.95379908     17.904215      58.01827     
    679000   1.0497446      17.723316      58.107107    
    680000   1.0188374      17.904075      57.959002    
    681000   1.0452127      18.924362      58.175762    
    682000   1.0415722      18.046614      58.367615    
    683000   0.9564483      17.235009      58.37883     
    684000   1.0210484      18.528654      58.501567    
    685000   1.0083455      17.93614       58.442475    
    686000   1.0218375      18.904966      58.216078    
    687000   0.98972379     17.920524      58.141815    
    688000   1.0361642      17.518209      57.837749    
    689000   1.0015125      17.598427      57.888092    
    690000   0.96517731     18.177674      57.541033    
    691000   0.93139472     18.177391      57.005528    
    692000   0.99567424     18.370764      57.031705    
    693000   1.0069551      18.110809      56.815595    
    694000   1.018184       18.41178       56.66314     
    695000   1.000382       18.141324      56.522481    
    696000   1.021912       18.550598      56.378016    
    697000   0.96214486     18.678708      55.957678    
    698000   1.0042301      17.593592      55.958993    
    699000   0.94009355     18.051375      55.846146    
    700000   0.98175961     18.051678      56.062704    
    701000   1.0001398      18.05379       55.905131    
    702000   0.978116       18.138047      55.774602    
    703000   1.0618864      18.699175      55.846976    
    704000   0.97137386     17.244432      55.894159    
    705000   1.0111117      17.880652      55.596329    
    706000   0.97738544     17.806989      54.888177    
    707000   0.98874194     17.77795       54.64725     
    708000   1.0097003      17.414355      54.451124    
    709000   0.96646903     17.835826      53.984924    
    710000   1.045064       19.220143      53.799863    
    711000   1.0900562      18.207043      53.982736    
    712000   1.0340814      17.728037      54.085281    
    713000   1.0264758      17.549556      53.929543    
    714000   1.0385364      17.789319      53.677756    
    715000   1.0171603      17.82822       53.534146    
    716000   0.95880198     18.173575      53.598541    
    717000   1.0427246      18.469303      53.387496    
    718000   0.97633682     18.196865      53.267334    
    719000   0.98295637     18.59611       53.162379    
    720000   1.0405469      18.019983      53.152562    
    721000   0.99995088     18.059994      52.685706    
    722000   0.99328372     17.413597      53.015016    
    723000   0.97095319     17.578866      52.471326    
    724000   1.0067218      17.907569      52.450477    
    725000   1.0369807      18.445045      52.410648    
    726000   0.99633004     18.252275      52.384878    
    727000   1.0397869      17.584116      52.164248    
    728000   0.98637314     17.655277      51.999322    
    729000   1.0441951      17.709848      51.773588    
    730000   1.0337122      17.650843      51.866758    
    731000   0.98877959     17.090087      51.709103    
    732000   0.97417202     16.939204      51.696267    
    733000   1.0123111      17.870803      51.430701    
    734000   0.98525762     17.56107       51.145378    
    735000   0.98223414     17.325003      50.577652    
    736000   1.0123943      17.992709      50.331718    
    737000   1.0339403      18.129737      50.208334    
    738000   0.94805737     17.353134      50.436818    
    739000   0.9689943      18.491944      50.196125    
    740000   0.99627945     17.91248       50.306925    
    741000   0.98122058     17.623115      50.228508    
    742000   1.0002302      18.54777       49.987497    
    743000   0.97604105     18.518138      49.839038    
    744000   1.0070655      17.588097      49.725671    
    745000   0.98299311     18.217141      49.31712     
    746000   0.9987381      18.097854      49.124221    
    747000   1.0030009      18.310209      48.845516    
    748000   1.0142532      17.524963      48.828574    
    749000   1.0266039      17.350713      48.679018    
    750000   0.99469759     17.647344      48.600508    
    751000   1.0224426      18.234888      48.429606    
    752000   1.021898       18.454745      48.296509    
    753000   0.98922489     17.522948      47.961498    
    754000   0.98972233     17.131553      47.738697    
    755000   1.0402918      18.031771      47.48059     
    756000   1.0087983      17.977361      47.367236    
    757000   0.95202088     17.724536      47.023072    
    758000   1.0890479      18.621475      46.975369    
    759000   0.99784431     18.721482      46.81366     
    760000   1.0153686      17.675008      46.675568    
    761000   0.97313195     18.384483      46.762412    
    762000   1.0316179      17.254108      46.720302    
    763000   1.0553848      18.564112      46.533718    
    764000   1.0270083      17.68305       46.390627    
    765000   0.9884592      17.611505      46.532148    
    766000   1.0673916      18.284944      46.277802    
    767000   1.0451844      17.322002      46.286175    
    768000   0.98006526     17.443167      45.776512    
    769000   1.0243144      18.211536      45.961152    
    770000   1.0480849      17.659694      45.822785    
    771000   0.98329981     18.330682      45.708164    
    772000   1.0036941      18.227953      45.428424    
    773000   1.0302518      18.140097      45.077372    
    774000   0.87153623     17.619494      45.109764    
    775000   1.0123131      18.31853       44.886084    
    776000   0.99810338     17.320211      44.593855    
    777000   1.0732121      18.187925      44.428977    
    778000   1.008052       18.099961      44.25515     
    779000   0.94892639     17.670104      44.204275    
    780000   0.99111924     17.78012       43.888618    
    781000   0.99825529     17.584548      43.725716    
    782000   0.99762901     17.880279      43.494064    
    783000   1.0431692      17.986383      43.2041      
    784000   0.99629259     17.368923      43.310205    
    785000   0.98701554     18.326828      43.214124    
    786000   1.0341753      17.561957      42.962315    
    787000   0.99049668     18.501642      42.958005    
    788000   0.99120962     18.115042      43.137605    
    789000   0.96186034     18.052265      42.840698    
    790000   0.99913931     17.961432      42.784695    
    791000   0.9909963      17.87015       42.882716    
    792000   0.99463808     18.272357      42.866496    
    793000   0.99893525     17.278257      42.813105    
    794000   0.98467358     18.584016      42.834662    
    795000   1.0037562      17.154223      42.610937    
    796000   1.0478226      18.495407      42.736051    
    797000   1.0816443      18.22189       42.668386    
    798000   1.0080776      17.620908      42.636722    
    799000   0.96176325     18.305999      42.509166    
    800000   0.97790681     18.479966      42.130157    
    801000   0.99869543     18.013068      41.748357    
    802000   0.96830135     17.892715      41.88172     
    803000   0.96428078     17.903659      41.915509    
    804000   0.99181955     18.753993      41.649637    
    805000   0.95790778     17.68922       41.399509    
    806000   1.0608134      18.411369      41.162251    
    807000   0.97546373     17.962733      40.932273    
    808000   0.97825411     18.299904      40.871011    
    809000   0.98714044     17.720356      40.750967    
    810000   0.98355749     17.674244      40.500735    
    811000   0.99802682     18.412912      40.43321     
    812000   1.0007929      17.871326      40.083702    
    813000   0.9777652      18.309139      39.855481    
    814000   1.0074485      18.875856      39.649922    
    815000   1.0579257      18.442947      39.946677    
    816000   1.0394425      17.975535      39.88632     
    817000   0.99617943     17.988165      39.669222    
    818000   1.0139848      17.606289      39.389842    
    819000   1.0218045      17.976662      38.923757    
    820000   0.99208417     17.38869       38.354904    
    821000   1.0186218      18.104998      38.23503     
    822000   0.96436489     17.997845      38.536697    
    823000   1.0077524      18.138033      38.406185    
    824000   0.98453963     18.448992      38.325005    
    825000   0.99579948     17.572345      37.949916    
    826000   0.95987514     17.25218       37.956469    
    827000   1.0379381      17.855686      37.936636    
    828000   0.98749483     18.023481      37.966982    
    829000   1.0229796      17.894399      37.84913     
    830000   1.0090754      17.209462      37.853501    
    831000   0.97218189     17.723816      37.591397    
    832000   0.97970283     18.044756      37.339741    
    833000   0.98050882     19.026166      37.46798     
    834000   0.97878196     17.402107      37.345491    
    835000   1.0609127      17.896241      37.401726    
    836000   1.010041       18.424303      37.163458    
    837000   0.97893627     17.696485      37.437487    
    838000   0.97856915     17.330313      37.74146     
    839000   1.0200671      17.505362      37.633732    
    840000   1.0423558      17.408301      37.58963     
    841000   1.0302001      18.240112      37.227719    
    842000   0.97848673     17.082117      36.722915    
    843000   1.0326544      18.108101      36.697674    
    844000   0.98910907     18.456289      36.627266    
    845000   0.96814661     17.166007      36.693683    
    846000   0.98990565     17.546312      36.751187    
    847000   1.0061605      17.574711      36.196211    
    848000   0.99335824     17.96588       36.147257    
    849000   1.0499726      17.18727       36.465404    
    850000   0.99910774     17.107318      36.161982    
    851000   1.0268595      18.081471      36.07846     
    852000   0.97387845     17.833139      36.194188    
    853000   1.0985027      18.2891        36.261529    
    854000   0.97905462     17.948547      36.074498    
    855000   1.0515858      17.33614       35.970831    
    856000   1.0061741      18.38851       36.237469    
    857000   1.0193402      18.289183      35.95431     
    858000   0.96701786     17.835944      35.803057    
    859000   1.078355       17.828028      35.431392    
    860000   1.0078612      17.642633      35.270353    
    861000   1.0009557      17.363114      35.052408    
    862000   0.98379807     18.286591      34.900826    
    863000   1.0142902      17.792367      34.912412    
    864000   0.97881209     17.098943      34.487028    
    865000   0.96250415     18.018634      34.650667    
    866000   0.98540999     17.839378      34.775094    
    867000   1.0352536      17.363737      34.587876    
    868000   1.0509037      18.620539      34.40603     
    869000   1.0364983      17.970279      34.134405    
    870000   1.0222132      17.55632       34.140735    
    871000   1.0091404      17.123284      34.001525    
    872000   0.92915617     18.349319      33.965345    
    873000   1.0247833      17.810734      33.844289    
    874000   0.96582422     17.313089      33.733492    
    875000   1.0109758      17.300671      33.919303    
    876000   0.97804849     17.682128      33.88657     
    877000   0.9628982      17.829039      33.510854    
    878000   1.0652073      17.75043       32.951565    
    879000   0.99313028     17.404273      32.752288    
    880000   1.018819       17.650671      32.651416    
    881000   1.0111722      17.352965      32.803138    
    882000   0.9805313      17.239187      32.487541    
    883000   0.99790198     17.668538      32.552018    
    884000   0.95299907     18.254504      32.292462    
    885000   1.0128669      17.937438      32.126465    
    886000   1.0715762      18.17568       32.046894    
    887000   1.0013912      17.261919      31.871212    
    888000   1.0159416      16.861777      31.646182    
    889000   1.0640076      18.031355      31.365961    
    890000   0.97182592     17.650163      30.893204    
    891000   1.0097282      18.045661      30.545673    
    892000   0.99585695     18.043089      30.705255    
    893000   0.94987636     17.32893       30.722539    
    894000   1.0067665      17.813047      30.750107    
    895000   0.99935845     18.276561      30.911092    
    896000   1.0572953      17.666843      30.818515    
    897000   1.0133228      17.404144      30.729251    
    898000   0.98965769     17.31108       30.732336    
    899000   1.0136868      17.393705      30.541363    
    900000   1.0118739      17.742672      30.374679    
    901000   1.0057216      18.223434      30.249834    
    902000   0.97049929     17.668746      30.112205    
    903000   1.0261999      17.258241      29.917058    
    904000   0.98673533     17.206714      29.962903    
    905000   1.0114367      17.977424      29.763717    
    906000   0.98593011     17.17426       29.831863    
    907000   0.98775525     18.237165      29.37291     
    908000   0.98299538     17.391444      29.438193    
    909000   1.0178875      17.522159      29.21173     
    910000   1.007734       16.661857      29.221176    
    911000   0.99513618     17.379102      29.075158    
    912000   1.0108199      17.343517      29.093692    
    913000   0.97588394     17.02775       28.96144     
    914000   1.0234928      17.721073      28.712057    
    915000   0.99402826     17.456849      28.376549    
    916000   1.0063117      17.347848      28.340985    
    917000   0.97194972     17.43635       28.377383    
    918000   1.0418405      17.519254      28.358628    
    919000   1.0007766      17.632029      28.051984    
    920000   1.0405747      17.920274      27.55275     
    921000   1.0021924      16.666181      27.41638     
    922000   1.0555215      17.788932      27.219606    
    923000   0.95041601     18.027104      27.04957     
    924000   1.0292927      17.32641       26.9975      
    925000   1.0328278      17.209579      27.066163    
    926000   0.98744668     16.548323      26.773084    
    927000   1.0239393      16.886424      26.854638    
    928000   1.0194183      17.129369      26.52585     
    929000   1.0817727      18.11557       26.486083    
    930000   1.0181683      18.422671      26.34075     
    931000   0.99168196     17.345876      26.289737    
    932000   0.98669298     17.633476      26.047568    
    933000   1.0077037      17.456274      26.132494    
    934000   0.99890865     17.501668      26.135857    
    935000   0.98761372     17.849559      25.91448     
    936000   1.0215326      17.1928        25.654736    
    937000   0.96562924     17.039309      25.505124    
    938000   1.0483236      17.362335      25.467421    
    939000   1.0272354      17.49521       25.352407    
    940000   0.98336808     17.530149      25.211869    
    941000   0.9573286      17.795177      24.881615    
    942000   0.97633488     17.996079      24.696098    
    943000   0.92897446     17.520946      24.549623    
    944000   1.0076073      17.539316      24.689185    
    945000   0.9766635      17.007617      24.435336    
    946000   1.0190399      17.402127      24.535174    
    947000   1.0059068      17.423645      24.367278    
    948000   1.0362946      17.356095      24.343541    
    949000   1.0459581      18.00612       24.33627     
    950000   0.99761065     17.536603      24.341359    
    951000   1.0086752      17.571485      24.226806    
    952000   1.062617       18.062811      24.213877    
    953000   0.99517566     17.142871      24.213445    
    954000   0.9567248      17.723755      24.385589    
    955000   0.9748818      17.285615      24.19155     
    956000   0.94721824     17.956977      24.092544    
    957000   0.98711214     17.402483      24.305628    
    958000   0.95345234     17.43304       24.005862    
    959000   0.9715368      18.043169      24.057604    
    960000   1.0016061      17.004572      23.709178    
    961000   1.0287887      17.693992      23.587121    
    962000   0.95792934     18.284871      23.454471    
    963000   1.0034329      17.739919      23.094036    
    964000   0.9931385      17.52904       22.992003    
    965000   1.0840082      18.000657      22.783223    
    966000   1.0111222      17.924879      22.662381    
    967000   1.0052768      17.172757      22.36812     
    968000   0.98596613     17.148807      22.034074    
    969000   1.0499066      18.061017      21.928777    
    970000   0.99847142     17.809267      22.13538     
    971000   1.0692965      18.21476       22.16615     
    972000   1.032212       17.177687      22.142578    
    973000   1.0478989      18.002566      22.129962    
    974000   1.0151148      17.042521      21.565261    
    975000   0.99526074     17.78424       21.52765     
    976000   0.99532869     17.950079      21.763023    
    977000   0.95688001     17.645962      21.818135    
    978000   1.0134505      18.239348      21.699867    
    979000   1.0042942      17.27622       21.518638    
    980000   0.97638907     17.674663      21.577138    
    981000   0.99297098     17.811824      21.452755    
    982000   0.98278248     17.514895      21.342406    
    983000   0.97507121     17.750306      21.22225     
    984000   1.0463382      18.126737      21.126467    
    985000   0.99330308     17.990055      20.88098     
    986000   0.99704242     16.85124       20.726638    
    987000   0.97974942     17.93272       20.696581    
    988000   1.0200693      17.344456      20.841502    
    989000   1.039397       17.802338      20.630436    
    990000   0.98111284     17.151207      20.408004    
    991000   1.0919917      17.295338      20.43436     
    992000   1.0506025      17.285481      20.08236     
    993000   1.0515         17.313252      19.700175    
    994000   0.98586763     16.791822      19.899893    
    995000   0.98985987     17.707639      19.761039    
    996000   1.0270948      18.1288        19.328171    
    997000   0.94797615     17.469166      19.211412    
    998000   1.0254095      17.783974      19.368839    
    999000   1.0034478      17.369426      19.262546    
   1000000   1.000389       17.257615      18.905103    
   1001000   1.0112201      17.322337      19.028738    
   1002000   1.0083806      17.868735      18.866198    
   1003000   0.98248987     17.152304      19.094162    
   1004000   1.0256777      16.790029      19.187201    
   1005000   0.97800459     16.705743      19.184421    
   1006000   0.99453455     17.207449      19.073949    
   1007000   1.0360585      18.006249      18.985636    
   1008000   1.0023553      17.483256      18.78607     
   1009000   1.0210836      18.137671      18.847202    
   1010000   0.96569689     17.186459      18.615452    
   1011000   1.0394416      17.81811       18.688815    
   1012000   1.020699       17.483292      18.584025    
   1013000   1.0588389      17.820007      18.457322    
   1014000   0.99103477     17.524536      18.633465    
   1015000   0.98008084     17.226713      18.424346    
   1016000   0.9792482      17.973696      18.387888    
   1017000   1.0253877      17.543737      18.346111    
   1018000   0.93472787     17.360544      18.16196     
   1019000   0.95073153     17.657668      18.21189     
   1020000   1.0191077      18.997225      18.230841    
   1021000   0.93828101     17.499955      17.765378    
   1022000   1.0032579      17.028384      17.845925    
   1023000   1.0203736      16.509685      17.499467    
   1024000   1.0541988      17.530077      17.385675    
   1025000   0.99074606     17.015731      17.07671     
   1026000   1.0059675      17.28158       16.716417    
   1027000   0.99926984     17.476663      16.668116    
   1028000   0.94223377     17.472804      16.576672    
   1029000   1.0173446      17.302241      16.40128     
   1030000   0.97135649     16.754803      16.437279    
   1031000   1.0478312      17.98718       16.279845    
   1032000   1.0265654      17.477561      16.14858     
   1033000   1.0154958      17.930286      16.293658    
   1034000   1.0275211      17.779835      16.005344    
   1035000   0.98913677     16.62172       15.915261    
   1036000   1.0070493      17.65903       15.745733    
   1037000   1.0369115      17.580676      15.763078    
   1038000   0.99268243     17.436874      15.88713     
   1039000   1.0087918      17.724112      15.727043    
   1040000   1.0231373      17.141345      15.350551    
   1041000   1.0280216      18.170334      15.261869    
   1042000   1.0156625      17.117778      15.36704     
   1043000   1.0373803      17.472068      15.326391    
   1044000   0.99932301     17.564555      15.23139     
   1045000   1.0162259      17.493208      15.247263    
   1046000   1.0079722      18.074252      15.153093    
   1047000   0.97544746     16.764518      14.862587    
   1048000   1.0543833      17.984011      14.95983     
   1049000   1.0067908      17.680778      14.561182    
   1050000   0.98856334     18.101915      14.427766    
   1051000   0.94746379     17.161887      14.084087    
   1052000   1.0241196      17.13514       13.930374    
   1053000   1.0171974      17.848339      13.944631    
   1054000   1.028057       17.740214      13.607703    
   1055000   1.0191923      18.166426      13.101462    
   1056000   1.0171081      17.374965      13.225138    
   1057000   0.96756992     17.713084      13.046176    
   1058000   1.0525243      17.832105      12.921877    
   1059000   1.0621073      17.582519      13.290248    
   1060000   1.0349896      16.812735      13.298771    
   1061000   0.96163085     17.068355      13.014962    
   1062000   1.0343282      18.338712      12.947383    
   1063000   0.94092091     16.974932      12.880803    
   1064000   0.99731427     17.338614      12.712397    
   1065000   0.99774075     17.609843      12.625981    
   1066000   0.9984922      17.243463      12.485076    
   1067000   1.0249316      17.102204      12.644006    
   1068000   1.0114955      17.77657       12.083609    
   1069000   0.9566723      18.113102      11.780487    
   1070000   0.97814039     17.202156      11.866186    
   1071000   1.0227132      17.054139      11.764734    
   1072000   1.0065885      17.766186      11.742716    
   1073000   1.0587512      17.37704       11.545595    
   1074000   0.98557051     17.787167      11.321611    
   1075000   1.0274287      17.439651      11.193625    
   1076000   1.0741869      17.455977      11.064315    
   1077000   1.0188753      17.176584      10.988294    
   1078000   1.0539459      17.268589      10.665514    
   1079000   1.0552743      17.352533      10.292031    
   1080000   1.0301691      17.150985      10.207434    
   1081000   0.96137607     17.214652      10.174355    
   1082000   0.96421356     16.858303      10.197534    
   1083000   0.98344144     17.02266       10.284213    
   1084000   0.96859548     16.806864      10.444569    
   1085000   0.94543062     17.498196      10.331712    
   1086000   0.9883632      16.81101       10.042471    
   1087000   0.99225874     17.158107      9.8760395    
   1088000   0.9676177      16.966058      9.4359989    
   1089000   1.0011388      16.805649      9.4508443    
   1090000   0.97635472     17.303008      9.3945256    
   1091000   0.9902301      17.233865      9.3894273    
   1092000   1.0098974      16.933544      9.354804     
   1093000   1.0124919      17.672299      9.1138998    
   1094000   1.051415       17.240615      8.6983258    
   1095000   1.0122396      16.734979      8.4991528    
   1096000   1.0103337      16.519835      8.5792924    
   1097000   1.0244648      17.660718      8.2987755    
   1098000   1.020061       17.886967      8.0887529    
   1099000   1.0089288      17.406923      7.8678191    
   1100000   1.0747793      17.199912      7.8746599    
   1101000   1.0167319      17.696996      8.0470935    
   1102000   0.97487433     16.842797      7.7741412    
   1103000   1.002065       17.505159      7.5341175    
   1104000   1.0210311      17.745943      7.6346069    
   1105000   0.99482992     17.872097      7.6684444    
   1106000   0.93708768     16.782908      7.6760821    
   1107000   1.0449078      17.560932      7.5070216    
   1108000   0.97493517     17.439653      7.4174472    
   1109000   1.0298611      17.171149      7.4162778    
   1110000   1.0903652      17.266787      7.5442084    
   1111000   1.0139323      17.947204      7.4532486    
   1112000   1.0388088      16.952612      7.5547424    
   1113000   1.0303815      17.598501      7.4145778    
   1114000   0.98381041     16.618178      7.2255998    
   1115000   1.0571104      16.954672      7.1888742    
   1116000   1.0057509      17.064327      7.1011656    
   1117000   0.98920118     17.536225      7.005544     
   1118000   1.0251647      17.450138      6.888053     
   1119000   1.0833444      17.563327      6.6609541    
   1120000   1.0039582      16.781084      6.1547665    
   1121000   0.98356786     18.542547      5.9148682    
   1122000   1.056884       17.922267      5.3920295    
   1123000   1.0222768      17.888666      5.3445609    
   1124000   1.0621745      17.514591      5.1262845    
   1125000   1.0319791      17.42839       5.0002555    
Fix halt condition for fix-id 3 met on step 1126000 with value 4.70938462102507 (src/fix_halt.cpp:237)
   1126000   0.99133142     17.286109      4.7093846    
Loop time of 1407.18 on 4 procs for 1026000 steps with 600 atoms

Performance: 629959.114 tau/day, 729.119 timesteps/s
120.1% CPU use with 2 MPI tasks x 2 OpenMP threads

MPI task timing breakdown:
Section |  min time  |  avg time  |  max time  |%varavg| %total
---------------------------------------------------------------
Pair    | 75.78      | 120.65     | 165.51     | 408.5 |  8.57
Bond    | 11.783     | 15.629     | 19.474     |  97.3 |  1.11
Neigh   | 1143       | 1143       | 1143       |   0.0 | 81.23
Comm    | 32.941     | 81.103     | 129.27     | 534.8 |  5.76
Output  | 2.9154     | 2.9613     | 3.0072     |   2.7 |  0.21
Modify  | 20.816     | 28.392     | 35.968     | 142.2 |  2.02
Other   |            | 15.44      |            |       |  1.10

Nlocal:            300 ave         532 max          68 min
Histogram: 1 0 0 0 0 0 0 0 0 1
Nghost:          297.5 ave         527 max          68 min
Histogram: 1 0 0 0 0 0 0 0 0 1
Neighs:        58204.5 ave      111216 max        5193 min
Histogram: 1 0 0 0 0 0 0 0 0 1

Total # of neighbors = 116409
Ave neighs/atom = 194.015
Ave special neighs/atom = 1.9966667
Neighbor list builds = 9323
Dangerous builds = 0

# This simulation is done
# Move onto the next one
clear
  using 2 OpenMP thread(s) per MPI task
package omp 0
using multi-threaded neighbor list subroutines
next f
jump SELF

###
# Reference paper:
# K. Kremer and G. S. Grest
# Dynamics of entangled linear polymer melts: A molecular-dynamics simulation
# J Chem Phys 92, 5057 (1990)

##################################
# MIHIR: for branched polymers
# LJ minimum first to expand and explore, then collapse
###

###
# Looping through the various linear polymers to simulate,
# define variables to switch through
variable f index bb100nuc0bl0bn0d30tot100 bb200nuc0bl0bn0d30tot200 bb300nuc0bl0bn0d30tot300 bb400nuc0bl0bn0d30tot400 bb500nuc0bl0bn0d30tot500 bb600nuc0bl0bn0d30tot600 bb700nuc0bl0bn0d30tot700 bb800nuc0bl0bn0d30tot800 bb900nuc0bl0bn0d30tot900 bb1000nuc0bl0bn0d30tot1000 bb1100nuc0bl0bn0d30tot1100 bb1200nuc0bl0bn0d30tot1200
###


###
# Box and units  (use LJ units and periodic boundaries)
###

units lj
log linear/logs/$f.log
log linear/logs/bb700nuc0bl0bn0d30tot700.log
