#atom_style bond #no stiffness
atom_style angle #with stiffness

boundary        p p p
###
# Pair interactions require lists of neighbours to be calculated
###

#neighbor 0.3 bin
neighbor 4 bin

neigh_modify every 1 delay 1 check yes
atom_modify sort 0 0
### Generate RESTART file, SPECIAL format, not a .txt file ###
### Useful if simulation crashes ###

restart 1000000 linear/restarts/$f.restart
restart 1000000 linear/restarts/bb700nuc0bl0bn0d30tot700.restart
#############################



### READ "start" data file ###

read_data linear/$f.dat
read_data linear/bb700nuc0bl0bn0d30tot700.dat
Reading data file ...
  orthogonal box = (-1000 -1000 -1000) to (1000 1000 1000)
  1 by 1 by 2 MPI processor grid
  reading atoms ...
  700 atoms
  scanning bonds ...
  1 = max bonds/atom
  scanning angles ...
  1 = max angles/atom
  reading bonds ...
  699 bonds
  reading angles ...
  698 angles
Finding 1-2 1-3 1-4 neighbors ...
  special bond factors lj:    0        0        0       
  special bond factors coul:  0        0        0       
     2 = max # of 1-2 neighbors
     2 = max # of 1-3 neighbors
     4 = max # of 1-4 neighbors
     6 = max # of special neighbors
  special bonds CPU = 0.002 seconds
  read_data CPU = 0.081 seconds

######################

### READ "REstart" data file ###

######################



###
# Define groups (atom type 1 is group 'all')
###
group all type 1
700 atoms in group all


###
# Dump configs - "simple dumpings"
###

###
# Dump configs + box coords
###

dump   1   all   custom   1000  linear/trjs/$f.lammpstrj  id  x y z  ix iy iz
dump   1   all   custom   1000  linear/trjs/bb700nuc0bl0bn0d30tot700.lammpstrj  id  x y z  ix iy iz
dump_modify   1   format line "%d %.5f %.5f %.5f %d %d %d"

########################################################################


###################################################################
# Stiffness term
#
# E = K * (1+cos(theta)), K>0
#
angle_style   cosine
#change this coefficient to change stiffness (e.g. 1,5,10)
angle_coeff   1 1.0
###################################################################

###################################################################
# Pair interaction between non-bonded atoms
#
#  Lennard-Jones 12-6 potential with cutoff:
#  potential E=4epsilon[ (sigma/r)^12 - (sigma/r)^6]  for r<r_cut
#
#  1.12246 = 2^(1/6) is the minimum of the potential


pair_style      lj/cut 1.12246152962189
#pair_style      lj/cut 3

#
#  pair_modify shift yes adds a constant to the potential such

#  that E(r_cut)=0. Forces remains unchanged.
#

pair_modify     shift yes

#
#  pair_coeff for lj/cut, specify 4:
#    * atom type interacting with
#    * atom type
#    * epsilon (energy units)
#    * sigma (distance units)
#

pair_coeff      1 1 1.0 1.0
###################################################################

###################################################################
# Pair interaction between non-bonded atoms
#
#  soft potential, for PUSHING apart overlapping atoms
#  potential E=A*(1 + cos(pi*r/r_c))
#
#  1.12246 = 2^(1/6) is the cut-off r_c

#pair_style     soft 1.12246152962189

#
#  pair_coeff for soft, specify 3:
#    * atom type interacting with
#    * atom type
#    * A
#
#

#pair_coeff      1 1 100.0
###################################################################

###################################################################
# Pair interaction between bonded atoms
#
# Fene potential + Lennard Jones 12-6:

#
#  E= - 0.5 K R0^2 ln[ 1- (r/R0)^2]
#     + 4epsilon[ (sigma/r)^12 - (sigma/r)^6] + epsilon
#

bond_style   fene


#
# For style fene, specify:
#   * bond type
#   * K (energy/distance^2)
#   * R0 (distance)
#   * epsilon (energy)  (LJ component)
#   * sigma (distance)  (LJ component)
#


special_bonds fene #<=== I M P O R T A N T (new command)
Finding 1-2 1-3 1-4 neighbors ...
  special bond factors lj:    0        1        1       
  special bond factors coul:  0        1        1       
     2 = max # of 1-2 neighbors
     6 = max # of special neighbors
  special bonds CPU = 0.000 seconds

bond_coeff   1   30   2   1.0   1.0


###################################################

###################################################################
# Pair interaction between bonded atoms
#
# Harmonic potential:
#
#  E= K * (R-R0)^2
#

#bond_style   harmonic

#
# For style harmonic, specify:
#   * bond type
#   * K (energy/distance^2)
#   * R0 (distance)
#

#bond_coeff   1   60.0   1.0
#bond_coeff   2   harmonic 0.1   1.0

###################################################
compute 1 all gyration
variable rog equal c_1
#compute 2 all coord/atom cutoff 1.1

#dump 2 all custom 10000 contact_number.dump id c_2


###
# Set up fixes
###
thermo_style   custom   step  temp enthalpy c_1
fix 1 all nve   ###NVE ensemble

fix 2 all   langevin   1.0 1.0 1.0  100103   ###Langevin integrator Tstart Tstop 1/friction rndseed


##### Sample thermodynamic info  (temperature, energy, pressure, etc.) #####
thermo 1000









############################################################################

###
# set timestep of integrator

timestep 0.01

###
# run integration for a number of steps
###
#run 0
#variable r equal c_1
#if "$r < 63.1" then "quit 1"

# lj potential minimum, cause molecule to explore
run 100000
Generated 0 of 0 mixed pair_coeff terms from geometric mixing rule
Last active /omp style is angle_style cosine/omp
Neighbor list info ...
  update: every = 1 steps, delay = 1 steps, check = yes
  max neighbors/atom: 2000, page size: 100000
  master list distance cutoff = 5.1224615
  ghost atom cutoff = 5.1224615
  binsize = 2.5612308, bins = 781 781 781
  1 neighbor lists, perpetual/occasional/extra = 1 0 0
  (1) pair lj/cut/omp, perpetual
      attributes: half, newton on, omp
      pair build: half/bin/newton/omp
      stencil: half/bin/3d
      bin: standard
WARNING: Communication cutoff 5.12246152962189 is shorter than a bond length based estimate of 5.455. This may lead to errors. (src/comm.cpp:723)
Per MPI rank memory allocation (min/avg/max) = 939.6 | 940.2 | 940.8 Mbytes
   Step          Temp         Enthalpy         c_1      
         0   0              13.407172      175.00033    
      1000   0.97794164     17.969341      174.83205    
      2000   0.98895917     18.545621      174.68144    
      3000   0.97231049     18.452813      174.50867    
      4000   1.0260946      18.58616       174.39351    
      5000   1.0684679      18.997034      173.82272    
      6000   1.0303159      18.455608      173.70195    
      7000   1.0326416      19.135512      173.26916    
      8000   0.97403178     19.118444      172.82267    
      9000   1.0038586      18.771396      172.5771     
     10000   1.0217178      18.972644      172.42291    
     11000   1.0305746      19.051952      172.23393    
     12000   1.0264846      19.388929      172.08581    
     13000   0.96033642     18.944578      171.92961    
     14000   1.0069052      18.791008      171.93214    
     15000   1.0324658      19.318317      171.69825    
     16000   1.0188303      19.003596      171.19568    
     17000   1.0075546      19.320867      170.80108    
     18000   1.0063568      19.424933      170.25906    
     19000   0.988147       19.237126      170.31826    
     20000   0.98858423     19.052467      169.75728    
     21000   1.0062571      19.260799      169.6073     
     22000   1.0360688      18.893649      169.37088    
     23000   0.92328368     18.574618      169.15683    
     24000   0.95862894     19.441581      168.94102    
     25000   1.0074871      18.802128      168.73275    
     26000   1.023531       20.001429      168.55998    
     27000   0.96011898     18.928556      168.15117    
     28000   0.98767171     19.402811      168.00446    
     29000   0.9919013      19.372473      167.55347    
     30000   0.9759576      19.486253      167.16564    
     31000   1.027212       19.57443       166.93059    
     32000   1.0256982      19.323476      166.50883    
     33000   1.0189091      19.5132        165.96264    
     34000   0.9946647      19.133627      165.70694    
     35000   0.989801       18.897741      165.45059    
     36000   0.96288146     19.481358      165.16695    
     37000   1.0078256      19.109894      165.13726    
     38000   1.0326426      19.569896      164.83578    
     39000   1.0006249      19.680576      164.69009    
     40000   1.0097688      19.355129      164.38718    
     41000   0.95192654     19.897072      164.25806    
     42000   1.0757565      19.507961      164.45049    
     43000   0.95654688     19.05303       164.23525    
     44000   1.0535747      19.094172      163.9481     
     45000   1.0039697      19.704188      163.77722    
     46000   0.99472806     19.498981      163.6359     
     47000   1.0353437      19.549345      163.41917    
     48000   1.0354569      19.795635      163.30816    
     49000   1.0186968      19.017646      163.02746    
     50000   1.0159004      19.601079      162.65234    
     51000   0.97933702     19.802522      162.33089    
     52000   1.009355       19.368096      162.46396    
     53000   0.97884209     19.494878      162.42164    
     54000   1.017501       19.800739      162.1635     
     55000   0.96662803     19.281313      162.18468    
     56000   1.0035327      19.886252      162.09172    
     57000   0.95103378     19.408945      162.09534    
     58000   1.052874       19.304493      162.28832    
     59000   0.96782709     19.044868      162.0962     
     60000   0.99576519     19.50446       161.88817    
     61000   1.0057187      19.381008      162.00932    
     62000   1.0296622      19.340696      161.66331    
     63000   0.98652945     19.477708      161.45308    
     64000   0.97501235     19.429721      161.10072    
     65000   1.0032573      19.479514      161.03223    
     66000   0.98590505     19.507595      160.6769     
     67000   1.0014919      20.048509      160.40696    
     68000   0.97886947     19.418814      160.35173    
     69000   0.98469796     19.347936      160.19252    
     70000   1.0085096      19.141929      160.1407     
     71000   1.0126134      19.242096      159.80599    
     72000   0.99599315     19.336486      159.84989    
     73000   0.95189939     19.391038      159.70391    
     74000   1.0199286      19.681713      159.7859     
     75000   0.96217252     19.376414      159.78554    
     76000   1.0347122      19.881047      159.58805    
     77000   1.0511844      20.189034      159.4239     
     78000   0.99319508     19.558762      159.2559     
     79000   1.0017941      19.956414      158.7968     
     80000   1.0434038      19.751395      158.63163    
     81000   1.0403157      19.583371      158.2146     
     82000   0.96781104     20.06717       157.86514    
     83000   0.97664945     19.634961      157.34089    
     84000   0.99556596     19.633305      157.60315    
     85000   0.9813068      18.505344      157.60326    
     86000   1.0161746      19.84787       157.7043     
     87000   1.0479603      19.698564      157.5834     
     88000   1.002866       19.845676      157.35747    
     89000   0.9860242      20.13937       157.30677    
     90000   1.0208014      19.496393      157.22297    
     91000   1.0510957      20.09657       157.02007    
     92000   1.0000969      19.505638      156.9894     
     93000   1.0409739      19.237271      156.90032    
     94000   0.96367867     18.882388      156.86576    
     95000   1.0030688      19.63091       156.825      
     96000   1.0312645      19.873223      156.66186    
     97000   1.0157103      19.793977      156.34781    
     98000   1.0082483      19.052139      156.2811     
     99000   1.0002498      20.312723      156.17058    
    100000   1.0177971      19.895556      156.00257    
Loop time of 374.319 on 4 procs for 100000 steps with 700 atoms

Performance: 230819.267 tau/day, 267.152 timesteps/s
102.8% CPU use with 2 MPI tasks x 2 OpenMP threads

MPI task timing breakdown:
Section |  min time  |  avg time  |  max time  |%varavg| %total
---------------------------------------------------------------
Pair    | 0.70381    | 0.72133    | 0.73884    |   2.1 |  0.19
Bond    | 1.4059     | 1.5147     | 1.6234     |   8.8 |  0.40
Neigh   | 365.47     | 365.47     | 365.47     |   0.0 | 97.64
Comm    | 2.4537     | 2.4947     | 2.5357     |   2.6 |  0.67
Output  | 0.26841    | 0.27275    | 0.27709    |   0.8 |  0.07
Modify  | 2.5834     | 2.8765     | 3.1696     |  17.3 |  0.77
Other   |            | 0.9688     |            |       |  0.26

Nlocal:            350 ave         407 max         293 min
Histogram: 1 0 0 0 0 0 0 0 0 1
Nghost:            314 ave         366 max         262 min
Histogram: 1 0 0 0 0 0 0 0 0 1
Neighs:           1796 ave        1885 max        1707 min
Histogram: 1 0 0 0 0 0 0 0 0 1

Total # of neighbors = 3592
Ave neighs/atom = 5.1314286
Ave special neighs/atom = 1.9971429
Neighbor list builds = 1041
Dangerous builds = 0

# Replace lj potential, now collapse
pair_style      lj/cut 3

# Cutoff simul when gyration under 5
# Variable created with equal requires v_ + 'name'
fix 3 all halt 1000 v_rog < 5

run 5000000
Generated 0 of 0 mixed pair_coeff terms from geometric mixing rule
Last active /omp style is angle_style cosine/omp
Per MPI rank memory allocation (min/avg/max) = 939.6 | 940.2 | 940.8 Mbytes
   Step          Temp         Enthalpy         c_1      
    100000   1.0177971      19.398577      156.00257    
    101000   1.0695553      19.870395      155.86623    
    102000   0.9591671      18.614264      155.85777    
    103000   0.97965929     18.877832      155.91011    
    104000   0.97982859     19.424269      155.66871    
    105000   1.0161094      19.966752      155.37379    
    106000   1.0051606      19.434636      155.1878     
    107000   0.98897763     19.430753      155.22775    
    108000   0.96456174     19.330097      154.77984    
    109000   0.97365417     19.237005      154.44899    
    110000   0.96649746     18.865411      154.25687    
    111000   0.98941584     19.13938       154.11791    
    112000   1.0473779      19.5477        153.76835    
    113000   1.0021391      19.290379      153.69069    
    114000   1.0532218      19.049         153.73491    
    115000   1.0164487      19.178666      153.51391    
    116000   0.93510112     18.856316      153.26933    
    117000   1.0036783      19.341007      153.42508    
    118000   1.0077998      19.291505      153.20096    
    119000   1.004098       18.915118      152.9996     
    120000   0.94142233     18.739117      153.06545    
    121000   1.024007       18.844103      152.98411    
    122000   0.99959949     18.780917      152.6943     
    123000   0.95413038     19.240757      152.23601    
    124000   0.98671496     18.674435      152.22029    
    125000   0.98359473     19.379564      151.6531     
    126000   1.0815074      19.357929      151.36135    
    127000   1.004928       19.393415      151.02648    
    128000   1.0569543      19.828076      151.14208    
    129000   1.0112677      19.519372      150.98337    
    130000   1.029218       19.035449      150.73351    
    131000   0.99066592     19.252501      150.53236    
    132000   0.99901576     19.529924      150.42727    
    133000   1.0034499      19.273248      150.38397    
    134000   1.0699272      19.432984      150.12933    
    135000   1.0162325      19.536069      149.74734    
    136000   1.0152148      19.169102      149.40162    
    137000   0.9929556      19.050253      149.31418    
    138000   1.0132523      19.152908      148.94367    
    139000   0.96694042     18.925483      149.00227    
    140000   0.92659344     19.416791      148.76301    
    141000   1.0239484      18.911094      148.60566    
    142000   1.0209369      18.833859      148.29451    
    143000   0.97101065     19.294738      148.13561    
    144000   1.0210247      18.921809      148.20383    
    145000   1.0041928      19.275719      147.73138    
    146000   1.0193942      19.601471      147.5528     
    147000   0.98860193     18.448068      147.41374    
    148000   0.99919534     19.225147      147.12131    
    149000   0.98917033     19.38664       146.91432    
    150000   1.0014791      19.00039       146.96634    
    151000   0.96879143     18.861077      146.76651    
    152000   0.97136113     19.357498      146.67109    
    153000   0.97675631     18.984484      146.63233    
    154000   0.99394038     19.42609       146.28537    
    155000   1.0643654      19.265216      145.92071    
    156000   1.0046032      19.014549      145.63781    
    157000   0.95980306     19.149305      145.6445     
    158000   1.0863882      19.21773       145.36883    
    159000   0.96419837     19.887307      145.1157     
    160000   0.98918658     18.87184       145.16437    
    161000   1.0388962      19.212371      144.91274    
    162000   1.0135147      19.220784      144.6798     
    163000   1.0194423      19.681883      144.74405    
    164000   1.0116962      19.649878      144.61494    
    165000   0.98401913     18.646686      144.51973    
    166000   0.96545299     18.642681      144.40737    
    167000   1.0500882      19.24112       144.14009    
    168000   1.0291772      19.362186      143.60009    
    169000   1.0145913      19.008697      143.34802    
    170000   0.98484411     19.60362       143.23032    
    171000   1.0069758      19.218629      143.35984    
    172000   1.0145357      19.475653      143.29523    
    173000   0.98887665     19.355309      143.07239    
    174000   0.9816691      19.109805      143.08876    
    175000   1.020301       18.86272       142.91364    
    176000   1.0481908      19.756815      142.7198     
    177000   0.98491497     19.349497      142.68976    
    178000   0.93854135     18.650794      142.84331    
    179000   1.0112993      19.424368      142.91104    
    180000   0.99016713     18.657193      143.06532    
    181000   1.0227006      19.314696      142.87845    
    182000   1.0057235      19.683943      142.7232     
    183000   0.95456497     18.750691      142.70079    
    184000   1.0119246      19.28134       142.61196    
    185000   0.97255053     18.936321      142.57447    
    186000   0.98280905     19.364936      142.64684    
    187000   1.0084884      19.077205      142.35913    
    188000   1.1053299      19.581861      142.10678    
    189000   1.0122566      19.362324      141.9978     
    190000   0.99739582     19.675259      141.6941     
    191000   0.99077067     19.056062      141.44519    
    192000   0.98910923     19.06542       141.39486    
    193000   1.0490337      19.189861      141.16735    
    194000   0.96868748     18.993767      140.97659    
    195000   0.99723537     19.372828      140.84385    
    196000   0.93172981     19.193696      140.42869    
    197000   1.017188       19.366164      140.36698    
    198000   0.97785718     18.989556      140.39474    
    199000   1.0523995      19.431361      140.11576    
    200000   1.014304       19.149831      140.04286    
    201000   0.97049352     19.516475      140.26185    
    202000   1.0611244      19.35481       140.05368    
    203000   1.0177284      18.962866      139.84236    
    204000   0.9604537      18.877638      139.38072    
    205000   1.0088112      19.156465      139.08837    
    206000   1.0684753      19.449714      138.91136    
    207000   0.97796477     18.825813      138.76156    
    208000   0.99794268     19.203633      138.77442    
    209000   1.0267086      19.515962      138.55695    
    210000   0.99322784     19.401914      138.15606    
    211000   0.99005097     18.948268      137.73955    
    212000   0.95776164     18.55744       137.79496    
    213000   1.024667       20.459263      137.62099    
    214000   0.98218758     19.207579      137.33125    
    215000   1.0458691      19.344439      137.18954    
    216000   1.0061633      19.103409      136.96391    
    217000   0.97038014     19.247583      136.90774    
    218000   1.0309639      18.768054      136.45928    
    219000   0.9531172      19.157821      136.21797    
    220000   1.0160592      19.912516      136.19853    
    221000   1.0440603      19.081475      136.14039    
    222000   0.9808783      19.115812      135.80777    
    223000   1.0373445      19.151194      135.48833    
    224000   1.0019863      18.964355      135.06109    
    225000   0.9819483      19.461042      134.72077    
    226000   1.0411791      19.589981      134.56986    
    227000   0.99028203     18.976572      134.43261    
    228000   0.98408756     19.607378      134.33512    
    229000   0.96371982     18.762534      134.12332    
    230000   0.97649313     19.281634      133.9525     
    231000   0.99606255     19.526201      133.88359    
    232000   1.070258       19.29882       133.80466    
    233000   1.0113293      19.15844       133.29212    
    234000   0.9788993      19.386969      133.45371    
    235000   0.95784204     19.322888      133.59158    
    236000   0.98217408     19.345118      133.22635    
    237000   1.0337367      18.947805      132.80137    
    238000   0.99604619     19.398934      132.77207    
    239000   1.0367058      19.309422      132.72611    
    240000   1.0004906      18.949517      132.67172    
    241000   0.94487111     18.371842      132.74613    
    242000   0.89580083     19.49591       132.6808     
    243000   0.96535012     18.925244      132.31939    
    244000   1.0477694      19.546331      131.87375    
    245000   0.95844788     18.669294      131.76055    
    246000   1.0380295      19.613079      131.80295    
    247000   1.0241366      20.118951      131.50563    
    248000   1.0162695      19.421447      131.47851    
    249000   0.99207973     18.752068      131.14166    
    250000   1.0137683      18.966467      131.23854    
    251000   0.99961307     19.335998      130.98454    
    252000   0.98632519     19.063513      130.71934    
    253000   0.99150349     19.133364      130.3723     
    254000   1.0459192      19.542846      130.34523    
    255000   0.95871604     18.85706       130.37959    
    256000   0.99657871     18.974331      130.16755    
    257000   0.99797213     19.468147      130.07648    
    258000   0.99185636     19.13502       130.34422    
    259000   1.0158058      19.392374      130.20285    
    260000   1.0380316      19.346901      130.01104    
    261000   1.0032521      19.230182      129.85213    
    262000   1.0342432      19.142039      129.81128    
    263000   0.99210126     19.200364      129.57255    
    264000   0.97650633     18.83757       129.52758    
    265000   1.0322723      18.710091      129.57166    
    266000   1.0177246      19.345853      129.44719    
    267000   0.96811955     18.773682      129.23745    
    268000   1.0369599      18.672499      129.19203    
    269000   1.0099652      19.732928      129.16087    
    270000   1.0011016      18.810685      129.02731    
    271000   1.0243946      18.946412      128.82512    
    272000   1.0282093      19.243737      128.76945    
    273000   1.0230583      18.583653      128.87235    
    274000   1.0241506      18.373026      128.59834    
    275000   1.0644434      19.152105      128.41212    
    276000   0.97475758     18.73087       128.09808    
    277000   0.99483108     19.210049      128.03724    
    278000   1.0917978      18.619554      127.69215    
    279000   0.97384159     18.928773      127.16397    
    280000   0.94286054     18.83293       127.25135    
    281000   1.0018569      19.173666      127.20516    
    282000   1.0163967      19.098391      126.93596    
    283000   1.0476959      19.383278      126.66838    
    284000   0.96709357     19.024294      126.61463    
    285000   1.0607793      18.448757      126.3319     
    286000   1.0246337      19.270813      126.21519    
    287000   1.0344167      18.426537      126.14598    
    288000   1.0055236      19.009073      126.04849    
    289000   1.00822        19.136468      125.95689    
    290000   1.0274013      19.038864      125.84628    
    291000   1.0199389      18.833635      125.52193    
    292000   1.0205457      19.509402      125.18226    
    293000   1.0360146      19.140374      125.07306    
    294000   1.0042177      18.955706      124.5302     
    295000   1.0334786      19.104714      124.29944    
    296000   0.99347765     19.860765      124.20592    
    297000   1.0078043      18.80223       124.36624    
    298000   0.98817832     18.884582      124.17577    
    299000   0.98738621     19.56937       124.21639    
    300000   1.0334331      19.084085      124.1038     
    301000   1.0305041      19.026438      124.08508    
    302000   1.0304721      18.575759      123.9328     
    303000   1.0125128      18.958944      123.92521    
    304000   1.0377937      18.519078      123.94886    
    305000   0.98123648     19.1865        123.8733     
    306000   0.94594365     19.133574      123.86843    
    307000   1.033599       19.542027      123.35219    
    308000   1.0051241      18.546336      123.2238     
    309000   1.0383064      19.211671      123.31661    
    310000   0.99963942     19.167841      123.31248    
    311000   0.98188089     19.05221       123.49035    
    312000   0.9643464      19.271378      123.53419    
    313000   1.0387017      18.639007      123.49805    
    314000   0.99165395     18.828297      123.60402    
    315000   0.97771197     18.777336      123.42248    
    316000   0.98728549     18.713632      123.34961    
    317000   1.0046462      18.535005      123.01796    
    318000   1.0029731      19.17999       123.11694    
    319000   0.92933155     18.391503      123.05501    
    320000   1.0131686      19.215044      123.05938    
    321000   1.0105567      18.406117      123.03666    
    322000   0.95773897     19.225402      122.95595    
    323000   1.0139405      18.570162      123.01435    
    324000   1.0420616      18.969035      122.93217    
    325000   0.97214879     18.622255      122.54055    
    326000   1.0263607      19.099208      122.48617    
    327000   0.96744288     19.085519      122.48901    
    328000   1.0381342      19.234325      122.64079    
    329000   1.0776958      18.954624      122.29298    
    330000   0.95393258     18.805175      122.04887    
    331000   1.027998       19.320014      121.90367    
    332000   0.99730633     19.685863      121.80245    
    333000   0.98917543     19.29718       121.56567    
    334000   0.9874997      18.298015      121.40354    
    335000   0.98272103     19.696029      121.14115    
    336000   1.0161506      19.259417      121.01928    
    337000   0.98497214     18.752889      120.86557    
    338000   1.0639822      18.199856      120.61537    
    339000   1.0077707      18.778387      120.59451    
    340000   0.98192641     18.997289      120.23212    
    341000   1.0556217      19.148994      119.89446    
    342000   0.98191674     18.557688      119.64626    
    343000   1.00048        18.652694      119.81777    
    344000   0.96274421     18.436828      119.57093    
    345000   0.96013107     19.287626      119.57878    
    346000   0.98784981     19.261687      119.45482    
    347000   0.98509376     18.320521      119.70372    
    348000   0.97515719     19.067834      119.30166    
    349000   1.0221705      19.861351      119.09778    
    350000   1.0040562      18.748758      118.90514    
    351000   0.95221119     18.920184      118.96457    
    352000   1.0053399      18.997232      118.83484    
    353000   0.98151635     18.671495      118.68824    
    354000   0.98024029     18.484207      118.32731    
    355000   1.0169024      18.795735      118.09753    
    356000   0.98729608     19.047284      118.17206    
    357000   1.0542565      18.687606      118.1851     
    358000   0.99457939     18.580516      118.33456    
    359000   1.0118621      19.411322      117.98388    
    360000   1.0281774      18.588608      117.72961    
    361000   1.0674229      18.706149      117.65031    
    362000   0.94998996     19.186068      117.48239    
    363000   0.99493315     18.542936      117.66671    
    364000   1.0544956      18.214099      117.72325    
    365000   0.96714402     19.097512      117.58025    
    366000   1.0020116      18.893681      117.45434    
    367000   0.99534926     19.014849      117.30712    
    368000   0.96386859     18.43528       117.09613    
    369000   1.0055535      18.685003      117.33638    
    370000   0.97779411     18.916218      117.16308    
    371000   0.97789318     18.780166      116.89181    
    372000   1.0329484      18.752492      116.88751    
    373000   1.038583       19.109796      116.81387    
    374000   1.016001       19.487104      116.68793    
    375000   1.0062524      18.818448      116.73374    
    376000   0.99325495     19.272208      116.57       
    377000   0.9847076      18.090573      116.66841    
    378000   0.99150186     18.876109      116.55288    
    379000   1.0116657      18.795738      116.44999    
    380000   1.0062148      19.288193      116.30792    
    381000   1.0021677      18.386102      115.82683    
    382000   0.96035661     18.987714      115.60777    
    383000   1.0009669      19.441242      115.5536     
    384000   0.99188283     18.556909      115.67443    
    385000   1.0038165      18.57681       115.69297    
    386000   0.96489284     18.069233      115.71625    
    387000   0.94210048     19.097144      115.50423    
    388000   0.99913792     18.522708      115.64868    
    389000   0.99636791     19.151968      115.50965    
    390000   1.0830374      18.838168      115.2774     
    391000   0.9560171      18.567076      115.11185    
    392000   1.0469226      18.548693      115.09675    
    393000   0.94055907     18.352178      114.80958    
    394000   1.0323379      19.196653      114.45816    
    395000   0.96864001     19.775675      114.41022    
    396000   0.96630595     18.56409       114.34306    
    397000   1.0543473      18.335083      114.13749    
    398000   0.99567595     18.995145      114.06647    
    399000   1.0126155      18.336871      113.92685    
    400000   0.99783989     18.810074      113.84421    
    401000   1.051989       18.609688      113.88697    
    402000   0.98446784     18.647377      113.59502    
    403000   0.99561734     18.804027      113.31401    
    404000   1.0307165      18.981421      113.04115    
    405000   0.95661867     18.88009       113.13809    
    406000   0.96986119     19.122907      113.16328    
    407000   0.95191921     18.565444      113.1088     
    408000   0.96896017     18.604466      113.00009    
    409000   0.96109342     18.558354      113.12946    
    410000   0.95315195     18.745215      113.03233    
    411000   1.0186474      18.988234      113.12935    
    412000   0.99340833     18.91623       113.04901    
    413000   1.0179178      18.288691      113.08463    
    414000   1.044645       18.892703      113.37664    
    415000   1.0309679      19.203828      113.04025    
    416000   0.98595039     19.089318      112.92749    
    417000   1.0413149      18.979252      112.70133    
    418000   1.0206235      19.033401      112.47758    
    419000   0.98587699     18.665525      112.63671    
    420000   1.034566       18.909103      112.50695    
    421000   1.035134       18.542631      112.51775    
    422000   0.99151365     19.359424      112.5149     
    423000   1.026735       19.550479      112.38768    
    424000   1.0020977      19.082285      112.31053    
    425000   0.97798611     18.229403      112.33727    
    426000   0.99024819     19.136932      112.1199     
    427000   1.0010598      18.824318      112.00923    
    428000   0.9950974      18.705546      112.03891    
    429000   1.0007879      18.652013      111.75656    
    430000   1.0239471      18.804031      111.68489    
    431000   1.0849254      19.121628      111.80753    
    432000   0.92188278     18.453821      111.79066    
    433000   1.0091737      19.070882      111.83099    
    434000   1.039958       18.920762      111.62391    
    435000   1.0260852      19.244367      111.50932    
    436000   0.98802198     18.441509      111.38292    
    437000   0.98721282     18.270722      111.56863    
    438000   0.98802948     19.190358      111.55324    
    439000   1.0401486      19.355159      111.2818     
    440000   1.0547921      18.762079      111.24784    
    441000   0.96601537     18.303453      111.29407    
    442000   0.98482996     18.382217      111.26166    
    443000   0.93445174     18.546895      111.18977    
    444000   1.0001361      18.772488      110.90069    
    445000   1.0183042      19.560278      110.96632    
    446000   0.98283066     18.396187      110.62219    
    447000   0.96945446     18.570865      110.36846    
    448000   0.99963837     19.302789      110.11582    
    449000   1.0267838      18.136528      109.9733     
    450000   1.028533       18.487366      109.67522    
    451000   1.0226551      19.104295      109.7056     
    452000   1.0699211      18.623007      109.52924    
    453000   1.0288597      19.074253      109.07001    
    454000   0.95701956     18.093473      109.19352    
    455000   0.95820699     18.410667      108.95526    
    456000   1.0082862      18.831525      108.83426    
    457000   0.97202025     18.071208      108.80113    
    458000   1.0420179      18.361532      108.76883    
    459000   1.008266       19.232466      108.54414    
    460000   0.98244611     18.243682      108.44868    
    461000   0.98166344     18.449713      108.35673    
    462000   0.95678131     18.447091      108.14763    
    463000   1.0330875      19.640221      107.94686    
    464000   1.01855        18.664938      108.12275    
    465000   1.0333725      18.333047      107.81885    
    466000   0.92845531     18.153602      107.69237    
    467000   0.98655624     18.628126      107.64805    
    468000   0.9946224      18.693184      107.66011    
    469000   1.0094121      18.599065      107.7574     
    470000   1.0292004      19.107334      107.35085    
    471000   0.99903461     19.147298      107.32573    
    472000   0.97501136     18.458787      106.87858    
    473000   1.0574524      19.237496      106.83416    
    474000   0.97852191     18.517508      107.06219    
    475000   1.0020368      18.509116      107.17878    
    476000   0.9765587      18.503722      107.05054    
    477000   1.0065041      18.469716      107.28097    
    478000   0.97598845     18.391998      107.1969     
    479000   0.92714792     18.318041      106.98976    
    480000   1.0352412      18.922504      107.11522    
    481000   1.0289392      17.983059      107.21954    
    482000   1.0379605      19.221218      106.84788    
    483000   1.0126515      18.301965      106.69368    
    484000   0.99709573     19.082383      106.62235    
    485000   0.9573395      18.751041      106.47663    
    486000   1.0217401      18.34538       106.53741    
    487000   1.02015        18.755768      106.53919    
    488000   0.99218064     18.487302      106.39639    
    489000   1.0119996      18.758556      106.36961    
    490000   1.0177253      18.928621      106.11399    
    491000   1.0433208      19.133507      105.87611    
    492000   0.99884674     18.537125      105.78649    
    493000   1.0258024      18.043509      105.50702    
    494000   0.93771821     18.840588      105.36408    
    495000   1.0013969      18.623251      105.21963    
    496000   1.0007948      18.905634      104.99853    
    497000   0.95196363     18.108476      104.65085    
    498000   0.99877284     18.706016      104.34503    
    499000   0.9448304      18.311849      104.49029    
    500000   1.0146719      18.738047      104.3157     
    501000   1.0232271      18.227637      104.40655    
    502000   1.0061405      18.307051      104.21692    
    503000   0.9749376      18.596653      103.98874    
    504000   0.99615453     18.469363      104.11536    
    505000   0.98544739     18.277632      104.23997    
    506000   1.0234095      18.946449      104.28453    
    507000   0.9518971      17.986767      103.96266    
    508000   0.99213733     18.265508      103.98588    
    509000   1.0280978      18.776439      103.89562    
    510000   0.96240464     18.324707      103.57786    
    511000   1.0789174      19.645989      103.48918    
    512000   0.9925081      17.961212      103.28263    
    513000   0.98306701     18.539201      102.96066    
    514000   0.975122       18.222215      102.78529    
    515000   1.0364311      17.782287      102.71884    
    516000   1.0031199      18.489292      102.61133    
    517000   1.0617729      18.587616      102.24016    
    518000   1.0185262      18.790042      102.17538    
    519000   0.99658714     18.319709      101.84463    
    520000   0.96352683     18.547214      101.75459    
    521000   0.97104193     18.301899      101.71924    
    522000   0.9824084      18.577523      101.65432    
    523000   0.97369782     18.740952      101.37005    
    524000   1.0106759      19.054195      101.42554    
    525000   1.0073373      18.000141      101.47409    
    526000   1.053187       18.773728      101.3377     
    527000   0.99183778     18.440937      101.36436    
    528000   0.95987943     18.720498      100.91511    
    529000   1.0165245      18.499451      100.93194    
    530000   1.0140688      18.264031      101.01236    
    531000   1.0019572      18.874659      100.83026    
    532000   1.0321597      19.166086      100.50075    
    533000   1.0447947      19.276335      100.14546    
    534000   1.0118463      18.640602      99.763119    
    535000   1.0369935      17.9753        99.935165    
    536000   0.98294251     18.729221      99.740224    
    537000   0.99876061     18.302919      99.431225    
    538000   0.9697109      18.697528      99.790791    
    539000   1.0097841      19.078657      100.02486    
    540000   1.0558487      18.712987      99.951937    
    541000   0.97565271     17.996806      99.891605    
    542000   0.99619935     18.482835      99.723999    
    543000   1.001062       19.370844      99.670649    
    544000   1.0507227      18.811062      99.54025     
    545000   0.99674189     18.448551      99.591447    
    546000   0.99010142     18.671217      99.605288    
    547000   0.99934342     19.073086      99.561817    
    548000   0.97756757     18.417411      99.318245    
    549000   0.99012524     18.084271      99.088847    
    550000   0.93481879     18.831878      98.858188    
    551000   1.0002243      17.615487      98.819909    
    552000   0.9600306      18.001279      98.756095    
    553000   1.0009947      17.87447       98.385162    
    554000   1.0788683      18.479725      98.457307    
    555000   0.98584089     17.978232      98.15298     
    556000   1.0202885      18.17094       97.730695    
    557000   0.99931601     18.243253      97.76305     
    558000   1.0258917      17.784505      97.92073     
    559000   1.0398199      18.32469       97.647287    
    560000   0.98160315     18.838115      97.668952    
    561000   1.0226606      18.482844      97.512889    
    562000   0.95809642     18.765457      97.591249    
    563000   1.0561722      18.824557      97.520656    
    564000   1.00601        18.437201      97.306408    
    565000   1.029772       18.744411      97.038951    
    566000   0.97882353     18.438037      97.261039    
    567000   0.99199582     18.419757      97.472093    
    568000   1.0249557      18.369575      97.439691    
    569000   0.99839835     18.53274       97.337999    
    570000   1.0048414      18.374079      97.549403    
    571000   0.96361397     18.845818      97.554606    
    572000   1.0172377      18.015155      97.437645    
    573000   1.0185059      17.796375      97.616363    
    574000   1.0138565      18.738736      97.844766    
    575000   1.0096722      17.717055      97.731114    
    576000   0.97711989     18.694347      97.422157    
    577000   1.0418772      18.622823      97.577675    
    578000   0.99076056     18.354703      97.452809    
    579000   0.99228861     18.458407      97.283972    
    580000   0.96802926     17.800404      97.130773    
    581000   1.0714623      18.552671      97.046629    
    582000   0.94995116     18.602867      97.140667    
    583000   1.0077008      18.757635      97.224278    
    584000   1.041          18.771238      97.000702    
    585000   1.0565606      18.241238      97.153111    
    586000   1.0034688      18.797667      96.994799    
    587000   0.99746532     18.930208      96.594633    
    588000   0.96832699     18.819496      96.72518     
    589000   1.0195758      18.061429      96.650785    
    590000   1.0060541      17.868749      96.673326    
    591000   0.95514417     17.596859      96.595058    
    592000   1.0391532      18.630383      96.413806    
    593000   0.96820895     19.154046      96.460873    
    594000   1.0333873      19.271633      96.312847    
    595000   1.0172376      18.254283      96.166424    
    596000   1.0063403      18.344188      96.072897    
    597000   0.98871823     18.447212      95.990084    
    598000   1.0027023      18.24545       95.72371     
    599000   0.96426304     18.513844      95.822109    
    600000   1.0056997      18.730858      95.932226    
    601000   1.0262486      18.738306      95.899844    
    602000   0.94724804     18.172922      95.912563    
    603000   1.0238706      18.412207      95.639063    
    604000   1.0254744      18.587827      95.644061    
    605000   1.0156068      18.439765      95.721101    
    606000   1.0094555      18.186932      95.387649    
    607000   1.0411489      18.632861      95.216242    
    608000   0.98605007     17.952176      94.952667    
    609000   1.0431032      19.476741      94.825171    
    610000   1.0252944      18.516146      94.676392    
    611000   0.95777952     18.532068      94.540607    
    612000   1.0147456      18.089222      94.328937    
    613000   1.010417       18.144404      94.210238    
    614000   0.97330005     17.26499       93.937985    
    615000   0.99708831     18.107714      93.87009     
    616000   1.0245295      18.238198      93.488085    
    617000   1.0639656      18.538448      93.608938    
    618000   1.0529896      18.762625      93.49516     
    619000   1.0104153      18.293439      93.227539    
    620000   1.0168018      18.410941      93.181924    
    621000   1.0050158      18.324536      93.322958    
    622000   0.99819441     18.404411      93.149637    
    623000   0.9886528      18.417497      93.082414    
    624000   1.0484351      18.350932      93.01033     
    625000   0.97588149     18.088104      92.951246    
    626000   1.0044632      19.097438      92.958473    
    627000   0.97706891     18.320564      92.714682    
    628000   0.95008435     18.224043      92.323854    
    629000   0.99388512     18.360033      92.095641    
    630000   0.97463173     18.289507      92.195441    
    631000   1.0099407      18.173284      92.031171    
    632000   0.94477355     18.814066      92.307801    
    633000   1.0271263      18.466055      92.263399    
    634000   1.0353057      17.870829      91.947009    
    635000   1.0050311      18.659571      91.600041    
    636000   1.0457668      18.703362      91.364981    
    637000   0.98910329     18.300537      91.437288    
    638000   1.0375618      18.031646      91.41164     
    639000   0.98472403     18.210656      91.329052    
    640000   0.98898662     18.724731      91.19143     
    641000   0.99781556     18.701219      90.867512    
    642000   0.99880851     17.908463      90.558712    
    643000   1.0516567      19.114144      90.290163    
    644000   1.0372969      18.655123      90.000412    
    645000   1.0040659      18.363953      89.760656    
    646000   1.0748366      19.02825       89.64252     
    647000   0.97789292     17.807228      89.405526    
    648000   1.0058165      17.826659      89.415213    
    649000   0.97488152     18.138513      89.072087    
    650000   1.0065272      17.946056      89.215481    
    651000   1.0027148      18.081447      88.991875    
    652000   0.98601561     18.524942      89.061435    
    653000   1.0416983      18.365344      88.913529    
    654000   0.98077954     17.743349      88.778037    
    655000   0.99357077     18.378626      88.747716    
    656000   0.95661036     18.489124      88.499738    
    657000   0.97242803     18.777664      88.183192    
    658000   1.0072489      18.452998      88.184459    
    659000   1.0122579      19.030531      87.900499    
    660000   1.0109636      18.507265      87.626561    
    661000   0.96895351     18.19542       87.902512    
    662000   1.008049       18.83344       87.955161    
    663000   1.0048517      18.471272      87.778503    
    664000   1.0473578      18.09963       87.662007    
    665000   0.96523957     18.209087      87.605521    
    666000   1.026946       18.348261      87.308156    
    667000   1.0124266      18.354125      86.96204     
    668000   1.0369078      17.966468      86.843463    
    669000   1.0675767      18.436196      86.741077    
    670000   0.99515435     18.911175      86.595974    
    671000   0.99933792     18.709938      86.445561    
    672000   1.0309024      18.10929       86.514522    
    673000   0.97811634     18.758602      86.328373    
    674000   1.0231565      18.031737      86.043561    
    675000   0.98377977     18.236595      86.070682    
    676000   1.0455753      18.056872      86.29052     
    677000   0.98614081     18.770681      86.158416    
    678000   1.0263802      18.39383       86.296637    
    679000   1.0309262      18.314985      86.263387    
    680000   1.0200084      18.486848      86.316649    
    681000   1.0248958      18.021253      86.288818    
    682000   1.0178096      18.501865      85.983056    
    683000   1.0058818      18.78646       85.822543    
    684000   0.95306082     17.902617      85.718908    
    685000   1.0344543      18.447422      85.972112    
    686000   0.99195855     18.379874      85.740747    
    687000   0.99111701     18.372398      85.54983     
    688000   1.0113623      18.005915      85.464815    
    689000   0.9928452      18.519761      85.486182    
    690000   0.93505898     18.055079      85.355982    
    691000   0.96757664     18.609457      85.170168    
    692000   0.99871515     18.281917      85.064558    
    693000   1.0028811      18.338256      84.84563     
    694000   1.0097484      18.262106      84.723871    
    695000   1.0139597      19.199318      84.665454    
    696000   0.97951324     17.923845      84.586098    
    697000   0.93434239     18.011722      84.253284    
    698000   1.0057321      18.107431      84.205469    
    699000   0.98348214     18.237816      84.29949     
    700000   1.0030849      18.29998       84.088581    
    701000   1.0030315      18.290188      84.010985    
    702000   1.0094096      18.071166      84.151321    
    703000   0.98332978     18.056383      84.072256    
    704000   0.99468892     18.460755      83.83069     
    705000   0.98818079     18.723966      83.598076    
    706000   1.0026131      17.925498      83.455236    
    707000   0.99487084     18.495187      83.209602    
    708000   0.9993117      18.506913      82.92524     
    709000   1.0314347      18.506546      82.782087    
    710000   0.98188428     17.869483      82.852177    
    711000   1.0415673      18.760224      82.691543    
    712000   1.0131655      18.028583      82.8763      
    713000   1.1055869      18.985917      82.610717    
    714000   1.0448306      18.556453      82.640175    
    715000   0.95581197     18.965987      82.354755    
    716000   0.98457858     18.426026      82.589921    
    717000   0.97792385     18.518658      82.559546    
    718000   0.95570295     18.519662      82.831571    
    719000   0.94965966     17.912354      82.724448    
    720000   1.0228385      18.33783       82.652862    
    721000   1.0337996      17.993434      82.641273    
    722000   1.0093225      18.168196      82.482055    
    723000   0.98319045     18.056422      82.518987    
    724000   1.0585422      17.86282       82.466731    
    725000   0.99535324     18.010317      82.177235    
    726000   1.0095233      18.307228      81.984296    
    727000   0.9873895      18.447273      81.817824    
    728000   0.94244285     18.271787      81.568127    
    729000   0.97796967     17.806503      81.158172    
    730000   1.0132959      17.926739      81.126997    
    731000   0.98004633     18.469542      81.117201    
    732000   0.9143868      17.714767      80.899036    
    733000   1.02776        18.213125      80.776404    
    734000   1.0464118      18.359392      80.44439     
    735000   0.94456697     18.160816      80.421371    
    736000   0.99998887     18.429319      80.396813    
    737000   1.0008254      18.650689      80.139629    
    738000   0.98105999     17.531253      79.866065    
    739000   0.96615435     18.426932      80.056923    
    740000   1.0575902      18.254933      79.896675    
    741000   1.0031653      18.274128      80.075129    
    742000   1.0314225      18.050444      80.158374    
    743000   0.99207204     18.353034      79.916296    
    744000   1.0096692      18.101589      79.697176    
    745000   1.0164023      17.929078      79.600947    
    746000   0.9445553      18.398311      79.637001    
    747000   0.98445172     17.976978      79.541439    
    748000   0.94810665     18.190906      79.496786    
    749000   1.0135504      18.218086      79.292122    
    750000   0.99994947     17.661199      79.326899    
    751000   1.0014994      17.661323      79.145567    
    752000   1.0169221      18.146943      79.203415    
    753000   0.9699017      18.681717      79.053346    
    754000   0.98312495     17.726404      79.110075    
    755000   0.94440375     18.215549      79.108808    
    756000   0.97346821     18.494282      78.89494     
    757000   1.0114003      18.716739      78.825445    
    758000   0.99877929     18.221904      78.853039    
    759000   1.0004622      18.143173      78.960013    
    760000   0.99836485     18.12142       78.829858    
    761000   0.97408616     17.583946      78.643465    
    762000   1.0142069      18.159421      78.467651    
    763000   1.0057049      18.152049      78.345131    
    764000   1.0004042      18.614295      78.071913    
    765000   0.9505833      18.03973       77.553471    
    766000   0.99731995     18.141071      77.219426    
    767000   1.0190998      18.095885      76.884859    
    768000   1.0208805      18.247623      76.584032    
    769000   1.0131661      18.325924      76.375523    
    770000   0.94854688     18.586866      76.566062    
    771000   0.98186476     17.790687      76.554781    
    772000   0.95503804     17.747598      76.704982    
    773000   0.95914299     18.13759       76.576872    
    774000   0.97202368     18.026951      76.22747     
    775000   0.98998997     18.84988       75.904987    
    776000   0.9601036      17.920314      75.892393    
    777000   1.0321688      18.521419      75.738318    
    778000   0.95358424     17.877029      75.519108    
    779000   1.0039743      18.45881       75.572562    
    780000   0.9405778      18.416294      75.184904    
    781000   0.97232177     17.864245      74.980599    
    782000   0.98545399     18.097337      74.62109     
    783000   1.0215013      17.730308      74.07049     
    784000   0.9749483      17.966153      74.094868    
    785000   0.95911942     17.816204      74.109694    
    786000   1.0488922      17.603371      74.284692    
    787000   0.98443906     18.213921      74.097101    
    788000   0.97588876     18.300779      73.728444    
    789000   0.99800964     17.272972      73.739042    
    790000   1.0240993      18.035982      73.723215    
    791000   0.95347858     18.066464      73.686828    
    792000   0.98516046     18.671349      73.448362    
    793000   1.01176        18.177736      73.445781    
    794000   1.0085696      17.227833      73.360528    
    795000   1.0264699      18.179712      73.793191    
    796000   1.0580929      18.814066      73.825329    
    797000   1.0482659      18.669687      73.885539    
    798000   1.0207449      17.85899       73.794781    
    799000   0.99798932     18.097112      73.836171    
    800000   0.94781738     17.382283      74.03465     
    801000   0.98939969     17.817208      73.666793    
    802000   1.0032197      18.199755      73.494734    
    803000   1.001507       17.88439       73.43076     
    804000   1.017524       18.234416      73.556731    
    805000   0.97716837     17.944354      73.262436    
    806000   1.0151825      17.698062      73.246895    
    807000   1.0738129      18.198407      73.341408    
    808000   1.0022858      17.287995      73.451348    
    809000   0.95277059     18.056261      73.272434    
    810000   0.94784464     17.279382      73.343239    
    811000   0.97172494     18.092024      72.979454    
    812000   1.0790962      18.068045      72.890964    
    813000   0.9384658      17.510519      72.941062    
    814000   0.9940765      17.993609      72.837699    
    815000   1.0102422      18.1424        72.637824    
    816000   0.98775436     18.161516      72.365874    
    817000   1.0077978      18.039276      71.932242    
    818000   0.94901215     18.324703      71.697646    
    819000   0.98120777     18.115487      71.54027     
    820000   1.0603158      17.950653      71.385069    
    821000   0.97518646     17.885735      71.461956    
    822000   1.0074609      17.739585      71.261373    
    823000   0.93998562     17.597241      71.125278    
    824000   1.0077877      17.829855      71.0421      
    825000   1.0044982      17.559734      70.975897    
    826000   1.0528103      18.028182      70.944179    
    827000   1.0160039      18.150799      70.993816    
    828000   0.95177531     18.679385      71.070657    
    829000   0.95770635     18.160454      71.005049    
    830000   1.0411679      17.636267      70.681848    
    831000   1.0130172      17.339959      70.315804    
    832000   1.010995       17.642541      70.058518    
    833000   1.0474616      18.279507      69.786788    
    834000   0.96609753     17.513321      69.743868    
    835000   0.95986304     17.955101      69.689776    
    836000   1.0038466      17.826077      69.31534     
    837000   1.0581879      17.682739      69.298453    
    838000   1.0611613      18.616961      69.339043    
    839000   1.0095244      18.762624      69.210996    
    840000   0.92714084     17.905609      68.851692    
    841000   1.0232299      18.543171      68.570587    
    842000   0.97712467     17.734621      68.368281    
    843000   1.0387826      18.610096      68.16321     
    844000   0.99046309     17.862908      67.992472    
    845000   1.0413109      18.268103      67.908818    
    846000   1.0147854      17.822363      67.619591    
    847000   1.0116721      17.362321      67.824905    
    848000   0.95303772     18.242641      67.841124    
    849000   1.0456391      17.766265      67.784221    
    850000   1.0612929      17.902848      67.686867    
    851000   1.0317889      17.890466      67.46777     
    852000   1.0053332      17.791286      67.250581    
    853000   1.0195622      18.62935       67.177865    
    854000   1.0132589      18.106565      67.217663    
    855000   1.0390034      18.1425        67.190377    
    856000   1.0106733      17.645678      66.982489    
    857000   0.94569735     17.351911      66.88018     
    858000   1.0083158      18.055897      66.575366    
    859000   0.95439366     17.92934       66.266052    
    860000   0.98027693     18.076017      66.323505    
    861000   1.0325087      19.010037      65.830983    
    862000   1.0327156      18.962232      65.846916    
    863000   1.0087872      18.579699      65.653983    
    864000   0.96509057     17.708164      65.350318    
    865000   1.0203425      18.263838      64.952409    
    866000   1.013047       18.613839      64.846864    
    867000   0.99757638     17.786516      64.81002     
    868000   1.0200561      18.282225      64.539618    
    869000   0.94621985     17.506139      64.185037    
    870000   0.98489234     18.226151      64.301093    
    871000   1.0202564      17.989502      64.09978     
    872000   1.0349323      18.305772      64.121244    
    873000   1.0311565      18.013364      64.303071    
    874000   1.0327856      18.196748      64.241601    
    875000   1.0104993      18.098057      64.211848    
    876000   0.99128793     18.403279      64.326186    
    877000   1.017993       18.276354      64.419209    
    878000   1.0126369      18.471368      64.270201    
    879000   0.94564295     17.908815      64.021839    
    880000   1.0786272      17.533995      63.887287    
    881000   1.0082381      18.568294      63.591106    
    882000   1.0158064      17.965799      63.324537    
    883000   1.0045578      17.874444      63.484223    
    884000   1.010797       18.214757      63.314826    
    885000   1.0058385      18.149053      62.97289     
    886000   0.96446086     18.252094      63.002075    
    887000   1.0055097      18.647293      62.97753     
    888000   1.0263391      17.670365      62.895475    
    889000   1.0175437      17.998831      62.823474    
    890000   0.97199251     18.131965      62.682325    
    891000   1.0061937      17.890909      62.444822    
    892000   1.0378672      17.770661      62.653223    
    893000   1.0070721      18.40347       62.395547    
    894000   1.0165258      18.513916      62.289256    
    895000   0.97845324     18.345638      62.184256    
    896000   1.0113316      17.821167      61.936064    
    897000   1.0531881      18.348089      61.964543    
    898000   0.99650304     17.407461      61.804414    
    899000   1.0081858      17.780017      61.690726    
    900000   1.021751       17.706807      61.688156    
    901000   1.1064693      18.006904      61.843918    
    902000   0.96388821     17.544893      61.839721    
    903000   0.97729231     17.590782      61.701922    
    904000   1.007396       17.175222      61.436335    
    905000   0.97264206     17.452523      61.150244    
    906000   1.0005842      17.662015      61.0552      
    907000   0.99766016     17.200878      61.05937     
    908000   0.99230084     17.462574      61.022073    
    909000   1.0271647      17.710843      61.178484    
    910000   0.95918939     17.628514      61.222906    
    911000   1.0428544      18.517438      61.189196    
    912000   0.97498561     17.720936      61.127104    
    913000   1.0331134      17.948634      61.19317     
    914000   0.98995493     17.72363       60.912367    
    915000   0.94881498     17.751661      60.706268    
    916000   0.97424055     18.168         60.527705    
    917000   0.99140275     18.109962      60.397981    
    918000   0.99625714     18.21688       60.681798    
    919000   1.0124459      18.355268      60.387676    
    920000   1.009402       17.653952      60.378842    
    921000   1.0360946      17.79245       60.534415    
    922000   0.96937752     18.123163      60.455939    
    923000   0.98503974     18.307031      60.458883    
    924000   0.97613493     17.847249      60.498283    
    925000   0.97442251     18.247247      60.565399    
    926000   0.98881053     18.557831      60.322485    
    927000   1.0006044      18.114204      60.210899    
    928000   0.98826409     17.941698      60.100141    
    929000   1.0039428      17.977411      59.843789    
    930000   0.96695095     17.687097      59.57012     
    931000   1.0110923      18.013779      59.528119    
    932000   1.0147738      17.947811      59.554751    
    933000   1.0138829      17.826757      59.419907    
    934000   1.0275351      17.626728      59.235005    
    935000   0.93947866     16.801936      59.524115    
    936000   1.0282157      17.734573      59.221353    
    937000   1.0045965      18.412218      58.944649    
    938000   1.0612491      18.266701      58.585352    
    939000   0.97656936     18.365991      58.632808    
    940000   0.97208464     17.047318      58.592824    
    941000   1.034426       18.075056      58.587079    
    942000   1.024992       17.802144      58.409589    
    943000   1.004638       18.179532      58.135835    
    944000   1.0295567      17.448411      58.318531    
    945000   0.98209733     18.208089      58.374012    
    946000   0.99512856     17.777532      58.210372    
    947000   1.0553672      17.704117      57.677292    
    948000   0.99887165     18.419875      57.563411    
    949000   1.0033434      17.442714      57.673199    
    950000   1.0081199      17.930892      57.593334    
    951000   1.0128441      18.23244       57.684573    
    952000   1.0092468      17.9208        57.819125    
    953000   0.98351223     17.262742      57.750723    
    954000   1.0020465      18.245832      57.552884    
    955000   1.0339379      18.24896       57.384961    
    956000   0.98295897     17.567727      57.199349    
    957000   1.0144741      17.920622      56.756987    
    958000   1.0352556      17.874424      56.412221    
    959000   0.9816674      17.672367      56.322485    
    960000   0.99925572     17.524849      56.048249    
    961000   1.0506895      18.024991      55.808189    
    962000   0.95414345     18.003484      55.461339    
    963000   1.0685108      17.633341      55.547579    
    964000   0.96749554     17.815094      55.339486    
    965000   0.98434559     17.154524      55.431463    
    966000   1.0909616      18.778076      55.178388    
    967000   1.0159313      18.44083       55.0027      
    968000   1.0244132      17.889562      54.943459    
    969000   1.0145372      17.10293       54.799757    
    970000   0.99659317     17.481076      54.432554    
    971000   0.99679484     17.44762       54.236513    
    972000   1.0137471      18.167749      54.07628     
    973000   0.99713944     17.835195      54.19716     
    974000   1.0283817      17.604292      53.979154    
    975000   1.0164604      18.220542      54.004226    
    976000   1.0141729      17.995674      53.829205    
    977000   0.99957284     17.674226      53.850957    
    978000   1.0168675      17.705851      53.840212    
    979000   1.0385435      17.613839      53.804095    
    980000   0.98641251     17.929656      53.709028    
    981000   0.95241272     17.464134      53.438612    
    982000   1.0039702      17.798896      53.354276    
    983000   1.0373153      17.976188      53.33765     
    984000   1.0307763      17.765085      53.089802    
    985000   0.9976549      17.7709        53.116998    
    986000   1.0554802      18.4338        52.772568    
    987000   1.0368957      17.93716       52.786977    
    988000   1.0123043      18.152347      52.754606    
    989000   0.9957775      18.522097      52.645629    
    990000   0.98549959     17.991438      52.584373    
    991000   0.97402973     17.552371      52.513822    
    992000   1.025606       17.766542      52.582297    
    993000   1.0438936      17.621489      52.49031     
    994000   0.99641764     17.847674      52.314355    
    995000   0.97016        17.242754      52.093468    
    996000   0.98193067     18.126304      51.924954    
    997000   1.0230235      17.498881      51.522031    
    998000   1.0329652      17.49709       51.20532     
    999000   0.9932978      17.517237      51.199804    
   1000000   0.96653369     17.45575       51.196197    
   1001000   0.99956998     17.558149      50.923967    
   1002000   1.02862        17.686702      50.316542    
   1003000   1.0368773      17.851375      50.338632    
   1004000   1.0171606      17.352977      50.274381    
   1005000   1.0165049      17.98893       50.174972    
   1006000   1.0080413      17.358871      49.995035    
   1007000   0.96292242     17.500665      49.927995    
   1008000   1.0117297      17.918799      49.736941    
   1009000   1.0172925      18.18224       49.425638    
   1010000   1.0082518      17.248728      49.417106    
   1011000   1.0391839      17.539148      49.530077    
   1012000   0.99382143     18.599822      49.396269    
   1013000   0.99887054     17.78314       49.157531    
   1014000   1.0589389      17.387298      48.999396    
   1015000   1.0498086      18.012033      48.809463    
   1016000   1.0194747      18.17421       48.653055    
   1017000   1.0336377      18.377394      48.604756    
   1018000   0.9717998      18.557623      48.327432    
   1019000   0.96284933     17.462828      48.106861    
   1020000   1.0156476      17.57376       47.642347    
   1021000   0.95347269     17.566125      47.407444    
   1022000   1.0117653      17.732256      47.292485    
   1023000   1.022002       17.417618      47.048556    
   1024000   1.0343272      17.897636      47.126657    
   1025000   0.96701309     18.026638      47.027652    
   1026000   0.95895377     18.271346      46.90403     
   1027000   0.95894123     17.319761      46.522391    
   1028000   1.0401161      18.194306      46.288009    
   1029000   1.0104675      17.987671      46.219711    
   1030000   0.99949942     18.053875      45.843636    
   1031000   0.99124424     17.720548      45.889059    
   1032000   1.0218867      18.52174       45.542716    
   1033000   0.98781659     17.427702      45.299214    
   1034000   1.0158004      17.315543      45.085096    
   1035000   0.99904157     17.580584      45.051669    
   1036000   0.97439393     17.758766      45.103764    
   1037000   1.0076538      17.547695      45.191014    
   1038000   1.011784       17.334877      44.898167    
   1039000   0.99291556     17.678379      44.668677    
   1040000   1.0204244      18.412458      44.549423    
   1041000   0.99413654     17.392058      44.498482    
   1042000   0.96388139     17.304175      44.113096    
   1043000   0.98363604     18.794834      43.969098    
   1044000   1.0276521      17.974563      43.701425    
   1045000   0.99693296     17.86116       43.70097     
   1046000   0.97795613     18.015731      43.821066    
   1047000   0.99436611     17.929329      43.570192    
   1048000   1.0164929      17.550067      43.411976    
   1049000   1.0136019      17.448158      43.144543    
   1050000   0.99759817     17.728483      43.015065    
   1051000   1.0112201      17.859243      42.555903    
   1052000   1.0095142      18.328109      42.651501    
   1053000   0.97212631     17.322566      42.801926    
   1054000   1.0089837      18.120811      42.905936    
   1055000   1.0123544      17.135995      42.827765    
   1056000   0.94658915     17.43516       42.639871    
   1057000   0.95677416     16.692437      42.764411    
   1058000   0.95346562     17.386259      42.868098    
   1059000   1.0166457      18.314052      42.679907    
   1060000   1.0210449      17.324808      42.593628    
   1061000   0.94876367     18.130957      42.377682    
   1062000   1.0085581      16.900759      42.236123    
   1063000   0.97705095     17.507271      42.375363    
   1064000   1.0299691      17.841531      42.436237    
   1065000   1.0465169      18.113945      42.218472    
   1066000   1.0374931      18.265599      42.299266    
   1067000   1.0571103      18.318953      42.469688    
   1068000   0.96840512     17.567901      42.332366    
   1069000   1.0190783      18.087138      42.306927    
   1070000   1.0102225      18.499427      42.391539    
   1071000   0.99053728     18.016829      42.483866    
   1072000   0.97522212     17.685668      42.417386    
   1073000   1.0085719      17.894812      42.114471    
   1074000   0.96870237     18.364549      42.158031    
   1075000   0.97355902     17.069901      42.021697    
   1076000   0.97178977     17.036909      41.849781    
   1077000   0.96796028     17.388967      41.992865    
   1078000   1.0324476      18.571937      41.822645    
   1079000   1.0585483      18.846808      41.694552    
   1080000   0.92864033     17.269172      41.65325     
   1081000   1.0547582      18.314115      41.627742    
   1082000   0.99335359     17.526547      41.516053    
   1083000   1.0031586      17.460309      41.356162    
   1084000   0.97423871     17.544257      41.457956    
   1085000   0.99372818     17.717619      41.433148    
   1086000   0.99543977     17.912317      41.133575    
   1087000   0.99527688     18.0678        41.166916    
   1088000   1.017233       18.023571      40.760685    
   1089000   0.97006055     17.917954      40.822373    
   1090000   0.99312018     17.694247      40.62495     
   1091000   0.97663877     17.302629      40.322207    
   1092000   0.97959754     17.566932      39.748878    
   1093000   1.0368057      17.660967      39.934565    
   1094000   0.95278601     17.723376      39.870808    
   1095000   1.0047825      17.240207      39.948398    
   1096000   0.93741519     17.944518      40.028183    
   1097000   1.0200103      17.887097      39.86109     
   1098000   0.98667896     17.441355      39.674451    
   1099000   1.0243082      18.001472      39.799331    
   1100000   0.97446503     17.569321      39.932611    
   1101000   0.97896033     17.775233      39.873008    
   1102000   0.99203929     17.7586        40.032307    
   1103000   1.0172102      17.481832      40.152486    
   1104000   1.0104346      17.984629      39.930132    
   1105000   0.97544062     17.717286      39.750774    
   1106000   1.0347645      17.348557      39.840018    
   1107000   0.96357596     17.775446      39.763072    
   1108000   0.99103181     18.55541       39.761969    
   1109000   1.0624859      17.765193      39.226428    
   1110000   0.94424486     16.508126      39.040123    
   1111000   0.98045328     17.23955       39.312645    
   1112000   1.0077826      18.084178      39.33209     
   1113000   0.97018664     17.216891      39.392462    
   1114000   1.0183249      18.130359      39.539825    
   1115000   0.95348916     17.840152      39.30392     
   1116000   1.0708032      17.922072      39.323277    
   1117000   1.0029957      17.652723      39.719164    
   1118000   0.99549955     18.0779        39.511882    
   1119000   1.0175498      17.683952      39.514526    
   1120000   1.0413247      17.524385      39.486548    
   1121000   0.99651703     16.89729       39.178961    
   1122000   1.0067647      17.939055      39.148561    
   1123000   0.94590205     17.837583      39.024612    
   1124000   0.95889365     17.425605      38.745941    
   1125000   0.94583266     17.802671      38.575074    
   1126000   0.9847572      17.403501      38.313654    
   1127000   0.99412155     17.587002      38.023047    
   1128000   0.99904214     17.729257      38.029825    
   1129000   1.0109292      17.523851      37.954969    
   1130000   0.98398522     17.140511      37.888054    
   1131000   1.0161503      17.093817      37.509123    
   1132000   1.0194962      18.088748      37.375237    
   1133000   0.95330644     17.851585      37.194409    
   1134000   0.97214241     17.828889      36.858304    
   1135000   0.9734652      17.752121      36.794798    
   1136000   0.98229428     17.021358      36.903695    
   1137000   1.0139916      18.123369      37.194235    
   1138000   0.99917709     17.572525      37.02957     
   1139000   0.97326589     17.25715       36.99255     
   1140000   0.95586988     17.532174      37.125458    
   1141000   1.0312322      17.708685      37.168406    
   1142000   0.98665422     18.040008      37.298208    
   1143000   1.002307       18.174758      37.411316    
   1144000   0.98183594     17.176196      37.264023    
   1145000   0.99237536     17.568606      37.30008     
   1146000   0.93615016     17.727041      37.452192    
   1147000   0.98413844     17.626948      37.352621    
   1148000   1.0216543      17.178671      37.360403    
   1149000   0.9688083      17.153598      37.258082    
   1150000   0.99669095     17.875428      36.934527    
   1151000   1.0106109      16.964555      36.755549    
   1152000   0.95520016     17.018995      36.463815    
   1153000   0.98395649     17.88572       36.305728    
   1154000   1.0195325      17.625731      35.848194    
   1155000   1.0403267      17.371001      35.877318    
   1156000   1.0283095      17.929035      35.717737    
   1157000   0.89207295     16.844012      35.484402    
   1158000   0.95161267     17.406736      35.411564    
   1159000   1.0301574      17.624805      35.438336    
   1160000   0.98336027     17.66897       35.405305    
   1161000   1.0064671      18.128298      35.190455    
   1162000   0.98685135     17.348698      35.064351    
   1163000   1.0006068      16.33159       34.836923    
   1164000   1.0002584      17.767258      34.680593    
   1165000   0.9896604      17.292989      34.559689    
   1166000   1.0227653      17.88902       34.184016    
   1167000   1.009469       17.359141      34.132158    
   1168000   0.99569593     18.228191      34.020149    
   1169000   0.96925405     17.497229      33.712975    
   1170000   0.99849389     17.4371        33.526065    
   1171000   0.98393042     17.770215      33.180211    
   1172000   1.0453063      17.735766      33.263599    
   1173000   0.98989606     17.319488      33.148318    
   1174000   1.0234627      17.560448      33.00376     
   1175000   0.96881302     17.423123      32.70018     
   1176000   1.005265       17.939543      32.903647    
   1177000   1.0139178      17.249092      32.62778     
   1178000   1.0340258      17.410353      32.385052    
   1179000   0.99513127     17.313411      32.39781     
   1180000   0.9242186      17.675497      32.18908     
   1181000   0.97850749     17.182185      32.078162    
   1182000   1.0221251      17.877066      32.020209    
   1183000   1.0625909      18.129081      31.960382    
   1184000   1.0128202      17.534124      31.972255    
   1185000   1.0031365      17.66194       31.654574    
   1186000   0.96973921     16.735818      31.853997    
   1187000   0.9637756      16.89341       31.69709     
   1188000   1.0074283      17.439003      31.397291    
   1189000   1.0498255      17.491708      31.216151    
   1190000   0.96109744     17.957858      31.370019    
   1191000   1.0062591      17.225856      31.339862    
   1192000   0.94233963     18.016955      31.46999     
   1193000   1.0579897      17.791495      31.516533    
   1194000   1.0078446      17.969591      31.693006    
   1195000   0.99008847     17.743584      31.388366    
   1196000   0.97013418     17.559922      31.108042    
   1197000   0.95291802     17.395248      31.025577    
   1198000   0.99812499     17.209667      30.981854    
   1199000   1.0430761      17.467202      30.469053    
   1200000   0.98744698     17.49536       30.217159    
   1201000   0.93174576     17.226207      30.280506    
   1202000   0.96381821     17.482701      29.949033    
   1203000   0.98637477     17.586251      29.91225     
   1204000   0.96600964     17.311617      29.899503    
   1205000   0.99992399     17.545727      29.945701    
   1206000   0.9710939      17.071091      30.215548    
   1207000   1.058689       17.745425      30.293299    
   1208000   0.99418008     17.881604      30.114764    
   1209000   0.98235186     17.808698      30.03398     
   1210000   0.96260325     17.639662      30.104976    
   1211000   1.0296763      17.065493      29.909022    
   1212000   1.0111163      17.889881      29.692232    
   1213000   0.96955257     17.821925      29.887803    
   1214000   0.98657458     17.46372       29.629812    
   1215000   1.0253292      17.83511       29.319248    
   1216000   0.95215256     17.878296      29.013035    
   1217000   1.0083776      17.417745      28.986309    
   1218000   1.0423246      17.565675      29.170169    
   1219000   1.0055474      17.793582      29.100661    
   1220000   0.98142063     17.461705      29.093284    
   1221000   1.0435164      16.57555       29.073791    
   1222000   1.0265193      17.192698      29.012502    
   1223000   1.0404472      17.710516      29.187529    
   1224000   1.0617019      18.325928      28.912615    
   1225000   0.97185875     17.73594       28.574086    
   1226000   1.021293       18.194047      28.342133    
   1227000   1.0229978      18.013774      28.223532    
   1228000   1.008055       17.331399      27.878765    
   1229000   1.0043766      17.026825      27.765271    
   1230000   1.0225936      17.561883      27.92428     
   1231000   0.95496911     17.462801      27.837076    
   1232000   1.0118457      17.144106      27.751503    
   1233000   1.0267738      17.632169      27.651579    
   1234000   0.99563726     17.967451      27.555283    
   1235000   1.0409281      17.052366      27.567159    
   1236000   0.98525355     17.758573      27.399952    
   1237000   1.0236547      17.696606      27.252867    
   1238000   1.0200445      17.817208      27.202148    
   1239000   0.98040515     17.43489       27.183176    
   1240000   0.98275743     18.056396      26.775617    
   1241000   1.0273226      17.791651      26.661883    
   1242000   0.99545366     17.298631      26.76411     
   1243000   1.0347301      17.83405       26.775845    
   1244000   1.0427395      17.742161      26.693739    
   1245000   0.99459101     17.126745      26.455732    
   1246000   1.0270575      17.193968      26.44193     
   1247000   1.0571334      17.75591       26.413707    
   1248000   1.0676461      17.304597      26.311653    
   1249000   1.0016896      17.507714      26.163584    
   1250000   1.0409191      17.328702      25.994287    
   1251000   1.0385764      17.69276       26.088447    
   1252000   0.97114895     17.830807      25.762996    
   1253000   0.98241284     18.12893       25.449801    
   1254000   0.9627038      17.799481      25.344848    
   1255000   0.989053       17.924097      25.083927    
   1256000   0.98500242     17.314252      25.039396    
   1257000   1.0194274      16.95806       25.084059    
   1258000   0.9829696      18.05352       24.792762    
   1259000   0.94696316     17.290041      24.557745    
   1260000   0.97852545     17.300268      24.54732     
   1261000   1.0349062      17.344103      24.434849    
   1262000   0.98686641     16.947316      24.048333    
   1263000   0.9827284      17.439837      23.703678    
   1264000   1.00933        17.495462      23.707607    
   1265000   0.95869841     17.214199      23.652174    
   1266000   0.97063154     17.43992       23.33234     
   1267000   0.96179677     17.042721      23.174816    
   1268000   0.99340222     16.785842      23.383581    
   1269000   1.0247297      17.515478      23.388163    
   1270000   0.99774725     17.243567      23.504217    
   1271000   0.96048318     17.730924      23.377404    
   1272000   0.97674394     17.735516      23.364819    
   1273000   1.0557723      17.550699      23.390523    
   1274000   1.0189958      16.901426      23.534253    
   1275000   1.02032        17.810533      23.443458    
   1276000   0.97277697     17.041577      23.57575     
   1277000   1.0054536      17.134183      23.61894     
   1278000   0.99100809     16.823616      23.561822    
   1279000   1.0373978      16.993108      23.505636    
   1280000   1.0207367      17.448608      23.247012    
   1281000   0.99033846     16.956753      23.158017    
   1282000   0.98418169     17.682844      22.891652    
   1283000   1.0014791      17.554656      22.826219    
   1284000   0.99459405     17.847048      22.615387    
   1285000   0.96307922     18.598021      22.528924    
   1286000   0.95688434     17.093196      22.507391    
   1287000   0.9330248      17.600564      22.472865    
   1288000   1.0053785      17.707773      22.234844    
   1289000   0.91399194     16.788635      22.322409    
   1290000   0.98001645     17.370507      22.313047    
   1291000   1.0533326      17.593418      22.293336    
   1292000   0.99813695     17.372522      22.084139    
   1293000   0.99937266     17.468086      22.307281    
   1294000   0.99679388     17.753937      22.181386    
   1295000   1.0137793      17.455736      21.972811    
   1296000   1.0160067      17.250635      21.951873    
   1297000   1.0084639      17.242984      21.93281     
   1298000   1.0575218      16.928915      21.77879     
   1299000   1.0141385      17.243623      21.579733    
   1300000   1.021549       17.643321      21.794151    
   1301000   1.0049615      17.911696      21.630991    
   1302000   0.99669733     17.291481      21.416331    
   1303000   0.99323939     17.216213      21.325075    
   1304000   1.0433665      17.817185      21.047974    
   1305000   1.0356691      17.010353      21.155191    
   1306000   0.89893768     17.319924      20.69582     
   1307000   1.1099857      17.408025      20.521884    
   1308000   1.0114539      17.272657      20.680682    
   1309000   0.98036106     18.073425      20.394751    
   1310000   1.0244815      17.882518      20.478574    
   1311000   1.0694634      17.802675      20.349842    
   1312000   1.0044168      17.006413      20.622187    
   1313000   1.0083808      17.786563      20.456624    
   1314000   1.0214614      17.648659      20.606155    
   1315000   0.9942542      17.417044      20.497764    
   1316000   1.0084525      16.980963      20.439989    
   1317000   0.98852938     16.769121      20.363572    
   1318000   1.0044341      17.275295      20.388447    
   1319000   1.0480336      17.75342       20.419111    
   1320000   0.97350634     17.401689      20.184085    
   1321000   1.0193513      17.912733      20.156529    
   1322000   1.0480965      16.834545      20.313866    
   1323000   0.96187275     17.668182      20.215012    
   1324000   0.96375991     17.53914       20.52744     
   1325000   0.99110107     17.750391      20.498326    
   1326000   1.0439426      18.056569      20.59324     
   1327000   0.98239327     17.784459      20.662256    
   1328000   0.95041532     17.692295      20.539289    
   1329000   0.96765389     17.346864      20.817861    
   1330000   1.0003525      17.908654      20.698239    
   1331000   0.97756951     17.257012      20.872774    
   1332000   0.98973102     17.415072      20.838208    
   1333000   1.0366881      17.546414      20.960512    
   1334000   0.95722716     17.212104      21.152734    
   1335000   0.9861254      17.166892      20.967523    
   1336000   0.99047765     17.373885      20.947369    
   1337000   1.0116666      17.16674       20.611101    
   1338000   0.95901944     18.143115      20.360161    
   1339000   1.0124205      17.551596      20.130075    
   1340000   1.0382528      17.854573      20.157202    
   1341000   0.99315021     18.006315      19.963003    
   1342000   1.0452792      17.436101      19.776848    
   1343000   1.0312929      17.895697      19.442277    
   1344000   1.0079616      17.684178      19.618975    
   1345000   1.0577949      17.610313      19.463764    
   1346000   0.98874821     17.827335      19.469997    
   1347000   1.0340857      16.541638      19.443442    
   1348000   1.050537       17.41754       19.433424    
   1349000   1.0168119      17.308476      19.330267    
   1350000   1.0037743      17.415215      19.19354     
   1351000   0.99867523     17.266238      19.086211    
   1352000   0.99318764     17.633705      18.883536    
   1353000   1.0126928      16.993989      18.891048    
   1354000   1.0202883      17.962345      18.513153    
   1355000   0.98860799     17.512523      18.510532    
   1356000   0.98921166     16.935323      18.566412    
   1357000   1.0001922      17.215467      18.74507     
   1358000   0.94666831     17.59568       18.887871    
   1359000   1.0091303      17.755402      18.677606    
   1360000   0.96917209     18.110295      18.90319     
   1361000   1.0013429      17.351521      18.736089    
   1362000   0.9772859      17.853918      18.625033    
   1363000   1.0100798      17.245183      18.532387    
   1364000   0.99995821     17.559237      18.462934    
   1365000   1.0147543      17.751175      18.46514     
   1366000   0.96337504     17.288033      18.178386    
   1367000   0.95693557     16.842107      18.120798    
   1368000   0.98865783     16.992493      18.297202    
   1369000   0.98171997     17.36883       18.243866    
   1370000   0.9679315      16.502079      18.278047    
   1371000   1.0068948      17.614711      18.449723    
   1372000   1.0041263      17.693125      18.237164    
   1373000   1.0181893      17.785813      18.145378    
   1374000   1.0208475      17.698658      17.932475    
   1375000   0.99956709     17.375756      17.780201    
   1376000   1.0192011      17.973195      17.935229    
   1377000   1.0225502      17.440991      17.766772    
   1378000   1.0310819      17.506343      17.71683     
   1379000   1.0239019      17.840178      17.467524    
   1380000   1.0210966      17.955764      17.460858    
   1381000   1.0491255      17.503707      17.575165    
   1382000   1.0010103      17.045412      17.577653    
   1383000   1.0191461      17.712463      17.576502    
   1384000   1.0799882      17.334468      17.567241    
   1385000   1.0168508      18.018533      17.750671    
   1386000   0.99342062     17.554523      17.805632    
   1387000   1.0015133      16.709514      17.591387    
   1388000   0.94049176     17.151494      17.447645    
   1389000   0.99779247     16.668072      17.200914    
   1390000   1.0534016      18.258911      17.112296    
   1391000   0.97454033     17.482874      16.479088    
   1392000   0.98791035     17.998817      16.343317    
   1393000   0.97373081     17.581432      16.030574    
   1394000   1.0380327      17.393884      15.906253    
   1395000   0.97506312     17.35451       15.834521    
   1396000   0.98192015     17.439994      15.82212     
   1397000   0.95823759     17.211771      15.786183    
   1398000   1.0104667      17.428332      15.981572    
   1399000   1.0205767      17.034012      15.902062    
   1400000   1.0456474      17.540173      15.886181    
   1401000   0.97486484     16.698693      15.823126    
   1402000   1.024332       17.51751       15.472159    
   1403000   1.0015373      17.396141      15.151241    
   1404000   0.95749098     16.31625       14.998556    
   1405000   0.98924535     17.76289       14.887163    
   1406000   0.98740576     17.245371      14.678428    
   1407000   0.98994902     17.447619      14.597344    
   1408000   1.0025963      18.370773      14.57788     
   1409000   0.99842751     17.282788      14.729122    
   1410000   0.97005486     17.072905      14.8411      
   1411000   0.98860358     17.450844      14.582429    
   1412000   1.0448187      17.800717      14.900777    
   1413000   1.0637593      17.392252      14.803047    
   1414000   0.98241547     17.110741      14.712663    
   1415000   0.97541535     16.934687      14.759323    
   1416000   0.95841176     17.529868      14.849668    
   1417000   0.97382518     17.223155      14.69541     
   1418000   0.99205116     17.019643      14.739675    
   1419000   1.007694       17.340198      14.637404    
   1420000   0.96433572     17.541285      14.648649    
   1421000   1.005149       17.581219      14.750867    
   1422000   1.0103412      17.074563      14.901762    
   1423000   0.97023266     17.173519      14.784315    
   1424000   0.99161857     17.450444      14.866187    
   1425000   1.0238393      17.211584      14.781094    
   1426000   1.039855       17.659941      14.872362    
   1427000   0.96271457     17.390914      14.987302    
   1428000   1.0113532      17.380165      15.007487    
   1429000   1.0055321      17.352356      14.801246    
   1430000   1.0311427      17.357559      14.667243    
   1431000   1.0191845      17.849704      14.493367    
   1432000   1.0009739      17.588095      14.6401      
   1433000   0.98945352     17.112945      14.577707    
   1434000   0.9878536      18.064734      14.51844     
   1435000   0.99145571     17.503489      14.509821    
   1436000   0.97732593     17.727884      14.319599    
   1437000   1.0359506      17.534399      14.210887    
   1438000   1.0344781      17.601215      14.217775    
   1439000   0.95942282     16.835961      14.168367    
   1440000   1.0128623      17.468465      14.210133    
   1441000   0.98015088     17.051672      13.977886    
   1442000   0.9914976      17.450401      13.788484    
   1443000   1.0253914      17.569624      13.450142    
   1444000   1.0358668      17.711997      13.242687    
   1445000   1.0401017      17.264291      13.058944    
   1446000   0.98152647     17.224945      13.005314    
   1447000   0.98655014     17.303146      12.889063    
   1448000   1.0265324      17.388415      12.776166    
   1449000   0.98041083     17.276649      12.656073    
   1450000   0.97287014     17.304778      12.610237    
   1451000   1.0346125      17.514449      12.347029    
   1452000   1.0063306      17.587878      12.286343    
   1453000   1.0150871      17.762484      12.099795    
   1454000   0.99703554     16.616425      12.112462    
   1455000   1.0011075      17.175629      11.92654     
   1456000   0.97795773     17.424943      11.676586    
   1457000   1.0145777      17.705991      11.522222    
   1458000   0.99275572     17.161033      11.304851    
   1459000   0.98822813     17.599794      11.147666    
   1460000   1.0475468      16.97511       11.018585    
   1461000   0.98938175     17.038786      11.062337    
   1462000   0.98740322     16.898407      10.82596     
   1463000   0.97819935     16.850503      10.601512    
   1464000   1.0103169      17.847922      10.532413    
   1465000   1.0163048      17.466483      10.605831    
   1466000   0.99331081     17.674895      10.415018    
   1467000   0.97726339     17.189521      10.356334    
   1468000   1.0102916      17.235577      10.081223    
   1469000   1.015617       17.079751      10.164696    
   1470000   1.0404104      18.510147      9.9251928    
   1471000   1.0184366      17.457983      9.996675     
   1472000   0.99382196     17.311634      10.147777    
   1473000   1.0043046      17.470967      10.177049    
   1474000   0.93943092     16.867326      9.9303585    
   1475000   1.0309872      17.9148        10.069176    
   1476000   1.0313439      17.392412      10.085861    
   1477000   1.1217475      17.607771      10.087108    
   1478000   1.0064657      17.112124      10.152249    
   1479000   0.99477847     17.151348      9.7514539    
   1480000   0.99672453     17.274272      9.651835     
   1481000   0.99540633     17.126521      9.6210614    
   1482000   0.99391844     17.717063      9.3129583    
   1483000   1.0354296      17.648354      9.0247903    
   1484000   0.98987829     17.853768      8.835385     
   1485000   0.98004857     17.300173      8.5388969    
   1486000   1.0422454      17.771991      8.4174722    
   1487000   0.99966741     17.320367      8.3074216    
   1488000   0.9842079      17.27771       8.1868115    
   1489000   1.0066567      17.651774      8.1875775    
   1490000   1.0450137      17.848887      8.2831347    
   1491000   1.0348473      17.632841      7.8317989    
   1492000   0.99733019     16.32503       7.6552989    
   1493000   1.0462076      17.732538      7.4850681    
   1494000   0.97529553     17.417232      7.6573969    
   1495000   1.0281094      17.48236       7.6291422    
   1496000   0.99492918     17.639066      7.4902469    
   1497000   1.0484465      17.879761      7.3407316    
   1498000   1.0100983      17.388767      7.4243707    
   1499000   1.0142261      17.555483      7.2249828    
   1500000   1.0625439      17.925775      7.2254889    
   1501000   1.0007047      17.301253      6.9206881    
   1502000   1.0584788      17.989064      6.8036231    
   1503000   0.97019369     16.906394      6.7536253    
   1504000   1.0196114      17.201292      6.411426     
   1505000   0.98746661     16.947286      6.0885889    
   1506000   0.9508111      17.021152      6.0247152    
   1507000   1.0159963      16.965494      5.8074821    
   1508000   1.0450383      17.066533      5.7235047    
   1509000   0.98907673     16.986334      5.5070422    
   1510000   1.0078087      17.041173      5.4172443    
   1511000   1.0267076      16.418509      5.2344248    
   1512000   0.99139405     17.389461      5.0965899    
Fix halt condition for fix-id 3 met on step 1513000 with value 4.943875938979994 (src/fix_halt.cpp:237)
   1513000   0.95549883     16.930652      4.9438759    
Loop time of 2533.65 on 4 procs for 1413000 steps with 700 atoms

Performance: 481847.297 tau/day, 557.694 timesteps/s
114.1% CPU use with 2 MPI tasks x 2 OpenMP threads

MPI task timing breakdown:
Section |  min time  |  avg time  |  max time  |%varavg| %total
---------------------------------------------------------------
Pair    | 98.593     | 149.32     | 200.05     | 415.1 |  5.89
Bond    | 18.026     | 18.172     | 18.319     |   3.4 |  0.72
Neigh   | 2190.2     | 2190.2     | 2190.2     |   0.1 | 86.44
Comm    | 67.467     | 118.57     | 169.67     | 469.3 |  4.68
Output  | 3.4326     | 3.4816     | 3.5306     |   2.6 |  0.14
Modify  | 32.829     | 33.665     | 34.5       |  14.4 |  1.33
Other   |            | 20.25      |            |       |  0.80

Nlocal:            350 ave         447 max         253 min
Histogram: 1 0 0 0 0 0 0 0 0 1
Nghost:            350 ave         447 max         253 min
Histogram: 1 0 0 0 0 0 0 0 0 1
Neighs:          74542 ave       75694 max       73390 min
Histogram: 1 0 0 0 0 0 0 0 0 1

Total # of neighbors = 149084
Ave neighs/atom = 212.97714
Ave special neighs/atom = 1.9971429
Neighbor list builds = 13087
Dangerous builds = 0

# This simulation is done
# Move onto the next one
clear
  using 2 OpenMP thread(s) per MPI task
package omp 0
using multi-threaded neighbor list subroutines
next f
jump SELF

###
# Reference paper:
# K. Kremer and G. S. Grest
# Dynamics of entangled linear polymer melts: A molecular-dynamics simulation
# J Chem Phys 92, 5057 (1990)

##################################
# MIHIR: for branched polymers
# LJ minimum first to expand and explore, then collapse
###

###
# Looping through the various linear polymers to simulate,
# define variables to switch through
variable f index bb100nuc0bl0bn0d30tot100 bb200nuc0bl0bn0d30tot200 bb300nuc0bl0bn0d30tot300 bb400nuc0bl0bn0d30tot400 bb500nuc0bl0bn0d30tot500 bb600nuc0bl0bn0d30tot600 bb700nuc0bl0bn0d30tot700 bb800nuc0bl0bn0d30tot800 bb900nuc0bl0bn0d30tot900 bb1000nuc0bl0bn0d30tot1000 bb1100nuc0bl0bn0d30tot1100 bb1200nuc0bl0bn0d30tot1200
###


###
# Box and units  (use LJ units and periodic boundaries)
###

units lj
log linear/logs/$f.log
log linear/logs/bb800nuc0bl0bn0d30tot800.log
