#atom_style bond #no stiffness
atom_style angle #with stiffness

boundary        p p p
###
# Pair interactions require lists of neighbours to be calculated
###

#neighbor 0.3 bin
neighbor 4 bin

neigh_modify every 1 delay 1 check yes
atom_modify sort 0 0
### Generate RESTART file, SPECIAL format, not a .txt file ###
### Useful if simulation crashes ###

restart 1000000 tshaped/restarts/$f.restart
restart 1000000 tshaped/restarts/bb333nuc1bl166bn3d30tot500.restart
#############################



### READ "start" data file ###

read_data tshaped/$f.dat
read_data tshaped/bb333nuc1bl166bn3d30tot500.dat
Reading data file ...
  orthogonal box = (-1000 -1000 -1000) to (1000 1000 1000)
  1 by 1 by 2 MPI processor grid
  reading atoms ...
  499 atoms
  scanning bonds ...
  2 = max bonds/atom
  scanning angles ...
  3 = max angles/atom
  reading bonds ...
  498 bonds
  reading angles ...
  498 angles
Finding 1-2 1-3 1-4 neighbors ...
  special bond factors lj:    0        0        0       
  special bond factors coul:  0        0        0       
     3 = max # of 1-2 neighbors
     3 = max # of 1-3 neighbors
     6 = max # of 1-4 neighbors
     9 = max # of special neighbors
  special bonds CPU = 0.000 seconds
  read_data CPU = 0.063 seconds

######################

### READ "REstart" data file ###

######################



###
# Define groups (atom type 1 is group 'all')
###
group all type 1
499 atoms in group all


###
# Dump configs - "simple dumpings"
###

###
# Dump configs + box coords
###

dump   1   all   custom   1000  tshaped/trjs/$f.lammpstrj  id  x y z  ix iy iz
dump   1   all   custom   1000  tshaped/trjs/bb333nuc1bl166bn3d30tot500.lammpstrj  id  x y z  ix iy iz
dump_modify   1   format line "%d %.5f %.5f %.5f %d %d %d"

########################################################################


###################################################################
# Stiffness term
#
# E = K * (1+cos(theta)), K>0
#
angle_style   cosine
#change this coefficient to change stiffness (e.g. 1,5,10)
angle_coeff   1 1.0
###################################################################

###################################################################
# Pair interaction between non-bonded atoms
#
#  Lennard-Jones 12-6 potential with cutoff:
#  potential E=4epsilon[ (sigma/r)^12 - (sigma/r)^6]  for r<r_cut
#
#  1.12246 = 2^(1/6) is the minimum of the potential


pair_style      lj/cut 1.12246152962189
#pair_style      lj/cut 3

#
#  pair_modify shift yes adds a constant to the potential such

#  that E(r_cut)=0. Forces remains unchanged.
#

pair_modify     shift yes

#
#  pair_coeff for lj/cut, specify 4:
#    * atom type interacting with
#    * atom type
#    * epsilon (energy units)
#    * sigma (distance units)
#

pair_coeff      1 1 1.0 1.0
###################################################################

###################################################################
# Pair interaction between non-bonded atoms
#
#  soft potential, for PUSHING apart overlapping atoms
#  potential E=A*(1 + cos(pi*r/r_c))
#
#  1.12246 = 2^(1/6) is the cut-off r_c

#pair_style     soft 1.12246152962189

#
#  pair_coeff for soft, specify 3:
#    * atom type interacting with
#    * atom type
#    * A
#
#

#pair_coeff      1 1 100.0
###################################################################

###################################################################
# Pair interaction between bonded atoms
#
# Fene potential + Lennard Jones 12-6:

#
#  E= - 0.5 K R0^2 ln[ 1- (r/R0)^2]
#     + 4epsilon[ (sigma/r)^12 - (sigma/r)^6] + epsilon
#

bond_style   fene


#
# For style fene, specify:
#   * bond type
#   * K (energy/distance^2)
#   * R0 (distance)
#   * epsilon (energy)  (LJ component)
#   * sigma (distance)  (LJ component)
#


special_bonds fene #<=== I M P O R T A N T (new command)
Finding 1-2 1-3 1-4 neighbors ...
  special bond factors lj:    0        1        1       
  special bond factors coul:  0        1        1       
     3 = max # of 1-2 neighbors
     9 = max # of special neighbors
  special bonds CPU = 0.000 seconds

bond_coeff   1   30   2   1.0   1.0


###################################################

###################################################################
# Pair interaction between bonded atoms
#
# Harmonic potential:
#
#  E= K * (R-R0)^2
#

#bond_style   harmonic

#
# For style harmonic, specify:
#   * bond type
#   * K (energy/distance^2)
#   * R0 (distance)
#

#bond_coeff   1   60.0   1.0
#bond_coeff   2   harmonic 0.1   1.0

###################################################
compute 1 all gyration
variable rog equal c_1
#compute 2 all coord/atom cutoff 1.1

#dump 2 all custom 10000 contact_number.dump id c_2


###
# Set up fixes
###
thermo_style   custom   step  temp enthalpy c_1
fix 1 all nve   ###NVE ensemble

fix 2 all   langevin   1.0 1.0 1.0  100103   ###Langevin integrator Tstart Tstop 1/friction rndseed


##### Sample thermodynamic info  (temperature, energy, pressure, etc.) #####
thermo 1000









############################################################################

###
# set timestep of integrator

timestep 0.01

###
# run integration for a number of steps
###
#run 0
#variable r equal c_1
#if "$r < 63.1" then "quit 1"

# lj potential minimum, cause molecule to explore
run 100000
Generated 0 of 0 mixed pair_coeff terms from geometric mixing rule
Neighbor list info ...
  update: every = 1 steps, delay = 1 steps, check = yes
  max neighbors/atom: 2000, page size: 100000
  master list distance cutoff = 5.1224615
  ghost atom cutoff = 5.1224615
  binsize = 2.5612308, bins = 781 781 781
  1 neighbor lists, perpetual/occasional/extra = 1 0 0
  (1) pair lj/cut, perpetual
      attributes: half, newton on
      pair build: half/bin/newton
      stencil: half/bin/3d
      bin: standard
WARNING: Communication cutoff 5.12246152962189 is shorter than a bond length based estimate of 5.455. This may lead to errors. (src/comm.cpp:723)
Per MPI rank memory allocation (min/avg/max) = 939.4 | 940.1 | 940.7 Mbytes
   Step          Temp         Enthalpy         c_1      
         0   0              13.39584       82.507509    
      1000   1.0399141      19.0255        82.191301    
      2000   1.0028345      18.978418      81.719739    
      3000   1.0109943      19.503552      80.996865    
      4000   0.97640536     18.999352      80.405342    
      5000   1.0200535      18.642369      79.892861    
      6000   0.93996805     19.570382      79.793838    
      7000   1.0149927      18.895682      79.511585    
      8000   1.0192         19.847933      78.909807    
      9000   1.0109657      19.833642      78.446138    
     10000   1.0140077      19.683386      77.865465    
     11000   1.0259439      19.205829      77.249928    
     12000   0.97514336     19.964784      77.133302    
     13000   0.974966       19.31271       76.949288    
     14000   1.0185274      19.790438      76.669264    
     15000   0.9688897      19.567531      76.23264     
     16000   0.97266706     20.603635      76.086799    
     17000   1.0039888      19.364069      75.936252    
     18000   1.0007106      19.681644      75.7235      
     19000   1.0429252      19.195972      75.44701     
     20000   0.97162743     19.739371      75.287272    
     21000   0.95896384     19.729062      75.080601    
     22000   0.96713211     19.348027      74.625195    
     23000   0.91397638     19.337293      74.177352    
     24000   0.96466784     20.318624      73.958704    
     25000   0.98886284     19.871493      73.413973    
     26000   1.0207783      19.931068      73.317346    
     27000   1.0426442      19.764165      72.969974    
     28000   1.0420085      19.498929      72.73455     
     29000   1.0292153      19.768831      72.510856    
     30000   0.99727333     20.432346      72.33362     
     31000   1.0157586      19.491904      71.990599    
     32000   1.021177       20.046239      71.853868    
     33000   0.9598459      19.87727       71.137931    
     34000   1.0187833      19.655409      70.833378    
     35000   0.98752659     19.145494      70.665865    
     36000   0.99242718     19.427392      70.35261     
     37000   1.0089819      20.183511      69.978098    
     38000   0.94181537     19.45515       69.769765    
     39000   1.069441       20.513633      69.403813    
     40000   0.95878795     19.47261       69.371835    
     41000   1.025457       19.855381      69.157425    
     42000   0.93994473     19.80615       68.964675    
     43000   0.96070851     20.358437      69.236825    
     44000   0.99633364     19.925251      69.374242    
     45000   1.0533396      19.871675      69.11187     
     46000   1.0403688      20.638691      69.072404    
     47000   0.97588148     19.604194      68.710218    
     48000   0.98266273     20.067262      68.681217    
     49000   1.0581484      19.832981      68.506482    
     50000   0.89476928     19.652695      68.262472    
     51000   1.0354501      20.625672      68.121052    
     52000   0.98489382     20.275529      68.0817      
     53000   0.95886041     19.92906       68.15124     
     54000   1.0342322      20.140106      68.220024    
     55000   0.9998247      20.285132      68.155774    
     56000   0.99482932     19.711159      68.143856    
     57000   0.95947131     20.174847      67.946119    
     58000   0.96367639     20.022423      67.604196    
     59000   0.9766468      19.454994      67.238492    
     60000   0.98383449     19.904489      67.220833    
     61000   0.99461804     19.511462      67.286087    
     62000   0.98758272     20.699962      67.308748    
     63000   1.0361543      20.910971      67.117734    
     64000   0.98774409     19.92643       67.043428    
     65000   0.98040268     19.469877      66.993749    
     66000   1.0555462      20.406698      66.661433    
     67000   0.979111       20.191661      66.650919    
     68000   0.98016962     20.509779      66.605067    
     69000   0.99899262     19.48979       66.439126    
     70000   0.99976655     19.825354      66.066809    
     71000   1.0051017      19.725332      65.881093    
     72000   1.0521537      19.680367      65.605249    
     73000   1.0149361      20.181193      65.554324    
     74000   1.0377828      20.276491      65.374001    
     75000   1.0350881      19.543917      65.342814    
     76000   0.99362795     20.003201      65.300491    
     77000   0.97052969     20.785659      64.93324     
     78000   0.96425678     19.63336       64.559372    
     79000   0.99912077     20.296315      64.37104     
     80000   1.0455416      19.376204      64.311538    
     81000   1.0010938      20.107604      64.246319    
     82000   1.0343964      20.118504      63.903206    
     83000   0.98897228     20.774196      63.498883    
     84000   1.0227828      20.216923      63.559222    
     85000   1.0322245      20.419715      63.393162    
     86000   0.96680495     20.520343      62.896319    
     87000   1.0057803      20.233665      62.698013    
     88000   0.98398322     20.078438      62.535566    
     89000   0.98355266     20.638437      62.333294    
     90000   0.99781985     20.34839       62.313777    
     91000   0.99599239     20.358822      62.136352    
     92000   0.95626086     19.433292      62.302155    
     93000   1.0068831      19.847006      61.997862    
     94000   1.0244232      20.275708      61.980339    
     95000   1.0060248      19.969344      61.996872    
     96000   0.95143877     20.596012      61.664182    
     97000   0.96292429     19.555049      61.670453    
     98000   0.9782463      20.253575      61.185973    
     99000   1.0426468      19.641789      61.208378    
    100000   1.0045504      19.891835      61.138151    
Loop time of 263.918 on 2 procs for 100000 steps with 499 atoms

Performance: 327374.787 tau/day, 378.906 timesteps/s
56.2% CPU use with 2 MPI tasks x 1 OpenMP threads

MPI task timing breakdown:
Section |  min time  |  avg time  |  max time  |%varavg| %total
---------------------------------------------------------------
Pair    | 0.028176   | 0.79077    | 1.5534     |  85.8 |  0.30
Bond    | 0.0099475  | 1.7682     | 3.5265     | 132.2 |  0.67
Neigh   | 252.71     | 252.71     | 252.72     |   0.0 | 95.76
Comm    | 0.047725   | 0.069807   | 0.091889   |   8.4 |  0.03
Output  | 0.41566    | 0.42351    | 0.43136    |   1.2 |  0.16
Modify  | 0.055578   | 1.9938     | 3.932      | 137.3 |  0.76
Other   |            | 6.157      |            |       |  2.33

Nlocal:          249.5 ave         499 max           0 min
Histogram: 1 0 0 0 0 0 0 0 0 1
Nghost:              0 ave           0 max           0 min
Histogram: 2 0 0 0 0 0 0 0 0 0
Neighs:         1516.5 ave        3033 max           0 min
Histogram: 1 0 0 0 0 0 0 0 0 1

Total # of neighbors = 3033
Ave neighs/atom = 6.0781563
Ave special neighs/atom = 1.995992
Neighbor list builds = 1052
Dangerous builds = 0

# Replace lj potential, now collapse
pair_style      lj/cut 3

# Cutoff simul when gyration under 5
# Variable created with equal requires v_ + 'name'
fix 3 all halt 1000 v_rog < 7

run 5000000
Generated 0 of 0 mixed pair_coeff terms from geometric mixing rule
Per MPI rank memory allocation (min/avg/max) = 939.4 | 940.1 | 940.7 Mbytes
   Step          Temp         Enthalpy         c_1      
    100000   1.0045504      19.263482      61.138151    
    101000   0.98792666     19.422205      60.737332    
    102000   0.98674048     19.329047      60.562318    
    103000   0.97437789     20.204692      60.452379    
    104000   0.99105165     19.117041      60.437966    
    105000   0.99868161     20.207761      59.990085    
    106000   0.95512105     19.132215      59.715617    
    107000   1.0303142      19.490452      59.679805    
    108000   1.0308127      19.976113      59.209362    
    109000   1.0145375      19.881977      59.102206    
    110000   0.99770388     19.396431      59.085098    
    111000   1.0368019      19.946175      58.879772    
    112000   1.0123683      19.58143       58.831967    
    113000   0.94727521     19.109403      58.584698    
    114000   0.97595801     19.743956      58.390928    
    115000   1.0732315      20.057237      57.987057    
    116000   0.98070837     19.010366      57.770188    
    117000   0.99898736     19.550578      57.870114    
    118000   1.0263635      18.850004      57.946871    
    119000   0.99419253     18.57661       58.037052    
    120000   1.0426507      19.574025      57.874882    
    121000   1.0123569      19.122972      57.562743    
    122000   0.99705089     19.10282       57.321727    
    123000   0.98802955     18.732542      56.850173    
    124000   0.98386419     18.847622      56.639504    
    125000   1.0427364      19.266051      56.210663    
    126000   1.0519042      18.514059      55.771243    
    127000   0.95948624     18.575286      55.470209    
    128000   0.97631591     19.524362      55.332344    
    129000   1.0355081      19.144375      55.561605    
    130000   1.0064322      18.506242      55.190779    
    131000   1.0080492      19.093448      54.896941    
    132000   1.015038       19.585247      54.760546    
    133000   1.0473806      19.038462      54.581248    
    134000   1.0087341      18.338082      54.338823    
    135000   1.0025243      19.114022      53.854463    
    136000   1.0310127      19.30824       53.774402    
    137000   1.0211462      19.026681      53.712173    
    138000   0.97026565     19.332987      53.401649    
    139000   0.97710136     18.754537      52.771135    
    140000   1.0368746      19.786964      52.978019    
    141000   1.0260335      18.921784      52.912652    
    142000   0.96341218     18.421744      52.636362    
    143000   0.99068627     19.033789      52.173157    
    144000   0.97984801     19.099672      52.000274    
    145000   0.95904466     19.22241       51.709259    
    146000   0.98082122     18.727672      51.668848    
    147000   1.0088015      19.196727      51.38733     
    148000   0.97973849     18.835369      51.008796    
    149000   1.0379642      19.321652      50.857925    
    150000   1.0600054      18.191795      50.653244    
    151000   1.0434232      19.150827      50.375338    
    152000   0.95910871     18.578839      50.353991    
    153000   0.95728361     18.658232      50.055734    
    154000   0.95848322     18.930112      49.890463    
    155000   0.9670853      18.728281      49.734343    
    156000   0.92268925     19.104038      49.757558    
    157000   1.0076819      18.898902      49.308475    
    158000   1.0764308      18.948966      49.109407    
    159000   1.0391636      19.090831      49.130894    
    160000   0.99278531     19.441434      48.873914    
    161000   0.99856882     18.753752      48.599392    
    162000   0.93635841     18.10149       48.350596    
    163000   1.0098062      18.851887      48.055356    
    164000   0.98043039     18.987161      47.667621    
    165000   1.0075584      18.944643      47.569742    
    166000   0.98383468     18.61162       47.472597    
    167000   1.0546684      19.7192        47.197493    
    168000   1.0374134      19.021361      47.112946    
    169000   1.0446022      18.807766      47.025825    
    170000   0.99243835     19.766533      47.166957    
    171000   1.0150988      19.41691       47.010093    
    172000   0.98015354     18.698633      46.996563    
    173000   1.0461365      19.24057       46.72174     
    174000   0.94830249     18.614648      46.513865    
    175000   0.95763453     18.02318       46.620616    
    176000   1.0652153      18.836113      46.35114     
    177000   0.9811091      18.209708      46.116361    
    178000   1.0142915      18.303613      45.895496    
    179000   1.0236826      18.700762      45.245098    
    180000   1.0078822      17.911485      44.829784    
    181000   0.98630657     18.197312      44.676151    
    182000   0.93646018     17.448713      44.690667    
    183000   0.99949573     18.6074        44.41169     
    184000   1.006814       18.71769       44.252379    
    185000   1.0342329      19.333893      43.924963    
    186000   1.000432       19.072429      44.081798    
    187000   1.0032372      19.048207      44.424156    
    188000   1.0810724      18.251815      44.067272    
    189000   0.99275689     18.400846      43.892511    
    190000   1.0102153      19.300557      43.744489    
    191000   1.0299922      18.672801      43.709058    
    192000   0.93925026     18.895765      43.246321    
    193000   0.97229313     19.065931      42.853446    
    194000   1.0280657      18.396064      42.699945    
    195000   0.97040676     19.246862      42.449883    
    196000   0.98696464     18.31436       42.311226    
    197000   0.94320624     18.784341      42.175596    
    198000   0.9663268      18.49109       41.980238    
    199000   1.0221226      18.936515      41.646899    
    200000   1.0296622      18.553415      41.615692    
    201000   1.0551601      18.713923      41.213414    
    202000   1.0546298      18.506682      40.893051    
    203000   1.0148436      18.307806      40.394115    
    204000   1.059554       18.879288      40.516476    
    205000   0.91455407     18.729993      40.53412     
    206000   0.99285236     17.900013      40.009057    
    207000   0.97539227     18.913899      39.815542    
    208000   1.0956363      18.504579      39.502611    
    209000   1.0099181      18.894677      39.297068    
    210000   1.0866944      18.657128      38.895959    
    211000   1.0070735      18.358682      38.60731     
    212000   0.97315096     17.975651      38.409078    
    213000   0.98154999     19.059577      38.303558    
    214000   1.0688009      18.601081      38.019338    
    215000   1.0246244      18.38549       37.492496    
    216000   0.99802245     19.124212      37.5211      
    217000   0.99578354     18.311332      37.414436    
    218000   0.98626334     18.188147      37.153545    
    219000   0.97900268     18.51304       37.182952    
    220000   0.94684356     19.101841      36.993382    
    221000   1.0071245      18.610234      36.823139    
    222000   0.97422765     18.289461      36.413617    
    223000   0.99267118     19.078308      36.463375    
    224000   0.99974133     19.375253      36.044567    
    225000   1.049929       18.982511      35.833802    
    226000   0.96926189     17.658155      35.993634    
    227000   0.9687907      18.045583      36.161005    
    228000   0.97370866     18.179291      35.575453    
    229000   1.0114851      18.552639      35.296601    
    230000   0.96781473     19.024126      35.072661    
    231000   1.0101444      18.768315      35.037371    
    232000   0.96691597     18.992676      34.627254    
    233000   1.0295714      18.119533      34.55626     
    234000   1.0002499      18.921743      34.332646    
    235000   1.0601809      18.419655      33.956675    
    236000   0.96883659     18.169854      33.634261    
    237000   0.95998946     17.450239      33.507696    
    238000   0.98375997     17.302682      33.561181    
    239000   0.99435048     18.317923      33.127266    
    240000   1.0389455      19.275099      32.907574    
    241000   0.99153766     19.745135      32.550383    
    242000   0.99417508     19.262351      32.534024    
    243000   1.060062       18.560752      32.251067    
    244000   1.0153777      18.224313      32.18594     
    245000   0.95329157     18.235526      31.979679    
    246000   1.0100509      18.882347      31.639301    
    247000   0.94796304     17.995876      31.38886     
    248000   1.0252744      17.664426      31.157926    
    249000   0.98333566     18.367754      30.710868    
    250000   1.0049422      18.484674      30.466201    
    251000   0.97440835     18.255469      30.314588    
    252000   0.95219096     18.389573      30.130665    
    253000   1.0486058      18.065858      29.940455    
    254000   1.0116928      17.966852      29.643691    
    255000   1.0490312      17.748551      29.349934    
    256000   1.0011507      17.410187      29.01368     
    257000   1.0259534      18.410987      28.658125    
    258000   1.0145789      18.873396      28.188183    
    259000   1.0285785      18.132864      28.317556    
    260000   1.0329438      18.548731      28.109149    
    261000   0.94530231     17.326599      28.034899    
    262000   0.94981516     17.627294      27.750522    
    263000   1.0238055      18.20437       27.618458    
    264000   0.9755853      18.073798      27.18645     
    265000   1.0307683      17.7533        26.742175    
    266000   0.97443503     17.741647      26.342584    
    267000   0.92418265     17.545213      25.832249    
    268000   1.0001835      19.060452      25.693401    
    269000   1.0053786      18.57066       25.715928    
    270000   1.0474048      18.159745      25.362058    
    271000   1.0692223      18.351104      25.126276    
    272000   0.98814716     18.300436      24.7426      
    273000   1.010842       17.727882      24.505152    
    274000   0.89840128     18.173005      24.647046    
    275000   0.97033651     17.994788      24.606609    
    276000   1.0174825      18.819557      24.242114    
    277000   0.92759711     17.940773      24.0024      
    278000   0.96557054     17.334396      23.877059    
    279000   0.9081733      17.531782      23.921252    
    280000   0.93882233     17.389577      23.782478    
    281000   0.95501248     17.504241      23.707501    
    282000   1.0054082      17.9246        23.764423    
    283000   0.99895943     18.466414      23.901172    
    284000   1.0034804      18.829479      23.972248    
    285000   1.0188319      18.308168      23.683416    
    286000   1.0130188      18.579351      23.532924    
    287000   1.0712104      18.424069      23.464902    
    288000   0.97765036     18.511789      23.362344    
    289000   0.96878528     17.84605       23.1085      
    290000   0.99422657     18.129531      22.843484    
    291000   0.97292816     18.115637      22.437853    
    292000   0.96834886     18.166154      22.704709    
    293000   1.0134361      18.32041       22.566992    
    294000   0.99262411     18.124365      22.503698    
    295000   1.0451148      17.083479      22.653321    
    296000   0.97416692     18.285056      22.477774    
    297000   0.99737915     17.846018      22.405014    
    298000   1.0034692      17.583996      22.035503    
    299000   1.0069851      18.096987      21.790752    
    300000   1.0096146      17.810833      21.378139    
    301000   0.99210637     18.697756      21.201364    
    302000   1.074364       18.034209      20.991499    
    303000   1.063659       17.519101      21.120428    
    304000   1.0028926      18.628774      20.793432    
    305000   1.0535646      18.517346      20.572041    
    306000   0.97508462     18.409935      20.588136    
    307000   0.91456841     18.168397      20.13076     
    308000   1.0191167      18.598711      19.845263    
    309000   1.020007       18.532163      19.586583    
    310000   1.0320854      17.774384      19.235576    
    311000   0.93631956     17.56007       18.63282     
    312000   1.0297651      17.837706      18.216701    
    313000   0.97742332     17.405282      18.201128    
    314000   0.95987463     18.891297      18.212833    
    315000   1.018343       18.167772      17.983187    
    316000   1.0088491      18.089394      17.646468    
    317000   0.94683759     18.035131      17.242124    
    318000   0.94511073     17.60574       16.912431    
    319000   0.96795024     18.25767       16.295994    
    320000   1.0163197      18.343169      15.976991    
    321000   1.0003898      18.787218      15.660869    
    322000   1.0151611      18.508076      15.682626    
    323000   1.0232766      17.016695      15.771862    
    324000   1.0454112      17.697653      15.580215    
    325000   1.0561989      17.965993      15.499297    
    326000   0.97236112     17.18472       15.282576    
    327000   1.0469259      18.330664      15.255706    
    328000   1.0178971      17.77962       15.010544    
    329000   1.0222099      17.979615      14.876786    
    330000   1.0022493      18.139188      14.764506    
    331000   0.97202602     17.839662      14.443313    
    332000   1.0200938      17.840704      14.240352    
    333000   0.99197343     18.194089      14.153958    
    334000   0.99268622     17.550043      13.817849    
    335000   0.99695715     17.180536      13.696988    
    336000   1.0216447      17.160834      13.180733    
    337000   0.96519961     17.667502      12.883703    
    338000   0.99821177     17.747943      12.731659    
    339000   1.0306751      18.767696      12.373364    
    340000   1.0618488      18.397747      11.972788    
    341000   0.99976641     17.950967      11.85363     
    342000   1.0063441      17.149039      11.117396    
    343000   1.0456821      17.766243      10.8871      
    344000   1.0053609      18.812528      10.790114    
    345000   1.0428728      17.583536      10.658936    
    346000   0.97172747     17.861024      10.192001    
    347000   0.9992537      18.108736      10.036653    
    348000   1.066829       17.548375      9.8334453    
    349000   0.9959948      17.064617      9.5372703    
    350000   0.9664607      18.061512      9.2704895    
    351000   1.0216075      18.510536      8.8991244    
    352000   1.0167682      17.41276       8.6680864    
    353000   1.018714       17.261278      8.3641668    
    354000   0.92822227     17.342525      8.3100984    
    355000   0.9975837      17.540052      8.2174084    
    356000   0.98879084     18.181968      8.2470805    
    357000   0.99216268     17.645929      8.0671293    
    358000   0.96317666     17.636452      7.7334735    
    359000   0.94407415     17.591972      7.3151177    
    360000   1.0429876      17.420761      7.1030771    
Fix halt condition for fix-id 3 met on step 361000 with value 6.722497489415332 (src/fix_halt.cpp:237)
    361000   0.95891817     17.49994       6.7224975    
Loop time of 324.874 on 2 procs for 261000 steps with 499 atoms

Performance: 694127.418 tau/day, 803.388 timesteps/s
54.4% CPU use with 2 MPI tasks x 1 OpenMP threads

MPI task timing breakdown:
Section |  min time  |  avg time  |  max time  |%varavg| %total
---------------------------------------------------------------
Pair    | 0.027296   | 40.125     | 80.223     | 633.0 | 12.35
Bond    | 0.037584   | 5.5176     | 10.998     | 233.3 |  1.70
Neigh   | 216.99     | 217        | 217.01     |   0.1 | 66.80
Comm    | 0.29386    | 0.31234    | 0.33082    |   3.3 |  0.10
Output  | 0.94914    | 0.96593    | 0.98271    |   1.7 |  0.30
Modify  | 0.35368    | 6.2082     | 12.063     | 235.0 |  1.91
Other   |            | 54.74      |            |       | 16.85

Nlocal:          249.5 ave         499 max           0 min
Histogram: 1 0 0 0 0 0 0 0 0 1
Nghost:              0 ave           0 max           0 min
Histogram: 2 0 0 0 0 0 0 0 0 0
Neighs:          31698 ave       63396 max           0 min
Histogram: 1 0 0 0 0 0 0 0 0 1

Total # of neighbors = 63396
Ave neighs/atom = 127.04609
Ave special neighs/atom = 1.995992
Neighbor list builds = 2386
Dangerous builds = 0

# This simulation is done
# Move onto the next one
clear
OMP_NUM_THREADS environment is not set. Defaulting to 1 thread. (src/comm.cpp:98)
  using 1 OpenMP thread(s) per MPI task
next f
jump SELF

###
# Reference paper:
# K. Kremer and G. S. Grest
# Dynamics of entangled linear polymer melts: A molecular-dynamics simulation
# J Chem Phys 92, 5057 (1990)

##################################
# MIHIR: for branched polymers
# LJ minimum first to expand and explore, then collapse
###

###
# Looping through the various tshaped polymers to simulate,
# define variables to switch through
variable f index bb66nuc1bl33bn3d30tot100 bb133nuc1bl66bn3d30tot200 bb200nuc1bl100bn3d30tot300 bb266nuc1bl133bn3d30tot400 bb333nuc1bl166bn3d30tot500 bb400nuc1bl200bn3d30tot600 bb466nuc1bl233bn3d30tot700 bb533nuc1bl266bn3d30tot800 bb600nuc1bl300bn3d30tot900 bb666nuc1bl333bn3d30tot1000 bb733nuc1bl366bn3d30tot1100 bb800nuc1bl400bn3d30tot1200
###


###
# Box and units  (use LJ units and periodic boundaries)
###

units lj
log tshaped/logs/$f.log
log tshaped/logs/bb400nuc1bl200bn3d30tot600.log
