#atom_style bond #no stiffness
atom_style angle #with stiffness

boundary        p p p
###
# Pair interactions require lists of neighbours to be calculated
###

#neighbor 0.3 bin
neighbor 4 bin

neigh_modify every 1 delay 1 check yes
atom_modify sort 0 0
### Generate RESTART file, SPECIAL format, not a .txt file ###
### Useful if simulation crashes ###

restart 1000000 tshaped/restarts/$f.restart
restart 1000000 tshaped/restarts/bb400nuc1bl200bn3d30tot600.restart
#############################



### READ "start" data file ###

read_data tshaped/$f.dat
read_data tshaped/bb400nuc1bl200bn3d30tot600.dat
Reading data file ...
  orthogonal box = (-1000 -1000 -1000) to (1000 1000 1000)
  1 by 1 by 2 MPI processor grid
  reading atoms ...
  601 atoms
  scanning bonds ...
  2 = max bonds/atom
  scanning angles ...
  3 = max angles/atom
  reading bonds ...
  600 bonds
  reading angles ...
  600 angles
Finding 1-2 1-3 1-4 neighbors ...
  special bond factors lj:    0        0        0       
  special bond factors coul:  0        0        0       
     3 = max # of 1-2 neighbors
     3 = max # of 1-3 neighbors
     6 = max # of 1-4 neighbors
     9 = max # of special neighbors
  special bonds CPU = 0.001 seconds
  read_data CPU = 0.076 seconds

######################

### READ "REstart" data file ###

######################



###
# Define groups (atom type 1 is group 'all')
###
group all type 1
601 atoms in group all


###
# Dump configs - "simple dumpings"
###

###
# Dump configs + box coords
###

dump   1   all   custom   1000  tshaped/trjs/$f.lammpstrj  id  x y z  ix iy iz
dump   1   all   custom   1000  tshaped/trjs/bb400nuc1bl200bn3d30tot600.lammpstrj  id  x y z  ix iy iz
dump_modify   1   format line "%d %.5f %.5f %.5f %d %d %d"

########################################################################


###################################################################
# Stiffness term
#
# E = K * (1+cos(theta)), K>0
#
angle_style   cosine
#change this coefficient to change stiffness (e.g. 1,5,10)
angle_coeff   1 1.0
###################################################################

###################################################################
# Pair interaction between non-bonded atoms
#
#  Lennard-Jones 12-6 potential with cutoff:
#  potential E=4epsilon[ (sigma/r)^12 - (sigma/r)^6]  for r<r_cut
#
#  1.12246 = 2^(1/6) is the minimum of the potential


pair_style      lj/cut 1.12246152962189
#pair_style      lj/cut 3

#
#  pair_modify shift yes adds a constant to the potential such

#  that E(r_cut)=0. Forces remains unchanged.
#

pair_modify     shift yes

#
#  pair_coeff for lj/cut, specify 4:
#    * atom type interacting with
#    * atom type
#    * epsilon (energy units)
#    * sigma (distance units)
#

pair_coeff      1 1 1.0 1.0
###################################################################

###################################################################
# Pair interaction between non-bonded atoms
#
#  soft potential, for PUSHING apart overlapping atoms
#  potential E=A*(1 + cos(pi*r/r_c))
#
#  1.12246 = 2^(1/6) is the cut-off r_c

#pair_style     soft 1.12246152962189

#
#  pair_coeff for soft, specify 3:
#    * atom type interacting with
#    * atom type
#    * A
#
#

#pair_coeff      1 1 100.0
###################################################################

###################################################################
# Pair interaction between bonded atoms
#
# Fene potential + Lennard Jones 12-6:

#
#  E= - 0.5 K R0^2 ln[ 1- (r/R0)^2]
#     + 4epsilon[ (sigma/r)^12 - (sigma/r)^6] + epsilon
#

bond_style   fene


#
# For style fene, specify:
#   * bond type
#   * K (energy/distance^2)
#   * R0 (distance)
#   * epsilon (energy)  (LJ component)
#   * sigma (distance)  (LJ component)
#


special_bonds fene #<=== I M P O R T A N T (new command)
Finding 1-2 1-3 1-4 neighbors ...
  special bond factors lj:    0        1        1       
  special bond factors coul:  0        1        1       
     3 = max # of 1-2 neighbors
     9 = max # of special neighbors
  special bonds CPU = 0.000 seconds

bond_coeff   1   30   2   1.0   1.0


###################################################

###################################################################
# Pair interaction between bonded atoms
#
# Harmonic potential:
#
#  E= K * (R-R0)^2
#

#bond_style   harmonic

#
# For style harmonic, specify:
#   * bond type
#   * K (energy/distance^2)
#   * R0 (distance)
#

#bond_coeff   1   60.0   1.0
#bond_coeff   2   harmonic 0.1   1.0

###################################################
compute 1 all gyration
variable rog equal c_1
#compute 2 all coord/atom cutoff 1.1

#dump 2 all custom 10000 contact_number.dump id c_2


###
# Set up fixes
###
thermo_style   custom   step  temp enthalpy c_1
fix 1 all nve   ###NVE ensemble

fix 2 all   langevin   1.0 1.0 1.0  100103   ###Langevin integrator Tstart Tstop 1/friction rndseed


##### Sample thermodynamic info  (temperature, energy, pressure, etc.) #####
thermo 1000









############################################################################

###
# set timestep of integrator

timestep 0.01

###
# run integration for a number of steps
###
#run 0
#variable r equal c_1
#if "$r < 63.1" then "quit 1"

# lj potential minimum, cause molecule to explore
run 100000
Generated 0 of 0 mixed pair_coeff terms from geometric mixing rule
Neighbor list info ...
  update: every = 1 steps, delay = 1 steps, check = yes
  max neighbors/atom: 2000, page size: 100000
  master list distance cutoff = 5.1224615
  ghost atom cutoff = 5.1224615
  binsize = 2.5612308, bins = 781 781 781
  1 neighbor lists, perpetual/occasional/extra = 1 0 0
  (1) pair lj/cut, perpetual
      attributes: half, newton on
      pair build: half/bin/newton
      stencil: half/bin/3d
      bin: standard
WARNING: Communication cutoff 5.12246152962189 is shorter than a bond length based estimate of 5.455. This may lead to errors. (src/comm.cpp:723)
Per MPI rank memory allocation (min/avg/max) = 939.4 | 940.1 | 940.7 Mbytes
   Step          Temp         Enthalpy         c_1      
         0   0              13.220355      105.26482    
      1000   0.95629162     17.726592      104.70176    
      2000   1.0172311      18.060519      104.09343    
      3000   1.014863       18.188431      103.46896    
      4000   1.008512       18.093794      102.98937    
      5000   1.0083478      18.411205      102.3622     
      6000   1.0027266      18.559104      101.69262    
      7000   1.0134437      19.14324       101.2197     
      8000   0.95145369     18.256553      100.94167    
      9000   0.98799561     18.27679       100.24902    
     10000   1.0233259      17.903707      99.585438    
     11000   0.97742681     18.633635      99.456807    
     12000   1.0313668      18.942339      98.836023    
     13000   0.97556365     19.575556      98.434627    
     14000   1.0167418      19.060761      98.151726    
     15000   0.97865364     18.743763      97.818432    
     16000   1.0638258      18.979944      97.570101    
     17000   0.92320658     19.242624      97.465647    
     18000   0.95635926     18.837982      97.173616    
     19000   0.95688272     18.82556       96.690032    
     20000   1.0228541      19.105904      96.429191    
     21000   0.99705487     18.856012      96.05593     
     22000   0.9558173      18.919705      96.044029    
     23000   0.97231755     19.163687      96.050592    
     24000   1.0168097      18.854687      95.798553    
     25000   1.0183795      19.746912      95.103527    
     26000   1.0650688      19.786441      94.749416    
     27000   1.0303674      19.575006      94.35256     
     28000   0.9533756      18.971155      94.258103    
     29000   0.94453397     19.505768      93.925326    
     30000   1.0911745      19.877203      93.311991    
     31000   1.052541       19.604845      92.842819    
     32000   1.0108718      20.008927      92.677602    
     33000   1.0343423      19.669811      92.170887    
     34000   0.97233742     20.00598       91.765375    
     35000   0.99179808     19.479123      91.662603    
     36000   0.98881256     19.681838      91.193674    
     37000   1.0185782      19.272456      90.729853    
     38000   1.0339916      19.400244      90.450114    
     39000   0.95589061     19.669245      90.175534    
     40000   0.95493363     19.009086      89.723145    
     41000   0.99968228     19.576567      89.788689    
     42000   1.003259       19.624326      89.597641    
     43000   1.0106566      19.954943      89.109765    
     44000   1.0015705      19.411818      88.882996    
     45000   0.96752042     19.90049       88.65081     
     46000   1.0026686      19.80785       88.574106    
     47000   1.0749596      19.661909      88.267812    
     48000   0.9875843      19.63557       87.981322    
     49000   0.98220233     19.939555      87.864553    
     50000   1.0197295      20.886579      87.708013    
     51000   0.99713879     19.921072      87.439287    
     52000   1.0137047      19.987108      87.047938    
     53000   1.0051363      19.349786      86.756676    
     54000   0.94310774     19.668443      86.556053    
     55000   1.0263807      20.187967      86.192017    
     56000   1.05216        19.999449      85.908279    
     57000   0.98768597     19.603062      85.932005    
     58000   0.96829445     19.898415      85.708186    
     59000   1.0327305      20.471323      85.510303    
     60000   0.99282822     19.775037      85.295204    
     61000   0.96026088     20.987928      85.408157    
     62000   1.0246443      19.89939       85.157687    
     63000   1.0728455      20.238439      84.879589    
     64000   1.0184732      19.883552      84.77404     
     65000   1.0597918      20.136663      84.534302    
     66000   0.98823811     19.55675       84.625622    
     67000   1.0162208      20.39984       84.313939    
     68000   0.98389895     20.30058       84.059271    
     69000   0.99640645     19.907391      83.700665    
     70000   0.96747091     20.529347      83.79815     
     71000   1.0823499      20.163778      83.618142    
     72000   0.97407513     20.359913      83.275798    
     73000   1.0430034      20.158766      83.272713    
     74000   1.0542486      20.021747      83.260392    
     75000   1.0604347      20.081571      83.055079    
     76000   1.0185144      20.60687       83.088012    
     77000   0.9811309      19.990451      83.119584    
     78000   0.99763061     19.849863      83.129614    
     79000   0.97123616     20.120238      83.25346     
     80000   0.96953677     19.995354      83.130459    
     81000   1.0366591      19.882782      82.963617    
     82000   0.96432563     20.019997      82.701047    
     83000   1.0151351      19.501007      82.658306    
     84000   0.91606949     19.391876      82.301466    
     85000   1.0414823      20.555081      82.206261    
     86000   1.0547005      20.457246      82.093195    
     87000   0.97941927     19.764111      81.284305    
     88000   0.96580966     20.349912      81.081818    
     89000   0.96845005     19.99085       80.858488    
     90000   1.0176709      20.31269       80.880875    
     91000   1.0275735      20.711019      80.971825    
     92000   0.94673346     20.313326      80.993937    
     93000   0.97215494     20.238298      80.862745    
     94000   0.98471585     19.848597      80.772656    
     95000   0.98605625     20.212295      80.289554    
     96000   1.012442       20.401867      80.132224    
     97000   0.92268779     19.906849      79.977896    
     98000   1.001761       20.514797      79.841263    
     99000   0.98352051     20.130276      79.433115    
    100000   1.0110778      20.261388      78.882604    
Loop time of 255.958 on 2 procs for 100000 steps with 601 atoms

Performance: 337555.631 tau/day, 390.689 timesteps/s
55.1% CPU use with 2 MPI tasks x 1 OpenMP threads

MPI task timing breakdown:
Section |  min time  |  avg time  |  max time  |%varavg| %total
---------------------------------------------------------------
Pair    | 0.027557   | 0.88658    | 1.7456     |  91.2 |  0.35
Bond    | 0.009576   | 2.2503     | 4.4909     | 149.4 |  0.88
Neigh   | 242.62     | 242.62     | 242.62     |   0.0 | 94.79
Comm    | 0.10026    | 0.13465    | 0.16903    |   9.4 |  0.05
Output  | 0.45975    | 0.46597    | 0.47218    |   0.9 |  0.18
Modify  | 0.042461   | 2.5682     | 5.094      | 157.6 |  1.00
Other   |            | 7.031      |            |       |  2.75

Nlocal:          300.5 ave         601 max           0 min
Histogram: 1 0 0 0 0 0 0 0 0 1
Nghost:              0 ave           0 max           0 min
Histogram: 2 0 0 0 0 0 0 0 0 0
Neighs:         1723.5 ave        3447 max           0 min
Histogram: 1 0 0 0 0 0 0 0 0 1

Total # of neighbors = 3447
Ave neighs/atom = 5.7354409
Ave special neighs/atom = 1.9966722
Neighbor list builds = 1043
Dangerous builds = 0

# Replace lj potential, now collapse
pair_style      lj/cut 3

# Cutoff simul when gyration under 5
# Variable created with equal requires v_ + 'name'
fix 3 all halt 1000 v_rog < 7

run 5000000
Generated 0 of 0 mixed pair_coeff terms from geometric mixing rule
Per MPI rank memory allocation (min/avg/max) = 939.4 | 940.1 | 940.7 Mbytes
   Step          Temp         Enthalpy         c_1      
    100000   1.0110778      19.639347      78.882604    
    101000   0.96715952     19.129552      78.863863    
    102000   1.0018135      20.123977      78.47847     
    103000   1.0023594      19.847614      77.968532    
    104000   1.0643027      19.987399      77.576991    
    105000   1.0655104      19.385062      77.336989    
    106000   0.99671194     19.398522      77.209983    
    107000   1.0032488      19.720684      77.127382    
    108000   1.0078599      20.310404      77.094849    
    109000   0.97560592     19.929717      76.668781    
    110000   0.96684348     19.455303      76.35117     
    111000   0.92957386     19.452463      75.988497    
    112000   1.0429737      19.311077      75.842793    
    113000   1.048482       19.080286      75.515327    
    114000   0.99734385     19.227335      75.488068    
    115000   1.0047967      19.263296      75.287236    
    116000   1.0348985      19.063244      75.13414     
    117000   0.96773781     19.140769      75.120764    
    118000   0.98914423     18.995246      74.808204    
    119000   0.99962914     19.236722      74.425352    
    120000   0.96693993     18.672267      73.922368    
    121000   0.96377575     19.14235       73.884959    
    122000   0.98938391     19.946672      73.511229    
    123000   0.99579143     18.81509       73.318109    
    124000   0.9733097      19.879495      73.340685    
    125000   0.99580005     19.298786      72.760552    
    126000   0.98129056     19.781091      72.358487    
    127000   1.0387329      19.429646      72.225617    
    128000   1.0390352      19.186422      71.900939    
    129000   1.014056       18.574865      71.176642    
    130000   0.94548901     18.686242      71.198668    
    131000   0.99482579     19.050124      71.082761    
    132000   0.99160136     19.628924      70.759077    
    133000   0.94576393     18.918355      70.465388    
    134000   1.0376632      18.947235      69.845336    
    135000   1.0162752      18.955929      69.410411    
    136000   1.0157058      18.820538      69.338563    
    137000   0.98670372     19.732019      69.320786    
    138000   0.99324228     19.183109      69.006158    
    139000   0.97087415     18.927959      68.990209    
    140000   1.0013087      18.741164      69.018358    
    141000   1.0358066      19.197727      68.868023    
    142000   1.0374996      19.015327      68.643143    
    143000   1.0344136      18.760929      68.610969    
    144000   0.94586102     19.26525       68.589235    
    145000   1.0634153      19.740787      68.516215    
    146000   0.99116666     19.331658      68.607664    
    147000   1.0509941      19.371231      68.351376    
    148000   1.0398776      18.535294      68.252148    
    149000   1.0452967      19.365871      67.943577    
    150000   1.0484648      19.805958      67.215729    
    151000   1.0090392      19.999664      67.160126    
    152000   0.9658989      18.795544      66.984123    
    153000   0.99862835     19.333396      66.650364    
    154000   1.0262542      19.196594      66.40056     
    155000   1.0147125      19.647845      66.209648    
    156000   1.0697282      19.479772      65.926131    
    157000   1.0240248      19.153886      65.80954     
    158000   1.0002664      18.66894       65.427246    
    159000   0.9191496      19.713657      65.50288     
    160000   1.0029364      19.843548      65.489965    
    161000   1.0219938      19.233012      65.843212    
    162000   0.96534504     19.059567      65.62381     
    163000   1.0016751      18.890306      65.483114    
    164000   0.98465903     19.046597      65.368373    
    165000   1.0010435      19.315975      65.139635    
    166000   0.93842357     19.111402      64.61903     
    167000   0.95844743     19.25895       64.389624    
    168000   1.0031197      19.119727      64.036781    
    169000   1.0215728      18.344928      64.056723    
    170000   1.0292417      19.692737      63.993804    
    171000   0.95739141     19.351924      63.779585    
    172000   0.96901635     18.437548      63.849356    
    173000   1.034758       18.550043      63.48146     
    174000   0.97577656     19.193037      63.186868    
    175000   0.98262829     18.967916      63.116299    
    176000   0.99137925     18.481151      62.936577    
    177000   1.0365859      19.247079      62.877147    
    178000   1.0117374      19.010845      62.332226    
    179000   0.97449204     18.689807      62.292055    
    180000   1.0113546      19.049973      62.297828    
    181000   0.97581087     19.201422      62.24251     
    182000   1.0028256      19.54975       61.711558    
    183000   1.0077423      18.840708      61.536452    
    184000   0.99040103     18.875193      61.168898    
    185000   1.037769       19.621162      61.298205    
    186000   1.06828        18.756051      61.622217    
    187000   0.99094434     18.892147      61.129945    
    188000   1.0090719      18.932457      60.666713    
    189000   0.9669259      19.122198      60.278884    
    190000   0.97768523     18.990052      60.205493    
    191000   0.93703574     18.895645      60.080229    
    192000   0.95732321     19.498512      60.069952    
    193000   0.9407         18.467534      59.981245    
    194000   0.97733471     19.03952       60.219641    
    195000   0.9798059      19.005356      59.645716    
    196000   1.0531599      19.306041      59.229057    
    197000   0.93504496     18.725605      58.753061    
    198000   1.0715952      19.158221      58.589965    
    199000   0.99951845     18.961583      58.763635    
    200000   0.98584984     19.118445      58.771002    
    201000   1.0085643      19.518966      58.633473    
    202000   1.0527301      19.539208      58.233288    
    203000   1.0329313      19.176257      57.918958    
    204000   1.0125955      19.436832      57.739317    
    205000   1.0186093      19.476578      57.637183    
    206000   0.98118597     18.398424      57.761887    
    207000   1.024463       19.233244      57.643344    
    208000   1.0178128      19.710468      57.356711    
    209000   1.0019823      18.843861      57.360895    
    210000   1.05946        18.921735      57.007337    
    211000   0.99743487     19.244778      57.218056    
    212000   0.96225366     18.502745      57.003636    
    213000   0.95664498     18.196416      57.015573    
    214000   0.96576874     19.182374      56.66344     
    215000   0.94017919     18.792125      56.725551    
    216000   0.97830396     18.359487      56.648256    
    217000   1.0398738      19.049909      56.254626    
    218000   0.95787556     18.733882      55.96656     
    219000   1.0062645      18.63899       55.767347    
    220000   0.98304373     19.046107      55.618884    
    221000   1.0525708      18.629039      55.415768    
    222000   1.0156615      19.352335      55.350567    
    223000   1.0075358      18.271712      55.187636    
    224000   0.97844422     18.650022      55.166043    
    225000   0.961862       18.223341      55.078546    
    226000   0.98192617     18.092389      55.261196    
    227000   1.006026       18.845868      55.192787    
    228000   0.98447032     18.560338      55.060458    
    229000   1.0140991      18.947158      55.345177    
    230000   1.0078622      18.744283      55.07158     
    231000   1.0373863      18.924681      55.013643    
    232000   1.0605384      18.317287      55.066197    
    233000   0.9779914      18.519139      54.961557    
    234000   0.99030827     19.609292      54.600544    
    235000   1.0005485      18.405458      54.288498    
    236000   1.0612443      18.94892       54.133395    
    237000   1.0029523      19.932984      54.091594    
    238000   0.98960364     18.671232      54.04526     
    239000   0.94463222     18.360259      54.089411    
    240000   1.0564641      19.035853      53.959223    
    241000   0.98440644     18.741217      53.520943    
    242000   1.0296739      18.761987      53.294597    
    243000   0.95604608     18.897496      53.023223    
    244000   0.99947846     18.105849      52.780001    
    245000   0.96339429     18.035437      52.889995    
    246000   0.99001083     19.013048      52.595372    
    247000   1.0146129      18.58874       52.344016    
    248000   1.0048369      19.22759       52.097293    
    249000   1.0060328      17.224034      51.753665    
    250000   0.99799179     18.929355      51.439437    
    251000   1.0507123      18.512196      51.104222    
    252000   0.98776685     18.046428      50.799779    
    253000   0.99694408     18.888952      50.611828    
    254000   1.0614925      18.619142      50.29064     
    255000   1.0470211      18.907917      50.044752    
    256000   1.0579366      19.813595      49.616301    
    257000   1.0112904      18.477395      49.478276    
    258000   1.0638454      18.558713      49.245626    
    259000   0.94389392     18.538806      49.013408    
    260000   1.0772321      19.314235      49.012787    
    261000   1.0290463      18.148274      49.22434     
    262000   1.0214178      18.476345      48.929411    
    263000   1.0232705      18.20069       48.658306    
    264000   1.0793751      18.909132      48.641213    
    265000   0.93900786     18.403899      48.701861    
    266000   1.0383707      19.514935      48.476044    
    267000   1.0300959      18.169287      48.56192     
    268000   0.99636035     18.779604      48.495416    
    269000   1.0178279      18.623731      47.87762     
    270000   0.96095372     18.468766      47.856077    
    271000   0.99828848     18.201561      47.617271    
    272000   1.0285844      18.447224      47.744659    
    273000   0.95128955     18.456309      47.76496     
    274000   0.98944308     18.302329      47.699461    
    275000   1.0356175      18.763776      47.188313    
    276000   0.97059733     18.053422      46.913697    
    277000   0.97591332     18.660713      47.042761    
    278000   0.97141471     18.013964      47.142271    
    279000   1.0204778      18.447632      46.572788    
    280000   1.0108639      19.021442      46.359214    
    281000   1.00076        17.992392      46.072827    
    282000   1.0304774      18.573227      45.950883    
    283000   1.0014847      18.135248      45.930127    
    284000   1.0290003      18.548889      45.994188    
    285000   0.96494733     18.883887      45.722586    
    286000   1.0268572      18.023069      45.68125     
    287000   0.99836999     18.272997      45.729188    
    288000   1.0022768      19.02071       45.548004    
    289000   1.0429335      18.30271       45.435723    
    290000   1.0261481      17.8411        45.158324    
    291000   0.97395069     17.976345      44.757407    
    292000   0.93105635     18.029386      44.558503    
    293000   0.97372349     18.551683      44.315668    
    294000   0.98959713     18.303054      44.123027    
    295000   1.0193717      18.250053      44.195299    
    296000   1.0500353      17.637397      44.109942    
    297000   0.98527599     17.942037      43.807743    
    298000   1.0426634      18.237831      43.958875    
    299000   0.96485781     18.922122      43.71936     
    300000   1.0289909      18.496039      43.317506    
    301000   1.0381125      18.712746      43.153882    
    302000   0.93841758     17.677091      42.863582    
    303000   0.96017325     18.329795      43.11196     
    304000   0.97730867     18.932624      43.155318    
    305000   1.007205       18.116654      42.915367    
    306000   1.0503331      18.128983      42.64573     
    307000   0.98759111     17.807025      42.305906    
    308000   1.0112387      18.321564      42.185907    
    309000   1.0109065      18.534004      41.928811    
    310000   0.9825722      18.447276      41.696304    
    311000   1.0079628      18.077123      41.414854    
    312000   1.0262181      17.967752      41.540049    
    313000   0.97201466     17.935269      41.48903     
    314000   1.0121684      18.589291      41.578167    
    315000   0.98099564     17.465273      41.449739    
    316000   0.97649874     17.813666      41.280849    
    317000   1.0180469      17.751266      41.204552    
    318000   1.0537202      18.205289      40.810042    
    319000   1.0199535      18.729036      40.67794     
    320000   1.0353936      18.226981      40.618931    
    321000   0.97853345     18.463174      40.375096    
    322000   0.98361157     17.647647      40.367541    
    323000   0.92632911     18.743351      40.128144    
    324000   0.96676511     18.219928      40.072134    
    325000   1.0124541      18.123623      40.062548    
    326000   1.0498773      18.254375      39.933261    
    327000   1.052219       19.397967      39.650321    
    328000   1.0334119      18.358728      39.605756    
    329000   1.0350233      18.042         39.369397    
    330000   1.0401059      17.772293      39.363586    
    331000   0.98635955     18.71015       39.102889    
    332000   0.9795945      17.580819      39.327113    
    333000   1.024337       18.773618      39.144464    
    334000   0.96526356     18.121339      38.946584    
    335000   1.0643095      17.924084      38.868454    
    336000   1.0108828      18.672248      38.899886    
    337000   0.99368934     18.466588      38.699881    
    338000   1.0281356      18.099903      38.388832    
    339000   0.99390506     18.158612      37.89529     
    340000   0.99236884     19.142787      37.744192    
    341000   0.99379591     18.338518      37.618526    
    342000   0.99978837     17.726993      37.658517    
    343000   0.97452436     18.027118      37.224331    
    344000   1.0557308      18.22317       37.238848    
    345000   1.0218008      18.735572      37.207788    
    346000   0.96982065     17.739658      37.436362    
    347000   0.96686441     17.894272      37.520733    
    348000   1.0386186      18.16493       37.385256    
    349000   0.99627594     18.581524      37.252254    
    350000   1.0010282      18.871608      37.383076    
    351000   0.99348781     19.033404      37.503103    
    352000   1.0478609      18.212476      37.20689     
    353000   1.030522       18.473235      37.093342    
    354000   0.95819252     18.817984      36.750108    
    355000   0.98910162     19.284287      36.545083    
    356000   1.0333639      18.580949      36.550854    
    357000   1.020328       18.533708      36.269175    
    358000   0.94287003     18.327118      36.21344     
    359000   0.9787577      18.330294      35.933483    
    360000   1.0315422      17.623929      35.799144    
    361000   0.95468466     17.780792      35.915976    
    362000   1.0273829      18.912606      35.975201    
    363000   1.0493754      18.040114      36.123908    
    364000   0.99981309     18.006042      36.263461    
    365000   1.0159304      18.321676      36.113076    
    366000   1.0478552      17.100191      35.773121    
    367000   1.0440388      18.569066      35.693597    
    368000   1.0240652      18.779119      35.656932    
    369000   1.0189938      18.505202      35.419629    
    370000   1.0015085      17.719764      34.961387    
    371000   1.0042223      18.371259      34.898245    
    372000   0.93260713     17.838586      34.768432    
    373000   1.0125416      18.685309      34.636183    
    374000   1.0036732      17.815533      34.10584     
    375000   0.99731948     17.712104      34.099378    
    376000   1.0057072      18.563468      33.829958    
    377000   0.99128763     18.345305      33.892487    
    378000   0.97590034     18.128152      33.881975    
    379000   1.0034947      18.576303      33.77061     
    380000   1.0190819      18.412034      33.409244    
    381000   0.97947839     18.064038      33.310791    
    382000   0.96504052     17.855485      33.251928    
    383000   1.0081267      17.960505      33.287773    
    384000   0.97282666     17.8058        32.922605    
    385000   1.0584346      18.579172      32.905767    
    386000   0.99441373     18.486109      32.976685    
    387000   1.0418151      18.826677      32.681263    
    388000   1.015875       18.047566      32.779667    
    389000   1.030102       17.753155      32.895956    
    390000   1.0342716      18.825917      32.60104     
    391000   1.0094043      17.792617      32.530733    
    392000   0.9614226      18.001573      32.237805    
    393000   0.97798208     17.799994      32.010193    
    394000   0.96447049     18.119646      31.782221    
    395000   0.97971477     18.421561      31.746427    
    396000   1.0425408      18.661355      31.735984    
    397000   0.95158148     17.508093      31.679099    
    398000   0.95146596     17.302647      31.842496    
    399000   1.0520038      17.742678      31.868768    
    400000   1.0143543      17.37599       31.925921    
    401000   1.0245584      17.792077      31.893178    
    402000   0.96182442     19.188989      31.732818    
    403000   1.0399482      17.922441      32.051594    
    404000   1.0060455      18.592666      31.910371    
    405000   0.97720811     17.392112      31.564632    
    406000   0.99791085     17.929567      31.071933    
    407000   0.96529995     17.737139      31.094951    
    408000   0.95854408     17.858975      30.801658    
    409000   0.98506258     17.957324      30.614352    
    410000   1.0655205      18.5441        30.413588    
    411000   1.0852086      18.396976      30.134023    
    412000   0.99794133     18.026167      30.23147     
    413000   0.99732059     18.485354      30.155428    
    414000   0.97309582     17.712862      29.933855    
    415000   1.005073       18.010145      29.596705    
    416000   1.0120553      18.223725      29.586822    
    417000   1.013208       18.299363      29.637833    
    418000   0.97068248     18.307257      29.525171    
    419000   1.0088302      17.885449      29.514069    
    420000   0.99502772     18.25699       29.76783     
    421000   1.035788       17.759201      29.885893    
    422000   0.95538897     17.640706      29.743685    
    423000   0.96594317     18.302022      29.687731    
    424000   1.048673       17.940235      29.390235    
    425000   1.0118218      17.788596      29.057383    
    426000   1.0277351      18.155058      28.66461     
    427000   1.0484734      18.255585      28.553448    
    428000   1.0661484      18.192039      28.423805    
    429000   1.0090595      17.648749      28.292622    
    430000   1.0218032      17.521087      27.875817    
    431000   1.0117853      17.579265      27.831164    
    432000   1.0057543      17.764403      27.806932    
    433000   1.002489       18.559461      27.73817     
    434000   1.0293371      18.143409      27.644799    
    435000   0.98367043     17.996821      27.680419    
    436000   1.0113952      17.992847      27.431501    
    437000   0.97273604     17.640163      27.363423    
    438000   1.0024265      17.566483      27.170503    
    439000   0.97134018     18.34381       27.332163    
    440000   0.99412728     18.091648      27.016872    
    441000   1.0306267      17.969224      26.935901    
    442000   1.0334705      18.121491      27.062307    
    443000   0.99886994     18.52602       26.92582     
    444000   1.002806       17.878151      26.728028    
    445000   0.98357493     18.158829      26.545436    
    446000   1.0192944      18.894014      26.583562    
    447000   0.97113487     17.851604      26.160102    
    448000   0.99931585     17.888797      25.869111    
    449000   0.98075197     17.068277      25.597004    
    450000   1.0098083      17.675016      25.409644    
    451000   1.0225393      18.113086      25.257117    
    452000   1.0403835      18.287563      25.204611    
    453000   0.97504596     17.288226      24.972033    
    454000   0.99883202     17.873779      24.962504    
    455000   0.95542726     17.601385      24.910444    
    456000   0.9751714      17.807733      24.610042    
    457000   0.96866996     17.600867      24.791037    
    458000   1.0232188      17.65776       24.764667    
    459000   0.95880214     18.531772      24.51914     
    460000   0.96562601     17.445042      24.198173    
    461000   0.98227985     17.846453      24.017049    
    462000   0.98792227     17.619968      23.839868    
    463000   1.0235897      18.509268      23.71699     
    464000   0.98495086     17.813245      23.835297    
    465000   1.0058755      18.295214      23.812658    
    466000   0.99310323     18.444958      23.577922    
    467000   1.0093218      17.842196      23.357716    
    468000   1.1050413      17.869574      23.28538     
    469000   1.0472589      18.299921      23.167621    
    470000   1.0407207      18.316665      23.141004    
    471000   1.0062858      17.661307      22.983874    
    472000   0.97060042     18.670776      22.73426     
    473000   1.0231708      17.880186      23.033681    
    474000   1.0071025      18.381949      22.762102    
    475000   0.98119835     17.665778      22.898546    
    476000   1.0310125      17.698366      22.900579    
    477000   1.0612866      17.693534      22.629277    
    478000   0.92092486     16.670147      22.456239    
    479000   0.97274495     17.770534      22.48675     
    480000   1.0037802      18.040378      22.552262    
    481000   0.9824262      17.765616      22.261364    
    482000   0.9590685      17.232028      21.873981    
    483000   0.96863543     17.674826      21.70028     
    484000   0.95823446     18.258776      21.464411    
    485000   1.0017835      17.592039      21.299679    
    486000   0.95129772     17.451872      21.292618    
    487000   1.0408906      17.653217      21.241397    
    488000   0.97767482     17.632807      20.945412    
    489000   1.0196277      18.131896      20.601975    
    490000   1.009352       17.510354      20.42839     
    491000   1.0020851      17.352991      20.252342    
    492000   1.0717512      17.938917      20.100462    
    493000   1.0093848      18.136314      19.869461    
    494000   1.0321384      17.989256      19.587858    
    495000   0.98710373     17.855717      19.527414    
    496000   0.97754496     18.042218      19.475273    
    497000   0.93693721     16.957808      19.237542    
    498000   1.0170218      17.608112      19.069038    
    499000   0.9960721      17.848684      18.811474    
    500000   0.96850271     18.330147      18.750283    
    501000   1.0140935      17.804759      18.939317    
    502000   1.0402263      17.163129      18.963999    
    503000   0.97492655     17.135685      18.692135    
    504000   0.98351393     17.46066       18.622452    
    505000   0.93117699     17.655903      18.523832    
    506000   1.011597       17.455851      18.051793    
    507000   1.054023       18.037312      18.012082    
    508000   0.99075418     18.403458      17.649991    
    509000   1.035079       17.596097      17.367361    
    510000   1.0343865      18.422353      17.163426    
    511000   0.97545125     16.929405      16.947489    
    512000   1.0227075      18.2251        16.984405    
    513000   0.95956943     17.628443      16.744613    
    514000   0.95207757     17.761039      16.671361    
    515000   0.93210961     17.150772      16.581535    
    516000   1.0029475      17.27711       16.215581    
    517000   0.9862236      17.533497      16.280512    
    518000   1.0084725      18.00892       16.260516    
    519000   1.026043       18.068734      15.967355    
    520000   1.0140227      17.151688      15.72733     
    521000   0.97286137     18.063045      15.627583    
    522000   1.0069625      17.427367      15.186442    
    523000   1.0044615      17.641802      15.085701    
    524000   1.0130303      17.717937      14.872079    
    525000   1.0218052      17.81834       15.033491    
    526000   1.0233307      17.910358      14.91618     
    527000   0.97885086     17.319315      14.88202     
    528000   1.0230395      18.09021       15.030629    
    529000   0.98110993     16.455392      15.024997    
    530000   0.97278725     17.569042      14.78284     
    531000   1.0186078      17.112036      14.876728    
    532000   1.007576       17.567547      14.70329     
    533000   1.0059761      17.800323      14.489515    
    534000   0.97754967     17.754106      14.186069    
    535000   1.0003327      17.629683      13.906726    
    536000   0.99866025     17.166966      13.920048    
    537000   1.0445066      17.096259      13.834632    
    538000   1.0184754      18.013734      13.864707    
    539000   0.99364662     17.51332       13.751015    
    540000   1.0067914      17.67504       13.370742    
    541000   1.017006       17.028919      13.31528     
    542000   1.0100126      17.33174       12.904377    
    543000   1.0117429      17.092983      12.589854    
    544000   0.98446588     17.532303      12.627929    
    545000   0.98210715     17.801453      12.318362    
    546000   1.0225851      18.239868      12.227575    
    547000   0.95873569     17.689129      12.073567    
    548000   1.0226042      17.871563      11.762309    
    549000   1.0674543      18.08761       11.51165     
    550000   0.94679233     17.63786       11.208185    
    551000   0.97120295     17.599137      11.0918      
    552000   1.0323018      17.541775      10.844436    
    553000   1.0020883      16.953579      10.963316    
    554000   0.98668634     17.124099      10.727782    
    555000   1.0399317      16.61774       10.492156    
    556000   0.94118838     16.537239      10.261372    
    557000   0.97468173     17.582374      9.677205     
    558000   0.99811941     17.16825       9.5149178    
    559000   1.0380747      17.312504      9.3537464    
    560000   1.012358       17.864344      9.1062198    
    561000   0.97507126     17.272638      8.8204652    
    562000   0.98123415     17.164288      8.6307286    
    563000   0.97765614     17.645047      8.6004367    
    564000   1.0219364      16.918517      8.4270708    
    565000   1.0020084      17.119156      8.2976316    
    566000   0.98454215     17.584772      8.4392063    
    567000   0.99048551     17.639467      8.4267078    
    568000   1.0017638      17.033621      8.1046488    
    569000   0.96276108     17.257584      7.9889246    
    570000   0.98969308     17.828734      7.917169     
    571000   0.95586868     17.3793        8.0543569    
    572000   0.96691912     17.125232      7.8994281    
    573000   0.97967188     17.331851      7.5665095    
    574000   1.0528821      17.862022      7.6533486    
    575000   0.99451658     17.175385      7.7006436    
    576000   1.0511497      17.408485      7.4690419    
    577000   0.997777       17.233857      7.170435     
    578000   0.99869828     17.515586      7.0531091    
Fix halt condition for fix-id 3 met on step 579000 with value 6.728289707600678 (src/fix_halt.cpp:237)
    579000   1.012181       17.871984      6.7282897    
Loop time of 658.657 on 2 procs for 479000 steps with 601 atoms

Performance: 628333.289 tau/day, 727.238 timesteps/s
53.8% CPU use with 2 MPI tasks x 1 OpenMP threads

MPI task timing breakdown:
Section |  min time  |  avg time  |  max time  |%varavg| %total
---------------------------------------------------------------
Pair    | 0.11855    | 104.95     | 209.79     |1023.3 | 15.93
Bond    | 0.12105    | 11.643     | 23.166     | 337.7 |  1.77
Neigh   | 388.76     | 388.78     | 388.79     |   0.1 | 59.03
Comm    | 0.48784    | 0.60734    | 0.72683    |  15.3 |  0.09
Output  | 2.1781     | 2.1796     | 2.1812     |   0.1 |  0.33
Modify  | 0.86425    | 14.097     | 27.33      | 352.4 |  2.14
Other   |            | 136.4      |            |       | 20.71

Nlocal:          300.5 ave         601 max           0 min
Histogram: 1 0 0 0 0 0 0 0 0 1
Nghost:              0 ave           0 max           0 min
Histogram: 2 0 0 0 0 0 0 0 0 0
Neighs:          45405 ave       90810 max           0 min
Histogram: 1 0 0 0 0 0 0 0 0 1

Total # of neighbors = 90810
Ave neighs/atom = 151.09817
Ave special neighs/atom = 1.9966722
Neighbor list builds = 4385
Dangerous builds = 0

# This simulation is done
# Move onto the next one
clear
OMP_NUM_THREADS environment is not set. Defaulting to 1 thread. (src/comm.cpp:98)
  using 1 OpenMP thread(s) per MPI task
next f
jump SELF

###
# Reference paper:
# K. Kremer and G. S. Grest
# Dynamics of entangled linear polymer melts: A molecular-dynamics simulation
# J Chem Phys 92, 5057 (1990)

##################################
# MIHIR: for branched polymers
# LJ minimum first to expand and explore, then collapse
###

###
# Looping through the various tshaped polymers to simulate,
# define variables to switch through
variable f index bb66nuc1bl33bn3d30tot100 bb133nuc1bl66bn3d30tot200 bb200nuc1bl100bn3d30tot300 bb266nuc1bl133bn3d30tot400 bb333nuc1bl166bn3d30tot500 bb400nuc1bl200bn3d30tot600 bb466nuc1bl233bn3d30tot700 bb533nuc1bl266bn3d30tot800 bb600nuc1bl300bn3d30tot900 bb666nuc1bl333bn3d30tot1000 bb733nuc1bl366bn3d30tot1100 bb800nuc1bl400bn3d30tot1200
###


###
# Box and units  (use LJ units and periodic boundaries)
###

units lj
log tshaped/logs/$f.log
log tshaped/logs/bb466nuc1bl233bn3d30tot700.log
