#atom_style bond #no stiffness
atom_style angle #with stiffness

boundary        p p p
###
# Pair interactions require lists of neighbours to be calculated
###

#neighbor 0.3 bin
neighbor 4 bin

neigh_modify every 1 delay 1 check yes
atom_modify sort 0 0
### Generate RESTART file, SPECIAL format, not a .txt file ###
### Useful if simulation crashes ###

restart 1000000 tshaped/restarts/$f.restart
restart 1000000 tshaped/restarts/bb466nuc1bl233bn3d30tot700.restart
#############################



### READ "start" data file ###

read_data tshaped/$f.dat
read_data tshaped/bb466nuc1bl233bn3d30tot700.dat
Reading data file ...
  orthogonal box = (-1000 -1000 -1000) to (1000 1000 1000)
  1 by 1 by 2 MPI processor grid
  reading atoms ...
  700 atoms
  scanning bonds ...
  2 = max bonds/atom
  scanning angles ...
  3 = max angles/atom
  reading bonds ...
  699 bonds
  reading angles ...
  699 angles
Finding 1-2 1-3 1-4 neighbors ...
  special bond factors lj:    0        0        0       
  special bond factors coul:  0        0        0       
     3 = max # of 1-2 neighbors
     3 = max # of 1-3 neighbors
     6 = max # of 1-4 neighbors
     9 = max # of special neighbors
  special bonds CPU = 0.000 seconds
  read_data CPU = 0.047 seconds

######################

### READ "REstart" data file ###

######################



###
# Define groups (atom type 1 is group 'all')
###
group all type 1
700 atoms in group all


###
# Dump configs - "simple dumpings"
###

###
# Dump configs + box coords
###

dump   1   all   custom   1000  tshaped/trjs/$f.lammpstrj  id  x y z  ix iy iz
dump   1   all   custom   1000  tshaped/trjs/bb466nuc1bl233bn3d30tot700.lammpstrj  id  x y z  ix iy iz
dump_modify   1   format line "%d %.5f %.5f %.5f %d %d %d"

########################################################################


###################################################################
# Stiffness term
#
# E = K * (1+cos(theta)), K>0
#
angle_style   cosine
#change this coefficient to change stiffness (e.g. 1,5,10)
angle_coeff   1 1.0
###################################################################

###################################################################
# Pair interaction between non-bonded atoms
#
#  Lennard-Jones 12-6 potential with cutoff:
#  potential E=4epsilon[ (sigma/r)^12 - (sigma/r)^6]  for r<r_cut
#
#  1.12246 = 2^(1/6) is the minimum of the potential


pair_style      lj/cut 1.12246152962189
#pair_style      lj/cut 3

#
#  pair_modify shift yes adds a constant to the potential such

#  that E(r_cut)=0. Forces remains unchanged.
#

pair_modify     shift yes

#
#  pair_coeff for lj/cut, specify 4:
#    * atom type interacting with
#    * atom type
#    * epsilon (energy units)
#    * sigma (distance units)
#

pair_coeff      1 1 1.0 1.0
###################################################################

###################################################################
# Pair interaction between non-bonded atoms
#
#  soft potential, for PUSHING apart overlapping atoms
#  potential E=A*(1 + cos(pi*r/r_c))
#
#  1.12246 = 2^(1/6) is the cut-off r_c

#pair_style     soft 1.12246152962189

#
#  pair_coeff for soft, specify 3:
#    * atom type interacting with
#    * atom type
#    * A
#
#

#pair_coeff      1 1 100.0
###################################################################

###################################################################
# Pair interaction between bonded atoms
#
# Fene potential + Lennard Jones 12-6:

#
#  E= - 0.5 K R0^2 ln[ 1- (r/R0)^2]
#     + 4epsilon[ (sigma/r)^12 - (sigma/r)^6] + epsilon
#

bond_style   fene


#
# For style fene, specify:
#   * bond type
#   * K (energy/distance^2)
#   * R0 (distance)
#   * epsilon (energy)  (LJ component)
#   * sigma (distance)  (LJ component)
#


special_bonds fene #<=== I M P O R T A N T (new command)
Finding 1-2 1-3 1-4 neighbors ...
  special bond factors lj:    0        1        1       
  special bond factors coul:  0        1        1       
     3 = max # of 1-2 neighbors
     9 = max # of special neighbors
  special bonds CPU = 0.000 seconds

bond_coeff   1   30   2   1.0   1.0


###################################################

###################################################################
# Pair interaction between bonded atoms
#
# Harmonic potential:
#
#  E= K * (R-R0)^2
#

#bond_style   harmonic

#
# For style harmonic, specify:
#   * bond type
#   * K (energy/distance^2)
#   * R0 (distance)
#

#bond_coeff   1   60.0   1.0
#bond_coeff   2   harmonic 0.1   1.0

###################################################
compute 1 all gyration
variable rog equal c_1
#compute 2 all coord/atom cutoff 1.1

#dump 2 all custom 10000 contact_number.dump id c_2


###
# Set up fixes
###
thermo_style   custom   step  temp enthalpy c_1
fix 1 all nve   ###NVE ensemble

fix 2 all   langevin   1.0 1.0 1.0  100103   ###Langevin integrator Tstart Tstop 1/friction rndseed


##### Sample thermodynamic info  (temperature, energy, pressure, etc.) #####
thermo 1000









############################################################################

###
# set timestep of integrator

timestep 0.01

###
# run integration for a number of steps
###
#run 0
#variable r equal c_1
#if "$r < 63.1" then "quit 1"

# lj potential minimum, cause molecule to explore
run 100000
Generated 0 of 0 mixed pair_coeff terms from geometric mixing rule
Neighbor list info ...
  update: every = 1 steps, delay = 1 steps, check = yes
  max neighbors/atom: 2000, page size: 100000
  master list distance cutoff = 5.1224615
  ghost atom cutoff = 5.1224615
  binsize = 2.5612308, bins = 781 781 781
  1 neighbor lists, perpetual/occasional/extra = 1 0 0
  (1) pair lj/cut, perpetual
      attributes: half, newton on
      pair build: half/bin/newton
      stencil: half/bin/3d
      bin: standard
WARNING: Communication cutoff 5.12246152962189 is shorter than a bond length based estimate of 5.455. This may lead to errors. (src/comm.cpp:723)
Per MPI rank memory allocation (min/avg/max) = 939.5 | 940.1 | 940.7 Mbytes
   Step          Temp         Enthalpy         c_1      
         0   0              13.403887      115.69713    
      1000   0.95650348     18.667021      115.33467    
      2000   1.0112925      19.106881      114.81975    
      3000   1.0003283      18.723779      114.5968     
      4000   1.0090237      19.002802      114.20843    
      5000   0.9796512      18.79878       113.92127    
      6000   1.0093622      18.81461       113.62325    
      7000   1.0178761      19.249041      113.60009    
      8000   1.0085306      19.570407      113.19566    
      9000   0.98848252     19.078129      113.1386     
     10000   0.96052917     19.34025       112.73416    
     11000   0.98430243     18.790647      112.41138    
     12000   0.98597084     19.776997      111.86335    
     13000   1.0200697      19.128734      111.49423    
     14000   1.030346       19.26339       110.96067    
     15000   0.97235608     19.423956      110.91017    
     16000   0.98562282     19.45952       110.49707    
     17000   0.98198158     19.3027        110.03657    
     18000   1.0004733      19.869156      109.57352    
     19000   1.0316744      19.383963      109.11456    
     20000   0.98140385     19.379395      108.75905    
     21000   1.0062825      19.518698      108.51946    
     22000   0.95607505     19.305392      108.41106    
     23000   1.0043193      19.069437      108.4274     
     24000   1.036652       20.03388       108.12521    
     25000   0.98616916     19.433469      107.91682    
     26000   1.0349507      20.089304      107.47073    
     27000   0.96496078     19.740207      107.12711    
     28000   1.0183486      19.486827      106.85007    
     29000   1.0931392      19.754063      106.50464    
     30000   1.0161666      19.544733      106.32684    
     31000   1.0014678      19.399242      106.00012    
     32000   0.98522745     19.941082      105.787      
     33000   1.0102405      19.51471       105.58012    
     34000   0.94200043     19.514929      105.70819    
     35000   1.0243177      19.794577      105.47555    
     36000   0.99577516     19.615525      105.53576    
     37000   1.078397       19.203169      104.79429    
     38000   1.0473113      19.45059       104.28481    
     39000   1.0105491      19.341361      104.05793    
     40000   1.0251465      20.019688      103.85358    
     41000   0.98858633     20.170943      103.82644    
     42000   1.0480156      19.903989      103.58074    
     43000   0.97952812     19.652301      103.52577    
     44000   0.95160597     20.030885      103.34016    
     45000   0.99793249     19.05677       103.38692    
     46000   1.0382247      20.04741       103.21337    
     47000   1.0081484      19.572278      102.89848    
     48000   1.0609955      20.872969      103.01142    
     49000   0.98755814     19.419857      102.52383    
     50000   1.0374348      19.692971      102.33801    
     51000   1.0520114      19.589044      102.0371     
     52000   1.0057511      19.97291       101.93017    
     53000   0.97775624     19.51529       101.87442    
     54000   0.98802964     19.88807       101.89854    
     55000   0.99003124     19.739117      101.71529    
     56000   1.0011527      19.471087      101.60917    
     57000   1.0136555      19.474565      101.4542     
     58000   1.0400668      20.306147      101.28136    
     59000   1.0074128      19.744028      101.07211    
     60000   1.0207432      19.750002      100.85263    
     61000   0.8831399      19.898349      100.65588    
     62000   0.9968719      20.376116      100.38178    
     63000   1.0116413      20.181017      100.14623    
     64000   0.97699728     20.193538      99.878001    
     65000   1.0152386      19.868457      99.733605    
     66000   0.97410269     20.100704      99.562007    
     67000   0.98570572     20.133555      99.088246    
     68000   0.98582887     19.641446      98.845634    
     69000   0.96181511     20.104014      98.377761    
     70000   0.9356911      20.033034      98.190798    
     71000   1.0159835      19.95552       98.005624    
     72000   1.0360584      19.714621      98.253966    
     73000   1.0281848      20.232152      98.510481    
     74000   0.99483778     19.911174      98.351643    
     75000   1.063232       20.174905      98.074793    
     76000   0.98108065     20.563785      97.93336     
     77000   0.96848978     19.889779      97.674332    
     78000   0.956279       19.541502      97.666923    
     79000   0.98949392     19.8452        97.270128    
     80000   1.0101763      20.231773      97.175262    
     81000   0.98021014     19.301073      96.830883    
     82000   1.0177965      20.072552      96.447679    
     83000   0.99720107     19.825297      96.285174    
     84000   0.98804019     19.679438      96.361576    
     85000   1.0028199      20.226548      96.075122    
     86000   0.9898455      19.848892      96.174126    
     87000   0.9957224      19.97976       96.138596    
     88000   0.97720062     20.104032      96.119323    
     89000   0.99425955     19.721515      95.852617    
     90000   1.0167077      19.850874      95.658066    
     91000   0.98747075     20.140986      95.678903    
     92000   0.96155944     19.875973      95.53758     
     93000   0.96237098     20.114153      95.250552    
     94000   0.97817721     20.015028      94.776118    
     95000   0.99110637     20.013177      94.835277    
     96000   0.99938747     19.779403      94.78053     
     97000   0.98132604     20.73533       94.556402    
     98000   0.952633       20.134108      94.723829    
     99000   0.99044591     20.183967      94.477815    
    100000   1.0334227      20.664368      94.28515     
Loop time of 252.613 on 2 procs for 100000 steps with 700 atoms

Performance: 342024.905 tau/day, 395.862 timesteps/s
54.9% CPU use with 2 MPI tasks x 1 OpenMP threads

MPI task timing breakdown:
Section |  min time  |  avg time  |  max time  |%varavg| %total
---------------------------------------------------------------
Pair    | 0.0079147  | 1.091      | 2.174      | 103.7 |  0.43
Bond    | 0.029411   | 2.5342     | 5.0391     | 157.3 |  1.00
Neigh   | 238.34     | 238.35     | 238.35     |   0.0 | 94.35
Comm    | 0.084587   | 0.10393    | 0.12327    |   6.0 |  0.04
Output  | 0.35516    | 0.36183    | 0.36849    |   1.1 |  0.14
Modify  | 0.02405    | 2.7579     | 5.4918     | 164.6 |  1.09
Other   |            | 7.418      |            |       |  2.94

Nlocal:            350 ave         700 max           0 min
Histogram: 1 0 0 0 0 0 0 0 0 1
Nghost:              0 ave           0 max           0 min
Histogram: 2 0 0 0 0 0 0 0 0 0
Neighs:           1939 ave        3878 max           0 min
Histogram: 1 0 0 0 0 0 0 0 0 1

Total # of neighbors = 3878
Ave neighs/atom = 5.54
Ave special neighs/atom = 1.9971429
Neighbor list builds = 1069
Dangerous builds = 0

# Replace lj potential, now collapse
pair_style      lj/cut 3

# Cutoff simul when gyration under 5
# Variable created with equal requires v_ + 'name'
fix 3 all halt 1000 v_rog < 7

run 5000000
Generated 0 of 0 mixed pair_coeff terms from geometric mixing rule
Per MPI rank memory allocation (min/avg/max) = 939.5 | 940.1 | 940.7 Mbytes
   Step          Temp         Enthalpy         c_1      
    100000   1.0334227      20.070721      94.28515     
    101000   1.0046658      20.055122      93.969635    
    102000   0.9715096      19.386378      93.850793    
    103000   0.9885411      19.444262      93.6369      
    104000   0.9967304      19.227484      93.342775    
    105000   0.96469729     19.493655      93.042019    
    106000   1.03684        19.833102      92.959022    
    107000   1.0144244      19.492252      92.630868    
    108000   0.99774245     19.153386      92.425043    
    109000   0.95036585     19.265235      92.044543    
    110000   1.0098054      19.462058      91.767126    
    111000   1.0283843      19.450301      91.720892    
    112000   1.0341054      19.405319      91.294351    
    113000   1.0617302      19.300021      91.046949    
    114000   0.95887908     18.995091      91.090896    
    115000   1.077162       20.150815      90.564383    
    116000   1.0316992      19.339728      90.299512    
    117000   1.0201731      19.372649      90.196586    
    118000   0.98021421     19.728798      90.086876    
    119000   1.0103193      19.8401        89.751474    
    120000   1.0280882      19.319759      89.784231    
    121000   0.96153165     19.403581      89.684713    
    122000   0.93149296     19.250713      89.576146    
    123000   1.004841       18.898102      89.218038    
    124000   1.0073435      18.954834      88.882636    
    125000   1.0147696      19.502006      88.939666    
    126000   1.024811       19.557047      88.838902    
    127000   1.0304065      18.985943      88.73691     
    128000   0.97898102     18.984003      88.587649    
    129000   0.99161944     19.378174      88.461114    
    130000   1.0011791      19.423548      88.42212     
    131000   0.94418337     18.871602      88.213563    
    132000   1.0074121      19.509045      88.093301    
    133000   0.98278206     18.990897      87.922327    
    134000   0.97900533     19.28424       87.666441    
    135000   0.98121285     19.503838      87.086766    
    136000   1.0122799      19.228185      86.970229    
    137000   0.97534725     19.183336      86.944934    
    138000   0.98189723     19.385303      86.427248    
    139000   0.99197421     19.194239      86.357058    
    140000   1.0093853      18.848665      86.044222    
    141000   1.0075592      19.515663      85.836372    
    142000   0.99058529     19.460637      85.484427    
    143000   1.0649233      19.650839      85.299229    
    144000   1.0038716      19.103225      85.239577    
    145000   1.0085381      19.262845      85.256403    
    146000   1.0033689      19.042379      85.078321    
    147000   0.94465964     19.077202      84.960669    
    148000   1.0434759      19.692925      84.685309    
    149000   1.0288908      19.097596      84.451465    
    150000   1.0241026      18.897705      84.404502    
    151000   1.0003665      19.255109      83.955299    
    152000   0.99166575     19.055577      83.796943    
    153000   0.94351634     18.796025      83.787387    
    154000   1.0071329      18.9628        83.700211    
    155000   1.0460801      19.046069      83.408934    
    156000   0.94932844     19.097778      83.188137    
    157000   1.0429255      19.094026      83.087057    
    158000   0.9735379      19.377228      82.791246    
    159000   1.0308703      19.023016      82.617058    
    160000   1.0456588      19.565222      82.762186    
    161000   1.0378347      19.590095      82.300198    
    162000   0.97506788     19.091573      82.203795    
    163000   1.0228828      19.319809      82.107528    
    164000   0.96513193     19.301368      81.86575     
    165000   0.98964645     19.122363      81.606511    
    166000   1.009467       19.234447      81.482843    
    167000   0.9552488      18.898055      81.432899    
    168000   1.0150309      19.198471      81.60832     
    169000   1.0069695      18.455694      81.490222    
    170000   1.0162976      18.870669      81.192384    
    171000   1.0326692      19.324769      80.977317    
    172000   0.95948516     18.772098      80.609013    
    173000   1.0378754      19.48991       80.369815    
    174000   1.0430917      18.702184      79.946413    
    175000   1.0310948      19.609857      79.808785    
    176000   1.0210174      19.699079      79.912975    
    177000   1.0183705      19.101244      79.78265     
    178000   1.0194144      19.061474      79.54374     
    179000   1.0117356      18.840598      79.206534    
    180000   1.0123899      19.569355      78.992997    
    181000   0.95598036     18.199304      78.609079    
    182000   1.036251       18.918276      78.20861     
    183000   0.99164959     19.535312      78.216768    
    184000   1.0331887      19.440754      78.343474    
    185000   1.0257149      19.269717      78.154163    
    186000   1.0213381      19.047048      78.111396    
    187000   1.0181568      19.460281      78.050379    
    188000   1.0401872      19.143679      78.0599      
    189000   1.0381772      19.190066      77.759982    
    190000   0.94564644     19.376233      77.564722    
    191000   1.0492483      19.004318      77.413696    
    192000   0.99194551     19.178691      77.306042    
    193000   0.98659173     19.202981      77.15496     
    194000   0.95335046     19.025556      76.988474    
    195000   1.0051809      18.81077       77.039637    
    196000   0.99313037     18.897328      77.264497    
    197000   1.0190528      19.435388      77.029206    
    198000   1.0044248      19.137478      76.642817    
    199000   0.97237021     18.125664      76.682695    
    200000   1.0231971      18.736557      76.547742    
    201000   0.96405348     19.103983      76.105485    
    202000   1.002436       18.990022      76.042745    
    203000   0.985295       19.306041      75.788906    
    204000   1.015206       19.489598      75.473252    
    205000   0.96861863     18.653899      75.276752    
    206000   1.0182531      19.067699      75.010624    
    207000   0.99561214     19.119547      74.804241    
    208000   1.022361       19.369683      74.537408    
    209000   0.99138387     19.194998      74.214811    
    210000   0.98391665     18.570807      73.819161    
    211000   1.0197087      18.979597      73.639551    
    212000   1.0372267      18.973588      73.545684    
    213000   1.0072397      19.226433      73.460093    
    214000   1.1160197      18.368756      73.265819    
    215000   1.0517514      19.397092      72.889721    
    216000   0.99991421     18.476579      72.795832    
    217000   0.98122668     18.919183      72.59633     
    218000   1.0014217      18.719213      72.237636    
    219000   1.000654       18.603079      72.056918    
    220000   0.9582842      18.410795      71.709781    
    221000   1.0296722      19.02931       71.441781    
    222000   1.0070588      18.394076      71.119538    
    223000   0.97960685     18.235633      70.932554    
    224000   0.96917293     18.770227      70.648975    
    225000   1.0299114      18.156334      70.684593    
    226000   0.98664788     19.078946      70.576807    
    227000   1.0058598      18.805378      70.659747    
    228000   1.0376194      19.045432      70.711175    
    229000   0.97458947     18.642287      70.593168    
    230000   1.0033023      18.669704      70.337689    
    231000   0.98297453     19.259775      70.350967    
    232000   1.0267598      18.781715      70.280937    
    233000   1.0178169      19.028714      69.985315    
    234000   1.0319934      19.453898      69.866259    
    235000   1.0188289      18.799906      69.479312    
    236000   0.99709704     18.839914      69.281782    
    237000   1.0371675      18.55536       68.551229    
    238000   0.96540719     18.268766      68.176867    
    239000   1.048395       18.962054      68.236209    
    240000   0.98543999     18.782092      67.949418    
    241000   0.92162683     19.040901      67.643247    
    242000   1.040378       19.017843      67.701654    
    243000   0.97625568     18.361529      67.74051     
    244000   1.0857367      18.828085      67.651859    
    245000   0.98794916     18.542016      67.345052    
    246000   1.0212036      18.460727      67.173451    
    247000   0.95184591     18.518877      66.928021    
    248000   0.94992336     18.601812      66.805399    
    249000   0.95489721     18.863832      66.38285     
    250000   0.99401904     18.725461      66.272628    
    251000   0.99676689     18.297654      65.866412    
    252000   0.98935635     17.805598      65.703454    
    253000   0.97933407     18.442654      65.417144    
    254000   1.0232796      18.752914      65.485335    
    255000   1.0280478      18.53371       65.14481     
    256000   1.0385951      18.473205      64.833042    
    257000   1.0207731      18.0341        64.638875    
    258000   1.0763448      18.941039      64.349318    
    259000   1.0315488      18.403036      63.898094    
    260000   0.98873412     18.734728      63.738811    
    261000   0.98079308     18.514266      63.731629    
    262000   1.0285291      18.661693      63.606641    
    263000   1.083549       19.076331      63.307198    
    264000   0.97584889     18.089215      63.094075    
    265000   0.93663428     18.362896      63.150429    
    266000   0.96388418     18.683555      63.025964    
    267000   0.99764076     18.81085       62.93256     
    268000   1.0331307      18.910268      62.850927    
    269000   0.97590751     18.680743      62.556357    
    270000   1.0341126      18.810071      62.31405     
    271000   1.027636       18.145619      62.210021    
    272000   0.97653279     18.216395      61.87432     
    273000   0.98777554     18.111059      61.647429    
    274000   0.99936235     18.829389      61.442131    
    275000   0.95484469     18.458452      61.512107    
    276000   0.99955463     18.967758      61.021404    
    277000   0.99290704     18.80711       60.794694    
    278000   0.95931524     18.758082      60.620091    
    279000   1.0413592      18.216082      60.417432    
    280000   1.0204864      18.851317      60.317586    
    281000   1.0362755      18.230113      60.124785    
    282000   0.95810184     18.187418      59.834132    
    283000   0.99185209     18.696713      59.617186    
    284000   0.96570477     19.026754      59.442978    
    285000   1.0030141      18.814326      59.378869    
    286000   0.95903249     17.945825      59.040299    
    287000   1.0288297      18.572113      58.720929    
    288000   0.97002932     18.416151      58.534516    
    289000   1.0284754      18.348496      58.321864    
    290000   0.95381952     18.322138      58.287361    
    291000   0.95232518     18.7359        57.852298    
    292000   0.98451471     18.296691      57.708307    
    293000   1.037245       19.093758      57.36715     
    294000   1.0286849      18.295104      56.995839    
    295000   1.0001167      18.070926      56.953793    
    296000   0.9998329      18.78003       57.067645    
    297000   1.0373337      17.605047      56.907441    
    298000   0.98061189     18.442642      56.513457    
    299000   1.0011206      18.708167      56.380794    
    300000   0.98053477     18.35011       56.149385    
    301000   0.96200176     17.561919      56.033524    
    302000   0.9708997      18.187065      55.976291    
    303000   0.98109977     18.849697      55.859895    
    304000   1.0531918      18.282367      55.928235    
    305000   1.0013091      18.285176      55.507212    
    306000   0.96592557     18.006595      55.278958    
    307000   0.97028373     17.996764      55.101702    
    308000   1.0144032      18.87716       54.850668    
    309000   1.0143884      18.871837      54.605409    
    310000   1.0225189      18.173429      54.354695    
    311000   0.99313735     18.912522      54.271988    
    312000   1.0465968      18.635301      54.159817    
    313000   1.0001719      18.414479      54.17667     
    314000   1.0357666      18.487221      53.864329    
    315000   1.0131591      18.791569      53.723956    
    316000   1.0135039      18.299795      53.519948    
    317000   1.0245912      18.261708      53.284738    
    318000   1.028606       18.209757      53.448167    
    319000   0.9693436      17.955463      53.161244    
    320000   1.0133839      17.954231      52.877975    
    321000   0.98601635     18.736842      53.012739    
    322000   0.98158214     18.242928      53.028244    
    323000   1.0166038      18.419441      52.883543    
    324000   0.98509725     18.412597      52.837444    
    325000   0.9902846      18.245063      52.755393    
    326000   0.92605593     17.72944       52.495409    
    327000   0.98756577     19.060651      52.340726    
    328000   0.96689878     17.923721      52.085533    
    329000   0.98280516     18.379993      51.903344    
    330000   1.051355       18.963905      51.618103    
    331000   1.0220031      18.332147      51.112907    
    332000   0.93604276     18.133734      51.00603     
    333000   1.0070998      18.633662      50.864029    
    334000   1.062989       18.643454      50.623382    
    335000   1.0789657      18.574535      50.903948    
    336000   0.97519897     17.913334      50.622518    
    337000   1.0269356      17.938333      50.584366    
    338000   1.0102048      17.820499      50.391138    
    339000   1.0137991      18.033592      50.151392    
    340000   0.98651217     18.733078      49.70623     
    341000   1.0144717      18.207262      49.487659    
    342000   1.048725       18.765337      49.420277    
    343000   1.0550834      17.843775      49.365705    
    344000   0.98647453     18.090459      49.414047    
    345000   1.0187001      18.3009        49.371321    
    346000   0.98289221     18.748168      49.177937    
    347000   0.98289635     18.033178      49.098067    
    348000   1.0179254      17.623012      48.890148    
    349000   1.0290738      18.727424      48.392604    
    350000   0.99419379     18.265908      48.24078     
    351000   0.97205446     18.358105      48.073632    
    352000   1.0269239      18.750103      48.029929    
    353000   0.95151454     18.307823      48.108819    
    354000   0.99010646     18.17998       48.224029    
    355000   0.97441142     18.959953      48.46255     
    356000   0.95681064     18.063447      48.369711    
    357000   0.99926559     18.379944      48.180551    
    358000   0.96455995     17.86994       47.95406     
    359000   0.98285298     18.336277      47.901392    
    360000   1.030767       18.267474      47.57352     
    361000   1.0411051      19.361958      47.309223    
    362000   1.0022325      17.699548      47.045535    
    363000   1.0400083      18.455796      46.89894     
    364000   0.97976374     17.715882      46.935854    
    365000   0.98328465     17.890133      46.860029    
    366000   0.93905774     17.832634      46.520588    
    367000   0.98943338     18.618167      46.650195    
    368000   0.98319957     18.244994      46.672552    
    369000   1.0358962      18.130447      46.328696    
    370000   0.98989505     18.537941      46.202666    
    371000   0.99170748     18.231121      46.115402    
    372000   0.97856659     18.311723      45.881269    
    373000   0.99495424     18.151737      45.679916    
    374000   0.99922675     17.908078      45.507163    
    375000   1.0354456      18.683628      45.420239    
    376000   0.9921734      17.775211      45.47997     
    377000   1.0160781      18.299639      45.565697    
    378000   1.07863        18.663548      45.503055    
    379000   0.9682723      17.71973       45.443687    
    380000   1.0082239      18.048525      45.264556    
    381000   0.97912613     17.901623      45.020082    
    382000   1.0548336      19.151085      44.947841    
    383000   1.0471773      17.975798      44.85686     
    384000   1.0073619      18.501509      44.757068    
    385000   1.0035578      18.123305      44.409221    
    386000   1.0530346      18.740181      44.24476     
    387000   0.97591031     19.012107      44.011752    
    388000   0.99664658     17.85527       43.936895    
    389000   0.97115192     18.25831       43.928335    
    390000   0.96618819     17.989005      43.827334    
    391000   1.0333039      18.148791      43.637601    
    392000   1.0269915      17.983692      43.368979    
    393000   0.99742778     17.975123      43.417061    
    394000   1.0028755      17.715651      43.563098    
    395000   1.0307535      18.297744      43.635533    
    396000   1.0461802      17.819989      43.618541    
    397000   0.94306983     17.425087      43.457342    
    398000   1.0499594      18.382184      43.230539    
    399000   1.0199587      18.684446      43.234528    
    400000   1.049187       17.458836      43.169349    
    401000   1.0257672      18.509797      43.259008    
    402000   1.0133356      17.592805      43.220406    
    403000   1.0276886      18.64275       43.049138    
    404000   1.0539289      18.65398       42.913466    
    405000   0.9409686      17.248287      42.970969    
    406000   1.0168858      18.111865      42.919385    
    407000   1.0297765      18.453001      42.454662    
    408000   1.0067534      17.938533      42.565521    
    409000   1.0026464      18.004348      42.482901    
    410000   1.0062684      18.114874      42.373865    
    411000   1.0158428      17.948795      42.337625    
    412000   1.0345984      17.687163      42.098958    
    413000   1.0267306      18.376945      41.625146    
    414000   0.98781678     17.669468      41.563255    
    415000   1.0979222      18.487009      41.373404    
    416000   0.96270462     18.145243      41.119928    
    417000   1.0297266      17.738794      41.076186    
    418000   0.9927715      18.079021      40.909724    
    419000   1.0291995      18.559125      40.658556    
    420000   1.0275608      18.271139      40.333625    
    421000   1.0392328      17.661393      40.235926    
    422000   1.0045875      18.246483      40.13107     
    423000   0.98941781     18.347773      39.917188    
    424000   1.064477       17.892229      39.523456    
    425000   0.93371796     17.678736      39.310123    
    426000   0.99283049     17.981069      39.259408    
    427000   0.98625328     18.48272       39.275507    
    428000   1.014548       18.421275      39.21728     
    429000   0.99145802     18.021165      39.197887    
    430000   1.0164878      18.746446      39.018936    
    431000   0.99900125     18.215276      39.138955    
    432000   0.98744155     18.01399       38.888109    
    433000   0.99792495     17.70433       38.751919    
    434000   1.0241155      18.222249      38.560318    
    435000   1.0286746      18.181731      38.092388    
    436000   0.95578876     18.5966        38.228487    
    437000   1.0036612      18.016386      37.929851    
    438000   0.9933667      18.600195      37.623365    
    439000   0.95936527     18.152858      37.464238    
    440000   1.000129       18.205965      37.122212    
    441000   0.96291428     18.17191       36.862168    
    442000   0.99278784     17.971908      36.748491    
    443000   0.95300893     18.471128      36.566151    
    444000   0.97368878     17.715501      36.535235    
    445000   1.0206761      18.126602      36.209272    
    446000   1.0224093      17.798388      36.208418    
    447000   0.99155891     17.717511      36.207792    
    448000   1.0732672      18.565236      35.936901    
    449000   0.99023604     18.129239      35.726381    
    450000   0.94163593     17.821796      35.215113    
    451000   0.91300762     18.077004      35.233405    
    452000   0.98160993     17.669641      35.013965    
    453000   1.0123037      18.044941      34.959315    
    454000   0.95658548     17.970535      34.834225    
    455000   0.98781667     18.378668      34.916737    
    456000   1.0269992      18.288359      34.867983    
    457000   1.0214231      18.273162      34.81821     
    458000   1.0274819      18.350077      34.721957    
    459000   1.0304958      17.74068       34.28308     
    460000   0.97152379     17.61401       33.940615    
    461000   1.0511495      17.924329      33.53023     
    462000   0.94394476     17.988168      33.477911    
    463000   0.98637115     17.419416      33.529653    
    464000   1.0398336      18.069637      33.257138    
    465000   1.0117906      18.202305      32.939457    
    466000   1.0234485      17.109114      32.6841      
    467000   1.0463132      17.549279      32.78528     
    468000   1.01611        17.76251       32.662775    
    469000   0.99304472     17.646454      32.445777    
    470000   1.0345864      17.346004      32.194196    
    471000   1.0243359      17.586719      31.944235    
    472000   0.99562066     18.248405      31.717277    
    473000   1.0001358      17.724114      31.589387    
    474000   0.96016556     18.185214      31.388195    
    475000   0.99895514     18.070132      31.301024    
    476000   1.0367395      17.832744      31.145801    
    477000   1.0054209      17.982361      31.130261    
    478000   0.95507769     17.530727      31.079582    
    479000   0.98488102     17.106895      30.879501    
    480000   1.0059705      18.279575      30.616411    
    481000   0.97825211     17.939912      30.376323    
    482000   1.0233905      17.482441      30.278844    
    483000   0.96844874     18.273393      29.988654    
    484000   0.99630366     17.975887      29.898814    
    485000   0.94684686     17.60828       29.678554    
    486000   0.99729586     18.215288      29.290362    
    487000   0.97114812     17.540594      29.367164    
    488000   1.0179427      18.322257      29.266549    
    489000   1.0659639      17.953438      29.000907    
    490000   1.0332478      17.796182      28.832368    
    491000   1.0168016      17.613291      28.710922    
    492000   0.97318123     17.464852      28.39662     
    493000   1.0059957      18.366869      28.055381    
    494000   1.0321043      18.514828      27.781647    
    495000   0.99418528     17.307128      27.294468    
    496000   0.97872088     18.233136      27.145408    
    497000   1.0226345      18.075433      27.141912    
    498000   1.0051042      16.822925      27.21774     
    499000   1.0415522      17.557981      26.877622    
    500000   0.96908732     17.7641        26.488981    
    501000   0.98033958     17.217616      26.400526    
    502000   1.0022136      18.42971       26.142421    
    503000   0.98964592     17.890408      25.915576    
    504000   1.0206398      18.139964      25.728734    
    505000   1.0576556      18.573542      25.471525    
    506000   1.0557545      18.239431      25.069611    
    507000   1.0103598      17.770604      24.972398    
    508000   1.0133636      17.439762      24.687496    
    509000   0.9867174      17.921781      24.667347    
    510000   1.0008002      17.826731      24.677983    
    511000   0.97613089     17.858998      24.80098     
    512000   1.0203842      17.746902      24.583182    
    513000   0.92638561     17.3116        24.532207    
    514000   1.0249229      17.790738      24.492024    
    515000   1.0382134      17.130815      24.408304    
    516000   1.0346485      17.411392      24.051535    
    517000   1.0054763      18.145068      23.668579    
    518000   0.99583344     18.176053      23.29294     
    519000   0.99726581     17.524511      23.133623    
    520000   1.0168568      17.303369      22.992404    
    521000   0.99837903     17.912826      22.706205    
    522000   1.0102366      18.12447       22.630318    
    523000   0.98055759     17.507592      22.565836    
    524000   1.0052578      17.834891      22.28453     
    525000   0.96143014     18.353192      21.915494    
    526000   1.0104335      17.937069      21.843831    
    527000   0.99942051     17.394455      21.766602    
    528000   1.0285971      17.736454      21.426844    
    529000   0.9598054      16.861401      21.53787     
    530000   1.0010989      17.906891      21.268794    
    531000   1.0030499      17.79455       20.973157    
    532000   1.0393714      17.396975      21.140129    
    533000   0.96252864     17.254126      21.014918    
    534000   0.99027676     17.450655      21.101114    
    535000   1.0029467      17.998979      21.112718    
    536000   1.0259748      17.899098      20.877731    
    537000   0.96976779     17.920332      20.548036    
    538000   0.97986829     17.254572      20.350148    
    539000   1.0435772      17.266084      20.230692    
    540000   0.96489198     17.828507      19.951521    
    541000   1.0144925      17.835819      19.628541    
    542000   0.98935832     17.335266      19.571232    
    543000   1.0194166      17.249711      19.302264    
    544000   1.0117439      16.936308      19.200261    
    545000   0.98549278     18.086836      19.250171    
    546000   0.95064176     17.39125       19.160686    
    547000   1.0315071      17.34937       19.043966    
    548000   1.0112747      17.518295      19.009298    
    549000   1.0096372      17.344403      18.705814    
    550000   0.98246145     16.975818      18.353001    
    551000   0.99631996     17.273728      18.236962    
    552000   0.87439774     17.543865      17.992564    
    553000   1.0310436      17.688836      17.673847    
    554000   0.97186666     17.531741      17.434926    
    555000   1.0026883      18.033076      17.238122    
    556000   0.95542025     16.944732      16.759976    
    557000   0.98479216     17.004622      16.338899    
    558000   0.94978277     18.41372       16.425942    
    559000   0.98077561     17.788604      16.419976    
    560000   0.9729208      17.167927      16.416566    
    561000   1.0511669      17.964867      16.521044    
    562000   1.0048677      17.78887       16.074952    
    563000   0.97712176     17.847391      16.065942    
    564000   1.0331719      17.710205      15.816952    
    565000   0.99601627     17.012996      15.584788    
    566000   1.0137764      17.509036      15.635326    
    567000   1.1010406      17.57679       15.657689    
    568000   0.95253753     17.365531      15.653259    
    569000   0.94772094     18.073927      15.550029    
    570000   1.0188223      18.169469      15.286297    
    571000   1.0004076      17.431946      15.24494     
    572000   1.0122711      17.921193      14.963107    
    573000   1.0651629      17.209087      14.871651    
    574000   0.99656704     17.010365      14.755647    
    575000   0.999065       16.795773      14.665321    
    576000   1.0116913      17.297423      14.869754    
    577000   1.0382778      17.638214      14.691748    
    578000   0.99834804     16.909281      14.580942    
    579000   1.0511303      18.183081      14.337412    
    580000   1.042154       17.534932      14.044754    
    581000   0.96748143     18.173753      14.103455    
    582000   1.032986       17.310709      13.720105    
    583000   0.97309404     17.879625      13.768632    
    584000   0.98342647     17.22089       14.153031    
    585000   0.98639281     17.942474      13.89626     
    586000   0.98505424     17.196367      13.995651    
    587000   0.97419116     17.33566       13.593548    
    588000   1.0220913      18.050862      13.344653    
    589000   1.0193722      17.822231      13.333693    
    590000   1.0073757      17.134877      13.230335    
    591000   0.99648351     16.881979      13.137037    
    592000   0.9858935      17.219114      12.695853    
    593000   1.0035025      16.955191      12.655223    
    594000   0.99336609     17.194401      12.344148    
    595000   1.0256177      18.106654      11.969983    
    596000   0.97559047     17.48096       11.651636    
    597000   1.0725727      17.065174      11.341899    
    598000   1.0113556      17.198711      11.237415    
    599000   0.9772036      17.3983        11.019347    
    600000   0.99978391     17.7251        11.09886     
    601000   1.0140871      17.019061      11.080784    
    602000   0.99447365     17.857402      10.819037    
    603000   1.0037371      17.545999      10.92847     
    604000   1.0216227      17.41274       10.742851    
    605000   0.96359635     17.731897      10.591667    
    606000   0.94990365     17.833561      10.415397    
    607000   0.98730392     17.169272      10.290527    
    608000   0.97726427     17.273014      10.221672    
    609000   1.013645       17.316983      10.404235    
    610000   1.0027939      17.439853      10.326585    
    611000   0.97007628     16.83626       10.008632    
    612000   0.994395       18.284876      9.947603     
    613000   0.96448645     17.429468      9.9254548    
    614000   0.98113092     17.328332      9.9711952    
    615000   0.92331528     17.153267      10.092028    
    616000   0.98761926     17.351322      10.225361    
    617000   1.0051905      17.217607      9.9570836    
    618000   0.96889543     17.188215      9.8383273    
    619000   0.99358289     16.583404      9.553315     
    620000   0.99116313     17.231065      9.3857037    
    621000   1.0669801      17.211907      9.3953428    
    622000   0.98844018     17.484134      9.0715863    
    623000   1.0134913      17.104977      9.1138215    
    624000   0.94127483     17.728709      9.1073675    
    625000   1.0306335      17.36836       9.2071888    
    626000   1.0455369      17.232869      9.1554822    
    627000   0.95977119     16.939101      9.4492369    
    628000   1.0016559      16.603973      9.6117356    
    629000   0.98594069     16.945272      9.6575539    
    630000   0.99902441     17.039192      9.4670064    
    631000   1.0082472      17.420096      9.4567932    
    632000   1.0186427      17.461677      9.6031253    
    633000   0.95337933     17.082272      9.2817295    
    634000   1.0197822      16.954021      8.9009875    
    635000   1.0245857      17.045202      8.7948228    
    636000   1.0085289      17.036386      8.7109395    
    637000   0.98853636     16.924775      8.4829814    
    638000   0.97590371     17.304986      8.397126     
    639000   1.0582834      17.492413      8.5925796    
    640000   1.0769604      17.674598      8.6837447    
    641000   0.99267637     17.096446      8.7128106    
    642000   1.015778       17.640499      8.6896385    
    643000   0.97594625     17.300424      8.6934195    
    644000   0.98119806     17.053326      8.6303443    
    645000   0.98461979     16.888472      8.4001166    
    646000   0.96225245     17.559085      8.2464045    
    647000   1.0141725      17.512551      8.2888413    
    648000   0.97405765     16.657182      7.8847359    
    649000   1.0023206      17.235049      7.5816157    
    650000   0.96340518     17.228692      7.5465827    
    651000   1.0041071      17.003339      7.5123935    
    652000   0.93167006     16.91618       7.7084605    
    653000   1.0126938      17.04165       7.8315539    
    654000   1.0384465      17.869989      7.8101043    
    655000   1.028725       17.26824       8.0346693    
    656000   1.0056349      16.90402       8.0550004    
    657000   1.1013943      17.554612      7.9053376    
    658000   1.0002014      17.23094       7.3744961    
    659000   0.9914923      16.910086      7.1038002    
Fix halt condition for fix-id 3 met on step 660000 with value 6.916473858961443 (src/fix_halt.cpp:237)
    660000   1.0251597      16.901821      6.9164739    
Loop time of 867.234 on 2 procs for 560000 steps with 700 atoms

Performance: 557911.982 tau/day, 645.731 timesteps/s
55.4% CPU use with 2 MPI tasks x 1 OpenMP threads

MPI task timing breakdown:
Section |  min time  |  avg time  |  max time  |%varavg| %total
---------------------------------------------------------------
Pair    | 0.13684    | 156.23     | 312.33     |1248.8 | 18.02
Bond    | 0.26805    | 15.73      | 31.192     | 389.9 |  1.81
Neigh   | 477.06     | 477.14     | 477.21     |   0.3 | 55.02
Comm    | 0.6662     | 0.80988    | 0.95356    |  16.0 |  0.09
Output  | 2.3575     | 2.3867     | 2.4159     |   1.9 |  0.28
Modify  | 1.2136     | 18.147     | 35.08      | 397.5 |  2.09
Other   |            | 196.8      |            |       | 22.69

Nlocal:            350 ave         700 max           0 min
Histogram: 1 0 0 0 0 0 0 0 0 1
Nghost:              0 ave           0 max           0 min
Histogram: 2 0 0 0 0 0 0 0 0 0
Neighs:          57282 ave      114564 max           0 min
Histogram: 1 0 0 0 0 0 0 0 0 1

Total # of neighbors = 114564
Ave neighs/atom = 163.66286
Ave special neighs/atom = 1.9971429
Neighbor list builds = 5129
Dangerous builds = 0

# This simulation is done
# Move onto the next one
clear
OMP_NUM_THREADS environment is not set. Defaulting to 1 thread. (src/comm.cpp:98)
  using 1 OpenMP thread(s) per MPI task
next f
jump SELF

###
# Reference paper:
# K. Kremer and G. S. Grest
# Dynamics of entangled linear polymer melts: A molecular-dynamics simulation
# J Chem Phys 92, 5057 (1990)

##################################
# MIHIR: for branched polymers
# LJ minimum first to expand and explore, then collapse
###

###
# Looping through the various tshaped polymers to simulate,
# define variables to switch through
variable f index bb66nuc1bl33bn3d30tot100 bb133nuc1bl66bn3d30tot200 bb200nuc1bl100bn3d30tot300 bb266nuc1bl133bn3d30tot400 bb333nuc1bl166bn3d30tot500 bb400nuc1bl200bn3d30tot600 bb466nuc1bl233bn3d30tot700 bb533nuc1bl266bn3d30tot800 bb600nuc1bl300bn3d30tot900 bb666nuc1bl333bn3d30tot1000 bb733nuc1bl366bn3d30tot1100 bb800nuc1bl400bn3d30tot1200
###


###
# Box and units  (use LJ units and periodic boundaries)
###

units lj
log tshaped/logs/$f.log
log tshaped/logs/bb533nuc1bl266bn3d30tot800.log
