#atom_style bond #no stiffness
atom_style angle #with stiffness

boundary        p p p
###
# Pair interactions require lists of neighbours to be calculated
###

#neighbor 0.3 bin
neighbor 4 bin

neigh_modify every 1 delay 1 check yes
atom_modify sort 0 0
### Generate RESTART file, SPECIAL format, not a .txt file ###
### Useful if simulation crashes ###

restart 1000000 tshaped/restarts/$f.restart
restart 1000000 tshaped/restarts/bb600nuc1bl300bn3d30tot900.restart
#############################



### READ "start" data file ###

read_data tshaped/$f.dat
read_data tshaped/bb600nuc1bl300bn3d30tot900.dat
Reading data file ...
  orthogonal box = (-1000 -1000 -1000) to (1000 1000 1000)
  1 by 1 by 2 MPI processor grid
  reading atoms ...
  901 atoms
  scanning bonds ...
  2 = max bonds/atom
  scanning angles ...
  3 = max angles/atom
  reading bonds ...
  900 bonds
  reading angles ...
  900 angles
Finding 1-2 1-3 1-4 neighbors ...
  special bond factors lj:    0        0        0       
  special bond factors coul:  0        0        0       
     3 = max # of 1-2 neighbors
     3 = max # of 1-3 neighbors
     6 = max # of 1-4 neighbors
     9 = max # of special neighbors
  special bonds CPU = 0.001 seconds
  read_data CPU = 0.101 seconds

######################

### READ "REstart" data file ###

######################



###
# Define groups (atom type 1 is group 'all')
###
group all type 1
901 atoms in group all


###
# Dump configs - "simple dumpings"
###

###
# Dump configs + box coords
###

dump   1   all   custom   1000  tshaped/trjs/$f.lammpstrj  id  x y z  ix iy iz
dump   1   all   custom   1000  tshaped/trjs/bb600nuc1bl300bn3d30tot900.lammpstrj  id  x y z  ix iy iz
dump_modify   1   format line "%d %.5f %.5f %.5f %d %d %d"

########################################################################


###################################################################
# Stiffness term
#
# E = K * (1+cos(theta)), K>0
#
angle_style   cosine
#change this coefficient to change stiffness (e.g. 1,5,10)
angle_coeff   1 1.0
###################################################################

###################################################################
# Pair interaction between non-bonded atoms
#
#  Lennard-Jones 12-6 potential with cutoff:
#  potential E=4epsilon[ (sigma/r)^12 - (sigma/r)^6]  for r<r_cut
#
#  1.12246 = 2^(1/6) is the minimum of the potential


pair_style      lj/cut 1.12246152962189
#pair_style      lj/cut 3

#
#  pair_modify shift yes adds a constant to the potential such

#  that E(r_cut)=0. Forces remains unchanged.
#

pair_modify     shift yes

#
#  pair_coeff for lj/cut, specify 4:
#    * atom type interacting with
#    * atom type
#    * epsilon (energy units)
#    * sigma (distance units)
#

pair_coeff      1 1 1.0 1.0
###################################################################

###################################################################
# Pair interaction between non-bonded atoms
#
#  soft potential, for PUSHING apart overlapping atoms
#  potential E=A*(1 + cos(pi*r/r_c))
#
#  1.12246 = 2^(1/6) is the cut-off r_c

#pair_style     soft 1.12246152962189

#
#  pair_coeff for soft, specify 3:
#    * atom type interacting with
#    * atom type
#    * A
#
#

#pair_coeff      1 1 100.0
###################################################################

###################################################################
# Pair interaction between bonded atoms
#
# Fene potential + Lennard Jones 12-6:

#
#  E= - 0.5 K R0^2 ln[ 1- (r/R0)^2]
#     + 4epsilon[ (sigma/r)^12 - (sigma/r)^6] + epsilon
#

bond_style   fene


#
# For style fene, specify:
#   * bond type
#   * K (energy/distance^2)
#   * R0 (distance)
#   * epsilon (energy)  (LJ component)
#   * sigma (distance)  (LJ component)
#


special_bonds fene #<=== I M P O R T A N T (new command)
Finding 1-2 1-3 1-4 neighbors ...
  special bond factors lj:    0        1        1       
  special bond factors coul:  0        1        1       
     3 = max # of 1-2 neighbors
     9 = max # of special neighbors
  special bonds CPU = 0.000 seconds

bond_coeff   1   30   2   1.0   1.0


###################################################

###################################################################
# Pair interaction between bonded atoms
#
# Harmonic potential:
#
#  E= K * (R-R0)^2
#

#bond_style   harmonic

#
# For style harmonic, specify:
#   * bond type
#   * K (energy/distance^2)
#   * R0 (distance)
#

#bond_coeff   1   60.0   1.0
#bond_coeff   2   harmonic 0.1   1.0

###################################################
compute 1 all gyration
variable rog equal c_1
#compute 2 all coord/atom cutoff 1.1

#dump 2 all custom 10000 contact_number.dump id c_2


###
# Set up fixes
###
thermo_style   custom   step  temp enthalpy c_1
fix 1 all nve   ###NVE ensemble

fix 2 all   langevin   1.0 1.0 1.0  100103   ###Langevin integrator Tstart Tstop 1/friction rndseed


##### Sample thermodynamic info  (temperature, energy, pressure, etc.) #####
thermo 1000









############################################################################

###
# set timestep of integrator

timestep 0.01

###
# run integration for a number of steps
###
#run 0
#variable r equal c_1
#if "$r < 63.1" then "quit 1"

# lj potential minimum, cause molecule to explore
run 100000
Generated 0 of 0 mixed pair_coeff terms from geometric mixing rule
Neighbor list info ...
  update: every = 1 steps, delay = 1 steps, check = yes
  max neighbors/atom: 2000, page size: 100000
  master list distance cutoff = 5.1224615
  ghost atom cutoff = 5.1224615
  binsize = 2.5612308, bins = 781 781 781
  1 neighbor lists, perpetual/occasional/extra = 1 0 0
  (1) pair lj/cut, perpetual
      attributes: half, newton on
      pair build: half/bin/newton
      stencil: half/bin/3d
      bin: standard
WARNING: Communication cutoff 5.12246152962189 is shorter than a bond length based estimate of 5.455. This may lead to errors. (src/comm.cpp:723)
Per MPI rank memory allocation (min/avg/max) = 939.5 | 940.1 | 940.7 Mbytes
   Step          Temp         Enthalpy         c_1      
         0   0              13.347517      151.89156    
      1000   1.0467716      18.448454      151.6327     
      2000   1.0158392      18.427497      151.05676    
      3000   0.98183405     18.71711       150.53585    
      4000   1.0392096      19.442685      150.16035    
      5000   1.0127897      18.882308      149.79524    
      6000   1.0044032      18.255685      149.32037    
      7000   0.97434215     18.492088      149.14755    
      8000   0.99246136     18.75207       148.95749    
      9000   1.0063892      18.514353      148.48971    
     10000   1.0299102      19.189439      148.01812    
     11000   0.97168507     18.83006       147.75402    
     12000   0.97391997     19.240487      147.68861    
     13000   1.0271301      19.29323       147.33839    
     14000   1.0129029      19.137687      147.16002    
     15000   1.0110282      19.251816      146.8895     
     16000   0.99154458     18.751009      146.71078    
     17000   0.9698736      18.938334      146.46604    
     18000   1.0143025      19.540591      146.16054    
     19000   0.99315541     19.292481      145.87587    
     20000   1.0086425      18.562192      145.53591    
     21000   1.0098106      19.844425      145.18277    
     22000   1.0553646      19.458628      145.0949     
     23000   1.0320084      19.560224      145.06034    
     24000   0.96156419     19.059344      144.72525    
     25000   1.0557262      19.597482      144.62884    
     26000   0.99144589     18.982043      144.31462    
     27000   0.97855694     19.207818      143.95254    
     28000   1.0076536      19.32733       143.8664     
     29000   0.94377131     19.251075      143.56377    
     30000   0.99762701     19.396788      143.19135    
     31000   1.0122443      19.522966      142.79498    
     32000   0.99959893     19.243909      142.63143    
     33000   1.0333698      19.976768      142.27532    
     34000   0.9696718      19.271751      141.96275    
     35000   1.0185017      19.414374      141.54744    
     36000   0.99093239     18.982382      141.39113    
     37000   1.0264827      19.801398      140.97357    
     38000   1.0025908      19.161637      140.83973    
     39000   1.0204849      19.668681      140.70118    
     40000   1.0195763      19.739689      140.47596    
     41000   0.98785706     19.773329      140.13432    
     42000   1.0425109      18.994524      140.1382     
     43000   1.009638       19.415053      139.94569    
     44000   1.0184911      19.481655      139.91559    
     45000   1.0094146      19.099593      139.63673    
     46000   0.97760836     19.42585       139.35902    
     47000   0.95810164     19.345769      139.01706    
     48000   0.98238509     19.647645      138.92446    
     49000   1.0341565      19.07897       138.88809    
     50000   1.0340982      19.604973      138.81891    
     51000   0.99229877     19.404226      138.88788    
     52000   0.9921472      19.47518       138.59963    
     53000   1.0359462      19.698761      138.3602     
     54000   0.97281929     19.448814      138.34195    
     55000   1.0095807      19.545693      137.84871    
     56000   0.98921716     19.315185      137.72947    
     57000   1.0369561      19.730459      137.60148    
     58000   0.98194346     19.604213      137.30573    
     59000   0.99158005     19.525017      136.94223    
     60000   0.98648517     20.258164      136.71488    
     61000   0.95970503     19.902621      136.59422    
     62000   0.95766392     19.493317      136.59502    
     63000   1.0265194      19.936942      136.47321    
     64000   1.0209971      19.641496      136.2881     
     65000   0.94522379     19.254583      136.10597    
     66000   1.0220655      19.822205      135.86971    
     67000   0.98906042     19.77943       135.71598    
     68000   0.99556638     19.215887      135.5075     
     69000   1.010684       19.700929      135.10989    
     70000   1.0065637      19.787427      134.98563    
     71000   1.0273949      20.200077      134.64345    
     72000   0.97950776     19.374046      134.66202    
     73000   1.0016123      19.878878      134.44414    
     74000   1.0031285      19.127615      134.44663    
     75000   0.98851475     19.935928      134.17137    
     76000   0.96081431     19.681171      134.02731    
     77000   1.0276978      20.039746      133.90733    
     78000   1.0196542      20.022222      133.82988    
     79000   0.9948185      19.608932      133.62762    
     80000   0.98832907     18.982195      133.29516    
     81000   1.0008692      20.074523      133.24512    
     82000   0.97462282     20.13489       133.10153    
     83000   0.9598223      20.008859      132.86562    
     84000   0.93879441     19.609061      132.57139    
     85000   0.94559396     19.317553      132.19335    
     86000   0.94147428     19.965826      131.82127    
     87000   0.96445217     20.062889      131.53996    
     88000   1.0034098      20.199011      131.32315    
     89000   1.0339902      20.264225      131.23987    
     90000   1.0018598      19.941621      131.21075    
     91000   1.0168238      20.629888      131.11203    
     92000   1.0279237      19.770421      131.01894    
     93000   1.0389727      20.206595      130.92078    
     94000   1.0337226      19.824844      130.6082     
     95000   0.9916535      19.252717      130.61009    
     96000   0.96006301     20.009591      130.52172    
     97000   1.0266769      19.855152      130.28668    
     98000   0.9781227      20.132704      130.22533    
     99000   1.0017061      19.80705       130.09159    
    100000   1.0007027      19.303179      129.95008    
Loop time of 220.102 on 2 procs for 100000 steps with 901 atoms

Performance: 392545.655 tau/day, 454.335 timesteps/s
63.0% CPU use with 2 MPI tasks x 1 OpenMP threads

MPI task timing breakdown:
Section |  min time  |  avg time  |  max time  |%varavg| %total
---------------------------------------------------------------
Pair    | 0.0098709  | 1.2478     | 2.4857     | 110.8 |  0.57
Bond    | 0.010445   | 2.9341     | 5.8577     | 170.7 |  1.33
Neigh   | 203.53     | 203.54     | 203.55     |   0.1 | 92.48
Comm    | 0.083509   | 0.11667    | 0.14984    |   9.7 |  0.05
Output  | 0.65028    | 0.66192    | 0.67355    |   1.4 |  0.30
Modify  | 0.052831   | 3.2143     | 6.3757     | 176.3 |  1.46
Other   |            | 8.385      |            |       |  3.81

Nlocal:          450.5 ave         901 max           0 min
Histogram: 1 0 0 0 0 0 0 0 0 1
Nghost:              0 ave           0 max           0 min
Histogram: 2 0 0 0 0 0 0 0 0 0
Neighs:         2392.5 ave        4785 max           0 min
Histogram: 1 0 0 0 0 0 0 0 0 1

Total # of neighbors = 4785
Ave neighs/atom = 5.3107658
Ave special neighs/atom = 1.9977802
Neighbor list builds = 1084
Dangerous builds = 0

# Replace lj potential, now collapse
pair_style      lj/cut 3

# Cutoff simul when gyration under 5
# Variable created with equal requires v_ + 'name'
fix 3 all halt 1000 v_rog < 7

run 5000000
Generated 0 of 0 mixed pair_coeff terms from geometric mixing rule
Per MPI rank memory allocation (min/avg/max) = 939.5 | 940.1 | 940.7 Mbytes
   Step          Temp         Enthalpy         c_1      
    100000   1.0007027      18.786936      129.95008    
    101000   1.0289225      19.421675      129.42696    
    102000   1.0054426      19.154541      129.2429     
    103000   1.0389686      19.577219      129.34336    
    104000   0.98445557     19.259646      129.24819    
    105000   1.0207225      19.610839      129.28447    
    106000   1.0030558      19.339938      129.15502    
    107000   1.0114717      19.274743      128.99265    
    108000   1.0003746      19.884566      128.7681     
    109000   1.0226425      19.087345      128.48847    
    110000   1.0159187      19.296443      128.38966    
    111000   0.99846967     19.274699      128.23868    
    112000   0.97950079     19.56895       127.90977    
    113000   0.98868515     19.104564      127.77671    
    114000   1.0425654      19.300892      127.46543    
    115000   1.0146046      19.611718      127.32557    
    116000   1.0439092      18.733149      126.90929    
    117000   1.039043       19.404542      126.59849    
    118000   1.015117       19.419309      126.69008    
    119000   1.0430836      19.223517      126.37638    
    120000   1.0157833      19.52394       125.93285    
    121000   0.95634297     19.156186      125.92283    
    122000   1.0115958      19.204198      125.85474    
    123000   1.0284602      19.349723      125.80885    
    124000   1.0442775      19.169145      125.57876    
    125000   1.0274146      19.278461      125.53145    
    126000   0.97618612     19.349813      125.4998     
    127000   1.0392378      19.131957      125.18438    
    128000   1.0095679      19.229335      125.08207    
    129000   0.96243003     18.961255      124.81442    
    130000   1.0325884      19.166932      124.65059    
    131000   0.99738927     18.992913      124.55076    
    132000   0.97502049     19.066148      124.53141    
    133000   1.0199288      19.152143      124.47164    
    134000   1.0364782      19.208425      124.07966    
    135000   1.0151886      18.920549      123.99703    
    136000   0.99826877     18.641311      123.89255    
    137000   1.0352015      19.541109      123.68116    
    138000   0.97560739     19.442631      123.47512    
    139000   1.0139829      19.147373      123.47791    
    140000   0.99796104     19.106638      123.50773    
    141000   0.98943663     18.802454      123.36152    
    142000   1.0394379      19.214736      123.26688    
    143000   1.0241297      19.179904      122.95779    
    144000   0.985647       18.99327       122.87383    
    145000   1.003134       19.220132      122.82982    
    146000   0.99557358     19.095849      122.70697    
    147000   0.93952654     19.344624      122.72903    
    148000   1.0407098      19.159995      122.56962    
    149000   1.008585       18.929888      122.59463    
    150000   1.0464451      19.522853      122.60672    
    151000   0.97826105     18.712343      122.63302    
    152000   0.96972486     18.77425       122.54376    
    153000   1.0178994      19.157772      122.4528     
    154000   0.97561239     19.118449      122.2337     
    155000   1.0052265      18.545408      122.09208    
    156000   0.98729636     18.645206      121.86948    
    157000   0.99734217     19.004199      121.70075    
    158000   0.9530858      18.996582      121.27261    
    159000   0.99856514     19.454392      121.19404    
    160000   0.98753905     18.990716      120.96366    
    161000   0.95056414     18.371757      120.76357    
    162000   1.0002802      19.01366       120.59796    
    163000   0.98970069     19.027785      120.2645     
    164000   0.99186808     19.464468      120.03855    
    165000   1.0379206      18.526132      119.96376    
    166000   0.99311922     19.559655      119.96962    
    167000   0.98712098     19.067755      119.78236    
    168000   0.96722144     18.954033      119.4535     
    169000   1.0027551      19.094533      119.06077    
    170000   0.98900779     19.252392      118.91748    
    171000   0.93741159     18.771502      118.7962     
    172000   0.97428413     19.369283      118.74325    
    173000   0.971556       18.626689      118.66418    
    174000   1.0487529      19.485797      118.46582    
    175000   0.96045074     18.794112      118.5085     
    176000   0.95518591     18.798497      118.19932    
    177000   1.0283767      19.133953      117.80489    
    178000   0.98599573     18.859674      117.75584    
    179000   1.0054894      18.847327      117.51018    
    180000   1.0317767      19.596123      117.38138    
    181000   1.051931       19.16284       117.31799    
    182000   1.0281364      19.2007        117.02457    
    183000   0.92653892     19.33462       117.01612    
    184000   1.0214907      18.701445      116.73811    
    185000   0.9892295      18.781957      116.50998    
    186000   0.97306497     19.650058      116.17424    
    187000   0.96363694     18.77951       115.99985    
    188000   0.98641849     19.271978      115.48716    
    189000   1.0068879      19.119923      115.51748    
    190000   0.937578       18.903621      115.52376    
    191000   0.94161835     18.69997       115.38029    
    192000   0.98824495     19.385576      115.25957    
    193000   1.0026857      18.691623      115.25084    
    194000   0.96532492     19.202663      115.15966    
    195000   1.034076       19.237246      115.07616    
    196000   0.99434844     19.119887      115.02113    
    197000   1.0199183      18.950339      114.82711    
    198000   0.99271816     18.7557        114.64957    
    199000   0.97494794     18.523378      114.41709    
    200000   0.97934183     18.978416      114.18351    
    201000   1.0026241      18.571349      113.86762    
    202000   1.0284177      18.736446      113.61279    
    203000   0.94793091     18.790338      113.32293    
    204000   0.96931178     18.768148      113.06111    
    205000   0.98482874     19.113385      112.90826    
    206000   1.0505725      18.785151      112.87851    
    207000   1.0322393      18.899663      112.75473    
    208000   1.0191773      18.937602      112.38345    
    209000   1.0426772      19.144622      112.15864    
    210000   1.0117628      19.070018      112.04842    
    211000   1.0549098      19.431853      112.09512    
    212000   1.0109782      19.427118      111.94027    
    213000   1.0099399      19.490451      111.65017    
    214000   1.0131992      19.529301      111.6471     
    215000   1.0183507      18.884839      111.63212    
    216000   1.0380641      19.296646      111.41843    
    217000   0.97172283     18.313288      111.38477    
    218000   0.99512818     19.276772      111.29424    
    219000   0.98650133     19.066383      111.07646    
    220000   1.0160737      18.604956      111.05869    
    221000   0.99848063     18.939682      110.83176    
    222000   0.94395343     18.686407      110.6433     
    223000   0.99471044     18.525147      110.40462    
    224000   1.0223967      19.013281      110.20555    
    225000   1.0334346      19.724709      109.87744    
    226000   0.99252977     19.577484      109.44964    
    227000   0.97284057     18.582391      109.3045     
    228000   1.0073183      19.044173      109.06678    
    229000   1.0112391      18.743326      108.82972    
    230000   0.95145903     19.023176      108.74233    
    231000   1.0182511      19.063948      108.71973    
    232000   0.95895054     18.711943      108.63836    
    233000   0.98525129     18.400376      108.45499    
    234000   0.99345904     18.768762      108.29741    
    235000   0.96853228     19.087618      108.02847    
    236000   1.0527419      18.668982      107.8775     
    237000   1.010018       18.740293      107.42948    
    238000   1.0613434      18.818584      107.27632    
    239000   1.0092578      18.962674      107.18578    
    240000   1.006656       19.874526      107.10091    
    241000   0.96319184     18.873342      106.8454     
    242000   0.96823583     18.460161      106.61062    
    243000   0.97805208     19.198433      106.48949    
    244000   0.95923296     18.673283      106.30356    
    245000   0.97451526     19.112975      106.16059    
    246000   1.0345233      19.319887      106.35561    
    247000   0.98241068     18.610814      106.30122    
    248000   0.9800924      18.37997       106.235      
    249000   1.0017209      18.83422       106.17848    
    250000   0.98877557     18.570413      105.83031    
    251000   1.0371348      19.035129      105.67502    
    252000   1.0324957      18.769049      105.34168    
    253000   1.0172263      18.742292      105.32647    
    254000   0.99630124     19.059696      105.30781    
    255000   0.94325729     19.113687      105.21325    
    256000   0.98393606     18.833353      105.17627    
    257000   1.0424665      18.979566      105.03742    
    258000   0.98295467     19.062772      104.99506    
    259000   0.99756198     18.977496      104.80974    
    260000   0.96935648     18.894387      104.57483    
    261000   1.0042258      18.507315      104.67768    
    262000   1.0100079      19.078325      104.41405    
    263000   0.91234615     18.569388      104.29816    
    264000   1.0005737      19.045386      104.21519    
    265000   0.99329662     18.510921      104.04848    
    266000   1.0447459      19.239572      104.01782    
    267000   0.94589384     18.891893      103.63478    
    268000   0.92988452     18.558784      103.6145     
    269000   0.99829587     18.747423      103.52853    
    270000   1.0153744      18.55071       103.50019    
    271000   1.0199459      19.021392      103.44968    
    272000   0.98939061     18.590725      103.42899    
    273000   0.99501461     19.067236      103.04772    
    274000   1.0110089      19.072142      102.85459    
    275000   0.99519769     18.900493      102.67212    
    276000   0.95660357     19.109838      102.37232    
    277000   1.029827       19.119632      102.35       
    278000   0.95832316     18.226796      102.2266     
    279000   1.0531596      18.801594      102.07057    
    280000   1.010729       18.444982      101.74251    
    281000   0.997723       19.022252      101.48412    
    282000   0.9885896      18.768659      101.29498    
    283000   1.036113       18.720381      101.24794    
    284000   1.0640314      18.935585      101.07467    
    285000   1.0774519      19.271233      101.09612    
    286000   1.0101415      18.633585      101.06519    
    287000   0.97972748     19.18326       100.98019    
    288000   0.99955969     18.410853      100.64108    
    289000   0.93614405     18.760424      100.73134    
    290000   1.0122836      19.112356      100.67104    
    291000   0.9844925      18.442837      100.58142    
    292000   0.97062396     19.14194       100.47964    
    293000   1.0074337      18.919082      100.46004    
    294000   1.0377067      18.623741      100.21611    
    295000   0.99513068     18.411037      99.879761    
    296000   1.032702       18.529642      99.838919    
    297000   1.0052343      19.055787      99.648666    
    298000   1.0200989      18.506258      99.444283    
    299000   0.96893528     18.89632       99.451459    
    300000   0.97013854     18.59691       99.44604     
    301000   1.0005609      18.273358      99.512852    
    302000   0.9869204      18.660529      99.335262    
    303000   1.0021112      18.208284      99.232383    
    304000   0.9765313      19.280512      99.06739     
    305000   1.023795       18.853661      98.630061    
    306000   1.0044474      18.695244      98.394458    
    307000   0.99040251     18.924237      98.13258     
    308000   1.0104212      19.1317        98.129564    
    309000   0.99334997     18.512251      98.118664    
    310000   0.98434711     19.002398      97.778896    
    311000   1.0459829      18.496122      97.856268    
    312000   1.0346362      18.93679       97.536638    
    313000   1.0009523      19.006186      97.327758    
    314000   1.0127009      18.895753      97.414666    
    315000   1.0385562      19.017781      97.26263     
    316000   1.0119533      18.499284      97.117563    
    317000   1.0122497      18.816366      96.699342    
    318000   1.0607927      18.733921      96.517894    
    319000   1.0125049      18.882645      96.609131    
    320000   0.99150312     18.722064      96.508499    
    321000   0.99626716     19.020938      96.265169    
    322000   0.99733369     18.596871      95.966996    
    323000   1.0366978      18.469344      95.890485    
    324000   1.0674349      18.902994      95.918347    
    325000   0.97318949     18.378605      95.977819    
    326000   0.97302216     18.668887      96.008828    
    327000   1.0176927      18.44634       95.783977    
    328000   1.0482457      19.09121       95.786588    
    329000   1.0080784      18.463084      95.492529    
    330000   1.0243773      19.053559      95.301646    
    331000   1.0050553      19.081644      95.189591    
    332000   0.9792622      18.51291       95.359606    
    333000   1.0102365      18.580787      95.297005    
    334000   0.97930615     18.191881      95.140191    
    335000   1.0074786      19.117394      95.149476    
    336000   0.96419452     18.276909      94.770702    
    337000   0.98218493     18.239013      94.648078    
    338000   1.0339352      19.010473      94.525387    
    339000   0.95428401     18.588891      94.50717     
    340000   1.0241446      19.004151      94.374586    
    341000   0.99922686     18.347911      94.171668    
    342000   0.96691072     18.709446      93.944778    
    343000   0.97498409     17.911496      93.660615    
    344000   0.97490507     18.696908      93.391707    
    345000   0.99601693     18.525003      93.121085    
    346000   0.97859088     18.606998      92.837887    
    347000   1.0105634      18.495007      92.532438    
    348000   0.99379367     18.71841       92.359283    
    349000   0.95037976     18.602451      92.245689    
    350000   1.0315722      18.689777      92.232201    
    351000   0.98901685     18.958635      92.145629    
    352000   0.95994054     18.541488      92.321989    
    353000   1.0017788      18.501475      92.120076    
    354000   0.99989169     18.409882      91.874508    
    355000   1.0429131      18.297177      91.609898    
    356000   1.0335931      18.867691      91.570698    
    357000   0.96519689     18.673841      91.477566    
    358000   0.97839268     17.942201      91.264606    
    359000   1.0268849      18.701294      91.148597    
    360000   0.99439563     18.980118      91.089582    
    361000   0.96047348     18.645177      90.933613    
    362000   1.0140486      18.479761      90.822348    
    363000   0.95925071     18.603099      90.729445    
    364000   0.9896757      18.545888      90.701815    
    365000   1.0315439      19.26184       90.368322    
    366000   1.0111343      18.843459      90.202706    
    367000   0.99680223     18.22387       90.137793    
    368000   1.0441721      18.940234      90.052645    
    369000   0.96716373     18.76162       90.076705    
    370000   0.99091673     18.833158      89.849       
    371000   1.0467446      18.326909      89.965995    
    372000   1.0574952      18.327556      89.90041     
    373000   1.0088124      18.27919       89.727276    
    374000   1.014545       18.369243      89.673803    
    375000   0.96195753     18.239831      89.641167    
    376000   0.99904193     18.916777      89.499117    
    377000   1.0208221      19.061408      89.367416    
    378000   1.0076769      18.470435      89.278362    
    379000   1.0251756      18.604837      89.054984    
    380000   1.0103861      17.851748      88.845338    
    381000   1.0659889      19.390086      88.626457    
    382000   1.0351537      19.155337      88.371756    
    383000   0.99218009     18.145878      88.498374    
    384000   0.99026842     18.199798      88.155556    
    385000   1.0138747      18.242612      88.10793     
    386000   1.0234284      18.780606      87.880506    
    387000   1.0249634      18.575796      87.73869     
    388000   1.0534075      18.31406       87.588748    
    389000   1.0278011      18.5712        87.230139    
    390000   0.95300851     19.038489      87.214653    
    391000   0.98911942     18.217016      87.108875    
    392000   1.0239791      18.481561      87.030204    
    393000   1.0115219      18.654316      86.897117    
    394000   0.96390725     18.285579      86.670639    
    395000   1.0093247      18.398726      86.426004    
    396000   1.0007255      18.210763      86.293974    
    397000   1.0207747      18.827565      86.310357    
    398000   0.97023304     18.11764       86.201576    
    399000   0.96229878     18.693804      86.051128    
    400000   1.0179608      18.746151      85.931309    
    401000   1.0184488      18.439126      85.655547    
    402000   1.0016816      18.494737      85.545658    
    403000   1.0283494      18.131737      85.541321    
    404000   1.0511774      18.489775      85.387921    
    405000   1.0382338      19.286849      85.237352    
    406000   1.0075414      18.442879      85.088127    
    407000   1.0428927      19.127632      85.024394    
    408000   1.0022662      18.851116      85.015859    
    409000   0.99729132     18.428133      84.952867    
    410000   1.0049845      18.55963       84.825587    
    411000   1.0315878      18.401343      84.921732    
    412000   1.023875       18.771296      85.008223    
    413000   1.0362791      18.286155      84.832815    
    414000   0.99702661     19.348378      84.605028    
    415000   1.0006681      18.330977      84.429468    
    416000   0.99394916     17.88796       84.453128    
    417000   0.98479624     18.40245       84.20933     
    418000   1.014475       18.532121      84.194975    
    419000   0.97331978     18.535637      83.978852    
    420000   1.0056206      18.288722      83.963445    
    421000   0.9911471      18.502664      83.76943     
    422000   1.0600242      18.785359      83.56274     
    423000   0.95768879     18.352825      83.484131    
    424000   1.0169042      18.318871      83.296225    
    425000   1.0281387      17.783888      82.932892    
    426000   0.96272825     18.023192      82.680701    
    427000   1.0227594      18.912537      82.695482    
    428000   1.0133687      18.304642      82.641648    
    429000   0.97450894     18.735562      82.390894    
    430000   1.0042579      17.815603      82.228816    
    431000   1.0117014      18.153011      82.124132    
    432000   0.97503077     19.100035      81.980808    
    433000   0.99844067     18.16846       81.645836    
    434000   0.95137572     18.208278      81.768978    
    435000   1.0210757      18.782126      81.64933     
    436000   1.0308995      18.172688      81.480551    
    437000   1.0233555      18.146388      81.546891    
    438000   1.0425388      18.891236      81.399513    
    439000   1.0168361      19.076416      80.995167    
    440000   0.9983158      18.143487      80.708242    
    441000   1.0476068      18.938896      80.55282     
    442000   1.0252699      18.819775      80.704118    
    443000   0.95489965     18.261357      80.614286    
    444000   1.0319627      18.971517      80.473455    
    445000   1.0006022      18.543087      80.265741    
    446000   0.95164564     18.537688      80.161482    
    447000   1.030333       18.936418      80.114698    
    448000   0.96787405     19.089485      80.122897    
    449000   0.94725814     18.53285       80.012696    
    450000   1.0055433      18.924423      79.912885    
    451000   1.0169962      18.633667      79.757039    
    452000   0.99256198     18.541473      79.473903    
    453000   0.99506798     18.419466      79.264582    
    454000   1.0124009      18.419364      79.025103    
    455000   1.0015997      18.120048      79.153493    
    456000   1.0266544      18.50367       79.009794    
    457000   0.9766691      18.579513      78.788232    
    458000   0.98137309     18.243953      78.626928    
    459000   0.98376969     17.708011      78.3703      
    460000   1.0209037      18.698584      78.164685    
    461000   0.97966766     18.500013      78.140341    
    462000   1.0158904      18.584652      77.825317    
    463000   1.0401619      18.321638      77.766133    
    464000   1.0294301      18.577129      77.889959    
    465000   1.0231908      17.821748      77.772257    
    466000   0.98973993     17.975192      77.748575    
    467000   0.99720415     18.596486      77.395518    
    468000   1.0023773      18.072219      76.980461    
    469000   1.0145616      18.594074      76.988706    
    470000   1.032503       18.795182      76.895361    
    471000   1.001083       18.910607      76.664441    
    472000   0.99336271     18.689013      76.57059     
    473000   0.99259732     18.955754      76.442668    
    474000   0.99785592     17.884209      76.540557    
    475000   0.99205689     18.077044      76.705324    
    476000   0.98304176     18.580053      76.672921    
    477000   0.97980617     18.555985      76.636324    
    478000   1.0205797      18.562165      76.4599      
    479000   0.99636175     18.487315      76.363941    
    480000   0.99993643     18.327557      75.963001    
    481000   0.98758094     18.422073      75.701873    
    482000   0.95371707     18.685867      75.558279    
    483000   0.97181156     17.738782      75.418552    
    484000   0.98902747     18.247365      75.452207    
    485000   1.0079226      18.576378      75.536285    
    486000   0.99872788     18.702119      75.381184    
    487000   0.97414893     18.395071      75.261896    
    488000   1.0038317      18.888252      75.115377    
    489000   1.0147037      18.708548      75.137654    
    490000   1.0333898      18.560257      74.941622    
    491000   0.99267322     18.536946      75.091786    
    492000   1.014546       18.656307      74.882245    
    493000   1.0278416      18.550739      74.818593    
    494000   1.0050737      18.66823       74.840664    
    495000   1.0123609      18.746132      74.748098    
    496000   0.99851862     18.834288      74.82654     
    497000   0.9657636      18.557342      74.877048    
    498000   0.97174707     18.721312      74.80302     
    499000   0.95442535     18.075454      74.860787    
    500000   1.0011539      18.259584      74.831997    
    501000   0.97579557     17.898429      74.74192     
    502000   0.97448316     18.216409      74.716547    
    503000   1.0195166      18.413689      74.65756     
    504000   0.97476889     18.714475      74.604639    
    505000   1.0408696      18.445954      74.487238    
    506000   0.99819221     18.455949      74.381421    
    507000   0.999842       17.919091      74.558941    
    508000   0.97269697     18.186978      74.421972    
    509000   0.99173373     17.865666      74.386781    
    510000   1.0449724      18.256913      74.404713    
    511000   1.0276286      18.571002      73.994901    
    512000   1.000431       18.530455      73.837797    
    513000   1.0284752      18.897207      73.834957    
    514000   0.99338198     18.563752      73.752499    
    515000   1.0046937      18.176441      73.687027    
    516000   0.99584467     18.607482      73.517632    
    517000   0.98636444     18.840101      73.268449    
    518000   1.0449277      18.64404       73.072229    
    519000   0.98944366     18.915791      72.904843    
    520000   0.98592788     18.299933      72.677896    
    521000   0.98054422     17.561908      72.479985    
    522000   0.99975725     18.719659      72.474589    
    523000   0.98851486     18.348577      72.272734    
    524000   0.99589244     18.040872      72.250349    
    525000   1.0237888      17.991902      72.084707    
    526000   0.95905586     18.505658      71.948135    
    527000   0.9661572      18.052526      71.88122     
    528000   0.97950324     18.352708      71.791296    
    529000   0.99411602     18.187882      71.962236    
    530000   0.98622759     17.619757      72.199977    
    531000   1.0328023      18.412215      71.970155    
    532000   0.99369686     17.974404      72.063103    
    533000   0.98204423     18.573002      71.912975    
    534000   1.0059948      18.560838      71.775581    
    535000   1.0135142      18.213322      71.486739    
    536000   1.0354613      18.29533       71.38201     
    537000   1.0740049      19.058122      71.151753    
    538000   0.96594176     18.733629      70.954807    
    539000   0.95354968     17.793854      71.1761      
    540000   0.96653801     18.433046      70.988396    
    541000   1.031961       18.901658      71.035555    
    542000   0.98255388     17.87903       70.990718    
    543000   0.97875936     17.929736      70.84981     
    544000   0.97763299     17.843277      70.580701    
    545000   0.99305971     17.954402      70.339696    
    546000   1.0428196      18.645961      70.1316      
    547000   0.9699222      18.162906      69.989471    
    548000   1.039875       18.253915      69.723253    
    549000   1.05014        19.083472      69.474474    
    550000   0.98819408     18.129849      69.727336    
    551000   1.0198802      18.377479      69.630814    
    552000   0.98899373     17.96397       69.687319    
    553000   0.99864379     18.144063      69.432569    
    554000   1.0258339      18.420988      69.228412    
    555000   0.99276962     18.68306       69.148435    
    556000   1.0003189      17.781319      69.032788    
    557000   1.0434485      18.790587      69.004061    
    558000   1.0158327      18.543714      69.205762    
    559000   1.0689656      18.262277      69.182394    
    560000   1.0160859      18.88375       68.917788    
    561000   1.0029809      17.723709      68.899635    
    562000   0.99786019     18.553468      68.819786    
    563000   1.0070978      18.424747      68.84946     
    564000   1.0047022      18.035874      68.717302    
    565000   1.0317397      18.232261      68.653491    
    566000   1.0429687      18.495686      68.488019    
    567000   1.0118521      18.448475      68.555651    
    568000   0.99541654     17.755         68.518848    
    569000   0.95163962     17.832143      68.358632    
    570000   0.99655798     18.2839        68.067543    
    571000   0.99541626     18.108538      68.065166    
    572000   1.0219736      18.054946      67.958824    
    573000   1.0088586      18.291242      67.95762     
    574000   1.0174635      18.981379      67.892871    
    575000   1.0485812      18.686482      67.816051    
    576000   0.96412577     18.236507      67.838104    
    577000   0.96891841     17.531512      67.683626    
    578000   0.98588898     18.152954      67.495336    
    579000   1.0004583      17.964656      67.357137    
    580000   0.98668061     17.549268      67.231003    
    581000   0.98814662     17.936404      67.023689    
    582000   0.99088933     17.975559      66.899689    
    583000   1.0515504      18.434072      66.731642    
    584000   0.96259169     18.206239      66.764966    
    585000   1.0553417      18.422831      66.4282      
    586000   1.0177722      18.524948      66.116341    
    587000   1.0028397      17.99481       66.085076    
    588000   0.94844101     18.231538      66.016578    
    589000   1.0287011      18.427122      65.959314    
    590000   0.99300165     17.902614      65.776552    
    591000   1.0261311      18.255555      65.675852    
    592000   0.99205715     18.243068      65.519676    
    593000   0.99629757     17.761655      65.278608    
    594000   0.9816308      17.793356      65.192054    
    595000   1.0199698      17.727411      65.069368    
    596000   1.05771        17.704556      65.145468    
    597000   1.0155467      18.275024      64.984454    
    598000   1.0168492      18.202085      64.912347    
    599000   0.98991221     17.74404       64.880847    
    600000   1.0401715      18.529274      65.006432    
    601000   0.99640583     17.705947      64.905788    
    602000   1.0498613      18.853761      64.679236    
    603000   0.95751126     17.957555      64.668578    
    604000   1.0059553      18.644026      64.675848    
    605000   0.9762117      18.293241      64.79819     
    606000   0.99978663     17.581156      64.599686    
    607000   0.98029429     18.056847      64.401768    
    608000   1.009045       18.05807       64.122948    
    609000   0.98272978     18.71407       63.959915    
    610000   1.0155455      17.883048      63.76531     
    611000   0.99019568     17.721783      63.895151    
    612000   0.96498284     17.86767       63.900565    
    613000   0.98020905     18.082681      63.945656    
    614000   1.0223129      18.455305      63.736213    
    615000   1.0004756      17.95722       63.748417    
    616000   0.9703997      18.176536      63.885266    
    617000   1.0286589      18.429299      63.779459    
    618000   1.0007786      17.966129      63.791743    
    619000   1.0179804      18.235212      63.685431    
    620000   1.0065944      17.502289      63.761759    
    621000   1.0029907      17.741807      63.634614    
    622000   0.99521216     18.12683       63.249198    
    623000   1.0404642      18.44801       63.1644      
    624000   0.96678068     18.366822      62.815464    
    625000   0.99989253     17.858847      62.746992    
    626000   1.0220214      18.328448      62.666843    
    627000   1.0003723      17.955928      62.624049    
    628000   1.0156932      18.517501      62.471619    
    629000   1.0283376      18.638485      62.285779    
    630000   0.99967906     18.489247      62.291599    
    631000   0.99732878     18.313258      62.396374    
    632000   0.95020013     17.800938      62.426466    
    633000   1.0553979      18.183607      62.570992    
    634000   1.0097299      18.153956      62.385525    
    635000   0.97116108     18.017741      62.381125    
    636000   0.99557418     17.728717      62.127709    
    637000   0.95559295     18.367634      62.059715    
    638000   1.0313991      18.403733      62.159722    
    639000   1.0273454      18.504728      62.277629    
    640000   0.97538468     18.525061      62.030357    
    641000   0.96247613     18.332488      61.621192    
    642000   1.0247003      18.092905      61.539455    
    643000   1.0243025      18.172984      61.359613    
    644000   1.0211041      18.307825      61.350277    
    645000   0.97668433     18.025857      61.103486    
    646000   1.0166465      18.47706       60.998605    
    647000   1.0054502      18.96395       60.942639    
    648000   1.0452649      18.415049      60.835493    
    649000   0.9866601      18.014383      60.97352     
    650000   1.0116539      18.506842      60.944664    
    651000   1.0291105      18.130928      60.852989    
    652000   0.98970675     18.301546      60.446204    
    653000   1.0322258      17.96907       60.173135    
    654000   1.023296       18.524592      60.047944    
    655000   0.99803153     17.551348      59.68762     
    656000   0.98376396     17.868314      59.677914    
    657000   1.017402       17.981989      59.967472    
    658000   0.99746296     18.596569      59.995848    
    659000   0.99946365     18.207362      59.623219    
    660000   1.0237744      18.36049       59.449243    
    661000   1.0352105      17.780769      59.592412    
    662000   0.98947977     18.086012      59.518876    
    663000   0.99952807     18.23037       59.256559    
    664000   0.98902424     18.423584      59.113192    
    665000   0.95866575     17.305851      59.181075    
    666000   0.98081661     17.499535      58.918654    
    667000   1.0142088      18.263453      58.700641    
    668000   0.99151374     18.254683      58.370324    
    669000   1.0377666      18.00716       58.264537    
    670000   1.0077236      18.739743      58.173011    
    671000   1.0103429      17.910454      58.298303    
    672000   1.0112442      18.098618      58.360605    
    673000   1.0015136      18.004878      58.277266    
    674000   0.98460532     18.734822      58.409882    
    675000   0.98394777     18.188271      58.243259    
    676000   1.0426561      18.304291      57.846622    
    677000   0.99573449     18.060102      57.955523    
    678000   0.97248402     17.928258      57.869469    
    679000   0.9933787      17.79241       57.816545    
    680000   0.96033127     17.563093      57.694751    
    681000   1.0036795      18.091719      57.606271    
    682000   0.99389246     18.693046      57.316667    
    683000   1.0155504      17.990571      57.315646    
    684000   0.9734527      18.118516      57.130484    
    685000   0.9902531      18.381504      57.154656    
    686000   0.98773662     18.243648      56.688857    
    687000   0.95964902     18.198553      56.665671    
    688000   0.99936652     18.393357      56.471948    
    689000   0.99954868     18.186813      56.607864    
    690000   1.0089656      18.015373      56.557124    
    691000   0.96372598     18.002603      56.481563    
    692000   1.0168928      18.575945      56.361004    
    693000   1.0400183      17.927605      56.118079    
    694000   0.99165675     17.712827      55.884478    
    695000   1.0260067      17.780233      55.696077    
    696000   1.0087111      17.960351      55.555576    
    697000   1.0276046      18.551893      55.531309    
    698000   1.0356375      18.063749      55.558971    
    699000   0.99320108     18.155769      55.504047    
    700000   0.97479327     17.586174      55.400309    
    701000   0.97373481     18.631765      55.127547    
    702000   0.98606204     17.977757      54.915467    
    703000   1.0045493      18.033952      54.657361    
    704000   0.99909772     18.217999      54.357268    
    705000   0.97171314     17.721619      54.584489    
    706000   1.0063493      17.966744      54.580221    
    707000   1.0252761      17.481214      54.516207    
    708000   0.97448695     17.848376      54.390895    
    709000   0.98194235     18.26512       54.1796      
    710000   0.99581168     17.563563      54.08429     
    711000   0.99796567     17.989989      53.965792    
    712000   0.96533849     17.894244      53.855418    
    713000   1.0068738      18.459542      53.730765    
    714000   1.0130156      17.868019      53.585801    
    715000   0.95782661     17.991497      53.295171    
    716000   0.96579113     17.603444      53.184162    
    717000   0.98457049     17.944781      53.031494    
    718000   0.98146489     17.980143      52.870579    
    719000   0.98435378     17.919671      52.743786    
    720000   0.96910727     17.396401      52.697273    
    721000   0.96102911     17.67233       52.597445    
    722000   1.0109004      17.840651      52.498651    
    723000   1.0090182      17.54356       52.370175    
    724000   1.0017957      18.060675      52.383807    
    725000   1.0050374      17.719257      52.452222    
    726000   1.0450901      17.862345      52.555183    
    727000   1.0072287      17.9261        52.622334    
    728000   1.0483858      18.154075      52.48786     
    729000   1.0396335      17.767331      52.532278    
    730000   0.99611623     17.784376      52.573127    
    731000   0.96209112     17.783468      52.551313    
    732000   0.99435258     17.560144      52.639836    
    733000   1.0060366      17.792551      52.405481    
    734000   0.94687897     18.048373      52.233293    
    735000   1.0152507      17.851861      52.184966    
    736000   0.99533637     17.925187      51.788177    
    737000   1.0060644      17.898017      51.789756    
    738000   0.96756164     18.021804      51.445       
    739000   1.0019268      17.684251      51.49127     
    740000   0.99007997     18.095908      51.481673    
    741000   1.0028106      18.093734      51.179296    
    742000   0.9769275      17.363286      50.999982    
    743000   0.99793396     18.042343      50.873931    
    744000   0.98952518     18.016661      50.725113    
    745000   1.0083743      17.938524      50.691904    
    746000   1.0185236      17.657597      50.703432    
    747000   1.0060719      18.104671      50.684691    
    748000   0.97252068     18.119535      50.580467    
    749000   1.0271386      18.424406      50.718914    
    750000   1.0235565      17.718851      50.654839    
    751000   1.0200542      17.981048      50.821541    
    752000   1.0222722      18.476314      50.737284    
    753000   1.0597891      18.301838      50.679606    
    754000   0.99702778     17.891215      50.766991    
    755000   1.0108551      18.110261      50.657514    
    756000   1.0262745      17.962856      50.564819    
    757000   1.0067147      18.405681      50.472371    
    758000   1.0195851      18.103623      50.493018    
    759000   0.98159723     18.075354      50.457087    
    760000   0.97457091     18.057188      50.355322    
    761000   1.0124141      17.81604       50.111014    
    762000   0.97437979     17.692882      49.992114    
    763000   0.97006264     18.058453      49.740067    
    764000   0.97269272     17.969559      49.976581    
    765000   1.012326       17.638566      49.78946     
    766000   1.0137718      18.130885      49.833124    
    767000   1.0069148      18.039031      49.76462     
    768000   1.0552341      18.075257      49.683023    
    769000   0.99588329     17.530883      49.584695    
    770000   0.99909702     18.042426      49.55872     
    771000   1.014295       18.143634      49.351513    
    772000   1.0043381      18.115507      49.217652    
    773000   1.0025733      17.574853      49.267632    
    774000   1.0208299      17.480721      49.328798    
    775000   1.0136823      18.212304      49.118442    
    776000   0.9807091      18.08417       48.997929    
    777000   1.0106204      18.721893      48.899611    
    778000   1.0219562      17.705688      48.738799    
    779000   0.9670372      18.123503      48.671014    
    780000   1.0121126      17.581828      48.753476    
    781000   1.010522       18.172117      48.538261    
    782000   0.94746913     18.038635      48.645877    
    783000   1.0126766      17.659232      48.834741    
    784000   1.0042304      17.426997      48.976855    
    785000   0.99040714     17.762597      48.712488    
    786000   1.0133623      17.425991      48.579314    
    787000   1.0339946      17.930093      48.415531    
    788000   1.0148623      17.4902        48.154864    
    789000   1.0376548      17.973536      47.923244    
    790000   0.97250027     17.508619      48.084008    
    791000   0.98323792     17.957372      48.089438    
    792000   1.0079562      17.263743      47.834292    
    793000   1.0096599      18.025868      47.758013    
    794000   0.99854294     17.615215      47.667477    
    795000   1.0330366      17.803359      47.501014    
    796000   1.0029782      17.239422      47.399462    
    797000   0.98327994     17.920309      47.003942    
    798000   0.99364622     18.082948      46.896828    
    799000   1.0186853      16.834884      46.766185    
    800000   1.0043825      17.366095      46.540742    
    801000   1.0055914      17.989419      46.54301     
    802000   0.99350383     17.328519      46.553154    
    803000   1.003601       18.017028      46.389601    
    804000   1.0422711      17.702333      46.424312    
    805000   0.97233621     17.681585      46.122043    
    806000   0.97463342     17.945248      46.070032    
    807000   0.94276528     17.886111      45.975515    
    808000   1.0384644      17.652171      46.024621    
    809000   0.99438775     17.246815      45.900675    
    810000   0.94770857     18.018935      45.642139    
    811000   0.98098179     18.254624      45.46386     
    812000   0.98689627     18.111835      45.261234    
    813000   1.0387783      18.365848      45.43626     
    814000   1.003953       17.653261      45.258336    
    815000   0.99591268     18.472447      45.058638    
    816000   1.0039341      17.69023       44.911354    
    817000   1.0099453      17.986238      44.577379    
    818000   1.0056798      18.222187      44.284278    
    819000   1.0246562      18.311382      44.204016    
    820000   1.0093088      17.939778      44.153375    
    821000   0.97199212     18.207273      44.363726    
    822000   1.0276739      18.13398       44.40437     
    823000   1.0232944      17.916787      44.629201    
    824000   0.98997737     17.149495      44.404944    
    825000   0.99600089     17.555373      44.210802    
    826000   0.98782134     17.697642      44.170628    
    827000   0.97997755     17.916689      44.46824     
    828000   0.98546902     18.006025      44.402498    
    829000   0.9692004      17.532282      44.283873    
    830000   1.0253304      17.916165      44.183313    
    831000   0.99730689     17.420018      44.139191    
    832000   0.99318137     17.946093      43.886563    
    833000   0.99108879     17.775441      43.807492    
    834000   0.95270437     17.615882      43.595782    
    835000   1.0159518      17.382061      43.256184    
    836000   1.0018596      18.448859      43.131511    
    837000   0.98317125     18.360552      42.797433    
    838000   1.0107597      18.358657      42.681857    
    839000   1.0476959      16.958687      42.58353     
    840000   0.99589998     17.852521      42.366218    
    841000   0.96442891     17.724698      42.188944    
    842000   1.0113299      18.006083      41.914378    
    843000   0.99774106     17.592342      41.822874    
    844000   0.96661604     17.568238      41.818501    
    845000   0.93403322     17.432715      41.814981    
    846000   1.0087976      17.783524      41.7066      
    847000   0.99899802     18.324932      41.713994    
    848000   0.97212732     17.939944      41.589793    
    849000   0.98051303     17.815424      41.59804     
    850000   0.99409323     17.492902      41.578057    
    851000   1.0207525      17.296437      41.48677     
    852000   0.97494699     17.645877      41.428736    
    853000   1.0511578      18.257298      41.256954    
    854000   1.0372984      17.89072       40.933488    
    855000   1.0531738      17.495709      40.910172    
    856000   0.99200282     17.964308      41.199126    
    857000   0.95889742     17.899958      41.186604    
    858000   1.0070134      17.761464      40.805372    
    859000   1.0261697      17.930939      40.736469    
    860000   1.0400297      18.017212      40.737953    
    861000   1.0061474      18.213         40.413191    
    862000   0.9869214      18.32778       40.401346    
    863000   1.0376004      17.798521      40.331823    
    864000   1.0136394      17.688575      40.165641    
    865000   1.01105        17.962274      39.941875    
    866000   0.98905374     17.550407      39.715258    
    867000   1.0266694      17.629506      39.468285    
    868000   1.0146602      18.274256      39.639426    
    869000   0.99877177     18.233342      39.782687    
    870000   0.98666045     18.02813       39.59121     
    871000   0.99047363     17.590229      39.472456    
    872000   0.99440013     17.997898      39.107693    
    873000   1.0111773      18.190477      39.010067    
    874000   0.97724661     17.089335      38.915677    
    875000   0.97645699     17.92483       38.562149    
    876000   0.97488696     17.4912        38.544005    
    877000   1.0082454      17.872266      38.242658    
    878000   1.0171641      17.856076      38.262184    
    879000   0.92695358     18.314281      38.247216    
    880000   0.99005854     17.737359      37.84641     
    881000   0.97936182     17.523489      37.789321    
    882000   1.004739       17.474499      37.6189      
    883000   0.97647616     17.434686      37.304288    
    884000   0.96944774     17.619015      37.156228    
    885000   0.97277162     17.062875      36.851771    
    886000   1.0134338      17.556766      36.428892    
    887000   1.0160734      17.689049      36.47895     
    888000   1.0593586      17.867508      36.603594    
    889000   1.0102         18.189886      36.238047    
    890000   1.0226625      17.758512      36.264453    
    891000   0.9683232      18.50285       36.010804    
    892000   0.99535618     17.827256      35.8915      
    893000   0.98333841     18.037478      36.116654    
    894000   1.0483308      17.871256      36.419815    
    895000   1.0303945      17.534995      36.549166    
    896000   1.0228071      17.314069      36.513467    
    897000   1.0223949      18.09478       36.516063    
    898000   1.0371344      17.991482      36.33572     
    899000   0.98991521     17.382843      36.098278    
    900000   1.0021729      17.674639      35.994626    
    901000   1.0010899      17.575969      35.880939    
    902000   1.0432955      17.601648      35.79278     
    903000   1.0222378      17.855454      35.898605    
    904000   1.0372827      17.998726      35.928095    
    905000   0.99372108     18.336376      36.269774    
    906000   0.97815799     17.401596      36.173806    
    907000   0.93925656     17.710354      35.921933    
    908000   1.0442666      18.082049      35.546062    
    909000   1.0324534      18.035914      35.849383    
    910000   0.9672961      18.396509      35.721408    
    911000   0.94775951     17.875076      35.685862    
    912000   1.0068715      17.838641      35.638155    
    913000   1.0599273      18.194826      35.565238    
    914000   0.96868896     17.260625      35.313084    
    915000   1.0363619      17.654824      35.124876    
    916000   1.0333273      18.310018      34.92783     
    917000   1.0017988      17.666877      34.724356    
    918000   0.98847506     18.276256      34.639681    
    919000   0.97509341     17.662795      34.770786    
    920000   0.96730796     17.860498      34.476764    
    921000   0.97675855     17.218229      34.246776    
    922000   1.0014759      17.568431      34.007731    
    923000   1.0228759      17.72005       33.784534    
    924000   1.0353493      18.483717      33.832303    
    925000   0.97875921     17.84415       33.558889    
    926000   1.0131252      17.187903      33.573964    
    927000   1.0730886      17.100129      33.416138    
    928000   1.0041197      17.719512      33.269214    
    929000   1.0133999      17.819288      32.937911    
    930000   1.0027641      17.424632      32.876703    
    931000   1.0292095      17.794839      32.608884    
    932000   0.98252365     17.896547      32.322244    
    933000   0.99978553     18.018006      32.202635    
    934000   1.0071514      17.424479      32.023333    
    935000   1.0007931      17.747458      31.824726    
    936000   0.99232117     17.708628      31.772144    
    937000   1.0143004      17.605383      31.689507    
    938000   1.0233392      17.166117      31.6868      
    939000   0.96660744     17.758694      31.718437    
    940000   0.980981       17.377608      31.656462    
    941000   1.0106876      17.939279      31.584201    
    942000   0.96120906     18.621632      31.568775    
    943000   0.94353402     17.737557      31.460131    
    944000   0.98766519     18.13488       31.227906    
    945000   1.0054389      17.928356      31.103812    
    946000   1.0257025      17.846538      30.994596    
    947000   1.0199759      18.221609      31.152531    
    948000   1.0037345      17.620315      31.124878    
    949000   1.005983       17.79785       31.054025    
    950000   1.0156702      17.489227      31.139461    
    951000   0.95877728     17.190713      30.892076    
    952000   1.0273217      17.68082       30.897844    
    953000   0.96159634     17.059565      30.984343    
    954000   0.97546542     17.40212       30.978943    
    955000   0.96023729     17.443492      31.059203    
    956000   0.99245745     17.128397      30.707767    
    957000   0.9538663      17.36126       30.317432    
    958000   1.0254637      17.810044      30.05695     
    959000   1.0079653      17.572728      30.08837     
    960000   1.0153786      17.435561      29.934931    
    961000   1.0282232      17.759732      29.717806    
    962000   0.99766908     17.516457      29.678605    
    963000   1.0078342      17.209836      29.561395    
    964000   1.0135646      17.882118      29.444886    
    965000   1.033847       17.457691      29.373279    
    966000   0.95825647     17.306309      29.212301    
    967000   1.0381082      17.719294      29.018396    
    968000   0.9865306      17.512574      28.911691    
    969000   1.0049806      17.650699      28.768148    
    970000   1.0160737      18.017409      28.550609    
    971000   1.035052       17.243726      28.483244    
    972000   0.981802       17.444963      28.202084    
    973000   1.0085108      17.034493      28.128248    
    974000   1.0374888      17.216124      28.074348    
    975000   0.97261614     17.029607      27.889772    
    976000   1.0018476      17.808955      27.899473    
    977000   0.98980376     18.120702      27.462448    
    978000   0.99763977     17.76849       27.430834    
    979000   1.002427       17.73372       26.943456    
    980000   1.0341319      17.588189      26.525588    
    981000   0.98313388     17.789152      26.35854     
    982000   0.9945715      17.895061      26.194574    
    983000   0.98508201     17.386241      26.203993    
    984000   0.99601818     17.958156      25.790331    
    985000   1.0294074      18.143885      25.58581     
    986000   1.0521133      17.25108       25.502021    
    987000   1.0152052      17.576404      25.414307    
    988000   1.0144191      18.354958      25.296483    
    989000   1.0111595      17.353447      25.146185    
    990000   1.0048502      17.670445      25.169129    
    991000   0.99365253     17.372561      24.928194    
    992000   0.99371228     17.489356      24.605577    
    993000   0.97234288     17.401824      24.800661    
    994000   1.0093345      17.482074      24.596089    
    995000   1.0133808      16.905061      24.310002    
    996000   0.99911224     17.506527      24.310575    
    997000   1.0321895      17.175883      24.161186    
    998000   0.95993423     17.326474      24.010272    
    999000   0.99726314     17.236626      23.850601    
   1000000   0.99395411     17.813055      23.609345    
   1001000   0.98397107     17.578452      23.426605    
   1002000   1.0037029      16.87415       23.298212    
   1003000   1.0089262      16.763902      23.181706    
   1004000   1.0315916      17.821625      23.076583    
   1005000   0.99267462     17.322126      22.862916    
   1006000   1.0159773      17.571361      22.915819    
   1007000   0.99870771     17.266649      22.771397    
   1008000   1.0272077      17.879305      22.63932     
   1009000   1.0148018      18.165854      22.204034    
   1010000   0.98984959     17.660625      22.17462     
   1011000   0.99976166     17.919786      22.012934    
   1012000   1.0448407      17.301494      21.814246    
   1013000   1.0062566      17.248849      21.522016    
   1014000   0.98836693     17.668835      21.365378    
   1015000   0.95173872     17.087895      21.281524    
   1016000   0.96426122     17.279265      20.995548    
   1017000   1.0046419      17.654227      20.706482    
   1018000   1.0298633      17.478563      20.342754    
   1019000   0.99774986     17.461186      20.098973    
   1020000   1.0030591      17.33236       19.944751    
   1021000   1.0104729      16.993962      19.84162     
   1022000   1.0305466      17.689837      19.659474    
   1023000   1.0403556      17.341295      19.717532    
   1024000   1.0198099      17.574896      19.854302    
   1025000   1.004885       17.652049      19.560882    
   1026000   0.98566496     17.409014      19.518101    
   1027000   0.98143853     17.853956      19.533555    
   1028000   1.0623173      17.406989      19.512048    
   1029000   0.976182       17.244294      19.565054    
   1030000   1.0213692      17.638384      19.252217    
   1031000   1.0084797      17.425123      18.949591    
   1032000   1.0157505      17.762792      18.950037    
   1033000   1.0381406      17.837362      18.979692    
   1034000   1.0050081      17.846118      18.965538    
   1035000   0.95097715     17.507475      18.917169    
   1036000   0.94592944     17.119         18.602189    
   1037000   1.0228652      18.040564      18.474709    
   1038000   1.0156598      17.970311      18.281966    
   1039000   0.98604877     17.134226      18.205866    
   1040000   0.97579814     16.939657      18.233084    
   1041000   1.0033009      17.677888      18.164123    
   1042000   1.0317657      17.674103      17.820594    
   1043000   1.0019676      16.855416      17.848597    
   1044000   1.0278505      17.905472      17.675847    
   1045000   1.0034129      17.184479      17.596497    
   1046000   0.99533835     17.562495      17.603314    
   1047000   0.98792777     17.303009      17.188085    
   1048000   1.0231293      17.74807       16.983807    
   1049000   0.99578282     17.881078      17.148979    
   1050000   0.99340419     17.913045      17.035433    
   1051000   1.0503274      17.718071      16.637095    
   1052000   0.95399153     18.08268       16.634004    
   1053000   0.99089216     17.465732      16.454863    
   1054000   0.99734763     17.356347      16.416581    
   1055000   0.97607269     17.000394      16.310821    
   1056000   1.0055221      17.092251      16.11924     
   1057000   1.04176        17.452994      16.058794    
   1058000   1.0222905      17.156637      15.751151    
   1059000   1.0240996      16.880685      15.648719    
   1060000   1.0337805      17.169856      15.673821    
   1061000   0.97196671     17.213229      15.594534    
   1062000   1.0116421      17.847968      15.554035    
   1063000   1.0214178      18.068128      15.501343    
   1064000   1.0147193      17.456811      15.438306    
   1065000   1.0294563      17.362199      15.646803    
   1066000   1.0362072      17.913349      15.684894    
   1067000   1.0232978      17.589869      15.705009    
   1068000   0.9791637      17.099587      15.671057    
   1069000   1.0364961      17.396621      15.490188    
   1070000   1.0146736      17.48626       15.418959    
   1071000   0.99477996     17.158449      15.377973    
   1072000   1.0050166      17.326121      15.166675    
   1073000   0.9942983      17.465702      15.277982    
   1074000   1.0401975      17.583104      15.173413    
   1075000   1.031244       17.809715      15.070753    
   1076000   1.0075578      17.828522      15.053405    
   1077000   0.98312913     16.817132      15.115431    
   1078000   1.0118057      17.30946       14.992426    
   1079000   0.99539034     17.725438      14.662626    
   1080000   0.95871407     17.690394      14.518755    
   1081000   1.0337629      18.12175       14.779951    
   1082000   0.99630287     17.022565      14.648582    
   1083000   0.95696312     16.960049      14.708481    
   1084000   1.029888       17.290289      14.596677    
   1085000   0.9769393      17.391561      14.588493    
   1086000   1.0002804      16.975598      14.54705     
   1087000   0.97744561     17.631675      14.539237    
   1088000   1.0029095      17.222802      14.354021    
   1089000   0.9764706      17.595752      14.408747    
   1090000   0.96004236     17.350481      14.312274    
   1091000   1.0074087      17.350846      14.466633    
   1092000   0.98059562     17.415184      14.47033     
   1093000   1.0013858      17.267356      14.344574    
   1094000   1.012906       17.17742       14.203882    
   1095000   0.97923627     17.81663       13.977421    
   1096000   1.0120668      17.612199      13.866786    
   1097000   0.99294596     17.562551      13.767387    
   1098000   1.0152982      17.366952      13.233294    
   1099000   0.98662934     17.512968      13.278795    
   1100000   0.99685996     17.268495      13.094626    
   1101000   1.0116077      17.755683      12.972455    
   1102000   0.99991241     16.978184      12.852114    
   1103000   0.99803118     17.055447      12.7054      
   1104000   0.96082808     17.13915       12.910371    
   1105000   1.0278422      16.889051      12.789039    
   1106000   1.0066337      16.62447       12.766088    
   1107000   0.93753691     17.263718      12.764153    
   1108000   0.98748808     16.856489      12.760127    
   1109000   0.94322495     16.738031      12.682956    
   1110000   1.0003551      16.634011      12.478381    
   1111000   0.99750644     16.520375      12.410796    
   1112000   0.99026008     17.239641      12.358123    
   1113000   1.0344396      17.592896      12.453462    
   1114000   1.0723026      17.380574      12.358732    
   1115000   0.98432633     17.037738      12.215052    
   1116000   1.071183       17.219409      12.173507    
   1117000   1.0320166      17.374352      11.695666    
   1118000   0.98887556     16.777889      11.77878     
   1119000   0.96026897     17.299942      11.799643    
   1120000   1.0154366      17.810564      11.864399    
   1121000   0.99529609     17.991505      11.709852    
   1122000   1.0186709      17.915103      11.610306    
   1123000   1.0091857      17.623876      11.574699    
   1124000   1.0305034      16.685516      11.585137    
   1125000   0.99684583     17.014092      11.365204    
   1126000   1.0430073      17.21334       11.278479    
   1127000   1.0055475      16.659345      11.258842    
   1128000   0.95664079     16.837357      11.132623    
   1129000   0.9900667      16.912097      11.039096    
   1130000   0.97772565     16.891194      10.808126    
   1131000   0.99131332     17.31383       10.664767    
   1132000   0.99342748     17.415956      10.651695    
   1133000   0.997827       16.924801      10.46829     
   1134000   0.9508079      16.476128      10.297986    
   1135000   1.0280263      16.82721       10.022429    
   1136000   1.0366323      17.603971      9.8793487    
   1137000   0.96142346     17.144088      10.025171    
   1138000   1.0169858      16.90153       10.032622    
   1139000   1.0289779      17.158067      10.028545    
   1140000   1.0001032      16.681544      10.143882    
   1141000   0.98006906     17.294863      9.8643444    
   1142000   1.0007532      17.044218      9.647334     
   1143000   1.0340755      18.110855      9.4410686    
   1144000   0.9823898      16.750564      9.4415355    
   1145000   0.98651273     17.126835      9.3608651    
   1146000   1.0155274      17.413895      9.3484551    
   1147000   0.9775341      17.068852      9.2993857    
   1148000   1.0210542      17.157132      9.3397131    
   1149000   1.0495206      17.399879      9.3590453    
   1150000   0.98638365     16.920252      9.258638     
   1151000   0.99713        17.016795      9.2489707    
   1152000   1.04087        17.523894      9.2235583    
   1153000   1.0321538      17.208674      9.2039716    
   1154000   0.99338106     17.062111      9.2644237    
   1155000   1.0103133      17.034371      9.527228     
   1156000   0.99377596     17.471628      9.6179038    
   1157000   0.99152728     17.126436      9.5720835    
   1158000   1.0065409      16.893487      9.5644199    
   1159000   0.97400159     17.237326      9.6111763    
   1160000   1.0091649      17.010837      9.4582954    
   1161000   0.97451717     17.043455      9.4319556    
   1162000   1.0005037      17.013449      9.6690056    
   1163000   1.0267409      16.81086       9.5415895    
   1164000   1.0068828      17.133903      9.5457346    
   1165000   1.0339281      17.446276      9.4526503    
   1166000   0.99198369     17.257533      9.3329725    
   1167000   1.0552979      17.87714       9.2628273    
   1168000   0.98638176     17.003498      9.3474126    
   1169000   0.98275489     17.396161      9.5596473    
   1170000   1.0057979      17.549513      9.4828447    
   1171000   1.0093826      17.407475      9.6470044    
   1172000   0.9771866      17.263273      9.6290545    
   1173000   0.96238989     17.244311      9.6299345    
   1174000   0.95446753     17.4178        9.7638946    
   1175000   1.0420335      17.414676      9.6203749    
   1176000   0.97022068     17.189076      9.4817749    
   1177000   1.0086906      17.288207      9.5075403    
   1178000   1.0214681      17.231211      9.4641028    
   1179000   0.97597205     17.20793       9.4401522    
   1180000   0.97221074     16.989319      9.2541404    
   1181000   1.0072886      17.721494      9.1555571    
   1182000   1.0164066      17.284918      9.3127455    
   1183000   0.96450331     16.905128      9.2801422    
   1184000   1.012896       17.448079      9.1499156    
   1185000   1.010142       16.929671      9.1219054    
   1186000   0.96603608     17.017556      9.1150618    
   1187000   0.98505124     16.775683      8.892323     
   1188000   1.0024129      16.383379      8.5796544    
   1189000   1.0112028      17.604477      8.419814     
   1190000   0.98608036     16.792662      8.1795059    
   1191000   0.97685189     17.810043      8.1851684    
   1192000   1.0464056      17.147461      8.0895201    
   1193000   0.96837387     16.775359      8.0082124    
   1194000   1.0033061      16.413066      7.8063002    
   1195000   0.97346472     17.00934       7.5901909    
   1196000   1.0217049      17.174142      7.6321372    
   1197000   1.0018505      17.441651      7.6787366    
   1198000   1.0216323      17.50107       7.6799811    
   1199000   0.96467149     16.932181      7.6414164    
   1200000   0.97877028     17.06474       7.561498     
   1201000   1.0070433      17.183437      7.5460589    
   1202000   1.0287074      16.706611      7.2941178    
   1203000   0.97568121     17.704731      7.0387779    
Fix halt condition for fix-id 3 met on step 1204000 with value 6.835861535139916 (src/fix_halt.cpp:237)
   1204000   1.0002468      17.200745      6.8358615    
Loop time of 4254.15 on 2 procs for 1104000 steps with 901 atoms

Performance: 224217.580 tau/day, 259.511 timesteps/s
78.0% CPU use with 2 MPI tasks x 1 OpenMP threads

MPI task timing breakdown:
Section |  min time  |  avg time  |  max time  |%varavg| %total
---------------------------------------------------------------
Pair    | 0.3282     | 471.28     | 942.23     |2169.4 | 11.08
Bond    | 0.39926    | 41.936     | 83.473     | 641.4 |  0.99
Neigh   | 3101.2     | 3101.2     | 3101.3     |   0.1 | 72.90
Comm    | 1.6357     | 1.9978     | 2.36       |  25.6 |  0.05
Output  | 6.6137     | 6.6698     | 6.726      |   2.2 |  0.16
Modify  | 2.8108     | 48.011     | 93.212     | 652.3 |  1.13
Other   |            | 583        |            |       | 13.70

Nlocal:          450.5 ave         901 max           0 min
Histogram: 1 0 0 0 0 0 0 0 0 1
Nghost:              0 ave           0 max           0 min
Histogram: 2 0 0 0 0 0 0 0 0 0
Neighs:        89329.5 ave      178659 max           0 min
Histogram: 1 0 0 0 0 0 0 0 0 1

Total # of neighbors = 178659
Ave neighs/atom = 198.28968
Ave special neighs/atom = 1.9977802
Neighbor list builds = 10463
Dangerous builds = 0

# This simulation is done
# Move onto the next one
clear
OMP_NUM_THREADS environment is not set. Defaulting to 1 thread. (src/comm.cpp:98)
  using 1 OpenMP thread(s) per MPI task
next f
jump SELF

###
# Reference paper:
# K. Kremer and G. S. Grest
# Dynamics of entangled linear polymer melts: A molecular-dynamics simulation
# J Chem Phys 92, 5057 (1990)

##################################
# MIHIR: for branched polymers
# LJ minimum first to expand and explore, then collapse
###

###
# Looping through the various tshaped polymers to simulate,
# define variables to switch through
variable f index bb66nuc1bl33bn3d30tot100 bb133nuc1bl66bn3d30tot200 bb200nuc1bl100bn3d30tot300 bb266nuc1bl133bn3d30tot400 bb333nuc1bl166bn3d30tot500 bb400nuc1bl200bn3d30tot600 bb466nuc1bl233bn3d30tot700 bb533nuc1bl266bn3d30tot800 bb600nuc1bl300bn3d30tot900 bb666nuc1bl333bn3d30tot1000 bb733nuc1bl366bn3d30tot1100 bb800nuc1bl400bn3d30tot1200
###


###
# Box and units  (use LJ units and periodic boundaries)
###

units lj
log tshaped/logs/$f.log
log tshaped/logs/bb666nuc1bl333bn3d30tot1000.log
