#atom_style bond #no stiffness
atom_style angle #with stiffness

boundary        p p p
###
# Pair interactions require lists of neighbours to be calculated
###

#neighbor 0.3 bin
neighbor 4 bin

neigh_modify every 1 delay 1 check yes
atom_modify sort 0 0
### Generate RESTART file, SPECIAL format, not a .txt file ###
### Useful if simulation crashes ###

restart 1000000 tshaped/restarts/$f.restart
restart 1000000 tshaped/restarts/bb733nuc1bl366bn3d30tot1100.restart
#############################



### READ "start" data file ###

read_data tshaped/$f.dat
read_data tshaped/bb733nuc1bl366bn3d30tot1100.dat
Reading data file ...
  orthogonal box = (-1000 -1000 -1000) to (1000 1000 1000)
  1 by 1 by 2 MPI processor grid
  reading atoms ...
  1099 atoms
  scanning bonds ...
  2 = max bonds/atom
  scanning angles ...
  3 = max angles/atom
  reading bonds ...
  1098 bonds
  reading angles ...
  1098 angles
Finding 1-2 1-3 1-4 neighbors ...
  special bond factors lj:    0        0        0       
  special bond factors coul:  0        0        0       
     3 = max # of 1-2 neighbors
     3 = max # of 1-3 neighbors
     6 = max # of 1-4 neighbors
     9 = max # of special neighbors
  special bonds CPU = 0.001 seconds
  read_data CPU = 0.107 seconds

######################

### READ "REstart" data file ###

######################



###
# Define groups (atom type 1 is group 'all')
###
group all type 1
1099 atoms in group all


###
# Dump configs - "simple dumpings"
###

###
# Dump configs + box coords
###

dump   1   all   custom   1000  tshaped/trjs/$f.lammpstrj  id  x y z  ix iy iz
dump   1   all   custom   1000  tshaped/trjs/bb733nuc1bl366bn3d30tot1100.lammpstrj  id  x y z  ix iy iz
dump_modify   1   format line "%d %.5f %.5f %.5f %d %d %d"

########################################################################


###################################################################
# Stiffness term
#
# E = K * (1+cos(theta)), K>0
#
angle_style   cosine
#change this coefficient to change stiffness (e.g. 1,5,10)
angle_coeff   1 1.0
###################################################################

###################################################################
# Pair interaction between non-bonded atoms
#
#  Lennard-Jones 12-6 potential with cutoff:
#  potential E=4epsilon[ (sigma/r)^12 - (sigma/r)^6]  for r<r_cut
#
#  1.12246 = 2^(1/6) is the minimum of the potential


pair_style      lj/cut 1.12246152962189
#pair_style      lj/cut 3

#
#  pair_modify shift yes adds a constant to the potential such

#  that E(r_cut)=0. Forces remains unchanged.
#

pair_modify     shift yes

#
#  pair_coeff for lj/cut, specify 4:
#    * atom type interacting with
#    * atom type
#    * epsilon (energy units)
#    * sigma (distance units)
#

pair_coeff      1 1 1.0 1.0
###################################################################

###################################################################
# Pair interaction between non-bonded atoms
#
#  soft potential, for PUSHING apart overlapping atoms
#  potential E=A*(1 + cos(pi*r/r_c))
#
#  1.12246 = 2^(1/6) is the cut-off r_c

#pair_style     soft 1.12246152962189

#
#  pair_coeff for soft, specify 3:
#    * atom type interacting with
#    * atom type
#    * A
#
#

#pair_coeff      1 1 100.0
###################################################################

###################################################################
# Pair interaction between bonded atoms
#
# Fene potential + Lennard Jones 12-6:

#
#  E= - 0.5 K R0^2 ln[ 1- (r/R0)^2]
#     + 4epsilon[ (sigma/r)^12 - (sigma/r)^6] + epsilon
#

bond_style   fene


#
# For style fene, specify:
#   * bond type
#   * K (energy/distance^2)
#   * R0 (distance)
#   * epsilon (energy)  (LJ component)
#   * sigma (distance)  (LJ component)
#


special_bonds fene #<=== I M P O R T A N T (new command)
Finding 1-2 1-3 1-4 neighbors ...
  special bond factors lj:    0        1        1       
  special bond factors coul:  0        1        1       
     3 = max # of 1-2 neighbors
     9 = max # of special neighbors
  special bonds CPU = 0.000 seconds

bond_coeff   1   30   2   1.0   1.0


###################################################

###################################################################
# Pair interaction between bonded atoms
#
# Harmonic potential:
#
#  E= K * (R-R0)^2
#

#bond_style   harmonic

#
# For style harmonic, specify:
#   * bond type
#   * K (energy/distance^2)
#   * R0 (distance)
#

#bond_coeff   1   60.0   1.0
#bond_coeff   2   harmonic 0.1   1.0

###################################################
compute 1 all gyration
variable rog equal c_1
#compute 2 all coord/atom cutoff 1.1

#dump 2 all custom 10000 contact_number.dump id c_2


###
# Set up fixes
###
thermo_style   custom   step  temp enthalpy c_1
fix 1 all nve   ###NVE ensemble

fix 2 all   langevin   1.0 1.0 1.0  100103   ###Langevin integrator Tstart Tstop 1/friction rndseed


##### Sample thermodynamic info  (temperature, energy, pressure, etc.) #####
thermo 1000









############################################################################

###
# set timestep of integrator

timestep 0.01

###
# run integration for a number of steps
###
#run 0
#variable r equal c_1
#if "$r < 63.1" then "quit 1"

# lj potential minimum, cause molecule to explore
run 100000
Generated 0 of 0 mixed pair_coeff terms from geometric mixing rule
Neighbor list info ...
  update: every = 1 steps, delay = 1 steps, check = yes
  max neighbors/atom: 2000, page size: 100000
  master list distance cutoff = 5.1224615
  ghost atom cutoff = 5.1224615
  binsize = 2.5612308, bins = 781 781 781
  1 neighbor lists, perpetual/occasional/extra = 1 0 0
  (1) pair lj/cut, perpetual
      attributes: half, newton on
      pair build: half/bin/newton
      stencil: half/bin/3d
      bin: standard
WARNING: Communication cutoff 5.12246152962189 is shorter than a bond length based estimate of 5.455. This may lead to errors. (src/comm.cpp:723)
Per MPI rank memory allocation (min/avg/max) = 939.5 | 940.1 | 940.7 Mbytes
   Step          Temp         Enthalpy         c_1      
         0   0              13.357265      184.8098     
      1000   1.0035344      18.477095      184.49497    
      2000   1.0169632      19.068731      184.24796    
      3000   1.0124224      18.855074      183.95084    
      4000   1.0162774      18.739248      183.57502    
      5000   1.0143525      18.772104      183.2542     
      6000   0.97917304     18.724808      182.84249    
      7000   0.97234577     18.650538      182.37485    
      8000   0.98940246     18.809846      181.96829    
      9000   1.0284783      18.404213      181.83172    
     10000   0.96576131     18.663119      181.53449    
     11000   1.0061485      18.988289      181.0398     
     12000   0.95612677     19.284472      180.81805    
     13000   1.0466176      18.848537      180.53967    
     14000   0.99554999     18.791945      180.46485    
     15000   1.0626875      19.429981      180.17804    
     16000   0.98883608     18.870009      180.14874    
     17000   0.97736311     19.360799      180.05167    
     18000   0.97659142     19.011494      179.65693    
     19000   1.0537425      19.356876      179.50383    
     20000   1.032165       19.091621      179.59708    
     21000   0.96358096     19.019954      179.34378    
     22000   0.99438088     19.437144      179.10557    
     23000   0.98361752     18.787011      178.56264    
     24000   1.0050326      18.602043      178.42907    
     25000   1.0434608      19.472791      178.30764    
     26000   0.98738949     18.944922      178.07354    
     27000   1.0236433      18.461648      178.0184     
     28000   1.0001213      18.937018      178.03057    
     29000   0.97889316     18.721886      177.91061    
     30000   1.0108344      19.158624      177.67441    
     31000   1.0032309      18.624616      177.45837    
     32000   1.0069424      19.226298      177.17935    
     33000   1.000536       19.481239      177.07587    
     34000   1.0069431      19.180179      176.77863    
     35000   1.0078952      18.915         176.54005    
     36000   0.96256299     19.264318      176.38896    
     37000   0.99394121     19.083973      176.25966    
     38000   1.0196393      19.366439      175.96989    
     39000   1.0004746      19.269721      175.68224    
     40000   0.98838781     19.165149      175.47176    
     41000   0.96803905     18.963728      175.16905    
     42000   0.97983971     19.068179      174.96798    
     43000   1.0154693      19.323626      174.80676    
     44000   1.0216374      18.894931      174.71317    
     45000   1.0027372      19.238696      174.44768    
     46000   0.98362917     19.708693      174.46498    
     47000   1.0059602      19.659281      174.27685    
     48000   0.95207514     19.71323       174.23162    
     49000   1.0068745      19.370897      174.11842    
     50000   1.011927       19.891636      173.96631    
     51000   0.97360737     19.518796      173.64931    
     52000   0.93241198     19.113386      173.30957    
     53000   0.99063475     19.079094      173.1521     
     54000   1.0258915      19.524637      173.04035    
     55000   0.98231933     19.307949      173.06438    
     56000   1.0220886      19.453637      172.92229    
     57000   0.99861584     19.455062      172.81357    
     58000   1.0048069      19.778959      172.55352    
     59000   1.0544496      19.459121      172.46178    
     60000   1.0109582      19.934465      172.47033    
     61000   1.0011018      19.318173      172.33287    
     62000   0.98440354     19.290111      172.17565    
     63000   1.0157891      19.640648      172.12005    
     64000   1.0314049      19.463806      172.0285     
     65000   1.0300695      19.170373      171.78938    
     66000   1.0092832      19.687322      171.74674    
     67000   0.97192114     19.467447      171.33827    
     68000   1.0129981      19.702539      171.31179    
     69000   1.0268968      19.397017      171.0542     
     70000   0.99961563     19.486037      170.67291    
     71000   1.0293199      19.522732      170.24918    
     72000   0.96819657     19.568854      170.21602    
     73000   0.94951521     19.366035      169.90628    
     74000   1.0101878      19.413449      169.78304    
     75000   1.0041179      19.993843      169.68818    
     76000   1.024962       19.998111      169.83603    
     77000   1.0249708      19.321643      169.53515    
     78000   0.98042872     19.845906      169.29523    
     79000   0.9608054      19.644071      168.82402    
     80000   1.059095       19.587316      168.73223    
     81000   1.0055006      19.377535      168.63484    
     82000   0.99850985     19.881366      168.88357    
     83000   0.95422917     19.466596      168.6008     
     84000   1.0411548      20.12689       168.49041    
     85000   0.98026329     19.489347      168.46464    
     86000   1.0373441      19.553091      168.21495    
     87000   1.0360574      19.56994       167.99142    
     88000   1.0081263      19.646104      167.87965    
     89000   1.0090643      19.184708      167.72395    
     90000   1.0392368      19.761096      167.26982    
     91000   0.98028798     19.545176      167.10414    
     92000   1.0048297      19.690733      167.15286    
     93000   1.0106601      19.76143       166.95705    
     94000   0.98691448     19.403031      166.89309    
     95000   1.0400578      19.43336       166.74923    
     96000   1.0026158      19.517447      166.56711    
     97000   0.99766924     19.505328      166.43518    
     98000   1.0134801      19.423215      165.98922    
     99000   1.0245324      20.042273      166.10747    
    100000   1.0409487      19.560588      166.04977    
Loop time of 207.581 on 2 procs for 100000 steps with 1099 atoms

Performance: 416222.445 tau/day, 481.739 timesteps/s
67.2% CPU use with 2 MPI tasks x 1 OpenMP threads

MPI task timing breakdown:
Section |  min time  |  avg time  |  max time  |%varavg| %total
---------------------------------------------------------------
Pair    | 0.0087968  | 1.3553     | 2.7018     | 115.7 |  0.65
Bond    | 0.012835   | 3.4084     | 6.8039     | 183.9 |  1.64
Neigh   | 189.06     | 189.06     | 189.06     |   0.0 | 91.08
Comm    | 0.087028   | 0.099096   | 0.11116    |   3.8 |  0.05
Output  | 0.71905    | 0.73247    | 0.74588    |   1.6 |  0.35
Modify  | 0.045067   | 3.5364     | 7.0277     | 185.7 |  1.70
Other   |            | 9.39       |            |       |  4.52

Nlocal:          549.5 ave        1099 max           0 min
Histogram: 1 0 0 0 0 0 0 0 0 1
Nghost:              0 ave           0 max           0 min
Histogram: 2 0 0 0 0 0 0 0 0 0
Neighs:         2774.5 ave        5549 max           0 min
Histogram: 1 0 0 0 0 0 0 0 0 1

Total # of neighbors = 5549
Ave neighs/atom = 5.0491356
Ave special neighs/atom = 1.9981802
Neighbor list builds = 1081
Dangerous builds = 0

# Replace lj potential, now collapse
pair_style      lj/cut 3

# Cutoff simul when gyration under 5
# Variable created with equal requires v_ + 'name'
fix 3 all halt 1000 v_rog < 7

run 5000000
Generated 0 of 0 mixed pair_coeff terms from geometric mixing rule
Per MPI rank memory allocation (min/avg/max) = 939.5 | 940.1 | 940.7 Mbytes
   Step          Temp         Enthalpy         c_1      
    100000   1.0409487      19.074771      166.04977    
    101000   1.004802       18.947084      165.8282     
    102000   1.0553159      19.111941      165.55241    
    103000   0.96561818     18.937935      165.25205    
    104000   1.0279878      19.368532      164.88599    
    105000   0.99027206     19.209858      164.5919     
    106000   1.0130279      19.549118      164.51874    
    107000   1.0145763      19.570224      164.32048    
    108000   0.9932236      18.960011      164.45486    
    109000   0.9814984      19.144493      164.40884    
    110000   1.0330661      18.963303      164.13011    
    111000   1.0002723      19.147971      163.82704    
    112000   1.0044724      19.295482      163.53814    
    113000   0.96888244     19.164011      163.36058    
    114000   1.0691578      19.094152      163.28637    
    115000   0.98269925     19.458586      163.02612    
    116000   0.96316102     19.12694       162.99219    
    117000   0.98307169     18.718382      162.66139    
    118000   1.0090378      19.205798      162.5149     
    119000   0.97082678     18.875406      162.47449    
    120000   1.0120685      19.208151      162.29788    
    121000   0.99127262     19.956357      162.17681    
    122000   1.017432       19.187346      162.08252    
    123000   1.0081247      19.733692      161.86915    
    124000   1.0141744      19.37332       161.57671    
    125000   0.96878212     19.261939      161.19452    
    126000   0.98052668     19.313654      161.03436    
    127000   0.97607602     18.924524      160.87607    
    128000   1.0209623      18.899167      160.58388    
    129000   1.005635       19.521459      160.53145    
    130000   1.0130119      19.41999       160.34733    
    131000   0.96903721     19.198072      160.32218    
    132000   1.0034675      18.788156      160.18865    
    133000   1.0340727      18.985199      160.00528    
    134000   1.0203961      19.040441      160.03122    
    135000   1.059293       19.60132       159.85657    
    136000   0.99107919     19.563931      159.60051    
    137000   0.98831527     19.156809      159.45901    
    138000   0.97608652     19.223028      159.06086    
    139000   0.98868423     19.575321      159.08749    
    140000   0.95400732     18.644335      158.8859     
    141000   0.98698593     19.071176      158.82464    
    142000   0.97213184     19.284242      158.48029    
    143000   0.98314475     18.858538      158.3752     
    144000   0.99977461     18.669234      158.41684    
    145000   0.97048762     18.358773      158.22358    
    146000   0.97934735     19.179941      158.23465    
    147000   0.97606638     19.317643      158.30343    
    148000   1.0200002      19.077087      158.14489    
    149000   1.0109428      19.511298      157.99048    
    150000   0.99049329     19.004752      157.89126    
    151000   1.0234233      19.118043      157.58014    
    152000   1.0115559      19.289987      157.0207     
    153000   1.0294053      19.043509      156.89189    
    154000   0.98896669     19.111174      156.54587    
    155000   1.0144788      18.849572      156.39849    
    156000   1.0045655      18.963513      156.35739    
    157000   1.024865       19.265094      156.23849    
    158000   0.94106854     18.827642      156.16237    
    159000   0.98170662     19.155789      156.10071    
    160000   0.98373866     19.192314      155.95047    
    161000   0.97786608     19.40103       155.79774    
    162000   1.0290155      19.218232      155.56467    
    163000   1.0035452      19.039538      155.1521     
    164000   0.9840896      19.338683      155.23299    
    165000   1.0060708      19.390791      155.39539    
    166000   0.99021739     19.009402      155.44341    
    167000   1.0040918      18.834202      155.23475    
    168000   1.0028143      19.151673      155.0467     
    169000   1.0152473      19.111069      154.84828    
    170000   1.016845       19.662957      154.67229    
    171000   1.0371716      19.11081       154.46652    
    172000   1.0181963      19.645793      154.42811    
    173000   0.97510831     18.887595      154.45687    
    174000   1.0202927      18.914148      154.26009    
    175000   1.0390444      19.44718       154.16178    
    176000   1.0452045      18.816905      154.17248    
    177000   1.0280612      18.924622      154.05291    
    178000   0.97410565     19.21576       154.00531    
    179000   1.0277262      18.615403      153.70186    
    180000   1.0042025      19.282946      153.59232    
    181000   0.98226804     18.895539      153.68388    
    182000   1.0335022      19.219899      153.5258     
    183000   0.97090331     18.785594      153.28689    
    184000   1.0095506      19.250917      153.19692    
    185000   1.0298011      19.415791      153.11948    
    186000   0.96464135     18.94889       152.96548    
    187000   1.0002116      19.687434      152.4572     
    188000   1.0249379      19.321641      152.17721    
    189000   0.9414081      19.046715      152.01844    
    190000   0.96193174     19.024998      152.02793    
    191000   0.99760561     19.438215      151.68281    
    192000   0.99862263     18.702971      151.6655     
    193000   0.98369076     18.797275      151.63649    
    194000   0.99976111     19.483974      151.45636    
    195000   1.0036429      19.000217      151.17163    
    196000   1.0197         19.331558      151.02286    
    197000   0.95137813     18.864605      150.82558    
    198000   0.989959       19.156201      150.49072    
    199000   1.0098045      18.518231      150.50041    
    200000   0.97955563     18.566073      150.43659    
    201000   1.0117122      19.474687      150.68175    
    202000   0.9680033      19.559567      150.50639    
    203000   0.99493813     19.10751       150.44769    
    204000   0.99901729     18.742377      150.40849    
    205000   0.9758474      19.130757      150.13665    
    206000   1.0097621      18.887054      149.81559    
    207000   1.0240138      19.039083      149.62328    
    208000   1.0031117      18.902733      149.29053    
    209000   1.045848       19.288188      149.03366    
    210000   0.99575396     18.701105      149.09763    
    211000   1.0124837      18.689886      149.01223    
    212000   0.98910378     19.07823       148.73127    
    213000   0.99514149     19.240326      148.57429    
    214000   0.99344908     19.086551      148.49286    
    215000   1.0224475      19.050445      148.34579    
    216000   1.0462698      19.122973      148.42444    
    217000   0.98649907     18.953746      148.26513    
    218000   0.99440356     19.244067      147.97333    
    219000   0.99711975     19.194703      147.88559    
    220000   1.0371788      19.233183      147.94357    
    221000   1.0150524      19.245208      147.83343    
    222000   1.0336214      18.875452      147.61327    
    223000   1.0185665      19.312133      147.59864    
    224000   0.99650514     18.964421      147.45873    
    225000   0.98009896     19.098512      147.38351    
    226000   1.0123414      19.254663      147.43977    
    227000   1.0130977      19.741286      147.38083    
    228000   0.98177367     19.407929      147.13762    
    229000   1.0090548      18.871226      146.89649    
    230000   1.0008781      18.952022      146.76684    
    231000   1.0218849      19.037916      146.66121    
    232000   0.96531763     18.784733      146.46816    
    233000   1.0035695      19.384109      146.18875    
    234000   1.0021222      19.064095      146.03624    
    235000   0.98137071     19.140686      145.93239    
    236000   1.003141       19.22243       145.65299    
    237000   0.99896597     19.267066      145.49388    
    238000   0.95738459     18.772286      145.08782    
    239000   1.0192174      18.963657      144.98675    
    240000   0.98397547     19.877001      144.86356    
    241000   0.9713523      18.951527      144.58575    
    242000   0.9776061      18.916576      144.36941    
    243000   1.0003964      19.102381      144.27873    
    244000   0.98615068     18.898832      144.21878    
    245000   1.0272736      18.912488      144.0867     
    246000   1.019913       19.127009      143.90445    
    247000   0.98534337     19.570173      143.69444    
    248000   0.98622578     19.387482      143.42087    
    249000   1.0175246      19.460352      143.27799    
    250000   1.0296484      18.759055      143.03794    
    251000   0.97254138     19.148036      143.04677    
    252000   1.0209968      18.766334      142.86434    
    253000   1.0265617      18.708992      142.73363    
    254000   0.98753717     18.953544      142.62115    
    255000   1.0208766      19.046261      142.43047    
    256000   1.012017       19.020808      142.27695    
    257000   0.99989212     19.314044      142.19876    
    258000   1.0370005      19.195202      141.96546    
    259000   0.9842788      18.926234      142.09752    
    260000   0.99357752     18.607974      142.02832    
    261000   0.99229475     19.035546      141.9974     
    262000   0.96923824     19.494214      141.72107    
    263000   1.0240491      19.167169      141.59006    
    264000   0.99438175     18.949049      141.42016    
    265000   0.98872003     19.121725      141.16633    
    266000   0.98657938     19.104319      140.81787    
    267000   1.0095327      19.415557      140.77417    
    268000   1.0141989      18.593854      140.59922    
    269000   1.0282869      19.119539      140.36065    
    270000   0.93771194     19.067348      140.15288    
    271000   0.99037314     18.60197       139.75618    
    272000   1.0172754      19.270074      139.51608    
    273000   1.036615       19.217813      139.57254    
    274000   1.0373771      19.265898      139.38293    
    275000   1.0046909      18.730555      139.33362    
    276000   1.0189041      19.001733      139.37353    
    277000   0.99488568     18.682572      139.17724    
    278000   0.96788164     19.215342      139.08686    
    279000   1.0210537      19.379133      138.92904    
    280000   0.99860804     18.52186       138.83621    
    281000   0.96921725     18.986954      138.90851    
    282000   1.0179592      18.871246      138.65415    
    283000   0.96971345     18.963531      138.69008    
    284000   0.99769599     19.409126      138.48309    
    285000   1.0650861      19.535003      138.31747    
    286000   1.0022932      19.211511      138.0769     
    287000   0.99649781     18.955078      137.99529    
    288000   0.98906183     19.074603      137.91178    
    289000   1.0164593      18.735962      137.65426    
    290000   0.98861414     18.801454      137.68189    
    291000   0.99246193     19.142153      137.55458    
    292000   1.0010812      19.084256      137.53022    
    293000   1.0446668      18.768918      137.30923    
    294000   1.0314133      18.911239      137.22719    
    295000   1.0129681      18.926937      137.16257    
    296000   0.98286007     18.714523      137.07876    
    297000   0.98329118     19.0275        137.01614    
    298000   0.98460118     18.27317       136.89062    
    299000   0.98547919     18.923611      136.81559    
    300000   1.017192       18.498542      136.65961    
    301000   1.0159967      19.475482      136.54094    
    302000   1.0331374      18.729063      136.55307    
    303000   1.0202158      18.97384       136.57573    
    304000   1.0100503      19.602805      136.39497    
    305000   0.96790814     18.757147      136.22524    
    306000   1.020823       18.825462      136.11385    
    307000   0.97466653     18.93033       135.96985    
    308000   1.0180861      18.598649      135.77166    
    309000   0.99639198     19.290896      135.57276    
    310000   0.99907948     18.954689      135.32424    
    311000   1.0401412      18.633468      135.24515    
    312000   1.0042549      18.558306      135.3837     
    313000   1.0070116      18.576714      135.30253    
    314000   1.0286804      18.821856      135.1282     
    315000   1.0086965      19.134122      135.14239    
    316000   0.98652277     19.123792      134.92069    
    317000   0.99919856     18.723287      134.48245    
    318000   0.95822109     19.320398      134.36793    
    319000   0.99487684     19.007974      134.13937    
    320000   1.0253157      18.601087      133.9826     
    321000   0.96834931     18.629539      133.86761    
    322000   0.96466518     18.831806      133.79562    
    323000   0.97371638     18.913675      133.75074    
    324000   1.0275639      19.367679      133.61636    
    325000   1.0256411      18.783233      133.50513    
    326000   0.98193929     19.29565       133.55245    
    327000   1.0006909      18.512896      133.49323    
    328000   1.0345087      18.473373      133.26292    
    329000   0.9867766      18.757514      133.07741    
    330000   1.0262716      18.773597      132.78579    
    331000   1.0024839      18.761342      132.8748     
    332000   1.0281723      18.932699      132.74781    
    333000   1.0220275      18.874806      132.61527    
    334000   0.98392986     18.804104      132.35797    
    335000   0.98169345     18.865272      132.25264    
    336000   0.98213951     18.948173      132.02467    
    337000   0.99260262     18.900814      131.90273    
    338000   1.0023441      18.720564      131.87988    
    339000   1.0397147      18.974606      131.73266    
    340000   0.98720272     18.828976      131.61011    
    341000   0.99498756     19.110759      131.49205    
    342000   0.99781433     18.973814      131.49517    
    343000   1.0297737      18.754801      131.37177    
    344000   0.98087959     18.813582      131.35274    
    345000   1.0189507      18.491909      131.2294     
    346000   0.98816968     18.481691      131.21672    
    347000   1.0387585      19.062877      131.09085    
    348000   0.98556691     18.825742      130.82705    
    349000   1.0154502      19.048516      130.73796    
    350000   1.0180477      19.17264       130.65778    
    351000   1.0080019      19.00411       130.59356    
    352000   1.014677       19.101351      130.6672     
    353000   0.99098889     18.601013      130.59653    
    354000   1.0233466      19.413633      130.47707    
    355000   1.0181265      18.509872      130.41951    
    356000   0.95916275     18.921532      130.46054    
    357000   1.0039382      18.843246      130.34281    
    358000   0.9849901      19.057657      130.38604    
    359000   0.99240201     18.666468      130.3198     
    360000   0.98997941     18.675248      130.25314    
    361000   1.0321299      18.724521      129.94972    
    362000   1.0332194      19.268041      129.91917    
    363000   1.0237197      18.979983      130.08683    
    364000   0.98862275     18.84212       129.90275    
    365000   1.0580845      18.597673      129.76744    
    366000   0.95876194     18.754856      129.75351    
    367000   0.97610386     19.019031      129.74938    
    368000   0.99197489     18.397266      129.67947    
    369000   0.99122567     18.7239        129.66184    
    370000   1.000954       18.966644      129.75781    
    371000   0.97446033     18.535096      130.00166    
    372000   1.0333481      19.017763      129.784      
    373000   1.0073757      18.526388      129.48871    
    374000   1.0129452      18.505252      129.29169    
    375000   1.0180839      19.032967      129.32046    
    376000   0.99242936     19.10209       129.47606    
    377000   1.0208964      19.354661      129.51337    
    378000   0.99777541     19.631292      129.42482    
    379000   1.0032658      18.89507       129.42561    
    380000   0.98144532     18.712668      129.37414    
    381000   1.0342885      18.834718      129.41832    
    382000   0.98134002     18.743719      129.3086     
    383000   1.0264329      19.143999      129.31737    
    384000   1.0580558      19.136595      129.08278    
    385000   0.98264335     19.091298      129.04921    
    386000   0.99878222     18.690845      128.98247    
    387000   1.0438433      18.761612      128.81641    
    388000   0.98018422     18.795824      128.42193    
    389000   0.97930442     18.916499      128.36608    
    390000   1.0237734      18.607127      128.33664    
    391000   1.0148211      18.990217      128.27022    
    392000   1.03588        18.946738      128.16732    
    393000   1.000063       18.677903      127.91502    
    394000   0.98619829     19.086651      127.95173    
    395000   0.97420008     18.784599      128.01941    
    396000   0.98870991     18.582268      127.77535    
    397000   0.98147493     18.461429      127.61086    
    398000   1.0427707      18.432298      127.52368    
    399000   0.98511459     18.737161      127.42743    
    400000   1.0249047      18.673038      127.39677    
    401000   0.98633376     18.662948      127.1392     
    402000   0.96581434     18.240122      127.01002    
    403000   0.97928813     17.920144      126.91144    
    404000   0.97084357     18.468786      126.74043    
    405000   1.0146715      19.107578      126.44467    
    406000   1.0529082      19.196663      126.50736    
    407000   1.0160687      18.631481      126.37546    
    408000   0.99445008     19.233391      126.2006     
    409000   0.98969803     18.402233      125.9152     
    410000   1.0149139      19.13828       125.66178    
    411000   0.99422338     19.231375      125.49009    
    412000   0.99134941     18.678928      125.53105    
    413000   1.0076533      18.567894      125.32632    
    414000   0.99555094     18.631744      125.10652    
    415000   1.002387       19.146023      124.89201    
    416000   0.99548079     18.608375      124.51842    
    417000   0.98097801     18.545356      124.48497    
    418000   1.0248149      18.876485      124.60465    
    419000   0.99697595     18.930796      124.59466    
    420000   0.99496868     19.110659      124.35066    
    421000   0.98510523     18.934471      124.06605    
    422000   0.99649854     18.458241      123.96063    
    423000   0.97556276     18.880747      124.09848    
    424000   0.97501477     18.894901      123.84706    
    425000   0.97056107     18.706135      123.6084     
    426000   0.99952804     19.065172      123.44313    
    427000   1.011429       18.450791      123.41088    
    428000   1.0236389      18.408324      123.37453    
    429000   1.0522277      19.261342      123.27437    
    430000   1.061698       18.776125      123.15894    
    431000   0.95750248     18.340027      123.06225    
    432000   0.98797349     18.778301      123.10677    
    433000   0.99518353     18.725847      123.04676    
    434000   0.99718683     18.752125      122.90528    
    435000   1.0357398      18.665137      123.01289    
    436000   1.0414802      18.860796      122.70781    
    437000   1.0126158      18.380132      122.74138    
    438000   1.0196053      18.562157      122.52331    
    439000   1.0337157      18.618914      122.50122    
    440000   0.99890087     18.877468      122.4066     
    441000   1.0109328      18.31108       122.40479    
    442000   0.99213231     18.082507      122.24475    
    443000   1.0135566      18.599317      122.01959    
    444000   0.992218       18.86724       121.69494    
    445000   0.9937917      18.747642      121.54552    
    446000   0.98539946     18.647117      121.61275    
    447000   0.96961948     18.309001      121.45557    
    448000   0.9991769      18.603883      121.22761    
    449000   1.0354337      18.825003      121.04433    
    450000   0.98163753     18.427943      121.00832    
    451000   1.015915       18.847517      120.84794    
    452000   1.0452224      19.008951      120.67133    
    453000   1.0273109      18.083683      120.56416    
    454000   1.0336607      18.813003      120.44248    
    455000   0.97775703     18.523736      120.23919    
    456000   0.95679059     17.938937      120.05007    
    457000   1.0439867      18.197543      120.144      
    458000   0.98928319     18.500853      120.09824    
    459000   1.0024601      18.588551      120.12459    
    460000   1.0145514      18.924273      119.92876    
    461000   0.96505853     18.34142       119.66289    
    462000   0.99627821     18.731663      119.59111    
    463000   0.96991727     18.707486      119.51348    
    464000   1.0168479      18.656301      119.71082    
    465000   0.97500959     18.353774      119.44232    
    466000   1.043263       18.950078      119.27569    
    467000   1.0366459      18.481317      119.15462    
    468000   1.0314464      18.755608      119.25705    
    469000   0.99460656     19.021394      119.03389    
    470000   1.0039331      18.546978      118.8871     
    471000   1.0078311      18.514122      118.6777     
    472000   1.0125976      18.601041      118.37819    
    473000   0.99584427     18.761117      118.25627    
    474000   0.99176243     18.822911      117.70193    
    475000   0.99679945     18.86016       117.53883    
    476000   0.99360001     18.703406      117.44187    
    477000   1.0302548      18.851839      117.19327    
    478000   1.0053965      18.364633      116.98856    
    479000   0.99186106     18.531216      116.80599    
    480000   1.0635804      18.859557      116.99183    
    481000   0.98804957     18.247605      116.65007    
    482000   0.99487216     18.685208      116.41431    
    483000   1.0050694      18.125396      116.31395    
    484000   1.0321777      18.615426      116.32674    
    485000   0.97986497     18.014365      116.30418    
    486000   0.99042846     18.912952      116.13974    
    487000   0.98294205     17.934678      116.21591    
    488000   1.019319       18.985742      116.0109     
    489000   1.0108635      18.558457      116.08066    
    490000   0.99933765     18.12897       115.74635    
    491000   0.98930806     18.435528      115.24217    
    492000   0.9910106      18.36323       114.96993    
    493000   0.99149087     18.691408      115.00003    
    494000   0.98186722     18.594471      115.16926    
    495000   0.99928917     18.654103      115.00883    
    496000   1.023807       18.367802      115.0883     
    497000   1.0208787      18.017613      114.81176    
    498000   1.0358121      18.328149      114.67234    
    499000   1.0150262      18.332606      114.43384    
    500000   1.027981       18.494576      114.29996    
    501000   1.0400903      18.251716      114.22199    
    502000   0.98435252     18.379593      114.1477     
    503000   1.0234338      19.526253      114.26585    
    504000   1.0353575      18.710815      114.17655    
    505000   0.9861382      18.799068      114.12183    
    506000   1.0275313      18.857366      113.94817    
    507000   1.0341173      18.393082      113.85083    
    508000   1.023632       18.953817      113.57926    
    509000   0.97944009     18.194735      113.44843    
    510000   1.0150199      18.483405      113.30806    
    511000   1.0035413      18.279966      113.2649     
    512000   1.0192943      18.531531      112.9998     
    513000   0.96723714     18.799826      112.78143    
    514000   0.99995046     18.084736      112.60499    
    515000   0.98802576     18.735702      112.51365    
    516000   1.0173772      19.065615      112.50196    
    517000   1.0277963      18.731321      112.44379    
    518000   0.97472495     17.769364      112.06536    
    519000   0.99974414     18.289197      112.10237    
    520000   0.98188091     18.268446      112.04009    
    521000   1.0186629      18.519726      112.21494    
    522000   1.0024305      17.971377      112.14681    
    523000   0.99016928     18.26641       112.01437    
    524000   0.97131124     18.42732       111.99113    
    525000   1.0462046      18.609654      112.08679    
    526000   1.0379979      18.566096      112.07476    
    527000   1.008645       18.394932      111.94748    
    528000   0.96766922     18.457746      112.05476    
    529000   0.98060537     18.326065      111.88256    
    530000   1.0088076      19.162902      111.81355    
    531000   1.0381461      18.850972      111.67021    
    532000   0.98490994     18.506344      111.61144    
    533000   1.0116941      18.523716      111.24659    
    534000   1.0045462      18.424758      111.16373    
    535000   0.96270217     18.878816      110.95357    
    536000   0.99446477     18.544801      110.83819    
    537000   1.0324991      19.104553      110.64545    
    538000   0.98774543     18.635316      110.39218    
    539000   0.99426065     18.480065      110.46941    
    540000   1.0072183      18.552678      110.35047    
    541000   0.99922689     18.377909      110.07993    
    542000   1.0480837      18.916916      110.15315    
    543000   0.97527942     18.486792      109.97459    
    544000   1.0038465      18.199305      109.59417    
    545000   1.017961       18.322776      109.42717    
    546000   1.0133714      18.679403      109.35361    
    547000   1.0280409      18.585922      109.57304    
    548000   1.0011269      18.856936      109.71119    
    549000   1.0009454      18.429854      109.74014    
    550000   0.98346206     18.289084      109.5383     
    551000   1.006428       18.713084      109.46915    
    552000   1.0214986      18.387705      109.54667    
    553000   0.96379065     19.098219      109.49895    
    554000   0.96876987     18.400874      109.6027     
    555000   1.001478       18.306422      109.66426    
    556000   0.98545153     18.997203      109.73791    
    557000   1.0379591      18.163252      109.4667     
    558000   0.98126026     18.941368      109.42671    
    559000   1.0209448      18.662632      109.39514    
    560000   0.98980653     18.579331      109.29138    
    561000   0.99864778     18.751829      109.07473    
    562000   0.98370728     18.380609      109.09835    
    563000   1.0206689      18.946958      108.87256    
    564000   0.97627804     18.654806      108.82229    
    565000   1.0302942      18.531677      108.74934    
    566000   0.99844185     18.310043      108.66457    
    567000   0.9730667      18.329474      108.57106    
    568000   1.0099461      18.28128       108.49012    
    569000   1.0201895      18.756388      108.44446    
    570000   1.0043157      19.031441      108.40391    
    571000   1.0247387      18.424043      108.17254    
    572000   0.99947214     18.480995      108.10957    
    573000   1.0126895      18.190623      107.95552    
    574000   1.0009213      18.892608      107.83358    
    575000   1.0019706      18.744209      107.7418     
    576000   1.0352868      18.508004      107.87443    
    577000   1.0405338      18.852949      107.85675    
    578000   0.98048233     18.042929      107.7572     
    579000   1.0293331      18.531188      107.59988    
    580000   0.99940742     18.97054       107.34599    
    581000   0.95530059     17.941631      107.03831    
    582000   0.98941961     18.189853      106.85056    
    583000   1.0030299      18.38171       106.61823    
    584000   1.0083921      18.86084       106.39408    
    585000   1.0196273      18.407513      106.4251     
    586000   0.98920765     18.706155      106.15371    
    587000   1.0310029      18.985032      106.03939    
    588000   0.97736127     18.629243      106.0442     
    589000   1.0256567      18.903608      106.04602    
    590000   0.97741836     18.477556      105.95022    
    591000   0.99308002     18.570473      106.00775    
    592000   1.0360104      18.91741       105.8686     
    593000   1.0018485      18.54246       105.65946    
    594000   1.0456536      18.667999      105.18928    
    595000   1.0069904      18.142374      105.15334    
    596000   0.98467487     17.761825      105.06145    
    597000   0.96604229     18.723784      105.00498    
    598000   1.0247738      18.313632      104.99864    
    599000   0.99678466     18.299794      104.75071    
    600000   0.98942973     18.45225       104.77973    
    601000   1.0441156      18.696644      104.61271    
    602000   0.98085906     18.53497       104.36161    
    603000   0.9850942      18.839999      104.42865    
    604000   0.99022342     18.403139      104.39117    
    605000   1.0048752      18.512193      104.32282    
    606000   1.0145687      18.738468      104.18208    
    607000   1.0365213      19.311064      104.04052    
    608000   1.0333641      18.628407      103.94772    
    609000   0.95269914     17.754741      103.80065    
    610000   0.9978881      18.634932      103.43416    
    611000   0.99024365     17.910265      103.18759    
    612000   1.0449735      18.62682       103.19271    
    613000   1.0285159      18.700948      103.06472    
    614000   1.0053689      18.464398      102.89895    
    615000   0.99202943     18.693306      102.63613    
    616000   1.0428362      18.642059      102.31762    
    617000   1.0327011      18.286797      102.35885    
    618000   1.0409532      18.040188      102.33062    
    619000   0.99830136     18.556148      102.24013    
    620000   1.0032578      18.603572      102.28425    
    621000   1.0152401      18.96847       102.24168    
    622000   0.97478618     18.416322      102.10211    
    623000   1.0182642      18.607757      101.99745    
    624000   1.012576       18.424013      101.72237    
    625000   1.0103078      18.164566      101.4599     
    626000   1.0044875      18.277888      101.3896     
    627000   0.96007489     18.414915      101.21406    
    628000   0.98452641     18.348436      101.22953    
    629000   1.0234211      18.883006      101.20738    
    630000   0.95506259     18.366178      101.02361    
    631000   1.0347728      18.423022      100.93768    
    632000   0.94194932     18.911498      100.92855    
    633000   1.0216477      18.660411      100.80457    
    634000   1.0523896      18.197091      100.50203    
    635000   0.98865768     18.638179      100.21014    
    636000   0.99635304     18.606172      99.990707    
    637000   1.0161195      18.517457      99.834316    
    638000   1.0411114      18.712487      99.60653     
    639000   1.0188775      18.4464        99.446641    
    640000   1.0210115      18.051874      99.398933    
    641000   0.9984748      17.80491       99.153423    
    642000   0.98236427     18.624598      98.913388    
    643000   0.96721509     18.077952      98.758732    
    644000   1.005055       18.26315       98.903216    
    645000   1.0147314      18.175323      98.791528    
    646000   0.97162724     17.813275      98.589154    
    647000   1.0180582      18.060159      98.712447    
    648000   0.97292694     18.346149      98.531527    
    649000   1.0337419      18.81022       98.545571    
    650000   1.0175245      18.197325      98.467188    
    651000   0.97141058     18.393984      98.454148    
    652000   1.0044711      18.257045      98.183376    
    653000   1.0126979      17.817073      98.147672    
    654000   0.99397629     18.443623      98.043289    
    655000   1.010925       18.415477      97.868903    
    656000   1.0040667      18.195285      97.830228    
    657000   0.9733009      18.36133       97.644497    
    658000   1.0107542      18.23986       97.472484    
    659000   1.0156152      18.822424      97.382125    
    660000   1.0416775      18.446357      97.318487    
    661000   0.97736549     18.174132      97.334667    
    662000   1.0098501      18.039578      97.283863    
    663000   1.0315126      18.387893      97.113117    
    664000   0.98117308     17.910243      97.247686    
    665000   0.98176514     18.329428      97.249327    
    666000   0.97230488     17.989024      97.135006    
    667000   1.0019089      18.230179      97.203116    
    668000   0.9997295      18.517426      97.04741     
    669000   1.0182328      18.401515      97.192781    
    670000   1.0044279      18.63025       97.110113    
    671000   0.95840442     18.182157      96.95181     
    672000   0.94157611     17.79159       96.670087    
    673000   1.0189134      18.239893      96.538809    
    674000   1.0523002      18.440439      96.370309    
    675000   1.0057267      18.214731      96.506463    
    676000   0.98530663     18.438966      96.458008    
    677000   1.0324322      18.474609      96.415727    
    678000   0.96926103     18.040784      96.165362    
    679000   0.96166382     18.353883      95.895763    
    680000   1.0070153      18.065371      95.877699    
    681000   1.0440706      18.607154      95.932488    
    682000   1.0151952      18.533335      95.75485     
    683000   0.99191762     18.071738      95.514431    
    684000   1.0199616      18.142807      95.384579    
    685000   1.0326149      18.081239      95.320067    
    686000   1.011049       18.207115      95.025269    
    687000   1.0090177      18.376524      95.145483    
    688000   0.99037613     18.173507      95.196484    
    689000   1.0150439      18.240213      95.239618    
    690000   0.99079775     18.371995      95.038602    
    691000   1.0063245      19.040882      94.949157    
    692000   0.98457293     18.29836       94.662639    
    693000   1.026812       18.306679      94.556436    
    694000   0.99549479     17.337424      94.641078    
    695000   1.0274121      18.401763      94.466153    
    696000   1.0307017      18.478514      94.322469    
    697000   0.99871954     18.10137       94.21648     
    698000   0.99811592     18.427054      94.053632    
    699000   0.9954538      18.073428      93.992183    
    700000   0.95560086     18.407613      93.852068    
    701000   0.98178853     18.201412      93.708985    
    702000   0.9538561      17.958136      93.801956    
    703000   0.96683545     18.599705      93.855285    
    704000   0.97551717     18.132684      93.739624    
    705000   1.0007117      18.307307      93.748665    
    706000   0.98790934     17.730896      93.755848    
    707000   1.0062943      17.957584      93.523829    
    708000   0.9752529      18.206067      93.515319    
    709000   0.99904447     17.768125      93.362739    
    710000   0.99582538     18.287648      92.998776    
    711000   1.0253242      18.168225      92.661372    
    712000   0.96839951     18.266932      92.273203    
    713000   1.0254835      18.217964      92.387259    
    714000   1.0113899      18.13953       92.244422    
    715000   0.95878556     18.889408      92.40752     
    716000   0.98349569     17.822491      92.52949     
    717000   1.0221787      18.311503      92.308603    
    718000   0.98745204     18.129328      92.439215    
    719000   1.0112458      18.282852      92.449445    
    720000   1.0114098      18.932091      92.455272    
    721000   1.0352559      18.243965      92.375784    
    722000   1.020321       18.450278      92.14278     
    723000   1.0091036      18.407717      92.090244    
    724000   1.0160302      18.661125      91.714888    
    725000   1.0234512      17.975848      91.594145    
    726000   0.99722698     18.096962      91.515032    
    727000   1.0250232      18.163711      91.507773    
    728000   1.0172877      18.042734      91.336106    
    729000   0.99591157     18.542482      91.23809     
    730000   0.98649237     18.084925      91.061853    
    731000   0.98651631     18.686754      90.80392     
    732000   1.0120754      18.327478      90.626259    
    733000   0.97666077     18.219654      90.507927    
    734000   0.99524322     18.183549      90.451064    
    735000   0.93540936     18.105591      90.272799    
    736000   1.003602       18.388995      90.224534    
    737000   1.005302       18.157916      90.320004    
    738000   0.96985694     18.209078      90.185232    
    739000   1.0482766      18.276445      90.012348    
    740000   0.99821086     18.146312      89.953701    
    741000   1.0156626      18.698136      90.235253    
    742000   0.95457826     18.573663      90.106255    
    743000   1.014687       18.644318      89.927708    
    744000   0.97759035     18.074431      89.732443    
    745000   1.0075401      17.725246      89.477611    
    746000   1.0198841      18.102575      89.440167    
    747000   0.95779857     18.002334      89.434172    
    748000   1.0171731      18.582091      89.330738    
    749000   1.0121693      18.914044      89.126513    
    750000   0.98265912     18.694175      89.07458     
    751000   1.0097872      18.36426       88.893378    
    752000   0.991472       18.583173      88.664481    
    753000   0.98025142     17.823742      88.633055    
    754000   1.0059342      17.794249      88.466296    
    755000   0.98660454     18.294827      88.431421    
    756000   1.0177151      18.542264      88.391629    
    757000   1.0051654      18.356364      88.262885    
    758000   1.0385769      18.416882      88.129686    
    759000   1.0055322      18.005676      88.003757    
    760000   1.0289705      18.149527      87.974043    
    761000   1.0070504      18.373234      87.896382    
    762000   1.0263422      18.087252      87.836856    
    763000   1.0036864      18.114964      87.850143    
    764000   0.99658712     18.252326      87.848404    
    765000   1.0377256      17.973174      87.642809    
    766000   0.99120266     18.27079       87.737886    
    767000   1.0116712      18.089781      87.725881    
    768000   1.0659414      18.008908      87.542824    
    769000   1.0052915      18.131677      87.470094    
    770000   0.95060346     17.734682      87.547025    
    771000   1.010032       17.906251      87.630742    
    772000   1.0157415      18.159389      87.544362    
    773000   1.0477442      18.452121      87.556604    
    774000   0.99712814     18.004341      87.285311    
    775000   0.98201778     17.778664      87.306901    
    776000   1.0261187      17.855203      87.188724    
    777000   0.97204081     18.444397      86.713462    
    778000   0.98788564     18.013393      86.607658    
    779000   1.0179345      18.18973       86.703817    
    780000   0.9897407      17.830887      86.643681    
    781000   1.0130693      18.126392      86.477221    
    782000   1.0161193      18.111296      86.177778    
    783000   1.0357693      18.084066      86.09485     
    784000   1.0219903      17.917341      85.836274    
    785000   0.9736757      18.071453      85.779691    
    786000   1.0361065      18.427831      85.563466    
    787000   0.97563337     18.14352       85.442362    
    788000   0.99845713     18.20473       85.245115    
    789000   1.0230842      18.339808      85.188014    
    790000   1.0341599      18.022049      85.096726    
    791000   1.0451547      18.12061       85.251049    
    792000   1.0343535      18.127031      85.141194    
    793000   0.98905111     17.737269      85.053413    
    794000   1.0358997      17.973713      84.923493    
    795000   0.9704066      18.271418      84.584999    
    796000   1.0209089      18.216755      84.286886    
    797000   1.0321094      17.514713      84.182037    
    798000   1.01017        18.267593      84.224411    
    799000   0.97986643     18.338437      84.217917    
    800000   0.97329776     17.898664      84.074211    
    801000   0.99196833     18.365158      83.914564    
    802000   1.0008723      18.36747       83.588193    
    803000   0.97347038     18.420409      83.463344    
    804000   1.0071642      18.450934      83.600454    
    805000   1.0168518      18.130956      83.738021    
    806000   0.97863668     17.672855      83.576599    
    807000   1.0174157      17.997366      83.460833    
    808000   1.0177774      18.693613      83.320472    
    809000   1.0116086      17.836556      83.128291    
    810000   1.0425665      18.672801      83.167954    
    811000   0.96611635     17.752198      83.038374    
    812000   1.0266212      18.297886      82.868587    
    813000   0.97622222     18.029962      82.766584    
    814000   1.009131       17.710111      82.677306    
    815000   0.94530381     17.695889      82.622365    
    816000   1.0388288      18.255835      82.552875    
    817000   1.0209895      18.186167      82.530116    
    818000   1.01003        17.892162      82.581727    
    819000   1.0464727      18.250475      82.521788    
    820000   1.0391293      18.288305      82.419828    
    821000   1.0263516      18.24241       82.316878    
    822000   1.0021474      18.04915       82.336759    
    823000   1.0011053      17.828065      82.100323    
    824000   0.9873517      17.769164      82.102178    
    825000   0.99511949     18.079103      82.016102    
    826000   0.95958703     18.242512      82.069337    
    827000   1.0223925      17.788825      81.98515     
    828000   0.9989539      17.9174        81.900605    
    829000   1.015773       18.044982      81.722057    
    830000   0.99447366     18.266507      81.625724    
    831000   0.99684582     18.315773      81.434095    
    832000   1.0487449      18.288527      81.411432    
    833000   1.0310525      17.815066      81.327528    
    834000   0.98242457     17.863096      81.26987     
    835000   0.99865132     18.014098      81.216159    
    836000   1.0022155      18.157798      81.066184    
    837000   0.99391749     18.139563      81.043676    
    838000   1.0096846      17.687186      80.890412    
    839000   0.99386417     18.075007      80.788789    
    840000   1.0154223      17.943688      80.565698    
    841000   0.95833366     17.89534       80.335846    
    842000   0.98862533     17.495086      80.405978    
    843000   0.94544597     17.600882      80.244999    
    844000   0.97008154     18.27444       80.188038    
    845000   0.98327518     17.791696      80.309079    
    846000   1.0178164      18.229204      80.205629    
    847000   0.98979327     17.453189      80.211413    
    848000   0.99185252     18.502304      79.858783    
    849000   1.01854        18.217402      79.646383    
    850000   0.98563994     18.040648      79.628156    
    851000   1.0651194      18.225218      79.693546    
    852000   1.0024313      18.139842      79.618583    
    853000   1.0171785      18.147385      79.445799    
    854000   0.98362112     17.694328      79.50188     
    855000   0.98599761     18.310146      79.461555    
    856000   1.0255943      18.240472      79.452098    
    857000   1.0252347      17.987384      79.367082    
    858000   0.99437634     18.090503      79.314929    
    859000   0.99162751     18.22148       79.046302    
    860000   0.98779577     17.895424      78.804024    
    861000   1.0039282      17.489466      78.682877    
    862000   1.0316668      17.88659       78.653583    
    863000   1.0602644      18.250564      78.539797    
    864000   1.002907       18.770689      78.449454    
    865000   0.99962521     18.409944      78.410468    
    866000   0.98433465     17.714484      78.089899    
    867000   1.0051516      18.003931      78.07958     
    868000   1.0321396      17.952537      78.130601    
    869000   0.96748062     17.500758      77.903851    
    870000   0.99719474     18.016205      77.611103    
    871000   1.0133123      18.100729      77.357053    
    872000   1.0104204      18.190179      77.394673    
    873000   1.0143005      18.208565      77.409615    
    874000   0.97521534     18.493929      77.322262    
    875000   1.0209274      18.281852      77.239525    
    876000   1.0067694      18.226204      77.275742    
    877000   1.0106404      18.032523      77.181336    
    878000   0.99376136     18.467149      76.916456    
    879000   1.0051719      18.396188      76.733383    
    880000   0.99850672     18.113879      76.490861    
    881000   0.99950706     18.168283      76.282117    
    882000   0.96726441     18.216246      76.128658    
    883000   0.99513221     18.198022      75.925189    
    884000   1.0073705      18.180054      75.939853    
    885000   0.99704534     17.984005      75.912826    
    886000   1.0053322      17.850963      75.804138    
    887000   0.98442373     18.080696      75.530192    
    888000   1.0240996      17.819184      75.303258    
    889000   1.0066508      17.983416      75.018575    
    890000   0.98521758     17.941933      74.871718    
    891000   1.053658       18.181335      75.058891    
    892000   0.97974503     17.961844      74.917273    
    893000   1.0285318      17.930575      74.860201    
    894000   1.0099416      18.56992       74.792109    
    895000   1.0006912      18.309419      74.676696    
    896000   0.98920617     18.127501      74.619108    
    897000   0.96812068     18.250054      74.520278    
    898000   1.0187896      18.12861       74.420623    
    899000   1.0355621      18.310128      74.322143    
    900000   1.0074269      18.653591      74.125083    
    901000   0.96074049     18.216468      74.012401    
    902000   1.0350076      18.234124      73.962985    
    903000   0.98922618     17.585721      73.735684    
    904000   1.0049672      18.023188      73.646606    
    905000   1.0099518      18.316832      73.650082    
    906000   1.0321167      18.136395      73.722842    
    907000   1.0234171      18.43905       73.596918    
    908000   1.0119368      17.926938      73.675564    
    909000   1.0226311      17.98764       73.544726    
    910000   1.0067996      18.157358      73.523735    
    911000   0.99493357     18.047118      73.273865    
    912000   0.97590782     17.898828      73.100219    
    913000   0.97083337     17.820596      73.045277    
    914000   1.0141297      17.858655      72.959791    
    915000   1.0173744      18.210086      72.86871     
    916000   0.98060296     17.656854      72.851744    
    917000   0.98044628     18.207502      72.878034    
    918000   0.99878393     18.080698      72.854848    
    919000   0.97823942     18.269812      72.72815     
    920000   1.0060076      17.86178       72.552266    
    921000   1.0277133      17.438191      72.421028    
    922000   0.98129483     17.506569      72.35718     
    923000   0.94906627     18.273068      72.481386    
    924000   0.99229939     17.312916      72.24927     
    925000   0.9998779      17.82509       72.240544    
    926000   1.0323922      18.181105      71.923363    
    927000   1.0329745      18.312185      71.769409    
    928000   0.971824       17.898828      71.882997    
    929000   1.0348829      17.887688      71.953091    
    930000   1.0064656      17.935829      71.720095    
    931000   1.0150731      18.173632      71.799325    
    932000   0.99519699     18.653594      71.886275    
    933000   1.0075763      18.168714      71.722219    
    934000   1.0617636      18.240417      71.513017    
    935000   1.0062273      17.634318      71.456964    
    936000   1.0607069      18.053268      71.435989    
    937000   0.99906558     17.740972      71.472238    
    938000   1.0024611      18.298036      71.351168    
    939000   1.0123233      18.139052      71.215267    
    940000   1.0164484      18.162574      71.259695    
    941000   1.0024463      17.813936      71.255176    
    942000   0.98858074     17.51724       71.14633     
    943000   0.98551701     17.754486      71.044127    
    944000   0.98325569     18.057893      71.081869    
    945000   1.0245348      18.692059      71.094404    
    946000   0.98923058     18.67145       71.216662    
    947000   1.0153665      18.354221      71.100094    
    948000   0.99478225     18.322145      70.963345    
    949000   0.99982561     17.858356      70.895019    
    950000   0.98101731     18.131118      70.811127    
    951000   0.98995299     17.706408      70.822252    
    952000   1.0022099      17.867955      70.781781    
    953000   0.98345917     17.731669      70.882978    
    954000   1.0346863      18.31419       70.927476    
    955000   1.0016927      17.748201      70.951583    
    956000   0.99843293     18.528705      70.779382    
    957000   0.99358624     17.979173      70.771249    
    958000   0.99633631     17.674938      70.725827    
    959000   1.0234479      17.36331       70.753396    
    960000   0.97895893     17.430246      70.574208    
    961000   0.98748336     17.880337      70.631597    
    962000   1.006414       18.368211      70.472073    
    963000   1.0450382      18.380167      70.341201    
    964000   1.0810517      17.89069       70.231685    
    965000   1.0115161      17.960023      70.410703    
    966000   0.95278679     17.943469      70.352896    
    967000   0.95841208     17.920832      70.21557     
    968000   1.053975       17.976216      69.961702    
    969000   1.0061866      18.088862      69.986121    
    970000   1.034181       17.84881       69.935984    
    971000   1.0091362      17.453074      69.857354    
    972000   1.0024313      17.839535      69.755854    
    973000   1.0442127      18.121726      69.498673    
    974000   0.95354509     17.66581       69.260712    
    975000   1.0114788      17.891801      69.076964    
    976000   1.0605938      17.712437      69.321635    
    977000   0.97984037     18.10771       69.311781    
    978000   0.95727133     18.036045      69.346844    
    979000   0.98722527     17.541059      69.191043    
    980000   0.99039356     18.148734      69.12909     
    981000   1.0280816      18.073486      68.987703    
    982000   0.98865956     18.238567      69.005316    
    983000   1.0436524      18.12444       68.903885    
    984000   0.98706879     17.815557      68.95386     
    985000   0.9785534      17.504281      68.823994    
    986000   1.0275627      17.895273      68.755092    
    987000   0.98807617     18.09799       68.586836    
    988000   0.9725216      17.668007      68.499055    
    989000   1.0038781      17.754465      68.298145    
    990000   0.99761097     17.966236      68.370633    
    991000   0.99418856     17.581501      68.021174    
    992000   1.0065242      18.277972      67.968294    
    993000   1.0211809      18.018713      67.884065    
    994000   1.0375084      18.186117      67.778225    
    995000   1.0076054      18.000279      67.791136    
    996000   0.97111791     17.917786      67.393294    
    997000   1.0187157      18.001178      67.511616    
    998000   1.0240856      18.079689      67.370808    
    999000   1.0268552      18.455793      67.18039     
   1000000   1.0116427      17.912034      67.120987    
   1001000   1.0049052      18.243679      67.35254     
   1002000   1.0169327      18.274601      67.371618    
   1003000   0.99278963     17.810155      67.19802     
   1004000   0.98623148     18.14024       66.931894    
   1005000   1.0294839      17.776885      66.860878    
   1006000   0.98166171     17.702525      66.861933    
   1007000   1.0385864      17.851894      66.714354    
   1008000   1.0001036      17.829913      66.565407    
   1009000   0.98699317     17.644942      66.518001    
   1010000   1.0350507      18.06536       66.491415    
   1011000   0.96896823     17.883992      66.377778    
   1012000   1.0266216      18.098552      66.236842    
   1013000   0.99509268     17.403985      66.148274    
   1014000   1.007783       17.838429      66.056072    
   1015000   1.036495       17.827386      65.774638    
   1016000   1.0222373      17.939778      65.761626    
   1017000   0.97311416     17.733         65.488888    
   1018000   0.97808273     17.859454      65.49174     
   1019000   0.97739542     17.787039      65.545384    
   1020000   1.0400288      18.012787      65.52389     
   1021000   1.0334241      17.332812      65.453136    
   1022000   0.98820142     17.851697      65.252327    
   1023000   0.9617732      18.331135      65.191202    
   1024000   0.99512366     17.753599      65.018727    
   1025000   1.0017416      17.684164      64.886757    
   1026000   0.97022304     17.658024      64.842466    
   1027000   1.0108384      17.956787      64.610718    
   1028000   1.0189087      18.143075      64.583005    
   1029000   0.9691232      17.758391      64.400634    
   1030000   1.0048754      17.832407      64.315742    
   1031000   0.99256441     17.604843      64.003203    
   1032000   0.99670803     17.908483      63.821722    
   1033000   0.9711458      17.945863      63.821205    
   1034000   1.0340595      17.96547       63.886732    
   1035000   1.0270795      17.353573      63.777607    
   1036000   0.970906       18.039441      63.683357    
   1037000   1.0021689      17.720807      63.469114    
   1038000   0.99465866     18.249128      63.376979    
   1039000   1.0172098      17.986794      63.194943    
   1040000   1.0002682      17.898133      63.425039    
   1041000   1.0202931      18.029799      63.285371    
   1042000   0.97835768     18.040967      63.176832    
   1043000   1.0300511      17.217545      63.014853    
   1044000   1.0263804      18.046118      62.709009    
   1045000   1.0276755      17.711543      62.47632     
   1046000   0.95978021     18.069792      62.281841    
   1047000   0.97087307     17.864076      62.120615    
   1048000   1.0217277      17.920888      62.332573    
   1049000   1.0255948      18.181104      62.139852    
   1050000   1.0022215      17.929336      61.944435    
   1051000   0.94973033     18.078071      61.941208    
   1052000   0.98477689     17.4573        61.860696    
   1053000   1.0156871      18.090864      61.846902    
   1054000   1.0179505      18.141613      61.783556    
   1055000   1.0419193      17.764917      61.633913    
   1056000   1.0156174      17.825874      61.696838    
   1057000   1.0131185      18.457007      61.60787     
   1058000   0.97248844     17.173888      61.312185    
   1059000   1.007465       17.588286      61.247522    
   1060000   0.95985891     17.749594      61.056183    
   1061000   0.96861495     17.818097      60.708651    
   1062000   0.99082725     17.603954      60.638284    
   1063000   0.99874256     17.737226      60.595014    
   1064000   0.9900432      17.962515      60.364675    
   1065000   0.99126704     17.7413        60.467983    
   1066000   1.0476817      17.974851      60.444185    
   1067000   1.0055029      17.43785       60.256995    
   1068000   0.98370644     17.29826       60.24564     
   1069000   1.0116482      17.787281      59.749275    
   1070000   1.0321077      18.076471      59.388477    
   1071000   0.96960154     17.941666      59.254964    
   1072000   1.0192987      17.939366      59.206038    
   1073000   1.0144431      18.142196      59.085842    
   1074000   0.98589021     17.447756      58.955011    
   1075000   1.032916       17.918882      58.896903    
   1076000   0.96670362     18.043557      58.877633    
   1077000   0.95802042     17.425472      58.699717    
   1078000   0.99688907     17.167739      58.772672    
   1079000   1.0123062      17.444664      58.395824    
   1080000   1.0275641      17.772355      58.289383    
   1081000   0.98391588     17.650934      58.367662    
   1082000   1.0226454      17.92841       58.217246    
   1083000   0.98771891     17.67516       58.297168    
   1084000   1.0180834      17.882434      58.172592    
   1085000   0.96350021     17.948942      58.027882    
   1086000   0.9552983      17.986935      58.009581    
   1087000   1.052972       17.563376      58.025156    
   1088000   1.0019417      17.700229      58.146956    
   1089000   0.9729189      17.684047      58.161744    
   1090000   1.0017991      17.661339      58.069867    
   1091000   0.98300797     17.937391      57.896192    
   1092000   1.0220466      17.96926       57.884604    
   1093000   1.0129148      17.724558      57.717687    
   1094000   1.0204866      18.372364      57.837303    
   1095000   1.0084564      17.8301        57.755113    
   1096000   1.0119986      17.863916      57.724508    
   1097000   0.96670734     17.439901      57.525196    
   1098000   0.96525598     17.516547      57.375777    
   1099000   1.0165931      17.723485      57.241109    
   1100000   0.99537197     17.926967      57.10078     
   1101000   1.0177709      18.013607      57.095227    
   1102000   1.0614552      18.004313      56.888744    
   1103000   1.0342316      17.95365       56.792178    
   1104000   1.0105744      17.635308      56.812243    
   1105000   0.97575267     17.732254      56.595337    
   1106000   1.0291728      18.091845      56.721483    
   1107000   1.0053084      18.080213      56.679516    
   1108000   0.99382974     17.676014      56.565069    
   1109000   1.0319663      17.871438      56.350576    
   1110000   1.0448493      17.733518      56.260891    
   1111000   0.99802771     18.01901       56.606786    
   1112000   1.0568695      17.871158      56.497649    
   1113000   0.96330285     17.703477      56.496446    
   1114000   0.96102501     18.129507      56.292792    
   1115000   1.0215745      18.320435      56.146001    
   1116000   0.99578489     17.729563      56.036017    
   1117000   0.97568761     17.812269      55.708942    
   1118000   0.97679048     16.8487        55.759074    
   1119000   0.99973663     17.890256      55.374803    
   1120000   0.99386857     17.397733      55.177434    
   1121000   0.98301195     17.471208      55.303522    
   1122000   0.96635599     17.775283      55.267083    
   1123000   1.018553       17.957335      55.324155    
   1124000   0.98093288     17.751144      55.365962    
   1125000   0.99651272     17.790289      55.227267    
   1126000   0.97135773     17.531059      55.125176    
   1127000   1.0387106      17.564206      55.134714    
   1128000   1.0206617      17.61529       55.17703     
   1129000   1.0229951      17.722108      55.006329    
   1130000   1.0219603      18.148053      55.06084     
   1131000   1.017703       18.022947      55.144628    
   1132000   1.0000139      17.640516      55.00178     
   1133000   1.0180676      17.791393      54.841192    
   1134000   1.0268732      17.750387      54.784785    
   1135000   0.98018558     18.00078       54.594367    
   1136000   1.0060387      18.098239      54.460076    
   1137000   0.99249167     18.220821      54.519004    
   1138000   1.0111057      17.645967      54.383187    
   1139000   1.0339601      17.559202      54.208724    
   1140000   1.0243444      18.09538       54.190687    
   1141000   1.0118064      17.577129      54.25629     
   1142000   1.0364008      17.919722      54.180809    
   1143000   0.982042       17.686207      54.271365    
   1144000   0.9813391      18.077442      54.08463     
   1145000   0.9823865      17.916067      54.065166    
   1146000   1.007886       17.824897      54.009956    
   1147000   1.0417221      18.146699      53.765282    
   1148000   0.99255487     17.856974      53.680813    
   1149000   1.0653145      18.194435      53.583787    
   1150000   1.0126618      17.60646       53.80764     
   1151000   1.0019953      17.860113      53.631305    
   1152000   1.0228143      17.466273      53.572432    
   1153000   0.96277952     17.587706      53.359717    
   1154000   1.0129683      18.176299      53.568645    
   1155000   0.96788475     17.820064      53.613304    
   1156000   1.0039967      17.253262      53.397115    
   1157000   1.0190249      17.656637      53.380644    
   1158000   0.9617495      17.688422      53.360953    
   1159000   0.97979534     18.234825      53.368118    
   1160000   0.98742644     17.947516      53.26853     
   1161000   1.0515865      17.264639      53.107001    
   1162000   0.96147532     17.273436      53.143648    
   1163000   0.98103938     18.345675      53.339503    
   1164000   0.9843373      17.964191      53.383165    
   1165000   1.0524214      17.892159      53.368619    
   1166000   1.0345049      17.971524      53.425192    
   1167000   1.0167359      17.923937      53.505218    
   1168000   1.0093679      17.699839      53.489421    
   1169000   0.99213122     17.956126      53.511802    
   1170000   1.0025689      17.827319      53.25271     
   1171000   0.99589718     18.063937      53.03485     
   1172000   1.0230967      17.751983      52.982079    
   1173000   1.0250488      17.645071      52.894964    
   1174000   1.0148967      17.584473      52.861427    
   1175000   0.99630158     17.396068      52.949929    
   1176000   0.9951593      17.649895      52.835168    
   1177000   1.0342508      18.023487      52.739154    
   1178000   0.99401906     17.420711      52.650957    
   1179000   0.98350314     17.456109      52.71101     
   1180000   0.98377568     18.026811      52.961721    
   1181000   0.96249332     18.162927      52.816627    
   1182000   0.94675585     17.375888      52.732107    
   1183000   1.0212525      17.406974      52.532649    
   1184000   1.0071746      17.626202      52.622971    
   1185000   1.0323853      18.268157      52.639202    
   1186000   0.98887658     17.663743      52.669448    
   1187000   1.0101879      17.750328      52.447162    
   1188000   1.0007752      17.966067      52.376346    
   1189000   1.0421488      18.239778      52.378262    
   1190000   0.97897513     17.593353      52.174249    
   1191000   1.0169306      17.870289      52.042029    
   1192000   1.0033785      18.108382      51.921316    
   1193000   0.9997886      17.974288      51.707088    
   1194000   1.0065521      17.823962      51.664357    
   1195000   1.0374485      18.265601      51.532687    
   1196000   1.0000911      17.839422      51.196779    
   1197000   0.9824847      17.710451      51.387203    
   1198000   1.0182686      18.018012      51.455059    
   1199000   0.99969305     18.067348      51.158179    
   1200000   1.0168421      17.834505      51.001506    
   1201000   0.99270981     17.719095      50.863827    
   1202000   1.0038563      18.288908      50.843845    
   1203000   1.0283972      18.182803      50.550495    
   1204000   0.96639339     17.833495      50.602996    
   1205000   1.0066908      18.050257      50.477565    
   1206000   1.0253004      18.155718      50.436275    
   1207000   1.0532108      18.057883      50.32935     
   1208000   1.0387011      17.920364      50.291882    
   1209000   1.0058987      17.823063      50.192486    
   1210000   1.0485011      18.008109      50.055925    
   1211000   1.0051974      18.449851      49.941652    
   1212000   1.0188905      18.012637      50.087589    
   1213000   1.017883       17.612437      50.071319    
   1214000   1.0371462      17.901474      49.838789    
   1215000   1.0141384      18.064862      49.880094    
   1216000   1.0154171      17.944013      49.705343    
   1217000   1.00248        17.516722      49.581891    
   1218000   1.0334083      18.181627      49.419223    
   1219000   0.99585138     17.339843      49.396654    
   1220000   0.97719298     17.636131      49.369708    
   1221000   0.98026786     17.826631      49.380123    
   1222000   0.99258343     17.957183      49.428596    
   1223000   1.0292859      17.257325      49.293735    
   1224000   1.0293389      17.742417      49.242811    
   1225000   0.99381842     17.969381      49.272328    
   1226000   0.99693717     17.68596       49.292706    
   1227000   1.0103675      17.768383      49.145149    
   1228000   0.97946244     17.948727      49.259459    
   1229000   1.0005559      18.178505      49.382578    
   1230000   1.0211093      17.762601      49.469861    
   1231000   0.99917028     17.571442      49.476795    
   1232000   1.0116274      17.833866      49.070542    
   1233000   0.99191591     17.642935      49.1346      
   1234000   0.95413197     17.88149       48.935484    
   1235000   1.0056344      17.937695      49.110074    
   1236000   0.99251728     18.234454      49.022069    
   1237000   1.0285683      17.682184      49.000618    
   1238000   1.0357572      17.96925       48.991961    
   1239000   0.97968584     17.263388      48.780933    
   1240000   0.98598514     17.976179      48.72225     
   1241000   0.98341249     17.414818      48.690297    
   1242000   1.0147417      17.308703      48.599174    
   1243000   0.9826091      17.257524      48.632744    
   1244000   1.0356888      18.171967      48.512131    
   1245000   1.0267338      18.386312      48.373486    
   1246000   1.0235704      18.137716      48.186577    
   1247000   0.97727034     17.468936      48.06659     
   1248000   1.0154393      17.55914       48.052016    
   1249000   1.0318338      17.725996      48.11213     
   1250000   1.0447758      17.947783      48.218277    
   1251000   1.0198786      17.517742      48.351174    
   1252000   1.0228681      18.432208      48.557256    
   1253000   1.0212319      18.08395       48.56378     
   1254000   0.95484426     17.344137      48.614154    
   1255000   1.0210334      16.938606      48.350358    
   1256000   0.99334324     17.83705       48.261595    
   1257000   0.99594737     17.64739       48.008128    
   1258000   0.97460738     17.804303      47.819094    
   1259000   0.9987119      17.660771      47.792465    
   1260000   0.98921448     17.367567      47.63073     
   1261000   1.0204967      17.586872      47.511101    
   1262000   0.99548471     17.379872      47.597392    
   1263000   1.0189656      17.570313      47.709787    
   1264000   1.0298888      17.511422      47.622918    
   1265000   0.98795449     17.743704      47.443393    
   1266000   0.96278251     17.833215      47.660053    
   1267000   0.98842887     17.835537      47.507246    
   1268000   0.94096114     17.983667      47.41622     
   1269000   0.99595374     17.243885      47.320178    
   1270000   0.99066207     17.525527      47.24454     
   1271000   0.97677154     17.802868      47.23858     
   1272000   1.028678       17.466741      47.251943    
   1273000   0.99650205     17.602725      47.22857     
   1274000   0.97751932     17.339909      47.074916    
   1275000   0.99221763     17.408691      47.143107    
   1276000   1.013634       17.64489       47.101084    
   1277000   0.99770911     18.095981      47.093616    
   1278000   1.0094272      17.177358      47.01416     
   1279000   0.97847283     17.417832      46.963696    
   1280000   1.0097558      17.475186      46.764946    
   1281000   0.99315541     17.42008       46.749598    
   1282000   0.98254157     17.993932      46.629989    
   1283000   1.0140654      17.57929       46.478427    
   1284000   1.0110098      17.666092      46.468424    
   1285000   0.99736345     17.49347       46.465458    
   1286000   0.93510334     17.779547      46.361579    
   1287000   0.96113624     17.553451      46.30871     
   1288000   0.95768981     17.481532      46.201655    
   1289000   1.0036048      17.757405      46.159514    
   1290000   1.0118988      17.728556      46.150735    
   1291000   0.9912505      17.757976      46.046312    
   1292000   0.99089789     17.095917      45.943104    
   1293000   1.0410063      17.925733      45.772944    
   1294000   1.0385613      17.419124      45.889871    
   1295000   1.019965       17.730995      45.483006    
   1296000   0.97378908     18.02249       45.361755    
   1297000   1.016832       17.933694      45.277649    
   1298000   1.0003571      17.286243      45.178029    
   1299000   1.0008131      17.455641      45.101794    
   1300000   1.0004608      17.373873      45.107731    
   1301000   1.056529       17.69831       45.068113    
   1302000   0.9956096      17.622646      44.864119    
   1303000   1.0142139      17.82754       44.495892    
   1304000   0.98795498     17.522245      44.364783    
   1305000   1.0106228      17.51215       44.272896    
   1306000   0.9743793      17.173144      44.3202      
   1307000   1.0124858      17.527806      44.066989    
   1308000   1.0416127      17.579657      43.79052     
   1309000   1.0277763      17.699735      43.951768    
   1310000   1.009086       18.267254      44.027181    
   1311000   1.0462217      18.001665      43.852194    
   1312000   1.0089889      17.661642      43.845797    
   1313000   1.0054043      17.642812      43.878652    
   1314000   1.0365901      17.892776      44.018642    
   1315000   1.0012311      18.008143      43.849225    
   1316000   0.99444028     18.013668      43.83152     
   1317000   1.0288781      17.790315      43.723918    
   1318000   1.0190679      17.747719      43.622339    
   1319000   0.97134754     17.568962      43.655498    
   1320000   1.0327934      17.589435      43.621653    
   1321000   0.97601971     17.270395      43.584353    
   1322000   1.0034728      17.951248      43.186515    
   1323000   1.0085437      17.739491      43.092364    
   1324000   1.0222145      17.527594      42.976455    
   1325000   1.0507263      18.095957      42.817115    
   1326000   0.95631891     17.483082      42.76069     
   1327000   1.0068448      17.675658      42.668176    
   1328000   0.99456735     17.678059      42.542145    
   1329000   0.98650686     17.632373      42.641526    
   1330000   0.97295037     16.908802      42.392855    
   1331000   1.045211       17.727251      42.267106    
   1332000   0.97576051     18.231137      42.175251    
   1333000   0.96955958     17.99458       42.12804     
   1334000   1.0323011      17.554012      42.133476    
   1335000   1.0135906      17.168927      41.999408    
   1336000   0.99059841     17.539683      41.616491    
   1337000   1.0383441      17.307585      41.578081    
   1338000   1.0200348      18.097056      41.306603    
   1339000   0.96035706     17.888165      41.23375     
   1340000   1.0264479      17.84008       40.881135    
   1341000   0.99419996     17.853129      40.65716     
   1342000   1.0050842      17.579835      40.530548    
   1343000   0.95956987     17.361755      40.571433    
   1344000   1.0132476      17.762909      40.476816    
   1345000   1.0259939      17.743246      40.266962    
   1346000   0.98041226     18.074287      40.213045    
   1347000   1.0115325      17.625686      40.021815    
   1348000   1.0321074      18.192923      40.132214    
   1349000   0.99363782     17.98454       39.953572    
   1350000   0.99971591     17.987522      39.782485    
   1351000   1.0221212      17.708245      39.706705    
   1352000   0.99780272     17.262812      39.683432    
   1353000   0.99403945     17.428274      39.741488    
   1354000   1.0106012      17.693593      39.635628    
   1355000   1.0383356      17.084857      39.648398    
   1356000   1.0117399      18.166669      39.428891    
   1357000   1.0212101      17.793747      39.393981    
   1358000   1.0128975      17.356388      39.385644    
   1359000   1.062866       17.732134      39.363       
   1360000   0.97158595     17.692768      39.116661    
   1361000   1.0262962      17.66988       38.862032    
   1362000   0.95611451     17.315134      38.674067    
   1363000   1.0087704      17.502653      38.626262    
   1364000   1.0512167      17.670326      38.463952    
   1365000   1.018393       17.104167      38.592558    
   1366000   0.98255438     17.11521       38.468686    
   1367000   1.0071565      17.475238      38.572235    
   1368000   1.0267587      17.60916       38.412705    
   1369000   1.0148695      17.816294      38.395372    
   1370000   1.0162619      17.336052      38.221494    
   1371000   1.0575783      17.934608      38.143217    
   1372000   0.99277816     17.420136      38.088386    
   1373000   1.0046313      18.090751      37.69389     
   1374000   0.992261       17.517464      37.609855    
   1375000   0.97546761     18.118944      37.289762    
   1376000   0.98369757     17.764585      37.020999    
   1377000   0.99219313     17.516254      37.02549     
   1378000   1.0052426      17.569507      36.969051    
   1379000   1.0199403      17.856008      37.061039    
   1380000   1.0375391      17.748362      36.76482     
   1381000   0.96857244     17.768586      36.558889    
   1382000   1.0151647      17.208652      36.559449    
   1383000   0.97158015     17.201482      36.311805    
   1384000   1.0215974      17.298916      36.206548    
   1385000   0.96807666     17.522591      36.257653    
   1386000   1.0175748      17.756981      36.22383     
   1387000   0.9733873      17.926106      36.202382    
   1388000   1.0237584      17.401848      36.030071    
   1389000   0.98790558     17.835687      35.933647    
   1390000   0.9799651      17.968527      35.481428    
   1391000   0.99302436     17.588571      35.479568    
   1392000   0.96986132     17.681922      35.549519    
   1393000   0.99543172     17.331767      35.379392    
   1394000   1.0195212      17.309255      35.245257    
   1395000   1.0313289      17.965803      35.388122    
   1396000   1.0194889      17.760935      35.485482    
   1397000   0.99570968     18.359821      35.446418    
   1398000   1.0219448      17.645715      35.329971    
   1399000   0.98756067     17.834565      35.084767    
   1400000   0.9985747      17.333625      35.034206    
   1401000   1.0020335      17.5887        35.264314    
   1402000   0.95181573     17.679588      35.292205    
   1403000   1.0083107      17.667199      35.166548    
   1404000   1.0003677      17.722401      35.168725    
   1405000   0.99499189     16.790254      35.189186    
   1406000   0.9886517      17.652452      35.012458    
   1407000   1.0071932      17.783397      35.337986    
   1408000   1.0015338      17.257097      35.561526    
   1409000   1.0055282      17.525589      35.62046     
   1410000   1.0130204      17.459087      35.345038    
   1411000   0.98149398     17.779841      35.385438    
   1412000   0.99210414     17.448807      35.494503    
   1413000   0.96809343     17.238882      35.392127    
   1414000   1.0341443      17.175762      35.583461    
   1415000   0.98269115     17.228263      35.534769    
   1416000   0.97167664     17.615495      35.458897    
   1417000   0.99255589     17.88643       35.278619    
   1418000   0.99910053     17.942649      34.932225    
   1419000   1.0167071      17.402941      34.686838    
   1420000   1.041797       17.595213      34.697168    
   1421000   1.0042468      17.329323      34.856341    
   1422000   0.99293122     17.647395      34.732975    
   1423000   1.0229315      17.597205      34.73673     
   1424000   1.0348344      16.9979        34.580216    
   1425000   0.99104378     17.552001      34.527628    
   1426000   1.0052028      17.216981      34.500892    
   1427000   0.99911904     17.497157      34.481345    
   1428000   1.0060797      18.08206       34.487414    
   1429000   1.0095749      17.816942      34.676759    
   1430000   1.052756       17.18274       34.682631    
   1431000   0.93660585     16.79002       34.465862    
   1432000   0.98370744     17.937334      34.572525    
   1433000   0.99750212     17.662321      34.654894    
   1434000   1.0072906      17.831506      34.512287    
   1435000   1.0183017      17.704539      34.312242    
   1436000   1.0117963      17.684753      34.36421     
   1437000   0.98959111     17.387711      34.178536    
   1438000   0.95539354     18.012733      33.752648    
   1439000   0.99418166     18.073046      33.609514    
   1440000   1.000555       17.027658      33.49106     
   1441000   1.0139554      17.502045      33.473549    
   1442000   0.98942405     17.817369      33.710235    
   1443000   1.0134504      17.596781      33.628569    
   1444000   0.99299693     17.450987      33.645752    
   1445000   0.9931636      17.102691      33.645592    
   1446000   1.0345688      16.959732      33.41397     
   1447000   0.98888745     17.381245      33.456868    
   1448000   0.96930145     17.786235      33.364772    
   1449000   1.0241889      17.50679       33.437086    
   1450000   1.0105034      17.547061      33.210589    
   1451000   1.0083023      17.312517      32.955696    
   1452000   1.007068       17.631707      32.731657    
   1453000   1.0354022      17.708887      32.371328    
   1454000   1.0155112      17.784557      32.19179     
   1455000   1.0384516      17.250927      32.255014    
   1456000   1.0170144      17.779124      32.086793    
   1457000   0.97934062     17.863968      32.024546    
   1458000   0.98257042     17.197192      32.047824    
   1459000   1.0281122      17.20209       31.957676    
   1460000   1.0458585      17.683947      32.058836    
   1461000   1.0054027      17.881012      31.997232    
   1462000   0.94661647     17.250155      31.983034    
   1463000   0.97224213     17.406135      31.785952    
   1464000   0.98002338     17.677459      31.693084    
   1465000   1.0180523      17.920307      31.567107    
   1466000   1.0075639      17.440761      31.437574    
   1467000   1.0322544      17.4197        31.384237    
   1468000   1.0002491      17.705607      31.445678    
   1469000   1.0237203      17.971175      31.326827    
   1470000   0.9922342      17.328938      31.340784    
   1471000   0.98359614     17.309063      31.272531    
   1472000   0.9791701      17.735588      31.078892    
   1473000   0.95292985     17.266355      30.941678    
   1474000   1.034145       17.412718      30.767455    
   1475000   1.0128058      17.628177      30.683399    
   1476000   1.0245555      17.4412        30.526122    
   1477000   0.95082541     17.082791      30.752281    
   1478000   0.98445726     17.521858      30.774291    
   1479000   0.97419657     17.723509      30.651976    
   1480000   0.9913022      17.230849      30.429249    
   1481000   0.99263715     17.040396      30.450331    
   1482000   1.0354428      17.398084      30.290279    
   1483000   1.0178789      17.89361       30.45577     
   1484000   1.0759678      17.970141      30.348259    
   1485000   1.0170994      17.181291      30.133301    
   1486000   0.96622856     17.514136      29.776777    
   1487000   1.0632935      17.523153      29.561917    
   1488000   1.0068563      17.829248      29.606469    
   1489000   0.95790574     17.821599      29.450835    
   1490000   1.0462244      17.161891      29.392667    
   1491000   0.95163601     17.301262      29.396748    
   1492000   1.045948       17.400644      29.401229    
   1493000   1.0113952      17.203196      29.125079    
   1494000   0.98223353     17.108997      29.122528    
   1495000   0.96640695     17.0842        28.817788    
   1496000   0.99283407     17.69871       28.763405    
   1497000   1.0002423      17.336428      28.68006     
   1498000   0.99629711     17.045628      28.572765    
   1499000   0.96738654     17.007793      28.383484    
   1500000   0.97235854     18.003339      28.327517    
   1501000   1.0254796      17.627385      28.155676    
   1502000   1.0252753      17.511687      28.057586    
   1503000   1.0343208      17.473267      27.992026    
   1504000   1.0098628      17.093765      28.01349     
   1505000   0.96764317     18.153282      27.989148    
   1506000   0.99171352     18.000725      27.921333    
   1507000   0.99296273     17.492671      27.763466    
   1508000   0.9893412      17.106503      27.725445    
   1509000   1.0101324      17.299998      27.746607    
   1510000   0.96561207     17.622894      27.498441    
   1511000   0.98142526     17.486435      27.440305    
   1512000   1.0213972      17.591238      27.120262    
   1513000   0.98842022     17.123857      26.992273    
   1514000   0.99666817     18.102582      27.058215    
   1515000   1.0169042      17.316583      26.980727    
   1516000   1.0079768      17.985887      26.966692    
   1517000   1.0523608      17.458711      26.912738    
   1518000   0.96302775     17.650974      26.662295    
   1519000   0.9895224      17.515674      26.641697    
   1520000   0.98587009     17.104522      26.461759    
   1521000   1.0042716      17.884492      26.604529    
   1522000   0.99460489     17.221159      26.541762    
   1523000   0.99224609     17.919857      26.435514    
   1524000   1.004465       17.539404      26.313438    
   1525000   0.97421072     17.085247      25.898088    
   1526000   1.0012026      17.431615      25.543421    
   1527000   1.0473677      17.585103      25.479918    
   1528000   0.93533015     17.361335      25.243747    
   1529000   0.97033388     17.11197       24.917865    
   1530000   0.98150031     17.255166      24.91652     
   1531000   1.0045892      17.396262      24.880867    
   1532000   1.0131254      17.105528      24.880302    
   1533000   1.0285036      17.131763      24.829805    
   1534000   0.97685585     17.308955      24.782433    
   1535000   0.99294016     17.46274       24.729047    
   1536000   0.97894052     17.318472      24.878392    
   1537000   1.0385587      17.491098      24.746752    
   1538000   1.0188814      17.53297       24.903586    
   1539000   0.9590476      17.458458      24.604751    
   1540000   0.97845401     17.608583      24.434759    
   1541000   1.003743       17.285651      24.435727    
   1542000   1.0130705      17.381634      24.209478    
   1543000   1.0289363      17.853947      24.120832    
   1544000   1.0415547      17.65034       23.85583     
   1545000   0.99943587     17.054951      23.731351    
   1546000   1.0036321      17.540031      23.472972    
   1547000   0.9996512      17.404571      23.497216    
   1548000   0.96780502     17.143729      23.54465     
   1549000   0.97276327     17.459157      23.41721     
   1550000   0.980712       17.467812      23.12245     
   1551000   1.0006124      16.512549      22.93101     
   1552000   1.0590431      17.103066      22.86502     
   1553000   0.9559456      16.972957      22.730235    
   1554000   0.99052443     18.053327      22.869702    
   1555000   1.0293625      17.401978      22.638342    
   1556000   0.99374898     17.617705      22.739268    
   1557000   1.035629       17.493476      22.463353    
   1558000   1.0001665      17.472484      22.386254    
   1559000   0.98922072     17.354193      22.295129    
   1560000   0.98312097     16.901167      22.23165     
   1561000   1.04375        17.129353      22.177644    
   1562000   1.0125506      17.46437       21.960114    
   1563000   1.0008165      17.174128      22.053836    
   1564000   0.96057485     16.995785      21.87957     
   1565000   0.9937521      17.364467      21.588489    
   1566000   0.964459       16.911693      21.45664     
   1567000   0.9992268      16.761848      21.18358     
   1568000   1.0247634      18.10584       20.98646     
   1569000   1.0178886      17.358159      20.849903    
   1570000   0.99152181     17.183084      20.688989    
   1571000   1.0092247      17.300539      20.545564    
   1572000   0.99192144     16.968113      20.568974    
   1573000   0.9918089      16.989896      20.774602    
   1574000   0.97899295     17.150227      20.690298    
   1575000   0.99251897     16.998845      20.649808    
   1576000   0.98411723     17.109086      20.575477    
   1577000   1.0272664      17.535289      20.429386    
   1578000   0.99253573     17.713536      20.421616    
   1579000   1.0146582      17.386036      20.360536    
   1580000   0.98143061     17.053524      20.362471    
   1581000   0.97952633     17.018274      20.386757    
   1582000   0.98994102     17.072034      20.334608    
   1583000   1.0038749      17.240357      20.188462    
   1584000   1.0149998      17.511477      20.042638    
   1585000   1.0219516      17.288852      20.239394    
   1586000   1.0192591      16.589847      20.210883    
   1587000   1.0465555      17.192         20.162849    
   1588000   0.96022772     17.64922       20.085367    
   1589000   0.93689358     17.210245      19.902578    
   1590000   0.99897112     17.209535      19.815745    
   1591000   1.0458526      16.977444      19.644831    
   1592000   0.96997957     16.71575       19.678627    
   1593000   1.0138581      16.96915       19.767777    
   1594000   1.0157752      17.71219       19.706213    
   1595000   1.0306972      17.669993      19.509708    
   1596000   0.98226585     17.259368      19.458147    
   1597000   1.0006456      16.968908      19.358472    
   1598000   0.9944237      17.814045      19.210243    
   1599000   0.95130026     16.964835      19.113457    
   1600000   1.0268733      17.375387      18.878913    
   1601000   1.0235434      17.226235      18.688887    
   1602000   1.0460647      16.909342      18.404506    
   1603000   0.98333814     17.407923      18.11194     
   1604000   0.93974024     17.153584      17.888514    
   1605000   0.98771744     17.349583      17.835248    
   1606000   0.96972179     17.212573      17.884949    
   1607000   1.0258043      17.014828      17.923095    
   1608000   1.034557       17.907898      17.950338    
   1609000   1.0197076      17.443838      17.895568    
   1610000   0.98179113     16.653759      18.123745    
   1611000   0.97899028     17.470037      17.938846    
   1612000   1.0426996      17.695697      17.768543    
   1613000   1.0271758      17.766119      17.493844    
   1614000   1.00191        17.094264      17.455668    
   1615000   0.97845663     17.030818      17.357695    
   1616000   1.0100005      17.171354      17.238786    
   1617000   0.98363335     17.582261      17.222093    
   1618000   1.0052747      17.425164      17.054105    
   1619000   1.0001488      17.69003       17.228545    
   1620000   0.98196138     17.352058      17.148748    
   1621000   0.96005564     17.282462      17.013062    
   1622000   1.0045177      17.414796      17.042746    
   1623000   1.0141453      17.684624      17.101648    
   1624000   0.96948779     17.476449      17.229492    
   1625000   1.1018451      17.258874      17.17141     
   1626000   0.99403557     17.53248       17.405446    
   1627000   1.019104       17.177512      17.448585    
   1628000   1.0371559      18.037568      17.222277    
   1629000   1.0027787      17.272517      17.182738    
   1630000   0.98095812     17.29628       16.949743    
   1631000   0.97685776     17.640893      16.81802     
   1632000   0.98771989     17.610565      16.968227    
   1633000   1.0058327      17.492032      16.989553    
   1634000   1.0178456      17.420537      16.821514    
   1635000   0.99571574     17.759263      16.647359    
   1636000   1.0049703      17.084586      16.380617    
   1637000   1.0295146      16.659504      16.211495    
   1638000   1.0209886      17.143192      16.130724    
   1639000   0.96048222     17.39932       15.918841    
   1640000   0.97653347     17.250726      15.855378    
   1641000   1.0385767      17.436504      15.879614    
   1642000   0.99121935     17.18939       15.903259    
   1643000   0.96717288     17.441701      15.779656    
   1644000   1.0106614      17.1498        15.612852    
   1645000   0.94734792     17.617568      15.272522    
   1646000   0.986804       17.368217      15.052711    
   1647000   0.98798311     17.023668      15.16033     
   1648000   0.9999014      17.377374      15.142766    
   1649000   1.0016749      17.750067      15.386702    
   1650000   0.99881685     17.251991      15.240165    
   1651000   0.99433028     17.658536      15.278158    
   1652000   0.99521086     16.762886      15.456938    
   1653000   1.0151782      17.489798      15.206778    
   1654000   1.0225196      16.845224      15.310809    
   1655000   0.98320632     17.108123      15.030972    
   1656000   0.98827979     17.249816      14.942501    
   1657000   0.93408679     17.841911      14.906087    
   1658000   1.0277546      16.54079       14.77816     
   1659000   1.0001549      17.176714      14.82084     
   1660000   1.0230711      17.414705      14.909818    
   1661000   1.0086547      16.692729      14.784959    
   1662000   0.99784371     17.232697      15.059253    
   1663000   0.97894224     17.708487      14.956454    
   1664000   1.0133988      17.09784       14.941504    
   1665000   1.051905       17.627889      14.817751    
   1666000   0.96660416     17.128122      14.83402     
   1667000   1.0257121      17.753919      14.738969    
   1668000   1.0179796      17.558652      14.561197    
   1669000   0.98662658     17.023357      14.449986    
   1670000   1.0319         17.406345      14.52364     
   1671000   0.96734756     17.174699      14.503069    
   1672000   1.0084687      17.474675      14.502394    
   1673000   0.98677481     17.098244      14.597735    
   1674000   0.99355627     17.541637      14.526441    
   1675000   0.96967485     17.062491      14.654366    
   1676000   0.99216282     17.210436      14.805974    
   1677000   1.0302243      16.869461      14.640608    
   1678000   0.99145566     16.742343      14.573413    
   1679000   1.0493707      16.852461      14.503708    
   1680000   0.97244565     17.349143      14.529108    
   1681000   1.0096915      16.741517      14.371303    
   1682000   1.0381933      17.924831      14.236582    
   1683000   0.98263614     17.820513      14.08406     
   1684000   1.0049848      16.948127      14.07311     
   1685000   0.99316903     17.158823      14.001852    
   1686000   0.96944751     16.989032      14.066383    
   1687000   1.001727       17.240428      13.631723    
   1688000   1.0099551      16.871312      13.596108    
   1689000   0.97655103     17.106152      13.403346    
   1690000   0.99821415     16.84167       13.156424    
   1691000   1.02552        17.256943      12.764375    
   1692000   1.014906       16.504038      12.549564    
   1693000   0.97207384     17.86539       12.630914    
   1694000   1.0130407      17.341839      12.580899    
   1695000   0.99510938     17.572763      12.176565    
   1696000   1.0187185      17.058936      11.866239    
   1697000   1.0335092      17.124192      11.653985    
   1698000   0.98989146     17.155905      11.461646    
   1699000   0.98434286     17.458786      11.640199    
   1700000   1.0318517      17.293917      11.694655    
   1701000   1.0246261      16.779442      11.493289    
   1702000   0.9990808      17.114919      11.487825    
   1703000   1.0063739      17.180263      11.447168    
   1704000   0.95984497     17.109798      11.351991    
   1705000   0.96556361     16.838908      11.339705    
   1706000   1.0106753      17.210705      11.322114    
   1707000   0.97263298     17.040352      11.145683    
   1708000   1.0292935      17.345577      11.039972    
   1709000   0.98460384     16.77875       10.792618    
   1710000   0.95486318     16.918109      10.825315    
   1711000   0.96900072     16.671182      10.764458    
   1712000   1.0065112      17.106271      10.815645    
   1713000   1.0058947      17.332702      10.946038    
   1714000   1.0067515      17.251734      11.034629    
   1715000   0.99801063     16.880244      10.765859    
   1716000   1.0054767      16.657254      10.585058    
   1717000   1.0199808      16.829069      10.47041     
   1718000   1.0276459      16.94297       10.454952    
   1719000   1.0143209      16.543555      10.461318    
   1720000   1.0552502      17.356963      10.348627    
   1721000   1.0165692      16.69308       10.41741     
   1722000   1.0006872      16.912899      10.287836    
   1723000   1.0063333      17.438099      10.217379    
   1724000   1.0154534      17.261342      10.035697    
   1725000   0.98564309     17.088529      9.978269     
   1726000   0.97711654     16.822142      9.9726177    
   1727000   1.0009397      16.643287      9.7800665    
   1728000   1.023299       16.880607      9.7014414    
   1729000   1.003843       16.964734      9.4301775    
   1730000   0.9734401      17.061543      9.4898824    
   1731000   0.96006605     17.166889      9.3725203    
   1732000   1.0234715      17.029128      9.2413262    
   1733000   0.97752574     17.270538      9.12025      
   1734000   1.002976       17.353202      9.1092466    
   1735000   1.0001014      17.24329       8.8086978    
   1736000   1.012375       16.953889      8.7557987    
   1737000   0.99964334     17.559733      8.8600267    
   1738000   1.0749505      17.472239      8.7407881    
   1739000   1.0149594      16.902103      8.4534956    
   1740000   0.98926997     17.090026      8.2987908    
   1741000   0.99222128     16.974677      8.0978043    
   1742000   1.0790121      17.608687      7.9833005    
   1743000   1.030372       17.068145      7.9370772    
   1744000   0.98267798     17.001146      7.9603623    
   1745000   1.0421435      17.213343      7.9530943    
   1746000   0.98181986     16.797813      8.0624658    
   1747000   1.0133658      16.975153      7.7888947    
   1748000   1.0166747      17.132869      7.7014695    
   1749000   1.0078419      17.104354      7.451596     
   1750000   0.98765301     16.420906      7.417449     
   1751000   1.0252405      17.270618      7.2333686    
   1752000   0.94177546     16.352259      7.1809107    
Fix halt condition for fix-id 3 met on step 1753000 with value 6.960769827221511 (src/fix_halt.cpp:237)
   1753000   1.0087731      17.16132       6.9607698    
Loop time of 3118.01 on 2 procs for 1653000 steps with 1099 atoms

Performance: 458046.526 tau/day, 530.146 timesteps/s
60.5% CPU use with 2 MPI tasks x 1 OpenMP threads

MPI task timing breakdown:
Section |  min time  |  avg time  |  max time  |%varavg| %total
---------------------------------------------------------------
Pair    | 0.39999    | 754.78     | 1509.2     |2745.9 | 24.21
Bond    | 0.60883    | 66.413     | 132.22     | 807.5 |  2.13
Neigh   | 1292.5     | 1292.6     | 1292.7     |   0.2 | 41.46
Comm    | 2.1359     | 2.4446     | 2.7533     |  19.7 |  0.08
Output  | 11.056     | 11.146     | 11.236     |   2.7 |  0.36
Modify  | 3.502      | 73.673     | 143.84     | 817.5 |  2.36
Other   |            | 916.9      |            |       | 29.41

Nlocal:          549.5 ave        1099 max           0 min
Histogram: 1 0 0 0 0 0 0 0 0 1
Nghost:              0 ave           0 max           0 min
Histogram: 2 0 0 0 0 0 0 0 0 0
Neighs:         123444 ave      246887 max           0 min
Histogram: 1 0 0 0 0 0 0 0 0 1

Total # of neighbors = 246887
Ave neighs/atom = 224.64695
Ave special neighs/atom = 1.9981802
Neighbor list builds = 16214
Dangerous builds = 0

# This simulation is done
# Move onto the next one
clear
OMP_NUM_THREADS environment is not set. Defaulting to 1 thread. (src/comm.cpp:98)
  using 1 OpenMP thread(s) per MPI task
next f
jump SELF

###
# Reference paper:
# K. Kremer and G. S. Grest
# Dynamics of entangled linear polymer melts: A molecular-dynamics simulation
# J Chem Phys 92, 5057 (1990)

##################################
# MIHIR: for branched polymers
# LJ minimum first to expand and explore, then collapse
###

###
# Looping through the various tshaped polymers to simulate,
# define variables to switch through
variable f index bb66nuc1bl33bn3d30tot100 bb133nuc1bl66bn3d30tot200 bb200nuc1bl100bn3d30tot300 bb266nuc1bl133bn3d30tot400 bb333nuc1bl166bn3d30tot500 bb400nuc1bl200bn3d30tot600 bb466nuc1bl233bn3d30tot700 bb533nuc1bl266bn3d30tot800 bb600nuc1bl300bn3d30tot900 bb666nuc1bl333bn3d30tot1000 bb733nuc1bl366bn3d30tot1100 bb800nuc1bl400bn3d30tot1200
###


###
# Box and units  (use LJ units and periodic boundaries)
###

units lj
log tshaped/logs/$f.log
log tshaped/logs/bb800nuc1bl400bn3d30tot1200.log
