#atom_style bond #no stiffness
atom_style angle #with stiffness

boundary        p p p
###
# Pair interactions require lists of neighbours to be calculated
###

#neighbor 0.3 bin
neighbor 4 bin

neigh_modify every 1 delay 1 check yes
atom_modify sort 0 0
### Generate RESTART file, SPECIAL format, not a .txt file ###
### Useful if simulation crashes ###

restart 1000000 tshaped/restarts/$f.restart
restart 1000000 tshaped/restarts/bb800nuc1bl400bn3d30tot1200.restart
#############################



### READ "start" data file ###

read_data tshaped/$f.dat
read_data tshaped/bb800nuc1bl400bn3d30tot1200.dat
Reading data file ...
  orthogonal box = (-1000 -1000 -1000) to (1000 1000 1000)
  1 by 1 by 2 MPI processor grid
  reading atoms ...
  1201 atoms
  scanning bonds ...
  2 = max bonds/atom
  scanning angles ...
  3 = max angles/atom
  reading bonds ...
  1200 bonds
  reading angles ...
  1200 angles
Finding 1-2 1-3 1-4 neighbors ...
  special bond factors lj:    0        0        0       
  special bond factors coul:  0        0        0       
     3 = max # of 1-2 neighbors
     3 = max # of 1-3 neighbors
     6 = max # of 1-4 neighbors
     9 = max # of special neighbors
  special bonds CPU = 0.001 seconds
  read_data CPU = 0.129 seconds

######################

### READ "REstart" data file ###

######################



###
# Define groups (atom type 1 is group 'all')
###
group all type 1
1201 atoms in group all


###
# Dump configs - "simple dumpings"
###

###
# Dump configs + box coords
###

dump   1   all   custom   1000  tshaped/trjs/$f.lammpstrj  id  x y z  ix iy iz
dump   1   all   custom   1000  tshaped/trjs/bb800nuc1bl400bn3d30tot1200.lammpstrj  id  x y z  ix iy iz
dump_modify   1   format line "%d %.5f %.5f %.5f %d %d %d"

########################################################################


###################################################################
# Stiffness term
#
# E = K * (1+cos(theta)), K>0
#
angle_style   cosine
#change this coefficient to change stiffness (e.g. 1,5,10)
angle_coeff   1 1.0
###################################################################

###################################################################
# Pair interaction between non-bonded atoms
#
#  Lennard-Jones 12-6 potential with cutoff:
#  potential E=4epsilon[ (sigma/r)^12 - (sigma/r)^6]  for r<r_cut
#
#  1.12246 = 2^(1/6) is the minimum of the potential


pair_style      lj/cut 1.12246152962189
#pair_style      lj/cut 3

#
#  pair_modify shift yes adds a constant to the potential such

#  that E(r_cut)=0. Forces remains unchanged.
#

pair_modify     shift yes

#
#  pair_coeff for lj/cut, specify 4:
#    * atom type interacting with
#    * atom type
#    * epsilon (energy units)
#    * sigma (distance units)
#

pair_coeff      1 1 1.0 1.0
###################################################################

###################################################################
# Pair interaction between non-bonded atoms
#
#  soft potential, for PUSHING apart overlapping atoms
#  potential E=A*(1 + cos(pi*r/r_c))
#
#  1.12246 = 2^(1/6) is the cut-off r_c

#pair_style     soft 1.12246152962189

#
#  pair_coeff for soft, specify 3:
#    * atom type interacting with
#    * atom type
#    * A
#
#

#pair_coeff      1 1 100.0
###################################################################

###################################################################
# Pair interaction between bonded atoms
#
# Fene potential + Lennard Jones 12-6:

#
#  E= - 0.5 K R0^2 ln[ 1- (r/R0)^2]
#     + 4epsilon[ (sigma/r)^12 - (sigma/r)^6] + epsilon
#

bond_style   fene


#
# For style fene, specify:
#   * bond type
#   * K (energy/distance^2)
#   * R0 (distance)
#   * epsilon (energy)  (LJ component)
#   * sigma (distance)  (LJ component)
#


special_bonds fene #<=== I M P O R T A N T (new command)
Finding 1-2 1-3 1-4 neighbors ...
  special bond factors lj:    0        1        1       
  special bond factors coul:  0        1        1       
     3 = max # of 1-2 neighbors
     9 = max # of special neighbors
  special bonds CPU = 0.000 seconds

bond_coeff   1   30   2   1.0   1.0


###################################################

###################################################################
# Pair interaction between bonded atoms
#
# Harmonic potential:
#
#  E= K * (R-R0)^2
#

#bond_style   harmonic

#
# For style harmonic, specify:
#   * bond type
#   * K (energy/distance^2)
#   * R0 (distance)
#

#bond_coeff   1   60.0   1.0
#bond_coeff   2   harmonic 0.1   1.0

###################################################
compute 1 all gyration
variable rog equal c_1
#compute 2 all coord/atom cutoff 1.1

#dump 2 all custom 10000 contact_number.dump id c_2


###
# Set up fixes
###
thermo_style   custom   step  temp enthalpy c_1
fix 1 all nve   ###NVE ensemble

fix 2 all   langevin   1.0 1.0 1.0  100103   ###Langevin integrator Tstart Tstop 1/friction rndseed


##### Sample thermodynamic info  (temperature, energy, pressure, etc.) #####
thermo 1000









############################################################################

###
# set timestep of integrator

timestep 0.01

###
# run integration for a number of steps
###
#run 0
#variable r equal c_1
#if "$r < 63.1" then "quit 1"

# lj potential minimum, cause molecule to explore
run 100000
Generated 0 of 0 mixed pair_coeff terms from geometric mixing rule
Neighbor list info ...
  update: every = 1 steps, delay = 1 steps, check = yes
  max neighbors/atom: 2000, page size: 100000
  master list distance cutoff = 5.1224615
  ghost atom cutoff = 5.1224615
  binsize = 2.5612308, bins = 781 781 781
  1 neighbor lists, perpetual/occasional/extra = 1 0 0
  (1) pair lj/cut, perpetual
      attributes: half, newton on
      pair build: half/bin/newton
      stencil: half/bin/3d
      bin: standard
WARNING: Communication cutoff 5.12246152962189 is shorter than a bond length based estimate of 5.455. This may lead to errors. (src/comm.cpp:723)
Per MPI rank memory allocation (min/avg/max) = 939.5 | 940.1 | 940.8 Mbytes
   Step          Temp         Enthalpy         c_1      
         0   0              13.383339      200.28121    
      1000   0.97819385     18.387375      200.2432     
      2000   1.0441359      18.609504      200.05092    
      3000   1.0181564      18.902006      199.88222    
      4000   1.0263702      18.763614      199.62589    
      5000   1.0405909      18.987209      199.35865    
      6000   0.98908817     18.273515      198.94171    
      7000   1.0009679      18.766391      198.61782    
      8000   0.97807748     18.617774      198.55159    
      9000   0.98065268     18.808551      198.16265    
     10000   1.0149778      19.409667      197.8062     
     11000   0.98228071     19.086815      197.56393    
     12000   0.9716378      18.694998      197.50192    
     13000   0.9828338      18.625311      197.30009    
     14000   0.97977372     18.647775      197.12181    
     15000   1.019485       18.966121      196.83314    
     16000   1.0026931      19.172413      196.73171    
     17000   0.99644962     19.270606      196.38132    
     18000   1.034929       19.082902      196.24504    
     19000   1.0084758      19.267454      195.84374    
     20000   0.95043616     18.781929      195.5472     
     21000   1.0096655      19.145123      195.2299     
     22000   1.0005499      18.771755      194.94823    
     23000   1.0375211      19.190496      194.62969    
     24000   0.9826319      19.037479      194.44059    
     25000   1.0033846      19.176337      194.1666     
     26000   1.0301277      18.872782      193.98252    
     27000   1.0147473      18.864858      193.73123    
     28000   0.9859909      18.922706      193.48035    
     29000   1.0101473      19.29623       193.22894    
     30000   1.0026778      18.703239      193.04287    
     31000   0.98613848     19.567105      192.90467    
     32000   1.030023       19.313883      192.96256    
     33000   1.0271886      19.125503      192.81602    
     34000   1.0198509      19.308734      192.66083    
     35000   1.0180519      19.165928      192.34713    
     36000   1.0088226      18.98697       192.12076    
     37000   1.043732       18.913796      191.82529    
     38000   0.97579046     18.949193      191.49093    
     39000   0.99946102     19.187369      191.30688    
     40000   1.0098631      19.293576      191.20935    
     41000   1.0321462      19.407646      190.9124     
     42000   1.0354808      19.543208      190.61014    
     43000   1.0112919      19.300212      190.62492    
     44000   0.98821516     19.278266      190.38877    
     45000   0.97670952     19.097268      190.18127    
     46000   0.98759991     19.258733      189.91375    
     47000   1.0291207      19.39689       189.68472    
     48000   0.99031313     19.02141       189.48996    
     49000   0.98763183     19.485938      189.52554    
     50000   1.0139576      19.654783      189.42861    
     51000   1.0106199      19.290966      189.19633    
     52000   0.96510076     18.724979      189.15682    
     53000   1.0151901      19.4725        189.21834    
     54000   0.9949768      19.314453      189.02543    
     55000   0.99796259     18.96504       188.78996    
     56000   1.0344425      19.572876      188.66984    
     57000   1.0194889      19.701802      188.60623    
     58000   1.0182179      19.303399      188.40881    
     59000   1.0722269      19.470861      188.16381    
     60000   1.0028746      19.403052      187.97898    
     61000   0.98650855     19.004794      187.71762    
     62000   0.98462956     19.479362      187.47027    
     63000   1.0241147      19.524244      187.3125     
     64000   1.0163839      19.330651      187.05494    
     65000   0.98463312     19.431089      186.93294    
     66000   1.0130601      19.265588      186.71993    
     67000   1.0409719      19.664096      186.50009    
     68000   0.96537216     19.571601      186.59974    
     69000   0.97214964     19.497317      186.5009     
     70000   0.99772218     19.129092      186.42119    
     71000   0.96073683     19.286199      186.43771    
     72000   1.005294       19.815523      185.91807    
     73000   0.99705693     19.795946      185.75707    
     74000   1.029486       19.5627        185.75923    
     75000   1.0236151      19.896842      185.67279    
     76000   0.98805186     19.599769      185.35478    
     77000   0.9945495      20.035194      184.99332    
     78000   0.99386906     18.899177      184.81327    
     79000   0.97018659     19.672358      184.72893    
     80000   1.0295419      19.515292      184.54287    
     81000   1.007845       19.456018      184.37118    
     82000   0.99847855     20.072042      184.38355    
     83000   0.98763615     19.300353      184.3611     
     84000   0.99713809     19.550253      184.14358    
     85000   0.95782351     19.562104      183.73622    
     86000   0.96524129     19.404504      183.67863    
     87000   0.98328417     19.378781      183.65335    
     88000   1.0041113      19.44152       183.62887    
     89000   0.97636259     19.237         183.49927    
     90000   0.9969656      19.813819      183.42995    
     91000   0.97182159     19.379721      183.14098    
     92000   1.0092071      19.568032      183.2296     
     93000   0.97877286     19.67388       183.04162    
     94000   0.99861141     19.632188      182.99022    
     95000   0.99610008     19.469462      182.92074    
     96000   0.97585938     19.547704      182.72092    
     97000   1.0304158      20.092314      182.61676    
     98000   1.0296384      19.49097       182.4511     
     99000   0.96552231     19.368278      182.27189    
    100000   0.97585536     19.69582       182.07534    
Loop time of 271.119 on 2 procs for 100000 steps with 1201 atoms

Performance: 318679.550 tau/day, 368.842 timesteps/s
53.1% CPU use with 2 MPI tasks x 1 OpenMP threads

MPI task timing breakdown:
Section |  min time  |  avg time  |  max time  |%varavg| %total
---------------------------------------------------------------
Pair    | 0.068408   | 1.9852     | 3.9019     | 136.0 |  0.73
Bond    | 0.032201   | 4.7646     | 9.4969     | 216.8 |  1.76
Neigh   | 245.57     | 245.57     | 245.57     |   0.0 | 90.58
Comm    | 0.14545    | 0.17685    | 0.20824    |   7.5 |  0.07
Output  | 0.64357    | 0.66384    | 0.68411    |   2.5 |  0.24
Modify  | 0.045147   | 5.0174     | 9.9897     | 222.0 |  1.85
Other   |            | 12.94      |            |       |  4.77

Nlocal:          600.5 ave        1201 max           0 min
Histogram: 1 0 0 0 0 0 0 0 0 1
Nghost:              0 ave           0 max           0 min
Histogram: 2 0 0 0 0 0 0 0 0 0
Neighs:         3020.5 ave        6041 max           0 min
Histogram: 1 0 0 0 0 0 0 0 0 1

Total # of neighbors = 6041
Ave neighs/atom = 5.029975
Ave special neighs/atom = 1.9983347
Neighbor list builds = 1097
Dangerous builds = 0

# Replace lj potential, now collapse
pair_style      lj/cut 3

# Cutoff simul when gyration under 5
# Variable created with equal requires v_ + 'name'
fix 3 all halt 1000 v_rog < 7

run 5000000
Generated 0 of 0 mixed pair_coeff terms from geometric mixing rule
Per MPI rank memory allocation (min/avg/max) = 939.5 | 940.1 | 940.8 Mbytes
   Step          Temp         Enthalpy         c_1      
    100000   0.97585536     19.228348      182.07534    
    101000   1.0583965      19.052306      181.9352     
    102000   0.98692021     19.024572      182.10445    
    103000   1.010003       19.099989      182.04206    
    104000   1.0116773      18.772065      181.75448    
    105000   1.0249863      19.38779       181.4282     
    106000   1.0035958      18.81439       181.20387    
    107000   0.97151355     19.408139      180.86514    
    108000   0.96611883     19.053602      180.63767    
    109000   1.028056       19.177286      180.41172    
    110000   1.0030411      19.061329      180.20767    
    111000   0.99537918     19.599206      179.99785    
    112000   0.99859328     19.479416      179.64127    
    113000   0.99659647     19.326814      179.52405    
    114000   0.99439695     19.216349      179.3397     
    115000   1.0376439      19.256825      179.08154    
    116000   0.95807754     19.139997      178.93616    
    117000   1.0048336      18.751819      178.83656    
    118000   1.0534289      18.639884      178.69929    
    119000   1.0310223      19.961222      178.43541    
    120000   1.0335617      19.208033      178.31071    
    121000   1.0100459      19.287034      177.9345     
    122000   1.0230539      19.119846      177.61793    
    123000   1.0232387      19.59032       177.32676    
    124000   1.0016652      19.070553      177.11326    
    125000   0.97313864     19.561447      177.13798    
    126000   1.0023854      19.002726      177.00841    
    127000   1.0172098      19.163987      176.87782    
    128000   1.0203652      19.155696      176.57616    
    129000   0.96635176     18.847015      176.56096    
    130000   0.96829221     18.907066      176.26785    
    131000   0.96450636     18.923322      176.14757    
    132000   0.98517779     19.050676      175.94527    
    133000   1.019102       19.149283      175.81706    
    134000   0.96980751     18.794732      175.53557    
    135000   0.99815309     18.783706      175.44702    
    136000   1.0137666      19.159238      175.3176     
    137000   0.98362399     19.390689      175.0457     
    138000   1.0273191      18.94419       174.95608    
    139000   0.99142804     19.232265      174.9283     
    140000   0.99225067     19.381185      174.73037    
    141000   1.0038871      19.085226      174.60984    
    142000   0.98761551     18.825089      174.40741    
    143000   1.0291392      18.857142      174.28502    
    144000   1.033267       19.366049      174.23587    
    145000   1.0402402      19.097568      173.96755    
    146000   0.99333728     18.773111      173.95383    
    147000   0.96142149     18.832213      173.6378     
    148000   0.99258744     19.086963      173.51606    
    149000   0.94893474     19.473757      173.56456    
    150000   0.93488274     18.352911      173.61217    
    151000   0.96293845     18.867086      173.51234    
    152000   1.0107976      18.986454      173.48713    
    153000   1.0427024      18.98043       173.30755    
    154000   0.95828928     19.060016      173.10744    
    155000   0.98221429     18.933078      173.04692    
    156000   1.015262       18.663058      172.94483    
    157000   0.99763348     18.954532      172.63585    
    158000   1.020002       18.890585      172.54997    
    159000   1.0334434      19.099288      172.2173     
    160000   0.99879679     18.681151      171.96338    
    161000   1.0276352      19.376738      171.67794    
    162000   0.9875456      18.782752      171.47763    
    163000   1.0299321      18.901996      171.06751    
    164000   1.0341299      19.196609      170.98085    
    165000   0.98839613     19.346754      170.6731     
    166000   0.98753557     18.760876      170.59631    
    167000   1.045531       19.169496      170.25444    
    168000   1.0076421      19.355423      170.16088    
    169000   0.9549498      19.185526      170.0449     
    170000   1.0409984      19.207775      169.74312    
    171000   1.0451764      18.691873      169.46116    
    172000   0.99697911     19.424932      169.17114    
    173000   1.0008608      19.130643      169.20647    
    174000   0.98208241     19.239844      168.79049    
    175000   1.0048541      19.498971      168.44456    
    176000   1.0032053      18.85353       168.39921    
    177000   1.00138        19.018383      168.07284    
    178000   1.0173897      19.127409      168.16958    
    179000   1.0326001      19.135956      168.20433    
    180000   1.0064049      18.713804      167.85985    
    181000   0.98049768     18.89356       167.6379     
    182000   0.99233027     19.323369      167.38549    
    183000   0.98145164     18.639652      167.32818    
    184000   1.0227164      18.80648       167.23191    
    185000   0.97608981     19.272583      167.10747    
    186000   1.0249405      18.934162      166.79564    
    187000   1.0559598      19.037164      166.66676    
    188000   0.97419523     18.991927      166.52322    
    189000   1.0065234      19.427426      166.38609    
    190000   1.0040624      18.902448      166.23682    
    191000   1.0189416      19.290951      166.35734    
    192000   0.98203928     18.888771      166.15031    
    193000   0.97671939     19.032845      166.06132    
    194000   0.97803939     18.629421      165.73065    
    195000   0.98958641     19.148649      165.54363    
    196000   0.95857835     19.540414      165.46657    
    197000   0.99503643     19.013554      165.47688    
    198000   0.97690903     18.905117      165.44369    
    199000   0.95544488     18.917104      165.33812    
    200000   0.98808198     18.576084      165.34658    
    201000   0.97206532     19.2986        165.30755    
    202000   0.9806298      18.982443      165.13387    
    203000   0.97881356     19.187622      164.81822    
    204000   0.96345226     18.801375      164.54601    
    205000   1.0009615      18.968447      164.29606    
    206000   1.0430489      19.105951      164.35019    
    207000   0.97882247     18.571169      164.3106     
    208000   1.00449        19.448395      163.8879     
    209000   1.0055639      19.374901      163.93214    
    210000   0.97860556     19.354234      163.85818    
    211000   0.97971974     19.092407      163.64404    
    212000   1.0154497      19.147153      163.57005    
    213000   0.98800478     19.370097      163.24487    
    214000   0.98992962     18.782957      163.25732    
    215000   0.98172261     18.873605      163.12371    
    216000   1.023662       19.031222      162.97962    
    217000   0.98235968     18.907048      162.9916     
    218000   1.029641       19.364878      162.72371    
    219000   1.0303211      19.198912      162.51801    
    220000   1.0226403      19.401966      162.3092     
    221000   0.97522836     19.08813       162.21476    
    222000   1.0192713      18.695537      162.11523    
    223000   0.97525007     19.141844      161.88956    
    224000   0.99733303     19.381115      161.85518    
    225000   1.0331307      18.970409      161.79477    
    226000   0.95090682     18.581258      161.5085     
    227000   0.96834132     19.049074      161.26943    
    228000   1.0296766      19.312397      161.07793    
    229000   1.0131591      19.410114      160.98557    
    230000   1.0192427      18.840163      160.79668    
    231000   1.0309418      19.173316      161.0216     
    232000   1.013515       18.893287      160.73423    
    233000   1.039351       18.868457      160.54329    
    234000   0.99939826     19.196129      160.40869    
    235000   1.0109324      18.117347      160.26523    
    236000   0.97201965     18.797423      160.26885    
    237000   1.0050272      19.406945      160.31934    
    238000   1.0056297      19.046636      160.28749    
    239000   0.95637692     18.799938      160.10577    
    240000   1.035834       19.048521      159.9719     
    241000   0.97006763     19.013597      159.8438     
    242000   1.0175373      19.162487      159.76888    
    243000   0.98684196     18.913947      159.47808    
    244000   1.0111106      19.232629      159.35595    
    245000   0.98909389     19.279512      159.36687    
    246000   0.99380657     18.79353       159.21236    
    247000   1.0026655      19.219183      159.12381    
    248000   0.99650206     19.097072      158.84137    
    249000   0.98900155     18.813368      158.53847    
    250000   0.97275733     19.366179      158.30718    
    251000   1.0394751      19.261398      158.12048    
    252000   0.97182656     18.930505      158.22786    
    253000   1.040088       18.842993      158.06869    
    254000   0.99740506     19.131013      157.90979    
    255000   0.98703594     19.227633      157.70158    
    256000   0.98565452     18.832605      157.62197    
    257000   0.98870678     18.923622      157.49253    
    258000   0.99769859     18.830079      157.4754     
    259000   1.0455212      19.544892      157.57097    
    260000   0.99697655     19.008933      157.47654    
    261000   1.0193225      19.601731      157.18725    
    262000   0.99872368     19.302452      157.05721    
    263000   1.0366043      19.205948      156.82151    
    264000   1.0311867      19.473965      156.73989    
    265000   1.009381       18.919131      156.46514    
    266000   1.008193       19.313138      156.25427    
    267000   0.98509458     19.389907      156.15437    
    268000   1.0305294      18.484735      156.24312    
    269000   0.98914795     18.720085      156.07523    
    270000   0.96304731     18.814555      155.91311    
    271000   1.0002066      19.351244      155.92573    
    272000   0.99155848     19.413865      155.81366    
    273000   1.0054503      19.217129      155.89652    
    274000   1.0286871      19.067168      155.74659    
    275000   0.98123609     18.954109      155.39534    
    276000   0.99106936     18.415893      155.22695    
    277000   0.96005537     18.982561      155.20702    
    278000   0.99577161     19.176072      155.00841    
    279000   1.0051879      19.031976      154.88245    
    280000   0.97916119     19.271063      154.67394    
    281000   0.96394381     18.979464      154.58616    
    282000   0.98498956     19.132974      154.57967    
    283000   0.98510716     19.174416      154.4681     
    284000   1.0125954      18.777494      154.4341     
    285000   0.98005367     18.54753       154.56125    
    286000   1.0071864      19.132549      154.47522    
    287000   0.99181586     18.864869      154.52971    
    288000   0.98504127     18.727454      154.66949    
    289000   1.0193346      19.121331      154.61336    
    290000   0.97685699     19.147559      154.42346    
    291000   0.98888838     18.838067      154.41308    
    292000   0.99108721     18.663474      154.24439    
    293000   1.0318516      19.276772      154.22651    
    294000   0.96831826     19.224339      154.24203    
    295000   0.97010702     18.620451      154.06165    
    296000   1.0405738      19.063214      153.79247    
    297000   1.0006101      18.956064      153.51571    
    298000   1.0025616      19.06826       153.41346    
    299000   1.0392814      19.184982      153.14681    
    300000   0.96878312     19.267573      152.93569    
    301000   0.97874356     18.733058      152.79771    
    302000   1.0201492      18.893502      152.64451    
    303000   0.98699892     19.113385      152.54481    
    304000   0.98610777     18.691965      152.31367    
    305000   1.0167127      19.107234      152.0508     
    306000   1.019371       19.017507      152.10667    
    307000   0.97677622     18.816382      152.22814    
    308000   0.9868942      18.991881      152.13831    
    309000   1.0018023      19.237827      152.12775    
    310000   0.98764703     18.781341      151.78519    
    311000   0.99710162     19.276333      151.47641    
    312000   0.98174831     19.119071      151.2687     
    313000   1.0231604      18.745233      151.18909    
    314000   0.99422654     18.582569      151.09836    
    315000   0.97120076     18.882676      150.86689    
    316000   1.0133557      18.62418       150.62457    
    317000   0.99381957     18.995774      150.59438    
    318000   0.98100847     18.975802      150.5429     
    319000   1.0045082      19.03095       150.49544    
    320000   1.010727       18.917708      150.38205    
    321000   0.98596754     18.873212      150.32173    
    322000   1.0154365      19.055501      150.03672    
    323000   1.0091026      18.898637      149.95818    
    324000   0.98835409     18.613998      149.77573    
    325000   1.0358662      18.955025      149.47978    
    326000   0.97654616     18.733819      149.29472    
    327000   1.0455353      18.991211      149.01821    
    328000   1.0058891      19.204911      149.04832    
    329000   1.0315448      19.023132      148.74238    
    330000   1.0014653      19.176695      148.53041    
    331000   1.003632       19.114887      148.43062    
    332000   1.015307       18.725096      148.34937    
    333000   1.0133106      19.103828      148.44899    
    334000   1.0416468      19.317759      148.29318    
    335000   1.0143055      18.757448      148.1541     
    336000   0.97559479     18.483992      148.08617    
    337000   0.94675601     18.72824       148.06387    
    338000   0.96184481     18.656207      148.43247    
    339000   0.99799006     18.530217      148.36218    
    340000   1.0142875      18.930963      148.23467    
    341000   0.95797001     18.598276      148.18519    
    342000   1.0477011      18.888667      148.03929    
    343000   1.0202609      18.872493      147.74158    
    344000   0.97123297     19.259637      147.56915    
    345000   0.9976507      19.141011      147.53731    
    346000   0.99220195     18.811685      147.48425    
    347000   0.98123524     19.046355      147.40942    
    348000   0.99974939     18.767589      147.5266     
    349000   0.98245163     18.633006      147.50369    
    350000   1.0195917      18.777838      147.24031    
    351000   0.99387198     18.594144      147.14637    
    352000   0.93636846     18.881549      147.09576    
    353000   1.0104746      18.802634      147.12217    
    354000   0.98266724     19.184593      146.91247    
    355000   1.0123681      18.764353      146.86573    
    356000   1.0062291      18.744136      146.82248    
    357000   1.0001021      18.884827      146.65703    
    358000   1.0002675      18.971818      146.55244    
    359000   1.0115873      18.720266      146.21597    
    360000   0.97839312     19.143583      146.05944    
    361000   1.0211855      19.321546      146.02639    
    362000   0.98988053     18.793763      145.7707     
    363000   1.0238392      19.077097      145.78553    
    364000   0.98328894     18.718399      145.55984    
    365000   1.0004109      18.714045      145.50766    
    366000   1.0347493      19.230429      145.45085    
    367000   0.97566765     19.053827      145.39088    
    368000   1.0049928      18.872891      145.29753    
    369000   1.0021731      19.001365      145.19599    
    370000   1.0123805      18.915697      145.09874    
    371000   1.0033211      19.115502      144.8706     
    372000   1.0280927      19.078874      144.6748     
    373000   0.9654233      18.750097      144.62916    
    374000   0.9760547      19.268153      144.53889    
    375000   1.0033533      18.732229      144.27698    
    376000   1.01844        18.922805      144.23422    
    377000   0.99304432     18.738245      144.15193    
    378000   0.99380864     18.735844      144.06548    
    379000   1.0167395      19.22509       143.82373    
    380000   0.98448105     18.815237      143.76908    
    381000   1.0418614      19.355277      143.76157    
    382000   0.99258607     19.001622      143.57129    
    383000   1.0301883      19.079953      143.50403    
    384000   1.0343084      18.774741      143.48006    
    385000   1.0343305      19.528999      143.27576    
    386000   1.0254035      18.69965       143.09057    
    387000   1.0136791      18.885352      142.85312    
    388000   0.99888993     18.656285      142.35494    
    389000   1.0234328      18.656234      142.2046     
    390000   1.0433917      19.098889      142.06067    
    391000   1.0346605      19.11163       142.15927    
    392000   1.0197611      18.759374      142.17664    
    393000   1.0023434      18.863753      141.90441    
    394000   1.0060908      19.010931      141.78892    
    395000   1.0278115      18.951947      141.53494    
    396000   0.98696936     18.713117      141.31335    
    397000   0.99558066     19.008383      141.07823    
    398000   0.99626994     19.178545      140.85056    
    399000   0.98830206     18.955833      140.88529    
    400000   1.0123922      18.775523      140.62607    
    401000   1.0299459      18.969684      140.65355    
    402000   0.98466833     18.843527      140.57379    
    403000   0.98288693     18.849751      140.45999    
    404000   1.0377625      19.137196      140.26183    
    405000   1.0147972      18.810941      140.01108    
    406000   0.96036798     18.709122      139.82194    
    407000   1.0392439      19.758186      139.61709    
    408000   0.97539189     18.706134      139.60093    
    409000   1.0087723      19.462539      139.44348    
    410000   0.96034591     18.54279       139.61165    
    411000   1.0140758      18.514272      139.47321    
    412000   1.0147029      18.91595       139.39104    
    413000   1.0065763      19.012974      139.30217    
    414000   1.0098533      18.536631      139.34057    
    415000   0.99673836     18.506846      139.38616    
    416000   0.99391991     18.704795      139.23306    
    417000   0.94299456     18.746052      139.26846    
    418000   0.99224945     18.670863      139.27929    
    419000   1.0047731      18.982599      139.40193    
    420000   1.0084747      18.729136      139.34745    
    421000   1.0047645      18.953884      139.23168    
    422000   1.0522048      18.726855      139.10177    
    423000   0.98341803     18.735194      139.21601    
    424000   0.98356666     19.356552      139.003      
    425000   0.95968523     18.705216      138.70392    
    426000   0.99119504     18.908359      138.59385    
    427000   0.98836874     18.798101      138.45982    
    428000   1.029048       18.856483      138.44004    
    429000   1.0078736      18.78399       138.1353     
    430000   1.0106532      18.466291      137.83268    
    431000   1.0413226      18.610677      137.59662    
    432000   1.0292688      18.525982      137.57035    
    433000   0.97431661     18.583909      137.49627    
    434000   0.99821154     18.544869      137.41773    
    435000   1.022532       19.205195      137.21477    
    436000   1.0111023      18.893508      137.14947    
    437000   0.99143449     18.817979      136.98983    
    438000   1.0223901      18.624423      136.97473    
    439000   0.99858864     18.662846      136.66057    
    440000   1.0308491      18.943019      136.40744    
    441000   0.99840642     18.981439      136.26236    
    442000   1.0207991      18.761142      136.29235    
    443000   1.0435085      18.649378      136.21515    
    444000   0.98373679     18.522823      136.14872    
    445000   1.0108767      18.460687      136.0612     
    446000   1.0004298      18.655777      135.99397    
    447000   0.97088388     18.544564      135.96697    
    448000   1.0098126      18.784475      136.04247    
    449000   0.9814385      18.921949      136.22728    
    450000   1.0071733      19.175403      136.22488    
    451000   1.0001397      18.600127      136.19301    
    452000   1.0113533      18.698098      135.95014    
    453000   0.97878756     18.723846      135.76794    
    454000   0.99837896     18.723478      135.5515     
    455000   0.99990129     19.183685      135.4272     
    456000   0.9876116      19.06162       135.27709    
    457000   1.0046464      18.919528      135.17618    
    458000   1.0103714      18.983602      135.03225    
    459000   1.0183221      18.799848      134.9245     
    460000   1.023345       18.660449      134.68961    
    461000   1.0430009      18.423022      134.5505     
    462000   0.98206244     18.775509      134.38135    
    463000   1.0434844      19.248672      134.00739    
    464000   0.98473731     18.678367      133.78187    
    465000   0.97056318     18.393215      133.67153    
    466000   1.0192222      18.770973      133.36478    
    467000   0.9995403      18.9686        133.17068    
    468000   1.0018632      18.704353      132.88557    
    469000   1.0011029      18.666408      133.05318    
    470000   1.0313266      19.051845      133.11835    
    471000   0.97522772     18.812761      133.24669    
    472000   1.0083671      18.82534       133.25426    
    473000   0.9836388      18.42983       133.37412    
    474000   1.0328204      18.843826      133.17796    
    475000   0.99212011     18.995088      133.19752    
    476000   0.99735736     19.077271      133.01225    
    477000   1.0083248      18.625454      132.72716    
    478000   1.0003569      18.667001      132.59311    
    479000   0.95945725     18.502097      132.81746    
    480000   0.99657786     18.686949      132.95507    
    481000   0.99887756     18.690681      132.98092    
    482000   1.0099074      18.780049      132.84683    
    483000   1.007762       18.703412      132.79956    
    484000   0.97697978     18.608451      132.66492    
    485000   0.96354141     18.816389      132.56332    
    486000   0.98429688     18.826765      132.25001    
    487000   0.98257848     17.932293      132.04655    
    488000   1.0358224      18.286632      131.7141     
    489000   0.99957949     18.654907      131.66188    
    490000   1.0125103      18.833895      131.55168    
    491000   1.0152671      18.33803       131.36264    
    492000   0.97890897     18.865532      131.14913    
    493000   0.99790589     18.418218      130.6736     
    494000   0.99898878     18.578192      130.51649    
    495000   0.98840127     19.117549      130.39754    
    496000   1.0464931      18.316582      130.21249    
    497000   1.0114632      19.084262      130.05029    
    498000   1.0080825      18.639783      129.89059    
    499000   1.0060347      18.81623       129.97186    
    500000   0.96549643     18.886213      130.02801    
    501000   1.0171715      18.390214      130.06956    
    502000   1.0191984      18.485207      130.20481    
    503000   0.98524627     18.51448       130.18362    
    504000   0.99833815     19.025775      130.03093    
    505000   0.94904501     18.284202      129.97846    
    506000   0.98729579     18.703209      129.64609    
    507000   1.0283897      18.470399      129.45009    
    508000   0.97979735     18.869712      129.23004    
    509000   0.99083244     18.679975      128.87706    
    510000   1.0175996      18.792847      128.58747    
    511000   1.0035005      18.773666      128.55019    
    512000   1.0127988      18.69047       128.44461    
    513000   0.98183402     19.099174      128.38454    
    514000   0.99549747     19.104894      128.23601    
    515000   0.99376332     19.043377      128.10527    
    516000   0.98008434     18.794269      128.06469    
    517000   0.98676989     18.874955      128.13671    
    518000   1.0156328      18.927118      127.89466    
    519000   0.99610929     19.003935      127.73378    
    520000   1.0030496      18.652224      127.75657    
    521000   0.97585576     18.856833      127.72751    
    522000   1.0439331      19.030793      127.35863    
    523000   0.94382198     18.843843      126.95118    
    524000   0.96075815     19.034894      126.76437    
    525000   1.0160522      18.434937      126.68488    
    526000   0.9852457      18.344568      126.5257     
    527000   1.0121921      18.444727      126.61198    
    528000   1.0069204      19.010558      126.52078    
    529000   0.97888528     18.544586      126.55643    
    530000   0.9872152      18.723472      126.52423    
    531000   0.98033566     19.138572      126.49847    
    532000   0.99470271     18.412356      126.38341    
    533000   1.0088743      18.678039      126.35682    
    534000   0.97471074     18.708559      126.14402    
    535000   1.0130208      18.811615      125.89643    
    536000   1.0331428      19.002525      126.16546    
    537000   1.0122398      18.883724      126.06403    
    538000   0.99916519     18.65193       125.94747    
    539000   1.0100822      18.870861      125.82166    
    540000   1.0182327      18.794714      125.73921    
    541000   1.00567        18.341845      125.66582    
    542000   1.0073714      18.119542      125.49623    
    543000   1.056228       18.717029      125.33649    
    544000   1.0346636      18.554094      125.15365    
    545000   1.0087624      18.728166      124.83586    
    546000   0.99393351     18.787821      124.93526    
    547000   1.0274061      19.127974      124.97795    
    548000   1.0244984      18.809481      124.73647    
    549000   0.98464565     18.577633      124.54684    
    550000   1.0363109      18.529821      124.15052    
    551000   1.0021879      18.438331      124.01363    
    552000   1.0353194      18.686149      123.91738    
    553000   0.96328334     18.673919      123.89105    
    554000   1.010122       18.553011      123.82086    
    555000   0.9517421      18.586504      123.7758     
    556000   0.99618064     18.316338      123.7092     
    557000   1.0002986      18.278346      123.60732    
    558000   1.0034207      18.584019      123.60123    
    559000   0.98133145     18.834242      123.35914    
    560000   0.98756804     18.915448      123.52198    
    561000   1.0192738      18.477388      123.29273    
    562000   0.98140005     18.750152      123.38947    
    563000   0.9972868      18.915377      123.072      
    564000   0.99428556     18.785604      122.94111    
    565000   1.0083511      18.482527      122.92641    
    566000   1.0016689      18.454906      122.73761    
    567000   0.99938658     18.584232      122.58629    
    568000   0.98905649     18.277158      122.23061    
    569000   1.0257297      18.640239      122.28485    
    570000   1.0440175      18.126127      122.15172    
    571000   0.97436001     18.560801      122.30501    
    572000   1.0041532      18.626189      122.06123    
    573000   0.99896745     18.540763      122.10501    
    574000   0.99632473     18.645767      122.07359    
    575000   0.99964849     18.797671      121.95517    
    576000   1.0333095      18.24338       121.86316    
    577000   1.0038434      18.773624      121.79337    
    578000   1.0110765      18.998542      121.55948    
    579000   0.99775877     18.804219      121.57709    
    580000   0.99795313     18.420059      121.45594    
    581000   0.97579397     18.284335      121.38089    
    582000   0.99137225     18.786065      121.47753    
    583000   0.99717345     17.982464      121.33183    
    584000   0.98104967     18.660961      120.96007    
    585000   0.9744192      18.19154       121.00105    
    586000   1.020938       18.577582      120.78194    
    587000   0.9776516      18.492354      120.56313    
    588000   1.0128517      18.461329      120.43629    
    589000   0.99828897     18.511719      120.16077    
    590000   0.95628396     19.083331      120.11469    
    591000   0.95485677     18.431171      120.08523    
    592000   0.95425457     18.128791      119.84084    
    593000   0.98075774     18.66          119.81657    
    594000   1.0039745      18.458028      119.77944    
    595000   0.99710645     18.784393      119.70739    
    596000   0.98993886     18.921892      119.65961    
    597000   0.96949511     18.309185      119.57613    
    598000   0.99972117     18.616387      119.43742    
    599000   1.0335945      18.467194      119.41753    
    600000   1.0196379      18.336722      119.24139    
    601000   0.99389097     18.553981      119.18952    
    602000   0.97682159     18.414938      119.1446     
    603000   0.98865134     18.803875      118.92012    
    604000   1.0056239      18.285556      118.83399    
    605000   1.008546       18.909349      118.85254    
    606000   1.0320495      18.699018      118.66178    
    607000   0.99795273     18.334105      118.73953    
    608000   1.0089043      18.951792      118.55396    
    609000   0.99217726     18.963592      118.47057    
    610000   0.97753529     18.660991      118.29572    
    611000   1.0013452      18.489563      118.17147    
    612000   1.0107594      18.673126      118.06079    
    613000   0.99810842     18.388921      117.92141    
    614000   1.0041314      18.555802      117.7307     
    615000   1.0151476      18.907008      117.64904    
    616000   1.0261344      18.787258      117.41913    
    617000   1.0318259      18.843723      116.93741    
    618000   1.0132331      18.527056      117.01398    
    619000   1.0039154      18.558032      117.04356    
    620000   0.98296164     18.65462       116.99442    
    621000   1.0184286      18.585679      116.72177    
    622000   0.98370437     18.978002      116.66168    
    623000   1.0077072      18.288053      116.68292    
    624000   1.0028218      18.349165      116.68772    
    625000   0.99929377     19.026669      116.66343    
    626000   0.99300839     18.171326      116.4809     
    627000   1.0236707      18.602492      116.36227    
    628000   0.96862324     18.486991      116.2449     
    629000   0.9907185      18.794909      116.16698    
    630000   1.0192289      18.549784      116.09118    
    631000   0.98506583     18.318435      116.01327    
    632000   0.99713406     18.679223      115.77302    
    633000   0.98101754     18.43313       115.72234    
    634000   1.0095319      18.439569      115.43213    
    635000   0.98485796     18.329527      115.2816     
    636000   0.98784899     17.88533       115.03132    
    637000   0.99559837     18.768475      114.91028    
    638000   1.0334695      18.282459      114.87785    
    639000   0.97828506     18.545193      114.8944     
    640000   1.0010188      18.586073      114.59375    
    641000   1.0187168      18.776558      114.39091    
    642000   1.0163991      18.752256      114.2845     
    643000   0.99717126     18.807022      114.23877    
    644000   0.99130876     18.209648      114.10493    
    645000   1.0098427      18.183716      113.92446    
    646000   1.0146272      18.733531      113.87565    
    647000   0.97727425     18.742905      113.93162    
    648000   0.97220905     18.386193      113.88531    
    649000   0.99392242     18.513255      113.86861    
    650000   0.99990829     18.541054      113.8016     
    651000   1.0408342      18.89344       113.81103    
    652000   1.0010367      18.660425      113.60114    
    653000   1.0413699      18.327518      113.53669    
    654000   0.98037755     18.762263      113.32843    
    655000   1.0103289      18.375835      112.99736    
    656000   0.98549447     18.882392      112.61023    
    657000   1.0660816      18.504941      112.53622    
    658000   0.99971489     18.359272      112.61665    
    659000   0.99106954     18.393614      112.6588     
    660000   0.96521791     18.674096      112.75293    
    661000   0.99323894     18.599296      112.67106    
    662000   1.0202938      18.724467      112.69906    
    663000   0.99422701     19.104247      112.7575     
    664000   0.9734073      18.663975      112.64672    
    665000   1.0104977      18.663132      112.59813    
    666000   1.0118144      18.764724      112.49603    
    667000   0.99758611     18.506776      112.26924    
    668000   1.0110176      18.351431      112.33279    
    669000   0.99392263     18.365833      112.29487    
    670000   1.0240368      18.780803      112.11871    
    671000   0.99212985     18.490253      112.26838    
    672000   0.97997797     18.34447       111.97927    
    673000   1.0250504      18.83392       111.83211    
    674000   1.0272037      18.950936      111.71839    
    675000   1.0259698      18.494459      111.72815    
    676000   1.0069637      18.328593      111.59411    
    677000   0.98619685     18.172763      111.73459    
    678000   0.99828822     18.381378      111.61242    
    679000   1.0145931      18.558611      111.49534    
    680000   1.0079899      18.180106      111.35329    
    681000   0.99502808     18.822463      111.28055    
    682000   1.0081965      18.693073      111.30864    
    683000   1.0043413      18.647889      111.43785    
    684000   1.0457108      18.583578      111.42967    
    685000   1.0241884      18.231266      111.40515    
    686000   0.99540097     18.718924      111.49896    
    687000   1.0285115      18.73235       111.43786    
    688000   1.0017872      18.93552       111.25453    
    689000   0.98420422     18.171436      111.08011    
    690000   1.0145705      18.488979      111.01757    
    691000   1.0141919      18.316345      110.85354    
    692000   0.98711984     18.333899      110.9589     
    693000   0.97519129     17.808865      110.89406    
    694000   1.0244719      18.786661      110.97392    
    695000   1.0144473      18.215014      110.97494    
    696000   0.97328944     17.742194      110.8146     
    697000   1.0344982      18.902312      110.68703    
    698000   1.0470858      18.181913      110.51998    
    699000   0.97594061     18.184981      110.33538    
    700000   0.99685487     18.42236       110.41085    
    701000   1.0179068      18.22832       110.40713    
    702000   0.97667989     18.069529      110.37122    
    703000   0.98391623     18.355664      110.17994    
    704000   1.0144378      18.353587      109.99041    
    705000   0.96509544     18.25733       109.94977    
    706000   0.98679232     18.61655       109.823      
    707000   1.0327666      18.41541       109.69712    
    708000   1.0581232      18.701571      109.55533    
    709000   1.0455849      18.635281      109.3543     
    710000   1.038706       18.051417      109.39588    
    711000   0.98340012     18.260333      109.26454    
    712000   0.98361201     18.257047      109.15669    
    713000   0.97339178     18.591501      108.96048    
    714000   0.96980334     18.151615      108.8281     
    715000   1.0488018      18.854633      108.7145     
    716000   0.98128069     18.134198      108.76702    
    717000   1.016412       18.524274      108.57043    
    718000   1.0115117      18.031462      108.51146    
    719000   0.95460419     18.189422      108.42065    
    720000   1.0112611      18.584633      108.43627    
    721000   1.0346221      19.059091      108.3158     
    722000   1.027701       18.56622       108.30923    
    723000   1.0163332      18.224594      108.2236     
    724000   0.99162482     18.541336      108.09834    
    725000   1.0254256      18.652601      107.89382    
    726000   0.9648492      18.066427      107.78775    
    727000   0.99535241     18.027136      107.53627    
    728000   0.96325496     18.384592      107.43845    
    729000   1.0102775      18.49071       107.41967    
    730000   0.98763176     17.944478      107.27869    
    731000   0.995227       18.507571      107.24765    
    732000   1.0047572      18.485776      107.15978    
    733000   0.98203928     18.781308      107.08564    
    734000   1.0162049      18.690149      107.14993    
    735000   1.0327255      18.337247      107.00628    
    736000   1.0096519      18.498666      106.6917     
    737000   1.0171123      18.781078      106.49462    
    738000   1.0067206      18.265139      106.55773    
    739000   0.99273308     18.425965      106.46026    
    740000   1.0124924      18.446759      106.40768    
    741000   0.95009315     18.081891      106.24628    
    742000   1.0303412      18.499646      105.96383    
    743000   1.0264427      18.102869      105.83885    
    744000   0.98290122     18.430489      105.82717    
    745000   0.99323198     18.261737      105.69093    
    746000   0.98265943     18.451254      105.59817    
    747000   0.99904925     18.500808      105.59091    
    748000   1.0193187      17.830361      105.59969    
    749000   1.0358935      18.09724       105.60786    
    750000   0.9612546      17.766447      105.68195    
    751000   0.9573532      18.045488      105.7525     
    752000   0.97780028     18.48642       105.74998    
    753000   1.0046598      18.66794       105.59397    
    754000   1.0035639      18.278516      105.64731    
    755000   0.95942866     18.063989      105.65929    
    756000   0.98692682     18.597328      105.58226    
    757000   1.0200895      18.776775      105.7234     
    758000   1.0365691      18.54139       105.67269    
    759000   0.96768421     17.98842       105.58857    
    760000   1.0326309      18.454366      105.30444    
    761000   0.97708162     18.676573      105.38122    
    762000   0.98713035     18.019825      105.32515    
    763000   0.98756448     17.929905      105.18389    
    764000   1.0009674      18.161573      105.09306    
    765000   0.98087646     18.651304      104.79968    
    766000   0.99243962     18.262153      104.78002    
    767000   0.97650448     18.190375      104.70591    
    768000   1.0454798      18.410217      104.61338    
    769000   0.95956333     18.410958      104.49682    
    770000   1.0286173      18.360399      104.48325    
    771000   0.99815643     18.045091      104.11858    
    772000   0.98955168     18.111646      104.04947    
    773000   1.0074439      18.278219      103.93574    
    774000   1.0023419      18.46118       103.93824    
    775000   1.0009278      18.212333      103.88393    
    776000   0.97703838     18.351804      103.82228    
    777000   0.98066825     17.933214      103.67914    
    778000   0.99745284     18.14748       103.70357    
    779000   1.0351695      18.421644      103.6918     
    780000   1.0185083      18.883937      103.64301    
    781000   0.98665127     18.045923      103.61839    
    782000   1.0020508      18.69068       103.45809    
    783000   0.99914355     18.35479       103.24489    
    784000   1.0104525      18.567432      103.10486    
    785000   1.0114082      18.428313      103.09381    
    786000   1.0071128      18.612915      102.97228    
    787000   0.98086459     18.257485      102.98937    
    788000   1.0336107      18.583064      102.73551    
    789000   0.96840809     18.338844      102.73563    
    790000   1.0176935      18.45404       102.82161    
    791000   0.96676049     18.058131      102.53089    
    792000   1.0148363      19.204796      102.41179    
    793000   0.99600155     18.106298      102.31985    
    794000   1.0102807      18.345088      102.29471    
    795000   1.0033047      18.038607      102.29074    
    796000   1.0227537      18.267138      101.99997    
    797000   1.0238373      18.398216      101.79827    
    798000   0.97614407     18.106223      101.7827     
    799000   1.0116783      18.2767        101.83823    
    800000   1.0140721      18.662197      101.88573    
    801000   1.0004685      18.809599      101.61024    
    802000   0.99902004     18.611475      101.76522    
    803000   0.93335473     18.374423      101.92506    
    804000   1.0251387      18.1009        101.96246    
    805000   1.0166721      18.692997      102.07942    
    806000   0.96677374     18.500107      101.97698    
    807000   0.99022861     18.101381      101.84191    
    808000   0.99336031     18.485101      101.91546    
    809000   0.95413121     18.258469      101.9386     
    810000   1.0289325      18.456438      101.96167    
    811000   1.0194739      18.14478       102.01891    
    812000   0.93159939     18.147414      102.02681    
    813000   1.0444969      18.604942      102.12777    
    814000   0.95175862     17.899035      101.70478    
    815000   1.0368344      18.484975      101.70508    
    816000   1.0268137      18.508989      101.80968    
    817000   1.0178074      18.543355      101.78887    
    818000   0.99014405     17.839922      101.7532     
    819000   0.97686231     17.934748      101.67304    
    820000   0.97758785     17.962564      101.60491    
    821000   0.94000498     18.093469      101.33408    
    822000   1.0015063      18.084076      101.29936    
    823000   0.96305723     18.223174      101.27829    
    824000   0.98314678     18.405058      100.98203    
    825000   0.98288453     17.955899      101.11443    
    826000   0.98714017     18.594525      101.00224    
    827000   1.0465378      18.389257      101.01277    
    828000   0.97676091     18.091812      100.94308    
    829000   0.99609627     18.334716      100.87504    
    830000   0.98671717     17.981649      100.84943    
    831000   1.0003603      18.695311      101.0626     
    832000   1.004771       18.327472      101.01081    
    833000   1.0085333      18.188099      100.70222    
    834000   0.97090488     18.182136      100.5289     
    835000   0.98432552     18.221568      100.46111    
    836000   1.0453187      18.298011      100.37097    
    837000   1.0136021      18.553691      100.17528    
    838000   1.0015028      18.47487       100.00079    
    839000   1.0144781      18.468701      99.966347    
    840000   0.99377782     18.60463       99.711984    
    841000   1.0126021      17.750143      99.355065    
    842000   0.9662152      18.407942      99.459459    
    843000   0.97991701     17.849825      99.210005    
    844000   0.96264461     17.973071      98.931405    
    845000   1.0052984      18.480148      98.958294    
    846000   0.99809531     18.206004      98.700238    
    847000   1.0032425      18.220766      98.610999    
    848000   1.012613       18.200969      98.410761    
    849000   1.0001367      18.544508      98.362203    
    850000   0.99277616     18.66286       98.303166    
    851000   1.0289705      18.168042      98.411731    
    852000   0.99613344     17.900323      98.302388    
    853000   0.98433566     18.357861      98.23908     
    854000   0.98364353     18.125018      98.035685    
    855000   1.0016022      18.064036      98.09309     
    856000   0.99017036     18.04408       98.088983    
    857000   1.0082221      17.972323      98.11386     
    858000   0.97940361     18.019322      98.050683    
    859000   1.0230691      17.549307      97.949805    
    860000   0.99791865     18.074509      97.993406    
    861000   1.0214937      17.823593      97.824105    
    862000   1.0216036      18.330489      98.107078    
    863000   0.96118883     17.719803      98.042734    
    864000   0.99449118     18.476181      97.949432    
    865000   1.005043       18.285596      97.853224    
    866000   1.0334847      18.482841      97.634814    
    867000   0.98132191     18.214422      97.339932    
    868000   0.98482409     18.130833      97.054475    
    869000   1.0023191      18.025685      97.073771    
    870000   1.0070488      18.004642      97.092061    
    871000   1.0150395      18.385392      97.083668    
    872000   1.0059989      18.23635       96.933953    
    873000   0.98924895     18.361256      96.795416    
    874000   0.9852383      17.763834      96.691312    
    875000   0.99638716     18.312606      96.491202    
    876000   1.00265        18.435426      96.452779    
    877000   0.9478626      17.75474       96.383997    
    878000   0.96536999     18.486192      96.318051    
    879000   1.0195243      18.802335      96.371593    
    880000   1.0130441      17.821538      96.064338    
    881000   1.018907       17.984836      96.087923    
    882000   0.99566756     18.396682      96.030492    
    883000   1.0220642      18.169895      95.962669    
    884000   1.0528648      18.47199       95.72069     
    885000   0.97332375     18.429271      95.600585    
    886000   1.0039342      18.675606      95.518693    
    887000   0.97195693     17.911532      95.564027    
    888000   0.98131854     18.305203      95.43368     
    889000   0.96404205     17.921006      95.162809    
    890000   0.99734192     18.123012      95.13197     
    891000   0.98544718     17.908136      95.037185    
    892000   0.99028474     18.218126      94.846807    
    893000   0.99833856     18.304501      94.502311    
    894000   1.0184232      18.40542       94.412567    
    895000   1.0012667      18.229098      94.163839    
    896000   0.98224234     18.183832      93.926817    
    897000   0.98601778     17.76822       93.719756    
    898000   1.0272454      18.46215       93.539735    
    899000   1.0339303      17.724134      93.336436    
    900000   1.0495371      18.779532      93.191868    
    901000   0.97171687     17.697445      93.096975    
    902000   1.0216482      18.123861      93.053899    
    903000   0.97700053     18.104014      92.900663    
    904000   1.0444981      18.082793      92.876569    
    905000   1.0053345      18.31562       92.707498    
    906000   1.0020459      17.732619      92.639682    
    907000   1.034139       18.259742      92.572043    
    908000   0.95723351     18.388211      92.45522     
    909000   0.97956401     18.02638       92.385353    
    910000   0.97926846     17.99825       92.353329    
    911000   1.0238198      18.517682      92.422858    
    912000   1.0261012      18.752368      92.444646    
    913000   0.98004229     18.231987      92.183741    
    914000   0.98853088     18.162769      92.147445    
    915000   1.0069579      18.332772      92.012229    
    916000   1.0323386      18.653622      92.000895    
    917000   0.97902031     18.089527      91.946198    
    918000   1.0214994      18.224996      91.914832    
    919000   0.98436322     17.812395      91.863433    
    920000   1.0205101      17.885528      91.850043    
    921000   0.95841865     17.783563      91.744458    
    922000   0.99663884     18.063735      91.602907    
    923000   1.0382989      18.415332      91.486467    
    924000   0.96827891     17.667208      91.482728    
    925000   1.0188817      18.64116       91.248428    
    926000   1.0326016      18.735843      91.129837    
    927000   1.0481846      18.275442      91.124255    
    928000   0.98715808     18.079406      91.020205    
    929000   1.0136407      18.395502      91.034927    
    930000   0.97458283     17.655597      91.16427     
    931000   1.006025       18.209501      91.146356    
    932000   0.99708001     18.066117      91.130403    
    933000   0.97260499     17.897338      91.251377    
    934000   0.98984111     18.395334      91.111441    
    935000   1.0120233      17.843064      91.10139     
    936000   0.96420874     17.891256      90.907428    
    937000   1.0399191      18.385068      91.031091    
    938000   0.9889904      18.023008      91.115926    
    939000   0.96041318     17.893534      91.060468    
    940000   0.94084114     17.818841      91.051502    
    941000   1.0297888      18.326196      90.958164    
    942000   1.0073344      18.235645      90.950414    
    943000   1.0281612      18.010217      90.837036    
    944000   0.96646262     17.822575      90.660787    
    945000   0.98485554     17.952498      90.259654    
    946000   0.99237056     18.086456      90.26592     
    947000   0.98833713     17.390668      90.394236    
    948000   1.0518526      18.333528      90.241246    
    949000   1.0162421      17.615002      90.114095    
    950000   0.96609195     18.663831      90.111523    
    951000   1.0225164      18.417215      90.088344    
    952000   0.9929845      17.938397      89.972979    
    953000   1.0034723      18.176867      90.132794    
    954000   1.0164064      18.068391      89.975147    
    955000   0.99518981     18.174501      89.98169     
    956000   1.0132916      18.34309       89.837022    
    957000   0.93711117     17.131598      89.992594    
    958000   1.023638       18.120502      89.830844    
    959000   0.99830708     18.319573      89.696724    
    960000   1.0120136      18.419014      89.627985    
    961000   1.0182182      17.85276       89.463965    
    962000   0.99049037     18.145963      89.226427    
    963000   0.98849073     17.898407      89.10696     
    964000   0.99432246     17.885469      89.089249    
    965000   1.0059109      17.957793      88.90421     
    966000   0.98182072     17.938507      88.774101    
    967000   1.0089554      17.983535      88.940057    
    968000   1.0187772      18.124625      88.80151     
    969000   0.98953155     17.702879      88.568863    
    970000   0.98756926     17.65935       88.544971    
    971000   0.98204075     17.638385      88.571745    
    972000   1.018771       18.465734      88.345959    
    973000   1.0024286      18.254949      88.042374    
    974000   0.96996984     17.923493      87.937474    
    975000   1.0192505      18.526764      88.117148    
    976000   1.0321747      18.0584        88.014467    
    977000   0.98355049     18.153751      87.963946    
    978000   1.0308127      17.632639      87.884517    
    979000   0.98819342     18.255389      87.863368    
    980000   0.9874477      18.276034      87.647838    
    981000   1.0075486      17.966346      87.479164    
    982000   0.98697799     18.049741      87.284156    
    983000   0.99382188     17.902883      87.297188    
    984000   1.007833       17.952076      87.111492    
    985000   1.0039799      17.724655      87.073536    
    986000   1.0027075      18.382563      86.926146    
    987000   0.9778332      18.170112      86.561996    
    988000   1.0034253      18.180094      86.584229    
    989000   0.98651609     18.122008      86.402726    
    990000   1.0199262      18.301329      86.240165    
    991000   0.99707916     17.971774      86.349801    
    992000   1.0151394      17.932421      86.184873    
    993000   0.98953285     17.795887      85.997682    
    994000   0.96681063     17.880375      85.587648    
    995000   0.99963943     17.75208       85.245571    
    996000   1.0067105      18.097379      85.197099    
    997000   0.98581631     17.831079      85.084929    
    998000   0.96974693     18.0911        84.890134    
    999000   1.0071107      18.161865      84.518453    
   1000000   1.0222975      18.304353      84.345115    
   1001000   0.98485565     17.856001      84.464714    
   1002000   0.97220885     18.063946      84.542974    
   1003000   0.99561471     18.121911      84.51727     
   1004000   0.96633005     18.173128      84.592481    
   1005000   1.0066637      17.840133      84.498193    
   1006000   1.00735        18.242437      84.384602    
   1007000   0.97613073     17.827943      84.192561    
   1008000   1.0068443      17.815305      84.121089    
   1009000   1.0070269      17.973037      83.96432     
   1010000   1.0089143      18.223419      83.843273    
   1011000   1.0346497      17.896887      84.010815    
   1012000   0.98492705     17.950723      83.967185    
   1013000   1.0028557      17.75844       83.869648    
   1014000   0.96406624     17.373171      83.900166    
   1015000   1.0148143      18.299099      83.711419    
   1016000   1.0126883      18.124025      83.566474    
   1017000   1.0197687      18.044998      83.532139    
   1018000   0.99451649     18.092449      83.250162    
   1019000   1.0212067      18.187761      83.261781    
   1020000   0.99594493     17.973051      83.308003    
   1021000   1.0139591      17.839957      83.289701    
   1022000   0.97967572     17.820704      83.163325    
   1023000   1.0138384      18.07703       82.948813    
   1024000   1.0046371      18.20988       82.840508    
   1025000   0.97303647     18.303103      82.670203    
   1026000   0.99230502     17.704703      82.576381    
   1027000   1.0270635      17.654836      82.394791    
   1028000   0.98226977     17.787779      82.534961    
   1029000   0.99955518     18.383358      82.370063    
   1030000   0.97295024     17.80559       82.419398    
   1031000   1.0421796      17.976795      82.416371    
   1032000   1.0125653      18.127222      82.339326    
   1033000   0.99076365     18.148519      82.217717    
   1034000   1.0097206      18.164478      82.308173    
   1035000   1.0102826      18.200662      82.207098    
   1036000   0.99764621     18.391674      82.307299    
   1037000   0.98959826     18.04658       82.185315    
   1038000   1.0349149      17.879732      82.325894    
   1039000   1.0065242      18.353804      82.3528      
   1040000   0.98188498     17.855725      82.390291    
   1041000   0.97426881     17.944912      82.207209    
   1042000   1.0323694      18.404762      81.932254    
   1043000   1.005718       17.873142      81.738949    
   1044000   0.99141396     17.913027      81.540451    
   1045000   0.96822929     17.837593      81.478132    
   1046000   1.0038373      17.647554      81.236131    
   1047000   0.96345634     17.78328       81.396011    
   1048000   1.0415977      18.276616      81.335196    
   1049000   1.0217806      17.651619      81.356877    
   1050000   0.98114461     17.987111      81.332803    
   1051000   0.94725932     18.035209      81.244572    
   1052000   1.0046745      18.133761      81.11863     
   1053000   0.99351225     18.107353      81.086781    
   1054000   0.96029578     18.448579      81.026334    
   1055000   0.99098028     18.291471      80.866595    
   1056000   1.0138234      18.262489      80.606526    
   1057000   0.98717894     17.642605      80.48919     
   1058000   1.0083859      18.126312      80.221794    
   1059000   1.0287655      17.846689      79.864905    
   1060000   1.010725       18.368107      79.840188    
   1061000   1.0431386      18.196389      79.516182    
   1062000   0.99185454     17.692868      79.384745    
   1063000   1.0417559      18.417797      79.356469    
   1064000   0.9886905      17.795625      79.280814    
   1065000   1.0221286      18.130009      79.465964    
   1066000   0.93493961     17.786981      79.432474    
   1067000   1.0062109      17.986073      79.282532    
   1068000   0.9941869      17.916347      79.0917      
   1069000   0.98001597     17.749738      79.101575    
   1070000   0.99806388     17.899103      78.874543    
   1071000   0.97951808     17.899926      78.797467    
   1072000   0.99906926     18.204954      78.773062    
   1073000   1.0321095      17.686786      78.740967    
   1074000   1.0230158      17.856799      78.698221    
   1075000   0.97316404     18.448208      78.712954    
   1076000   0.9994943      18.222228      78.633051    
   1077000   0.97670819     17.909167      78.716251    
   1078000   0.97700414     18.63068       78.546693    
   1079000   1.0318227      17.897042      78.485921    
   1080000   0.97446064     17.614517      78.474626    
   1081000   1.0016855      17.973195      78.474988    
   1082000   1.0329449      18.260171      78.564604    
   1083000   1.0055773      17.840126      78.530609    
   1084000   0.99059178     18.095637      78.608449    
   1085000   0.98823778     18.173939      78.482649    
   1086000   0.96574384     17.995727      78.580093    
   1087000   1.0201198      17.930079      78.363715    
   1088000   1.0016173      18.191311      78.466185    
   1089000   1.011259       17.644462      78.428632    
   1090000   1.0275868      17.649734      78.422491    
   1091000   1.0403946      17.756632      78.270459    
   1092000   0.99284322     17.924749      78.017873    
   1093000   1.0269911      17.939879      77.883988    
   1094000   0.99829651     17.813294      77.642829    
   1095000   1.012845       17.981676      77.498307    
   1096000   0.98138627     17.650447      77.485359    
   1097000   1.029086       18.042494      77.558846    
   1098000   0.99497363     17.858542      77.374079    
   1099000   1.0239         18.100061      77.469344    
   1100000   1.0116175      18.147901      77.525103    
   1101000   1.0438978      17.653121      77.273198    
   1102000   0.99297617     17.614426      77.261563    
   1103000   1.0225459      17.985858      77.02286     
   1104000   1.0443097      18.245256      76.944712    
   1105000   0.97753281     18.14191       76.653613    
   1106000   1.0085343      18.019798      76.559229    
   1107000   0.96235568     18.005085      76.60286     
   1108000   1.0089322      17.646854      76.389122    
   1109000   1.0205173      18.09174       76.435951    
   1110000   0.98064037     17.779897      76.303216    
   1111000   0.99530096     17.549887      76.286436    
   1112000   1.0096615      17.614394      76.121308    
   1113000   1.005007       18.195887      76.082742    
   1114000   1.0072085      17.529828      75.72831     
   1115000   1.0073674      17.398261      75.524151    
   1116000   0.98447989     17.731047      75.343368    
   1117000   0.96164631     17.804185      75.08066     
   1118000   0.96999054     17.417698      74.888747    
   1119000   0.97113609     17.94203       74.741536    
   1120000   1.0212394      17.974515      74.584825    
   1121000   1.0292907      17.775557      74.469273    
   1122000   0.99114239     17.671558      74.269923    
   1123000   0.96880972     18.005232      74.296678    
   1124000   0.99143167     17.518316      74.403117    
   1125000   1.0021836      18.163312      74.452513    
   1126000   1.0368823      17.930204      74.278766    
   1127000   0.99193934     17.756909      74.152219    
   1128000   0.97848542     17.879248      74.014572    
   1129000   0.99415546     18.155073      74.128265    
   1130000   1.0010447      17.318586      73.953569    
   1131000   1.0150292      17.828809      73.98071     
   1132000   0.9936521      17.636467      73.795956    
   1133000   1.0237621      17.875411      73.592786    
   1134000   0.99251926     17.945429      73.40672     
   1135000   1.0301028      18.720391      73.16371     
   1136000   1.0018866      18.35692       73.05716     
   1137000   0.9826604      17.298713      73.080119    
   1138000   1.0179062      17.89376       72.927876    
   1139000   0.99204673     18.384281      72.819463    
   1140000   1.0377914      17.654981      72.573957    
   1141000   1.0146699      17.845757      72.629841    
   1142000   1.0078578      17.240915      72.270968    
   1143000   0.96607995     18.106417      72.160416    
   1144000   1.0354563      17.584556      72.104346    
   1145000   1.0072746      17.742611      71.948118    
   1146000   1.0120759      17.830058      71.8419      
   1147000   1.012363       17.338071      71.614835    
   1148000   0.99995187     17.711203      71.468432    
   1149000   1.0300096      18.072118      71.380881    
   1150000   1.0085166      18.400561      71.177372    
   1151000   0.99799833     17.453337      71.253487    
   1152000   0.99270181     17.52702       71.248334    
   1153000   1.0231627      17.430355      71.276494    
   1154000   0.98756369     17.741112      71.12222     
   1155000   1.0167117      18.111337      70.933121    
   1156000   0.98865967     18.064654      70.632281    
   1157000   1.0399649      17.591298      70.366657    
   1158000   1.0041242      17.673517      70.26311     
   1159000   1.0107479      17.886426      70.133426    
   1160000   0.99236948     17.51271       70.255008    
   1161000   1.0293895      18.150846      70.246333    
   1162000   0.97064275     17.118822      70.218813    
   1163000   0.97513167     18.040876      70.01344     
   1164000   0.94151332     18.01559       69.886123    
   1165000   1.0513333      18.237528      70.128219    
   1166000   1.0103336      17.759779      69.996731    
   1167000   1.0267709      18.040876      69.826734    
   1168000   0.99813501     18.17789       69.91116     
   1169000   0.9513484      17.214276      69.917926    
   1170000   0.9691296      17.419915      70.020033    
   1171000   0.98480375     17.987066      70.191319    
   1172000   1.0051756      17.858641      70.170812    
   1173000   0.99107504     17.907663      70.064713    
   1174000   1.0124859      17.455472      69.856077    
   1175000   1.0172896      18.133733      69.691484    
   1176000   0.95530991     17.603         69.425266    
   1177000   1.0133472      17.963882      69.283467    
   1178000   0.97621693     17.707914      69.350791    
   1179000   0.9975817      17.638833      69.37684     
   1180000   0.99777488     18.316625      69.384426    
   1181000   1.0083398      17.682846      69.346787    
   1182000   1.0084823      17.503846      69.567654    
   1183000   1.0226789      18.52746       69.570902    
   1184000   0.9828754      18.100099      69.513081    
   1185000   1.0168069      17.9866        69.595116    
   1186000   1.0298598      18.041485      69.335613    
   1187000   1.0080481      17.854769      69.044692    
   1188000   0.97585175     17.749186      68.816405    
   1189000   0.99923789     18.043797      68.844389    
   1190000   0.97761181     17.153803      68.637111    
   1191000   1.051809       18.241429      68.712332    
   1192000   1.0104607      17.721179      68.482403    
   1193000   1.0250354      18.045187      68.502343    
   1194000   0.99510668     18.02829       68.442183    
   1195000   0.98654193     17.677467      68.442531    
   1196000   1.0299998      17.551394      68.484375    
   1197000   0.96802702     18.024918      68.542613    
   1198000   0.97631433     17.973421      68.462066    
   1199000   0.97520272     17.957333      68.282347    
   1200000   1.0231516      18.122443      68.227858    
   1201000   1.0405958      18.024876      68.092854    
   1202000   0.98501696     17.269959      68.074619    
   1203000   0.98943311     17.779376      68.114024    
   1204000   1.0502265      18.033551      67.998426    
   1205000   1.0037047      17.966518      68.039902    
   1206000   1.0084862      17.686124      67.816878    
   1207000   0.97326261     17.176771      67.858676    
   1208000   1.0181071      18.211097      67.811648    
   1209000   1.0175429      18.217424      67.772941    
   1210000   0.9786911      18.049123      67.824656    
   1211000   1.0204736      17.905031      67.806211    
   1212000   1.0091032      17.466447      67.734456    
   1213000   0.98697448     17.752587      67.541089    
   1214000   1.0449098      18.084937      67.652295    
   1215000   1.0043045      17.821652      67.762275    
   1216000   1.0029181      17.393583      67.822464    
   1217000   1.0287746      18.167069      68.000326    
   1218000   0.98465809     17.703059      67.936405    
   1219000   1.0473713      18.027121      67.831494    
   1220000   1.0211425      17.85953       67.941273    
   1221000   1.0247783      17.948739      67.957895    
   1222000   0.97235302     17.703603      67.957699    
   1223000   1.0165142      17.880921      67.757616    
   1224000   0.96913997     17.738211      67.499887    
   1225000   0.95787226     17.59061       67.531467    
   1226000   0.99683747     18.087143      67.285429    
   1227000   0.99768993     17.706519      67.089873    
   1228000   0.98367973     17.512971      67.016346    
   1229000   1.0016841      17.521431      67.074502    
   1230000   1.004018       17.99649       66.929121    
   1231000   0.99541729     17.97625       66.876104    
   1232000   1.0131208      17.457396      66.776897    
   1233000   0.94465093     17.810281      66.511937    
   1234000   1.0110807      18.150433      66.277546    
   1235000   1.0022079      17.315676      66.366231    
   1236000   0.99988197     18.095253      66.285148    
   1237000   0.9855734      17.576984      66.264918    
   1238000   1.0274586      18.363592      66.118445    
   1239000   0.97816095     17.402954      66.012202    
   1240000   1.0012489      18.122137      65.747174    
   1241000   1.0073701      17.86925       65.683261    
   1242000   0.97457231     17.69214       65.432492    
   1243000   0.98463139     17.521351      65.380473    
   1244000   1.0132253      17.941986      65.270089    
   1245000   1.0045079      17.637173      65.190009    
   1246000   1.0045964      17.927926      65.191052    
   1247000   1.0121158      17.942881      65.123623    
   1248000   1.0162273      17.472408      65.124958    
   1249000   0.99812236     17.639507      64.789585    
   1250000   0.99244057     17.951344      64.631211    
   1251000   0.9806165      17.803369      64.582993    
   1252000   1.0219161      17.847526      64.562474    
   1253000   0.99061922     17.6554        64.516075    
   1254000   0.99999588     18.223659      64.399658    
   1255000   0.97490109     18.04602       64.228627    
   1256000   0.99137217     17.627816      64.062784    
   1257000   0.99470957     18.394966      63.911957    
   1258000   1.037619       17.427851      63.864363    
   1259000   0.99247332     17.725298      63.924962    
   1260000   0.97106406     17.871939      63.889461    
   1261000   1.0399216      17.90565       63.639508    
   1262000   0.95482007     17.676929      63.428056    
   1263000   0.99710836     17.584259      63.250906    
   1264000   1.0431652      17.889855      63.112141    
   1265000   0.98804844     17.590043      63.053069    
   1266000   0.99595434     17.170793      62.832731    
   1267000   0.99188379     17.586236      62.618473    
   1268000   0.98267815     18.030164      62.46967     
   1269000   0.97087703     17.730449      62.272681    
   1270000   1.0060553      17.602067      62.140725    
   1271000   0.98177712     17.847025      62.082381    
   1272000   0.98550914     17.555712      61.892311    
   1273000   1.0328392      18.100977      61.955145    
   1274000   0.96268228     17.943889      61.979774    
   1275000   0.98496278     17.835573      62.01833     
   1276000   1.0500035      17.603035      61.930183    
   1277000   1.0258587      18.184955      61.658307    
   1278000   1.0709452      17.985376      61.410555    
   1279000   1.0365207      18.204102      61.467501    
   1280000   1.0006803      18.091924      61.342372    
   1281000   1.0125117      17.41347       61.20824     
   1282000   0.98593229     17.443544      61.120334    
   1283000   1.0406189      18.152965      61.044548    
   1284000   1.007402       18.026063      60.945189    
   1285000   1.0098914      17.641602      60.732749    
   1286000   1.0052653      17.647629      60.545129    
   1287000   0.97678446     17.87604       60.443595    
   1288000   1.0273282      17.691458      60.586617    
   1289000   0.97163319     17.158679      60.524898    
   1290000   0.97376586     17.421566      60.654228    
   1291000   1.0062743      17.737573      60.732425    
   1292000   1.0166674      18.294732      60.515595    
   1293000   0.97221761     17.915753      60.456669    
   1294000   1.0042365      17.896579      60.269316    
   1295000   1.011546       17.718995      60.062451    
   1296000   1.0180549      17.83828       60.017308    
   1297000   0.99798365     17.702136      59.886427    
   1298000   0.99410925     17.644332      59.86837     
   1299000   1.0063636      17.598769      59.836236    
   1300000   1.0043924      17.338918      59.660795    
   1301000   0.98095346     17.590271      59.412144    
   1302000   0.99787653     17.833545      59.183801    
   1303000   0.97368717     17.730533      59.006966    
   1304000   1.0046584      18.005749      58.983925    
   1305000   1.0346459      18.103049      58.849072    
   1306000   0.99849362     17.628415      58.668431    
   1307000   0.99393968     17.697473      58.689073    
   1308000   0.95305421     18.007588      58.88039     
   1309000   1.0140818      17.551475      58.71542     
   1310000   0.97654634     17.614157      58.73977     
   1311000   1.0018061      17.618256      58.597207    
   1312000   1.0343086      18.106576      58.469665    
   1313000   1.0341007      17.686395      58.334289    
   1314000   0.97288703     17.582576      58.132934    
   1315000   0.98253392     17.801173      58.116744    
   1316000   1.0132818      17.604219      57.967826    
   1317000   0.97812803     17.792891      58.0934      
   1318000   0.98765072     17.704813      57.96584     
   1319000   1.0041042      18.235914      57.984427    
   1320000   1.0368912      17.979588      57.831313    
   1321000   0.97334933     17.82073       57.770171    
   1322000   0.99370567     17.718665      57.727751    
   1323000   1.0130444      17.420497      57.57108     
   1324000   0.96372705     17.794567      57.697793    
   1325000   0.99359378     17.560681      57.485304    
   1326000   0.99411241     17.657677      57.39833     
   1327000   0.98162522     17.611111      57.364736    
   1328000   1.0085375      17.681867      57.297408    
   1329000   1.0171066      17.6382        57.39635     
   1330000   1.0186221      17.783816      57.314012    
   1331000   0.9852622      17.812968      57.097682    
   1332000   1.0010665      17.31359       57.065894    
   1333000   1.0224259      18.06997       56.914336    
   1334000   1.0090982      17.916721      56.796959    
   1335000   0.99872977     17.39112       56.66855     
   1336000   1.0478251      18.358782      56.528937    
   1337000   1.0211232      18.098446      56.410901    
   1338000   0.96878242     17.623145      56.326019    
   1339000   0.96064615     18.151703      56.306716    
   1340000   0.9927534      18.277896      56.539177    
   1341000   0.98243394     17.732838      56.503043    
   1342000   1.0109542      17.649215      56.401037    
   1343000   1.0113343      17.735981      56.5869      
   1344000   1.0182252      17.554626      56.5766      
   1345000   1.0110615      17.982579      56.703685    
   1346000   0.99369447     17.660179      56.785573    
   1347000   1.0318343      17.8282        56.793082    
   1348000   1.0007753      17.692443      56.699007    
   1349000   1.0010893      17.594158      56.833132    
   1350000   1.0018716      17.409425      56.48305     
   1351000   1.0123268      18.794217      56.265655    
   1352000   0.99791506     18.081037      56.285864    
   1353000   1.0015706      18.277966      55.997307    
   1354000   1.0598749      18.340293      55.910069    
   1355000   1.02616        17.965724      55.883303    
   1356000   1.00269        17.747939      55.612687    
   1357000   0.95264276     17.499338      55.650793    
   1358000   1.0611235      17.685679      55.589124    
   1359000   1.0215032      17.943142      55.494249    
   1360000   1.0088168      17.558069      55.27763     
   1361000   0.99737465     17.415412      55.130071    
   1362000   1.0203177      17.785964      54.88239     
   1363000   1.0028314      17.568812      54.902969    
   1364000   1.0576167      17.576935      54.936163    
   1365000   1.0039378      18.237926      55.190963    
   1366000   0.9749959      17.315113      55.061673    
   1367000   0.96312923     17.676284      54.978202    
   1368000   1.0252955      18.212913      54.998266    
   1369000   0.97147618     17.837477      54.794979    
   1370000   1.0477921      17.479398      54.643093    
   1371000   1.0229075      17.676208      54.571251    
   1372000   1.0098863      17.730132      54.335133    
   1373000   1.0366589      17.460296      54.071555    
   1374000   1.0013101      17.173011      54.162178    
   1375000   1.0106882      17.518822      53.940001    
   1376000   0.99724113     17.177106      53.801668    
   1377000   0.95009844     17.766358      53.604101    
   1378000   1.0123402      17.646889      53.547357    
   1379000   0.96719076     17.677742      53.575012    
   1380000   1.0093982      18.157865      53.574376    
   1381000   1.0069174      17.794993      53.385196    
   1382000   0.97014916     17.10219       53.382129    
   1383000   0.99380903     17.781782      53.273307    
   1384000   1.0089755      17.570537      53.282041    
   1385000   0.97970122     17.988296      53.325114    
   1386000   1.0136928      17.371463      53.32263     
   1387000   1.00833        17.204799      53.228878    
   1388000   0.99871469     17.787456      53.08619     
   1389000   1.0023653      18.102886      52.940916    
   1390000   0.98519918     17.703615      53.025936    
   1391000   0.96991737     17.772653      53.038347    
   1392000   1.0198981      18.10381       52.985887    
   1393000   0.99071155     17.907938      52.969848    
   1394000   1.0221368      17.654692      53.086923    
   1395000   0.98510005     17.162731      52.92791     
   1396000   1.0421804      17.669102      52.765815    
   1397000   1.0185666      17.477267      52.756894    
   1398000   1.0073682      18.384603      52.716282    
   1399000   1.0416418      17.512183      52.566343    
   1400000   0.99729791     17.962878      52.494217    
   1401000   1.0189189      17.737548      52.464413    
   1402000   0.99772014     18.065291      52.332748    
   1403000   0.96938945     17.869024      52.24713     
   1404000   0.97974942     18.038102      52.303393    
   1405000   0.97953822     17.901426      52.374375    
   1406000   1.0090518      17.909383      52.335523    
   1407000   1.0246896      17.961792      52.34257     
   1408000   1.0084251      18.047968      52.267303    
   1409000   1.0431031      18.252018      52.33453     
   1410000   1.0175831      17.484124      52.193358    
   1411000   1.0146499      17.5705        51.957129    
   1412000   0.9932964      17.682526      51.921515    
   1413000   1.0179114      17.304553      51.852384    
   1414000   1.0059523      17.349476      51.922908    
   1415000   1.0093082      17.773387      51.873637    
   1416000   0.97380849     17.834698      51.846057    
   1417000   1.051664       17.388515      51.915916    
   1418000   1.0393132      17.116873      51.801871    
   1419000   1.0269903      17.886134      51.591236    
   1420000   1.0129835      17.279083      51.558982    
   1421000   1.0236068      17.538214      51.456241    
   1422000   0.95039157     18.037532      51.55494     
   1423000   0.96908843     17.383909      51.530745    
   1424000   0.99270842     17.758921      51.34618     
   1425000   0.97060894     17.629258      51.326778    
   1426000   0.99863831     18.09382       51.286593    
   1427000   1.0184972      18.158327      50.936389    
   1428000   1.0275477      17.737029      50.805493    
   1429000   0.9937303      17.434461      50.757009    
   1430000   1.0341085      17.969159      50.714826    
   1431000   1.0023161      17.404312      50.538132    
   1432000   1.0230933      17.999005      50.488785    
   1433000   0.9950757      17.662307      50.568436    
   1434000   1.0241565      18.157711      50.396266    
   1435000   0.96612746     17.466603      50.270186    
   1436000   0.96101678     18.051855      50.28529     
   1437000   1.0347636      17.557733      50.271557    
   1438000   1.000994       17.863537      50.074635    
   1439000   0.9715321      17.303252      49.978084    
   1440000   1.0449917      18.098524      50.094186    
   1441000   0.99498163     17.450889      49.897694    
   1442000   0.9648903      16.913005      49.771448    
   1443000   0.99037776     17.75543       49.639621    
   1444000   1.0188387      17.67743       49.485616    
   1445000   1.0116606      17.444873      49.341527    
   1446000   0.97746327     17.907244      49.182479    
   1447000   1.0245704      17.914983      48.900161    
   1448000   0.98129015     17.323415      48.709094    
   1449000   0.98282938     17.774631      48.720126    
   1450000   0.96865537     17.479743      48.719182    
   1451000   1.0489041      17.544455      48.622443    
   1452000   1.0064827      17.674908      48.538528    
   1453000   1.0035039      17.101093      48.437599    
   1454000   0.96925098     17.493771      48.643246    
   1455000   1.0223962      17.870466      48.361451    
   1456000   1.0301494      17.846626      48.094606    
   1457000   0.97182445     17.237081      48.159903    
   1458000   1.0262168      17.448033      48.058845    
   1459000   0.9926805      17.465315      47.935161    
   1460000   0.96523035     17.710649      47.918343    
   1461000   1.002828       17.272414      48.022498    
   1462000   1.0441255      18.182349      47.852137    
   1463000   0.99225653     17.786552      48.043175    
   1464000   1.0249022      17.537088      47.959971    
   1465000   1.0263777      17.48702       48.15109     
   1466000   0.97043822     17.448182      48.11492     
   1467000   1.0294111      18.054015      47.885639    
   1468000   1.0004166      17.111658      47.800853    
   1469000   0.9839493      17.879119      47.757652    
   1470000   1.0002757      17.351686      47.484682    
   1471000   0.97269646     17.729417      47.401756    
   1472000   0.98565658     17.258442      47.181201    
   1473000   1.0409068      17.230917      47.048818    
   1474000   0.97267878     17.837759      46.98997     
   1475000   0.98589925     17.799626      47.147612    
   1476000   1.0253251      17.405883      47.013597    
   1477000   1.0715816      17.595637      46.861351    
   1478000   1.0515699      17.700279      46.752496    
   1479000   1.0179791      17.564152      46.661854    
   1480000   0.96789483     17.496948      46.504568    
   1481000   1.0052164      17.684167      46.191194    
   1482000   0.98623075     17.420284      46.19997     
   1483000   0.99825152     17.765526      46.201895    
   1484000   0.93651047     17.030539      45.982278    
   1485000   0.98480896     17.390638      45.867431    
   1486000   1.0417183      17.015171      45.784674    
   1487000   1.0352718      18.189125      45.764338    
   1488000   1.012859       17.46153       45.853769    
   1489000   1.0131025      17.701179      45.869294    
   1490000   0.96998531     17.424006      45.818052    
   1491000   0.9690701      16.675243      45.896529    
   1492000   1.0145477      17.641267      45.883683    
   1493000   1.0124797      17.81053       45.908477    
   1494000   0.99500866     17.399121      45.849384    
   1495000   1.0156564      17.888376      45.859155    
   1496000   1.0201696      17.978282      45.7657      
   1497000   1.0383438      17.696285      45.661331    
   1498000   1.0101669      17.588133      45.300699    
   1499000   0.98693212     17.50649       45.39754     
   1500000   1.0288089      17.962297      45.475296    
   1501000   1.0023127      18.009972      45.214988    
   1502000   0.99656638     18.178973      45.261881    
   1503000   1.0127144      17.541296      45.331515    
   1504000   0.97441718     17.887485      45.332549    
   1505000   0.9961549      17.919832      45.1962      
   1506000   1.008762       18.07363       45.144138    
   1507000   0.97793124     17.688447      45.492952    
   1508000   1.0332445      17.456466      45.364985    
   1509000   0.95993553     17.545221      45.430009    
   1510000   0.99404512     17.240673      45.318839    
   1511000   0.98364752     17.480535      45.27868     
   1512000   1.0054842      17.871189      45.078226    
   1513000   1.0321986      18.407148      45.023466    
   1514000   0.99367228     17.473222      44.968745    
   1515000   0.99814874     17.694827      44.903774    
   1516000   0.97869566     17.526613      44.823735    
   1517000   1.0446845      17.34921       44.742408    
   1518000   0.98257521     17.794184      44.396561    
   1519000   0.97945639     17.403611      44.407301    
   1520000   0.9797268      17.340104      44.50593     
   1521000   0.96970083     17.581313      44.387975    
   1522000   1.0105024      17.482324      44.458801    
   1523000   0.96024044     17.709732      44.226641    
   1524000   0.99293489     16.954099      44.022075    
   1525000   1.0020591      17.477025      43.759651    
   1526000   0.97818795     17.637749      43.584665    
   1527000   1.0015086      17.536313      43.702448    
   1528000   0.97318935     17.75721       43.53924     
   1529000   0.98328845     17.614943      43.618463    
   1530000   1.0039873      17.558825      43.509746    
   1531000   1.0302952      17.632553      43.4917      
   1532000   1.0385968      18.116926      43.297345    
   1533000   1.0060671      17.734424      43.13656     
   1534000   1.0149977      17.474033      43.154374    
   1535000   0.99192145     17.5217        43.161792    
   1536000   0.9923468      17.481703      42.903527    
   1537000   1.0036368      17.297219      42.816964    
   1538000   1.0135831      17.670044      42.736179    
   1539000   0.98222656     17.354807      42.66001     
   1540000   1.0155731      17.831397      42.526184    
   1541000   0.99078319     17.593868      42.523662    
   1542000   0.9703808      17.605466      42.397773    
   1543000   1.0433357      17.940428      42.175098    
   1544000   1.0148269      17.455102      42.002348    
   1545000   0.99413034     18.188225      41.79982     
   1546000   1.0291493      17.76916       41.575159    
   1547000   1.0003079      17.404118      41.225839    
   1548000   0.99244774     17.042876      41.162651    
   1549000   0.96011245     17.601425      41.018502    
   1550000   1.0028943      17.414555      41.073918    
   1551000   0.99084395     17.471744      40.881886    
   1552000   1.0312439      17.960426      40.742547    
   1553000   1.0065519      17.523018      40.596397    
   1554000   1.0437279      17.32845       40.561817    
   1555000   1.0243872      17.75245       40.592208    
   1556000   1.0346272      18.122476      40.682389    
   1557000   1.0241381      18.050939      40.55281     
   1558000   0.99159806     17.419104      40.514907    
   1559000   0.98807971     17.623895      40.572137    
   1560000   0.99210732     17.575049      40.489449    
   1561000   0.99162967     17.798113      40.62027     
   1562000   1.0009341      18.177766      40.550908    
   1563000   1.007582       17.752074      40.603909    
   1564000   0.98187566     17.364338      40.442728    
   1565000   1.0060205      17.671408      40.239097    
   1566000   1.0237878      17.186109      40.007495    
   1567000   1.0526301      18.038504      39.955604    
   1568000   0.95387069     17.782735      39.870992    
   1569000   1.0190703      17.046473      39.926079    
   1570000   1.0282159      17.697844      40.041516    
   1571000   1.0312401      17.156127      40.054925    
   1572000   1.0182468      18.004369      39.655965    
   1573000   0.99710345     17.637052      39.381671    
   1574000   0.98720455     17.213063      39.24684     
   1575000   1.0205834      16.942471      39.08075     
   1576000   0.99071222     17.408317      39.049572    
   1577000   0.95694703     17.361676      38.963218    
   1578000   0.98315096     17.380305      38.932501    
   1579000   0.98677994     17.40685       38.915526    
   1580000   1.0172249      17.416743      39.029358    
   1581000   0.98595247     17.274758      38.937563    
   1582000   1.0244247      18.219162      38.819572    
   1583000   0.96734468     17.656623      39.000934    
   1584000   0.99493657     17.157587      38.940064    
   1585000   0.99652238     17.425458      38.855452    
   1586000   0.95405739     16.925201      38.926266    
   1587000   1.0075285      17.25748       38.888403    
   1588000   1.0119631      17.402381      38.797962    
   1589000   0.99172504     17.102475      38.8608      
   1590000   1.0395716      17.550333      38.687852    
   1591000   1.023033       17.759547      38.258886    
   1592000   1.0224294      17.296139      38.277009    
   1593000   1.0275196      17.554584      38.332827    
   1594000   0.98369006     17.880522      38.246397    
   1595000   0.9934221      18.024381      38.153548    
   1596000   1.0088335      17.945639      38.172462    
   1597000   0.99763542     17.50022       38.010078    
   1598000   1.0224671      17.495426      37.999313    
   1599000   0.97784627     17.268314      38.022669    
   1600000   1.0395281      17.8516        37.936507    
   1601000   0.9758722      17.496385      37.949573    
   1602000   1.0018317      18.242655      37.960706    
   1603000   1.0023366      17.319522      37.699505    
   1604000   1.0185513      17.054798      37.570817    
   1605000   1.0094233      17.218305      37.356859    
   1606000   1.000759       17.379263      36.996072    
   1607000   0.97954346     17.323645      36.95262     
   1608000   0.98146074     17.60617       36.832977    
   1609000   1.0271634      17.521236      36.838862    
   1610000   0.98029213     17.439604      36.636686    
   1611000   0.97598328     17.812949      36.710025    
   1612000   0.99968905     17.502764      36.607032    
   1613000   0.96883424     17.408465      36.689976    
   1614000   1.0258074      17.200204      36.666293    
   1615000   1.0012481      17.663844      36.584695    
   1616000   0.98099098     17.627174      36.461732    
   1617000   0.99405812     17.520508      36.137462    
   1618000   0.98821879     17.292241      36.01183     
   1619000   1.0117133      17.140319      36.05554     
   1620000   1.0028495      17.586169      36.086248    
   1621000   1.0146998      17.26019       35.943977    
   1622000   0.98837731     17.543097      35.979778    
   1623000   0.99792548     17.165439      35.910694    
   1624000   0.99889173     16.769845      35.777074    
   1625000   1.0094041      17.667633      35.69024     
   1626000   1.0418662      17.260506      35.71358     
   1627000   0.95214958     17.575225      35.696147    
   1628000   1.0209372      17.979304      35.706684    
   1629000   1.0024592      17.391276      35.697925    
   1630000   0.99737076     17.502623      35.444812    
   1631000   0.98509941     17.354001      35.295875    
   1632000   1.00467        17.191934      35.18304     
   1633000   1.0310284      17.7017        34.836264    
   1634000   1.0018639      17.586088      34.869143    
   1635000   1.0157007      17.912969      34.795535    
   1636000   0.97541465     17.166943      34.865821    
   1637000   1.0197961      17.519046      34.921138    
   1638000   1.0541891      18.286039      34.970731    
   1639000   0.98136072     17.552814      34.655508    
   1640000   0.94014109     16.77091       34.586281    
   1641000   1.0349499      17.75362       34.511637    
   1642000   0.99290804     17.222521      34.321471    
   1643000   1.0332091      17.033525      34.325346    
   1644000   0.9734651      17.402055      34.117865    
   1645000   1.0186121      17.639129      33.998265    
   1646000   0.98654715     17.401523      34.257102    
   1647000   0.98341985     17.923723      34.272913    
   1648000   0.98160186     17.340906      34.135004    
   1649000   1.0038687      17.285564      33.934394    
   1650000   1.0309286      17.516007      33.73371     
   1651000   0.95290254     17.155386      33.677257    
   1652000   0.9906165      17.015176      33.451857    
   1653000   0.96492023     17.672493      33.410976    
   1654000   1.0055945      17.277661      33.418413    
   1655000   0.98344953     17.314827      33.345449    
   1656000   1.0308168      16.914834      33.284657    
   1657000   1.0425216      17.390701      33.0637      
   1658000   0.99498775     17.536786      32.917823    
   1659000   0.98634982     17.113347      32.704931    
   1660000   0.99652124     17.086907      32.557434    
   1661000   0.99515795     17.490358      32.548755    
   1662000   0.98980162     18.012868      32.555955    
   1663000   0.97345643     17.422107      32.532583    
   1664000   1.034916       17.093189      32.459963    
   1665000   1.0247273      17.351626      32.282463    
   1666000   0.9783585      17.132114      32.425303    
   1667000   0.99344861     17.370392      32.258969    
   1668000   1.0216775      17.966396      32.242021    
   1669000   0.98099395     17.271477      32.180437    
   1670000   0.96096466     17.509544      32.193145    
   1671000   0.98193321     17.276885      31.935545    
   1672000   1.0039744      17.542264      31.960531    
   1673000   1.0224473      17.692205      31.765298    
   1674000   1.0354122      17.293028      31.625392    
   1675000   0.99528312     17.885088      31.643389    
   1676000   1.0221671      17.917896      31.758408    
   1677000   0.999625       17.829685      31.704951    
   1678000   0.97641186     17.425623      31.6434      
   1679000   1.0308505      17.067546      31.704253    
   1680000   0.98494947     17.817319      31.629939    
   1681000   0.98530274     17.690486      31.393052    
   1682000   1.0122204      17.46414       31.359985    
   1683000   0.98135471     17.452729      31.033287    
   1684000   0.99077818     17.712457      30.854438    
   1685000   0.98436824     17.357308      30.787263    
   1686000   0.98129179     17.138362      30.716797    
   1687000   0.97039709     17.914099      30.704572    
   1688000   1.0259844      17.081541      30.73268     
   1689000   0.96809039     17.480574      30.517797    
   1690000   1.023268       17.438391      30.380014    
   1691000   1.0291273      17.21531       30.315283    
   1692000   1.0225779      17.314403      30.16349     
   1693000   0.9847911      17.506412      30.091803    
   1694000   0.98990909     17.191142      30.156858    
   1695000   0.99545735     16.5057        30.074966    
   1696000   0.9505265      17.777573      29.958827    
   1697000   1.0373528      16.5279        29.933296    
   1698000   1.0013952      17.654929      29.794416    
   1699000   0.97977214     17.183846      29.723871    
   1700000   1.0135469      17.717251      29.542691    
   1701000   0.99801795     17.359095      29.392829    
   1702000   1.0066067      17.623948      29.251809    
   1703000   0.97442945     17.540962      29.19904     
   1704000   0.98109311     17.523867      29.115331    
   1705000   0.99902416     17.887039      28.980903    
   1706000   1.026333       17.595388      29.003494    
   1707000   0.98466031     17.427568      28.896198    
   1708000   0.97219937     17.050413      28.915585    
   1709000   1.0157133      17.758484      28.887528    
   1710000   1.0188792      17.217171      28.989493    
   1711000   0.97260565     16.87324       29.093077    
   1712000   1.0092219      17.362186      29.377794    
   1713000   1.0024198      17.228476      29.458013    
   1714000   0.98770189     17.473376      29.346668    
   1715000   0.99181399     17.429529      29.390487    
   1716000   0.98804339     16.895821      29.707158    
   1717000   1.0298953      17.047962      29.485408    
   1718000   1.0556437      17.213848      29.523687    
   1719000   0.99354695     16.946792      29.411585    
   1720000   0.96425794     17.756859      29.426494    
   1721000   1.0057862      17.410014      29.329173    
   1722000   0.96308724     17.335434      29.266939    
   1723000   1.0104039      17.43684       29.000571    
   1724000   0.96649626     17.4782        28.81583     
   1725000   1.0182888      17.508396      28.906038    
   1726000   0.9936113      17.176788      28.798085    
   1727000   0.96760519     17.455003      28.752116    
   1728000   0.99706914     17.157144      28.622269    
   1729000   0.9891107      17.638477      28.767655    
   1730000   1.007481       17.224188      28.860046    
   1731000   1.0148306      17.447164      28.817944    
   1732000   1.0182797      17.437165      28.820681    
   1733000   0.99686515     17.2053        28.75395     
   1734000   0.97634172     17.412813      28.80157     
   1735000   1.0089458      17.494179      28.57782     
   1736000   1.0003467      17.47485       28.406197    
   1737000   0.98693736     17.227571      28.368827    
   1738000   1.0152378      17.029636      28.110184    
   1739000   1.0250907      17.523541      28.110171    
   1740000   1.038629       17.184187      27.98993     
   1741000   0.96875814     16.930277      27.806245    
   1742000   0.99710842     17.914682      27.749971    
   1743000   1.0227199      17.377238      27.546856    
   1744000   1.0208379      17.762526      27.687286    
   1745000   0.96708274     17.296244      27.697512    
   1746000   0.95875682     16.818846      27.66275     
   1747000   1.0164718      17.193451      27.63642     
   1748000   1.0184919      17.130797      27.73631     
   1749000   1.0152535      17.457096      27.901251    
   1750000   1.008135       17.454115      27.676854    
   1751000   0.96581759     17.712174      27.795507    
   1752000   1.0155446      17.588283      27.687222    
   1753000   0.9961959      17.579388      27.623822    
   1754000   0.98046587     17.096409      27.689846    
   1755000   1.0165544      17.130316      27.519982    
   1756000   0.99072491     16.948542      27.475557    
   1757000   0.97973296     16.858463      27.353956    
   1758000   1.0125425      17.651009      26.936518    
   1759000   0.93272219     17.464004      26.898667    
   1760000   0.98844415     17.666339      26.916466    
   1761000   0.99345187     17.685527      26.856193    
   1762000   1.0423773      17.814166      26.748809    
   1763000   0.99022619     17.147174      26.707423    
   1764000   1.0079108      17.384171      26.752631    
   1765000   1.0044073      17.433218      26.645506    
   1766000   0.99086696     17.583346      26.558857    
   1767000   1.008614       17.305704      26.470556    
   1768000   1.0267775      17.488137      26.633199    
   1769000   0.99927875     17.020689      26.703584    
   1770000   1.0101673      16.752484      26.752123    
   1771000   1.0668304      17.653622      26.789098    
   1772000   0.98934781     16.772003      26.681245    
   1773000   1.0245877      16.735717      26.447613    
   1774000   1.0171886      16.863574      26.462175    
   1775000   1.0412503      17.241774      26.361835    
   1776000   1.0110603      17.387942      26.602602    
   1777000   0.98915087     17.053552      26.503771    
   1778000   1.0066891      16.960654      26.496587    
   1779000   0.98935836     16.540089      26.623789    
   1780000   0.96204338     17.128964      26.386516    
   1781000   0.98279775     17.106571      26.512161    
   1782000   1.0295489      17.221716      26.554701    
   1783000   0.98442766     17.461595      26.619985    
   1784000   0.98943209     17.462917      26.444769    
   1785000   1.0131675      17.256654      26.458597    
   1786000   0.99354427     16.878607      26.397734    
   1787000   0.97140499     17.36687       26.273852    
   1788000   1.0007284      16.71681       26.476428    
   1789000   1.0375925      17.815263      26.44065     
   1790000   1.0014442      17.869634      26.179534    
   1791000   1.0140371      17.415142      26.450283    
   1792000   1.015721       17.549352      26.464104    
   1793000   0.99476868     17.105679      26.417017    
   1794000   0.96370452     17.695863      26.169199    
   1795000   1.0291944      17.525033      26.131903    
   1796000   0.99191272     16.88065       25.946357    
   1797000   0.96983455     16.908333      25.832009    
   1798000   0.99934922     16.771265      25.766681    
   1799000   0.96445082     17.22057       25.7304      
   1800000   1.0023793      17.017687      25.671632    
   1801000   0.98359648     17.274818      25.598581    
   1802000   0.98388757     17.089158      25.475984    
   1803000   0.98140773     17.398082      25.147858    
   1804000   1.005069       16.986663      25.097716    
   1805000   0.99202997     17.195333      24.711457    
   1806000   1.0200097      17.496722      24.687337    
   1807000   1.0228848      17.466307      24.525532    
   1808000   0.94777003     17.366028      24.505386    
   1809000   1.0139796      16.963773      24.484545    
   1810000   0.98311136     17.505872      24.383509    
   1811000   1.0390687      16.861941      24.359326    
   1812000   1.0252929      17.390295      24.36536     
   1813000   1.0078335      17.392145      24.336787    
   1814000   1.0133957      17.822982      24.084297    
   1815000   0.98843132     16.878874      23.94787     
   1816000   1.0240301      17.215233      24.008883    
   1817000   1.0249357      16.966971      23.930596    
   1818000   1.0053279      17.174969      23.614996    
   1819000   0.97539627     16.800205      23.735505    
   1820000   0.98988458     17.130459      23.758329    
   1821000   1.0610307      17.32237       23.681897    
   1822000   1.0154337      17.041918      23.686082    
   1823000   0.97449441     17.24336       23.643753    
   1824000   1.016632       17.047733      23.563909    
   1825000   0.9682444      16.898276      23.564368    
   1826000   0.99396054     17.043405      23.553899    
   1827000   1.0198341      17.377867      23.391639    
   1828000   1.0075412      17.332933      23.21306     
   1829000   0.98516239     17.486928      23.139675    
   1830000   0.96878066     17.077423      22.991887    
   1831000   1.0054898      17.24298       22.917243    
   1832000   1.0297094      16.904953      22.704123    
   1833000   1.0138449      17.068905      22.633681    
   1834000   1.0107774      17.559627      22.572847    
   1835000   0.97008536     16.627111      22.313267    
   1836000   0.97341818     17.511153      22.408836    
   1837000   0.99904586     16.9025        22.291504    
   1838000   0.96461618     17.256812      22.024075    
   1839000   1.0074795      17.045918      22.020898    
   1840000   0.99944388     17.465634      22.085592    
   1841000   1.0000119      17.204405      22.323498    
   1842000   1.0382817      18.010315      22.354034    
   1843000   0.99853368     17.608686      22.441474    
   1844000   0.96810482     16.497026      22.431073    
   1845000   0.98871271     16.703704      22.175922    
   1846000   0.99081425     17.187529      22.145459    
   1847000   0.99432428     16.722836      22.250732    
   1848000   1.0143062      16.86941       22.355353    
   1849000   0.99695568     16.877604      22.363249    
   1850000   1.0129777      17.021124      22.490096    
   1851000   1.0139086      17.323728      22.252004    
   1852000   0.96412946     17.503501      22.330791    
   1853000   0.97894344     16.961325      22.408521    
   1854000   1.0217745      17.664254      22.439711    
   1855000   0.99133887     17.103991      22.275298    
   1856000   1.0391307      16.812812      22.330035    
   1857000   1.0227595      17.532845      22.364632    
   1858000   0.99557208     16.674167      22.155114    
   1859000   0.99988104     17.312103      22.154101    
   1860000   1.0061724      17.395392      22.140586    
   1861000   1.0020788      17.539888      22.170073    
   1862000   1.0161116      17.343809      22.349911    
   1863000   1.0138454      17.001392      22.387837    
   1864000   0.99725305     16.947445      22.315657    
   1865000   0.97293175     17.250149      22.350938    
   1866000   0.98656817     16.997817      22.414248    
   1867000   1.0062938      17.360144      22.371159    
   1868000   0.99766125     17.080884      22.338255    
   1869000   0.99055793     16.735965      22.386928    
   1870000   0.98016222     16.997863      22.70218     
   1871000   0.97033077     17.689766      22.588088    
   1872000   0.99333726     16.860087      22.448709    
   1873000   0.94727834     17.006748      22.438789    
   1874000   1.0045692      17.367994      22.403805    
   1875000   1.0300345      17.319452      22.252243    
   1876000   1.0069668      17.385997      22.0665      
   1877000   1.0311036      16.590438      22.084662    
   1878000   1.0153         16.806301      21.898516    
   1879000   0.98867911     17.701459      21.877606    
   1880000   1.0213904      17.60922       21.980119    
   1881000   1.0497557      17.60971       21.815561    
   1882000   1.025299       17.403739      21.733295    
   1883000   1.0179637      17.227109      21.599315    
   1884000   1.0071734      17.376569      21.308247    
   1885000   1.016237       17.330035      21.199096    
   1886000   1.0613459      17.358741      21.199062    
   1887000   1.000464       17.408176      21.126171    
   1888000   1.0066051      16.619744      21.343484    
   1889000   1.0249521      17.36279       21.445364    
   1890000   0.99727138     17.259891      21.527309    
   1891000   1.0016433      17.283298      21.350814    
   1892000   0.99313033     17.446067      21.256821    
   1893000   0.98465126     17.260243      21.181409    
   1894000   0.96569214     17.393832      20.944945    
   1895000   1.0121334      17.367168      20.733264    
   1896000   0.97401324     16.974315      20.802946    
   1897000   0.97980182     16.574241      20.998443    
   1898000   1.0202324      16.83699       20.814456    
   1899000   0.99332302     17.331119      20.78123     
   1900000   0.98056433     17.318323      20.675783    
   1901000   0.99805743     17.166446      20.641518    
   1902000   0.99083055     17.52354       20.414815    
   1903000   1.0070532      17.07064       20.551856    
   1904000   1.0053032      16.880865      20.428833    
   1905000   1.042863       17.3189        20.269035    
   1906000   0.98303706     17.171577      20.262422    
   1907000   1.0010371      16.971519      20.230096    
   1908000   1.0229237      17.440558      20.249467    
   1909000   1.0118947      17.532227      20.475516    
   1910000   1.0214103      16.901214      20.667469    
   1911000   0.96263167     16.804505      20.607038    
   1912000   1.0245935      17.263065      20.67689     
   1913000   1.0059208      16.800899      20.519882    
   1914000   0.94683452     17.403273      20.416389    
   1915000   1.0301237      16.80256       20.413434    
   1916000   0.99735555     17.269881      20.461847    
   1917000   1.0300264      17.374114      20.336592    
   1918000   1.0236224      17.465488      20.404349    
   1919000   0.97095784     17.047459      20.402595    
   1920000   0.95673683     17.014174      20.334793    
   1921000   0.99057033     16.554458      20.486274    
   1922000   1.0145591      17.114029      20.288014    
   1923000   1.0254067      16.689482      20.215416    
   1924000   1.0121199      16.683474      20.116243    
   1925000   1.0186908      16.951695      20.211082    
   1926000   0.98707617     16.879058      20.201735    
   1927000   0.99789487     16.875924      20.122308    
   1928000   1.014815       17.266317      19.873666    
   1929000   1.074269       17.100683      20.12        
   1930000   0.98221895     17.283432      20.102157    
   1931000   1.0284949      17.434768      20.044331    
   1932000   0.97894294     16.995652      20.039429    
   1933000   0.98382243     16.930793      19.806611    
   1934000   1.003954       16.740883      19.51479     
   1935000   1.0237572      16.929813      19.481582    
   1936000   1.037254       16.753402      19.381126    
   1937000   0.99749959     16.639747      19.33507     
   1938000   1.0394075      17.405831      19.337444    
   1939000   0.97321968     17.362967      19.229095    
   1940000   0.93379516     16.716331      19.226143    
   1941000   0.97073504     16.795515      19.196031    
   1942000   1.0022413      17.175962      19.056891    
   1943000   1.0163895      17.409912      18.826772    
   1944000   0.976907       17.216562      18.737614    
   1945000   1.0192486      16.95464       18.706146    
   1946000   1.0149765      17.576618      18.634547    
   1947000   1.0341673      17.061303      18.577488    
   1948000   0.95287694     16.902869      18.409482    
   1949000   1.031053       16.723747      18.519086    
   1950000   0.96947333     16.933967      18.553909    
   1951000   0.98481973     17.276682      18.36375     
   1952000   0.98544937     17.125828      18.338005    
   1953000   0.95799505     17.078935      18.256573    
   1954000   0.99546573     17.423691      18.201881    
   1955000   0.98664367     17.278777      17.964904    
   1956000   1.0005874      16.457194      17.932166    
   1957000   0.9914965      17.569532      17.873765    
   1958000   0.98076066     17.058844      17.814073    
   1959000   0.98903045     17.146358      17.506636    
   1960000   1.0148909      17.150052      17.685849    
   1961000   0.99093048     17.254967      17.676518    
   1962000   1.0303516      17.230322      17.686669    
   1963000   1.0186994      16.651852      17.560075    
   1964000   1.0253585      17.375839      17.404823    
   1965000   1.0226284      16.979398      17.584664    
   1966000   1.0187573      17.290063      17.50114     
   1967000   0.99800899     16.800602      17.469704    
   1968000   0.99949544     17.270747      17.351258    
   1969000   1.0090244      16.964665      17.174619    
   1970000   0.99566285     17.332796      17.067468    
   1971000   1.0140068      16.885475      17.094812    
   1972000   0.97895185     17.215939      17.139162    
   1973000   0.9866677      16.669197      16.939815    
   1974000   1.0232683      16.524798      16.9539      
   1975000   1.0217761      16.740258      16.867955    
   1976000   0.99524617     16.845744      16.82482     
   1977000   0.96693538     17.201849      16.780055    
   1978000   1.0216967      16.870755      16.70201     
   1979000   0.97079639     17.142056      16.595387    
   1980000   0.99724055     16.36156       16.432855    
   1981000   0.9976891      16.976246      16.494374    
   1982000   1.0241163      16.955804      16.611415    
   1983000   0.97614833     17.029006      16.547377    
   1984000   0.9894144      16.793108      16.371385    
   1985000   1.0197058      17.163171      16.072246    
   1986000   1.0064814      16.398976      15.926036    
   1987000   1.0377577      17.105769      15.902612    
   1988000   1.0441316      17.163733      15.756013    
   1989000   1.0312141      17.400435      15.808321    
   1990000   1.0009636      16.516288      15.757432    
   1991000   1.0052411      17.671824      15.776904    
   1992000   0.97408496     16.62618       15.83474     
   1993000   0.99493667     17.178117      15.829051    
   1994000   0.98511561     16.609181      15.599202    
   1995000   0.98880259     17.237185      15.214809    
   1996000   0.99610229     16.859425      15.031898    
   1997000   1.0302551      16.703683      14.997837    
   1998000   1.0065817      17.535392      14.786648    
   1999000   1.022861       16.922305      14.855002    
   2000000   0.96307166     17.07955       14.844985    
   2001000   1.0136227      17.003254      14.662163    
   2002000   0.98577063     16.928175      14.541986    
   2003000   0.98937575     16.623954      14.408368    
   2004000   1.0428093      17.586434      14.39208     
   2005000   1.0035086      17.621865      14.342334    
   2006000   1.0363194      17.386376      14.319064    
   2007000   1.0238577      17.613763      14.00947     
   2008000   1.0043031      17.149023      13.899814    
   2009000   0.9907368      16.893029      14.10536     
   2010000   1.0024551      17.093131      14.11827     
   2011000   0.98844109     17.062044      14.01883     
   2012000   0.95563135     17.321607      14.028104    
   2013000   0.99038348     16.997384      13.848814    
   2014000   0.97978435     17.210738      13.909165    
   2015000   1.0198982      17.215323      13.803874    
   2016000   0.96115206     16.730423      13.697926    
   2017000   1.011454       16.980964      13.755017    
   2018000   0.99405001     16.737733      13.93443     
   2019000   1.0417906      17.066677      13.92125     
   2020000   1.0297672      16.812101      13.786628    
   2021000   0.95496708     17.031107      13.981485    
   2022000   1.0019907      16.523532      13.984073    
   2023000   1.0493756      16.380082      13.836695    
   2024000   0.95706869     16.671027      13.661392    
   2025000   1.0411478      17.339528      13.511902    
   2026000   0.99756812     16.926463      13.337964    
   2027000   0.98416033     17.218175      13.250777    
   2028000   1.012686       16.733722      13.221663    
   2029000   0.95440673     17.309353      13.288014    
   2030000   0.9749219      16.809418      13.127218    
   2031000   1.0337883      17.02204       13.00003     
   2032000   1.0017366      17.287804      12.967043    
   2033000   0.99069385     17.419667      12.939044    
   2034000   0.98699348     17.438155      12.915013    
   2035000   0.98712286     17.272573      13.017083    
   2036000   0.97516266     16.753628      12.955487    
   2037000   0.9730605      16.543138      13.00273     
   2038000   1.0204326      17.217046      12.821366    
   2039000   1.0104061      17.437603      12.872177    
   2040000   0.98300872     17.020667      12.72761     
   2041000   1.0128878      16.972145      12.795289    
   2042000   0.98431774     16.90036       12.680012    
   2043000   0.97885474     17.09943       12.547466    
   2044000   1.0162581      16.880686      12.612526    
   2045000   1.0067051      17.114872      12.642293    
   2046000   0.9966187      16.755085      12.752321    
   2047000   0.97208812     17.527683      12.824767    
   2048000   1.0502353      17.253981      12.690682    
   2049000   1.0168866      17.345449      12.583222    
   2050000   1.0494814      17.023486      12.645551    
   2051000   1.034032       17.061645      12.664995    
   2052000   1.0010032      17.194025      12.538211    
   2053000   0.97180299     16.924063      12.37621     
   2054000   0.99175803     17.140358      12.37735     
   2055000   1.0180323      17.649979      12.441268    
   2056000   0.99858095     16.923041      12.424473    
   2057000   0.98893906     17.209009      12.424188    
   2058000   0.98765103     16.996194      12.399109    
   2059000   0.99845039     16.572071      12.282968    
   2060000   1.0461546      16.932326      12.289107    
   2061000   1.0119984      17.27035       12.312023    
   2062000   0.98870535     17.003178      12.200251    
   2063000   0.98347576     17.442532      12.037331    
   2064000   0.99398009     16.756466      11.865721    
   2065000   1.0075031      17.8532        11.755413    
   2066000   0.98313259     16.797679      11.586178    
   2067000   1.045903       17.443901      11.623846    
   2068000   0.98004417     17.395577      11.320432    
   2069000   0.93782897     16.524934      11.464438    
   2070000   0.96878224     17.552275      11.426468    
   2071000   1.0103774      17.275193      11.253954    
   2072000   1.0063707      17.093537      11.282777    
   2073000   1.0217399      17.223576      11.134776    
   2074000   1.0264335      17.291079      11.086164    
   2075000   1.0194446      16.456444      11.040956    
   2076000   1.0204413      17.475587      11.014513    
   2077000   0.98209554     16.983519      10.80771     
   2078000   1.004093       17.224685      10.785767    
   2079000   0.9951168      17.135807      10.611557    
   2080000   1.0117197      17.222983      10.464804    
   2081000   0.97924544     17.101569      10.34211     
   2082000   0.99657323     16.704236      10.301429    
   2083000   1.0145987      16.922108      10.336275    
   2084000   1.010252       16.61291       10.098474    
   2085000   0.9980697      16.861422      10.011715    
   2086000   1.0274537      16.662458      9.8977073    
   2087000   0.97148155     17.075114      9.902236     
   2088000   0.99066198     17.083461      9.7909616    
   2089000   0.99360212     17.223168      9.7242761    
   2090000   1.0323604      17.606595      9.5633404    
   2091000   1.0351759      16.715481      9.4877667    
   2092000   0.99599065     17.27351       9.5080998    
   2093000   1.002986       16.769947      9.4260662    
   2094000   1.0114008      16.938615      9.0680746    
   2095000   0.95584752     17.538303      8.7858267    
   2096000   1.0159994      17.50764       8.8133249    
   2097000   1.0087012      16.92101       8.926211     
   2098000   0.98099553     17.620673      8.9272263    
   2099000   0.99054911     16.903081      9.0094413    
   2100000   1.0025504      17.529822      8.9616961    
   2101000   1.0209275      17.438768      8.8780155    
   2102000   1.0015956      16.944114      8.7383142    
   2103000   0.99265729     17.209137      8.6700268    
   2104000   0.97064409     16.749769      8.531327     
   2105000   0.99989711     17.03123       8.5466378    
   2106000   1.0174997      17.147217      8.4535511    
   2107000   0.95992347     16.940452      8.3441437    
   2108000   1.0008001      16.564197      8.092973     
   2109000   0.98560712     16.79071       7.9141823    
   2110000   1.0213103      16.692388      7.8584907    
   2111000   0.9898584      16.870654      7.6160718    
   2112000   0.97156778     17.475977      7.4481932    
   2113000   0.99858752     17.23705       7.4688767    
   2114000   0.98115149     16.769639      7.2817463    
Fix halt condition for fix-id 3 met on step 2115000 with value 6.920323148765155 (src/fix_halt.cpp:237)
   2115000   1.0144579      16.807833      6.9203231    
Loop time of 3910.4 on 2 procs for 2015000 steps with 1201 atoms

Performance: 445213.006 tau/day, 515.293 timesteps/s
63.9% CPU use with 2 MPI tasks x 1 OpenMP threads

MPI task timing breakdown:
Section |  min time  |  avg time  |  max time  |%varavg| %total
---------------------------------------------------------------
Pair    | 0.51056    | 1014.6     | 2028.7     |3183.7 | 25.95
Bond    | 0.61954    | 81.673     | 162.73     | 896.9 |  2.09
Neigh   | 1495.3     | 1495.4     | 1495.5     |   0.2 | 38.24
Comm    | 2.4324     | 2.8063     | 3.1803     |  22.3 |  0.07
Output  | 14.734     | 14.795     | 14.856     |   1.6 |  0.38
Modify  | 5.0845     | 90.812     | 176.54     | 899.6 |  2.32
Other   |            | 1210       |            |       | 30.95

Nlocal:          600.5 ave        1201 max           0 min
Histogram: 1 0 0 0 0 0 0 0 0 1
Nghost:              0 ave           0 max           0 min
Histogram: 2 0 0 0 0 0 0 0 0 0
Neighs:         142950 ave      285899 max           0 min
Histogram: 1 0 0 0 0 0 0 0 0 1

Total # of neighbors = 285899
Ave neighs/atom = 238.05079
Ave special neighs/atom = 1.9983347
Neighbor list builds = 19608
Dangerous builds = 0

# This simulation is done
# Move onto the next one
clear
OMP_NUM_THREADS environment is not set. Defaulting to 1 thread. (src/comm.cpp:98)
  using 1 OpenMP thread(s) per MPI task
next f
jump SELF

Total wall time: 5:29:38
