#atom_style bond #no stiffness
atom_style angle #with stiffness

boundary        p p p
###
# Pair interactions require lists of neighbours to be calculated
###

#neighbor 0.3 bin
neighbor 4 bin

neigh_modify every 1 delay 1 check yes
atom_modify sort 0 0
### Generate RESTART file, SPECIAL format, not a .txt file ###
### Useful if simulation crashes ###

restart 1000000 tshaped/restarts/$f.restart
restart 1000000 tshaped/restarts/bb533nuc1bl266bn3d30tot800.restart
#############################



### READ "start" data file ###

read_data tshaped/$f.dat
read_data tshaped/bb533nuc1bl266bn3d30tot800.dat
Reading data file ...
  orthogonal box = (-1000 -1000 -1000) to (1000 1000 1000)
  1 by 1 by 2 MPI processor grid
  reading atoms ...
  799 atoms
  scanning bonds ...
  2 = max bonds/atom
  scanning angles ...
  3 = max angles/atom
  reading bonds ...
  798 bonds
  reading angles ...
  798 angles
Finding 1-2 1-3 1-4 neighbors ...
  special bond factors lj:    0        0        0       
  special bond factors coul:  0        0        0       
     3 = max # of 1-2 neighbors
     3 = max # of 1-3 neighbors
     6 = max # of 1-4 neighbors
     9 = max # of special neighbors
  special bonds CPU = 0.001 seconds
  read_data CPU = 0.088 seconds

######################

### READ "REstart" data file ###

######################



###
# Define groups (atom type 1 is group 'all')
###
group all type 1
799 atoms in group all


###
# Dump configs - "simple dumpings"
###

###
# Dump configs + box coords
###

dump   1   all   custom   1000  tshaped/trjs/$f.lammpstrj  id  x y z  ix iy iz
dump   1   all   custom   1000  tshaped/trjs/bb533nuc1bl266bn3d30tot800.lammpstrj  id  x y z  ix iy iz
dump_modify   1   format line "%d %.5f %.5f %.5f %d %d %d"

########################################################################


###################################################################
# Stiffness term
#
# E = K * (1+cos(theta)), K>0
#
angle_style   cosine
#change this coefficient to change stiffness (e.g. 1,5,10)
angle_coeff   1 1.0
###################################################################

###################################################################
# Pair interaction between non-bonded atoms
#
#  Lennard-Jones 12-6 potential with cutoff:
#  potential E=4epsilon[ (sigma/r)^12 - (sigma/r)^6]  for r<r_cut
#
#  1.12246 = 2^(1/6) is the minimum of the potential


pair_style      lj/cut 1.12246152962189
#pair_style      lj/cut 3

#
#  pair_modify shift yes adds a constant to the potential such

#  that E(r_cut)=0. Forces remains unchanged.
#

pair_modify     shift yes

#
#  pair_coeff for lj/cut, specify 4:
#    * atom type interacting with
#    * atom type
#    * epsilon (energy units)
#    * sigma (distance units)
#

pair_coeff      1 1 1.0 1.0
###################################################################

###################################################################
# Pair interaction between non-bonded atoms
#
#  soft potential, for PUSHING apart overlapping atoms
#  potential E=A*(1 + cos(pi*r/r_c))
#
#  1.12246 = 2^(1/6) is the cut-off r_c

#pair_style     soft 1.12246152962189

#
#  pair_coeff for soft, specify 3:
#    * atom type interacting with
#    * atom type
#    * A
#
#

#pair_coeff      1 1 100.0
###################################################################

###################################################################
# Pair interaction between bonded atoms
#
# Fene potential + Lennard Jones 12-6:

#
#  E= - 0.5 K R0^2 ln[ 1- (r/R0)^2]
#     + 4epsilon[ (sigma/r)^12 - (sigma/r)^6] + epsilon
#

bond_style   fene


#
# For style fene, specify:
#   * bond type
#   * K (energy/distance^2)
#   * R0 (distance)
#   * epsilon (energy)  (LJ component)
#   * sigma (distance)  (LJ component)
#


special_bonds fene #<=== I M P O R T A N T (new command)
Finding 1-2 1-3 1-4 neighbors ...
  special bond factors lj:    0        1        1       
  special bond factors coul:  0        1        1       
     3 = max # of 1-2 neighbors
     9 = max # of special neighbors
  special bonds CPU = 0.000 seconds

bond_coeff   1   30   2   1.0   1.0


###################################################

###################################################################
# Pair interaction between bonded atoms
#
# Harmonic potential:
#
#  E= K * (R-R0)^2
#

#bond_style   harmonic

#
# For style harmonic, specify:
#   * bond type
#   * K (energy/distance^2)
#   * R0 (distance)
#

#bond_coeff   1   60.0   1.0
#bond_coeff   2   harmonic 0.1   1.0

###################################################
compute 1 all gyration
variable rog equal c_1
#compute 2 all coord/atom cutoff 1.1

#dump 2 all custom 10000 contact_number.dump id c_2


###
# Set up fixes
###
thermo_style   custom   step  temp enthalpy c_1
fix 1 all nve   ###NVE ensemble

fix 2 all   langevin   1.0 1.0 1.0  100103   ###Langevin integrator Tstart Tstop 1/friction rndseed


##### Sample thermodynamic info  (temperature, energy, pressure, etc.) #####
thermo 1000









############################################################################

###
# set timestep of integrator

timestep 0.01

###
# run integration for a number of steps
###
#run 0
#variable r equal c_1
#if "$r < 63.1" then "quit 1"

# lj potential minimum, cause molecule to explore
run 100000
Generated 0 of 0 mixed pair_coeff terms from geometric mixing rule
Neighbor list info ...
  update: every = 1 steps, delay = 1 steps, check = yes
  max neighbors/atom: 2000, page size: 100000
  master list distance cutoff = 5.1224615
  ghost atom cutoff = 5.1224615
  binsize = 2.5612308, bins = 781 781 781
  1 neighbor lists, perpetual/occasional/extra = 1 0 0
  (1) pair lj/cut, perpetual
      attributes: half, newton on
      pair build: half/bin/newton
      stencil: half/bin/3d
      bin: standard
WARNING: Communication cutoff 5.12246152962189 is shorter than a bond length based estimate of 5.455. This may lead to errors. (src/comm.cpp:723)
Per MPI rank memory allocation (min/avg/max) = 939.5 | 940.1 | 940.7 Mbytes
   Step          Temp         Enthalpy         c_1      
         0   0              13.173265      142.10606    
      1000   1.0074942      17.494824      141.37856    
      2000   0.98919699     17.682096      140.60968    
      3000   0.93673712     17.529836      140.00037    
      4000   1.0009725      17.887421      139.42251    
      5000   1.0300467      18.095424      138.69577    
      6000   1.0756196      17.638358      138.10522    
      7000   0.9973068      18.240525      137.39643    
      8000   0.97516506     18.004028      137.0006     
      9000   0.9835951      18.564667      136.7572     
     10000   1.0016836      18.528004      136.24927    
     11000   0.97511653     17.819121      135.72027    
     12000   1.0204328      18.484346      135.54832    
     13000   0.97499265     18.361217      135.20569    
     14000   0.99619338     18.404051      134.92698    
     15000   1.0522642      18.520767      134.4181     
     16000   1.0080398      18.753026      134.10267    
     17000   0.96660732     18.335557      133.89429    
     18000   0.96126853     18.534191      133.358      
     19000   1.0014081      18.479903      132.98188    
     20000   1.0312772      18.913569      132.52423    
     21000   1.0335695      18.986404      132.51523    
     22000   1.0152489      18.206104      132.30234    
     23000   0.93796461     18.930323      132.08387    
     24000   1.0094966      19.458646      131.69353    
     25000   0.97442213     18.945197      131.32823    
     26000   1.0282135      18.796038      130.76848    
     27000   1.0063426      19.264011      130.44927    
     28000   1.033958       19.263518      130.22436    
     29000   0.96821915     18.560579      130.15722    
     30000   0.99357821     19.159722      129.72245    
     31000   1.0416145      19.066617      129.46117    
     32000   0.96315873     19.020179      128.84275    
     33000   1.0251525      19.462297      128.72379    
     34000   0.93929017     18.895323      128.54729    
     35000   1.0255051      19.20137       128.44256    
     36000   0.97624323     18.627062      128.1069     
     37000   0.97240365     19.294221      127.76628    
     38000   0.95518482     19.594305      127.40706    
     39000   1.0134983      19.363803      126.999      
     40000   0.9715367      19.216737      126.88294    
     41000   1.0549122      19.180194      126.57679    
     42000   0.95969429     19.578617      126.44251    
     43000   0.98818442     19.263858      126.13244    
     44000   1.0267566      19.676811      125.81143    
     45000   1.0176582      19.611114      125.39119    
     46000   1.0315517      20.085198      125.11831    
     47000   1.0347936      19.719632      124.76446    
     48000   0.98432646     19.497581      124.3041     
     49000   1.0135175      19.717562      124.02317    
     50000   0.97620973     19.773542      123.99907    
     51000   0.9866663      19.317999      123.64611    
     52000   0.98823709     18.926278      123.4591     
     53000   1.0086505      19.336097      123.25372    
     54000   0.96074026     19.889715      122.95836    
     55000   0.97481618     19.519063      122.57045    
     56000   0.98386817     19.564718      122.33403    
     57000   0.97504138     19.648839      122.06428    
     58000   0.99413612     19.88412       121.74771    
     59000   1.0403351      18.929755      121.5762     
     60000   0.98449162     19.490324      121.42384    
     61000   0.95753033     19.57898       121.2019     
     62000   1.0074357      19.639605      121.06167    
     63000   1.0060473      19.748164      120.69047    
     64000   0.98697801     19.682007      120.51234    
     65000   0.98612393     19.942697      120.36493    
     66000   0.96737963     19.466159      119.89303    
     67000   1.04258        19.44865       119.69905    
     68000   1.0345146      19.978099      119.38282    
     69000   0.98231676     19.969115      119.07731    
     70000   0.98920541     19.714149      118.85834    
     71000   0.99070006     19.780292      118.76249    
     72000   0.96560953     19.440968      118.44442    
     73000   0.97380278     19.193912      118.24592    
     74000   0.98492173     18.993509      117.99724    
     75000   0.98816689     19.970773      117.69283    
     76000   0.99229844     20.128462      117.50472    
     77000   0.95790969     19.287674      117.31488    
     78000   1.001428       19.836073      117.10946    
     79000   1.0301094      19.771133      117.03166    
     80000   0.97557742     19.453194      116.92763    
     81000   0.9865135      19.114959      116.77158    
     82000   0.96552244     19.990067      116.52713    
     83000   1.0006475      20.094893      116.04816    
     84000   0.93123342     19.534523      115.53194    
     85000   0.99713096     19.667707      115.26602    
     86000   0.96644874     20.34931       114.8384     
     87000   0.99940785     19.717175      114.87747    
     88000   0.99711093     19.496663      114.79703    
     89000   0.95803615     19.941797      114.52813    
     90000   0.97777188     19.569214      114.15527    
     91000   0.97200185     19.454714      113.97323    
     92000   0.99844967     19.770481      113.92046    
     93000   1.0350132      19.771545      114.13575    
     94000   1.01101        20.270048      113.78536    
     95000   1.0216684      19.652994      113.64564    
     96000   0.97504782     19.777212      113.44581    
     97000   1.0528936      19.964629      113.27258    
     98000   1.0168987      20.243561      112.88935    
     99000   0.99590176     19.768877      112.75082    
    100000   0.93717934     19.358561      112.82408    
Loop time of 244.8 on 2 procs for 100000 steps with 799 atoms

Performance: 352941.687 tau/day, 408.497 timesteps/s
56.6% CPU use with 2 MPI tasks x 1 OpenMP threads

MPI task timing breakdown:
Section |  min time  |  avg time  |  max time  |%varavg| %total
---------------------------------------------------------------
Pair    | 0.0082687  | 1.086      | 2.1638     | 103.4 |  0.44
Bond    | 0.0097518  | 2.8578     | 5.7059     | 168.5 |  1.17
Neigh   | 228.3      | 228.3      | 228.31     |   0.0 | 93.26
Comm    | 0.077618   | 0.108      | 0.13837    |   9.2 |  0.04
Output  | 0.6155     | 0.63368    | 0.65187    |   2.3 |  0.26
Modify  | 0.058494   | 3.2803     | 6.5021     | 177.9 |  1.34
Other   |            | 8.531      |            |       |  3.48

Nlocal:          399.5 ave         799 max           0 min
Histogram: 1 0 0 0 0 0 0 0 0 1
Nghost:              0 ave           0 max           0 min
Histogram: 2 0 0 0 0 0 0 0 0 0
Neighs:           2175 ave        4350 max           0 min
Histogram: 1 0 0 0 0 0 0 0 0 1

Total # of neighbors = 4350
Ave neighs/atom = 5.4443054
Ave special neighs/atom = 1.9974969
Neighbor list builds = 1045
Dangerous builds = 0

# Replace lj potential, now collapse
pair_style      lj/cut 3

# Cutoff simul when gyration under 5
# Variable created with equal requires v_ + 'name'
fix 3 all halt 1000 v_rog < 7

run 5000000
Generated 0 of 0 mixed pair_coeff terms from geometric mixing rule
Per MPI rank memory allocation (min/avg/max) = 939.5 | 940.1 | 940.7 Mbytes
   Step          Temp         Enthalpy         c_1      
    100000   0.93717934     18.802312      112.82408    
    101000   0.96596719     19.834804      112.74686    
    102000   1.0012471      19.492599      112.60603    
    103000   1.0092953      19.138439      112.49976    
    104000   1.0621425      19.646708      112.375      
    105000   0.97224116     19.764728      112.09192    
    106000   0.96942396     19.243742      111.88167    
    107000   1.0279972      19.171893      111.3382     
    108000   0.95823773     18.820781      111.02164    
    109000   0.99487016     19.216898      110.81515    
    110000   1.0135503      18.932822      110.57319    
    111000   1.029977       19.573934      110.53481    
    112000   1.0477872      19.558079      110.19202    
    113000   1.0009874      19.142009      109.90829    
    114000   1.023992       19.394494      109.79109    
    115000   0.98974437     19.425622      109.66788    
    116000   1.0358282      19.465634      109.30423    
    117000   0.99951982     19.653361      109.18703    
    118000   1.0011497      19.171459      108.90172    
    119000   1.0061911      19.290516      108.50719    
    120000   1.004364       19.077419      108.29884    
    121000   1.0627084      19.267162      108.25593    
    122000   1.0132909      19.091909      108.22399    
    123000   1.0280503      19.226987      108.06164    
    124000   0.97934583     19.558274      107.36429    
    125000   0.99871136     19.413507      107.3462     
    126000   1.0237273      19.286657      106.94855    
    127000   1.0055126      19.03746       106.68056    
    128000   1.0315874      19.26393       106.49911    
    129000   1.0357152      19.814764      106.20596    
    130000   1.0427215      19.160081      106.27981    
    131000   0.99597347     19.445801      106.21013    
    132000   0.99662923     19.269307      106.13947    
    133000   1.0663012      19.022438      105.78908    
    134000   0.9949572      19.440885      105.46232    
    135000   1.0185524      19.160826      105.28992    
    136000   0.92510817     19.163937      105.09966    
    137000   1.0367393      18.987885      105.09495    
    138000   0.9543751      19.416693      104.96395    
    139000   1.0332069      18.944651      104.93387    
    140000   1.04557        19.036133      104.74564    
    141000   0.97407893     19.239792      104.59097    
    142000   1.0010364      18.996807      104.3631     
    143000   1.0444741      19.847212      104.28154    
    144000   1.0309894      18.938434      104.16046    
    145000   0.9923929      19.555331      104.05645    
    146000   1.0044138      19.331479      103.82195    
    147000   1.0048371      18.598954      103.82053    
    148000   1.0191646      18.816552      103.75911    
    149000   1.0153618      19.468687      103.56397    
    150000   0.96882584     18.833606      103.48488    
    151000   0.9535875      18.965187      103.34127    
    152000   0.9801666      19.344803      102.90405    
    153000   1.0478468      18.98511       103.01163    
    154000   1.0052638      19.105264      103.03248    
    155000   1.0630643      19.176243      102.89492    
    156000   1.0096107      19.706083      102.49875    
    157000   1.0486508      19.427286      102.34359    
    158000   0.95935165     19.042916      102.27229    
    159000   0.98790407     18.877075      102.1949     
    160000   1.0132741      19.201245      102.07951    
    161000   0.98114636     19.255609      101.70758    
    162000   0.99224345     18.921636      101.65534    
    163000   0.98746572     19.304358      101.54845    
    164000   1.0027846      18.860147      101.35551    
    165000   1.0018481      18.795988      101.10436    
    166000   1.0115641      18.958253      100.75914    
    167000   0.9914313      19.293115      100.45607    
    168000   0.98013679     18.687122      100.29704    
    169000   0.99979063     18.894464      100.16295    
    170000   1.0041165      19.69032       100.0344     
    171000   0.96706957     19.006063      99.789963    
    172000   0.99698024     18.971352      99.65235     
    173000   1.0797324      19.280639      99.365833    
    174000   1.0362272      19.496632      99.35346     
    175000   0.99925163     19.020482      99.274209    
    176000   0.98707402     19.218305      99.247687    
    177000   1.0067424      19.482599      99.292956    
    178000   0.9754241      19.209728      99.040164    
    179000   1.0224281      19.112328      98.925814    
    180000   1.0038717      18.962048      98.73004     
    181000   0.93938759     19.098962      98.590046    
    182000   0.98388358     19.180013      98.387309    
    183000   0.96371824     18.941472      98.38907     
    184000   0.97832291     18.947106      97.959315    
    185000   1.036012       19.629134      97.881697    
    186000   1.0116725      19.2466        97.620241    
    187000   0.96790332     18.816398      97.296578    
    188000   0.99279344     18.882421      96.900793    
    189000   1.0076058      19.210522      96.578167    
    190000   1.0025274      18.752734      96.3129      
    191000   1.0084112      19.285364      96.180239    
    192000   0.95559613     18.879884      96.01687     
    193000   0.99833166     18.850097      95.727833    
    194000   0.99455395     18.572238      95.65213     
    195000   0.9870246      19.635205      95.525013    
    196000   1.071702       19.488422      95.377305    
    197000   1.013745       18.978127      95.235681    
    198000   1.015367       19.257268      95.231306    
    199000   1.0118503      19.101063      95.235232    
    200000   1.0254692      19.125326      95.05466     
    201000   1.0012733      19.067875      95.013721    
    202000   1.0330357      19.070458      95.076126    
    203000   1.0246548      19.340472      95.118313    
    204000   1.0210162      18.855302      94.66991     
    205000   0.98386602     19.313062      94.580537    
    206000   0.99929839     19.014658      94.362446    
    207000   0.99591056     19.017959      94.546831    
    208000   1.0006776      18.92697       94.432058    
    209000   1.0035575      19.087472      94.31199     
    210000   1.0675039      19.152149      93.900096    
    211000   0.99503476     18.917446      93.764594    
    212000   0.96121418     19.033482      93.965852    
    213000   1.0415237      19.343607      93.592089    
    214000   1.0148985      19.374125      93.4153      
    215000   0.99924886     18.88366       93.524334    
    216000   1.0158517      19.087277      93.237604    
    217000   0.98433723     18.894686      92.93729     
    218000   1.0051647      19.3569        92.61589     
    219000   0.97064997     19.309873      92.660909    
    220000   0.99254648     19.196308      92.838718    
    221000   0.9919238      19.025552      92.744089    
    222000   1.0004417      18.753356      92.403629    
    223000   1.0372172      19.274747      92.110163    
    224000   1.0618294      19.136415      91.945819    
    225000   1.0059159      19.54034       91.622912    
    226000   1.0359602      19.489451      91.62792     
    227000   1.0001293      19.365939      91.282294    
    228000   1.0757173      19.425634      91.228169    
    229000   1.0247352      18.686504      91.167475    
    230000   1.0023229      18.764992      90.984234    
    231000   0.96246494     18.603904      91.052515    
    232000   0.9725457      18.574206      90.790386    
    233000   1.0337724      19.13036       90.553261    
    234000   1.0053626      19.306604      90.548667    
    235000   1.0277941      18.597337      90.490256    
    236000   0.94537262     19.319293      90.444556    
    237000   1.0240911      18.886573      90.307416    
    238000   0.98893443     19.245235      90.053344    
    239000   0.98375406     19.008043      90.128023    
    240000   1.011176       18.97039       89.921257    
    241000   0.97991187     18.702895      89.716638    
    242000   0.95934096     18.910162      89.712937    
    243000   0.98142098     18.837607      89.091902    
    244000   1.0236244      18.753973      88.721096    
    245000   0.96847079     18.046951      88.67547     
    246000   1.0139535      19.045746      88.813208    
    247000   0.97230077     18.628373      88.565952    
    248000   1.0167434      18.810841      88.393824    
    249000   0.99497639     19.08362       88.390876    
    250000   0.99970066     19.047468      88.376593    
    251000   1.046614       18.79531       88.182527    
    252000   1.0208544      18.066778      87.935942    
    253000   1.012164       19.015879      87.642818    
    254000   0.99927892     19.019756      87.504105    
    255000   1.0230139      19.585803      87.302798    
    256000   1.0207463      18.986157      87.036851    
    257000   1.0382974      18.471739      86.841748    
    258000   1.0163317      19.463265      86.79217     
    259000   1.0190655      18.819086      86.518179    
    260000   1.0118406      18.779286      86.344742    
    261000   1.0151165      18.96768       86.291199    
    262000   1.0036633      18.557352      86.272793    
    263000   1.0166665      18.409425      86.013989    
    264000   0.99685763     19.043484      85.902086    
    265000   1.0139672      19.322633      85.616346    
    266000   0.99139175     19.043545      85.500791    
    267000   0.94517556     18.65165       85.077125    
    268000   1.0001392      18.302248      84.865183    
    269000   0.9621803      19.290451      84.880172    
    270000   1.0195264      18.549361      84.633059    
    271000   0.99131592     18.823086      84.663997    
    272000   0.97865202     19.010826      84.597992    
    273000   0.99231398     18.496787      84.447419    
    274000   0.97187987     19.205593      84.46389     
    275000   1.0011191      19.004032      84.662551    
    276000   0.99446488     18.531366      84.555949    
    277000   0.96807776     19.581904      84.545339    
    278000   1.0291705      18.459919      84.782804    
    279000   0.97794509     18.781763      84.614782    
    280000   1.011216       18.979309      84.416961    
    281000   1.0257807      18.64316       84.324935    
    282000   1.0043854      18.35244       83.877794    
    283000   1.0071849      19.156234      83.57032     
    284000   1.0077668      18.734049      83.544869    
    285000   1.0580925      18.709815      83.2011      
    286000   0.99962704     18.856462      83.107323    
    287000   1.0447112      18.803056      83.044241    
    288000   1.0213893      18.482854      82.840811    
    289000   0.9877853      18.683316      82.735041    
    290000   0.97120921     19.031615      82.539014    
    291000   1.0300819      18.438636      82.146715    
    292000   1.0471604      18.938872      81.739556    
    293000   1.0439415      18.278301      81.505835    
    294000   0.96909451     18.590895      81.292334    
    295000   0.99277783     18.352219      80.958389    
    296000   0.99653839     18.467946      80.673063    
    297000   0.99434605     18.482533      80.593662    
    298000   1.0077574      19.148366      80.585311    
    299000   1.0399768      18.581769      80.466001    
    300000   1.0360712      19.162331      80.346211    
    301000   0.99806806     18.429002      80.167519    
    302000   1.0279573      18.573695      80.039343    
    303000   1.071897       18.373963      79.807954    
    304000   1.0220838      19.041987      79.590564    
    305000   1.004941       18.791652      79.253115    
    306000   0.99960637     19.251003      79.044536    
    307000   1.0466098      19.149101      78.984198    
    308000   1.0233431      18.868141      79.039651    
    309000   1.0235994      18.998674      78.794944    
    310000   0.99736475     18.762963      79.038492    
    311000   1.0008122      18.37894       78.643073    
    312000   0.96323412     18.683496      78.297329    
    313000   0.97461289     18.642283      78.229874    
    314000   0.99363579     18.674783      77.820808    
    315000   1.00269        18.706587      77.425153    
    316000   1.0294453      18.185809      77.279244    
    317000   1.0185681      18.258336      76.997017    
    318000   1.0358908      19.547465      76.686958    
    319000   0.94376854     18.549023      76.663694    
    320000   0.99115323     19.428181      76.649713    
    321000   0.98171982     18.595135      76.646851    
    322000   1.0631685      19.007392      76.57805     
    323000   0.98776292     18.38579       76.41731     
    324000   1.0008729      18.951561      76.321506    
    325000   1.0310991      18.788204      76.123049    
    326000   1.0077665      18.400821      75.81262     
    327000   1.0139232      18.415519      75.484671    
    328000   1.0162003      19.333603      75.563869    
    329000   1.0125102      18.500454      75.678032    
    330000   0.95721534     18.06648       75.302599    
    331000   1.0258024      18.626669      75.044122    
    332000   0.98543308     18.270268      74.917815    
    333000   0.98884789     18.605146      74.742586    
    334000   1.0178594      18.524713      74.499992    
    335000   0.99338907     18.865841      74.562363    
    336000   0.9977524      18.403609      74.421287    
    337000   1.0507112      19.063773      74.131214    
    338000   0.96904289     18.557334      73.949615    
    339000   1.0244702      18.267044      73.655902    
    340000   1.0322796      18.664124      73.568644    
    341000   0.98933493     18.674667      73.488636    
    342000   0.9336906      18.116948      73.587195    
    343000   1.0281139      18.209839      73.163606    
    344000   0.97318075     18.125474      73.041001    
    345000   1.0168773      18.777942      72.858696    
    346000   0.99884827     18.857721      72.905502    
    347000   1.0011679      18.812071      72.833118    
    348000   0.99256434     18.296947      72.677271    
    349000   1.0105148      18.515123      72.595482    
    350000   0.99195654     18.757147      72.181969    
    351000   1.0291405      17.670625      72.243494    
    352000   1.0242271      18.636784      72.441403    
    353000   1.0422199      18.752581      72.380388    
    354000   1.0156347      18.667161      72.204462    
    355000   1.0378035      18.18815       72.106396    
    356000   0.99548227     17.634153      71.701866    
    357000   0.98787436     18.03225       71.76997     
    358000   1.0425713      19.016089      71.684394    
    359000   1.0106769      18.736932      71.618257    
    360000   0.93946457     18.166259      71.280703    
    361000   0.96743504     18.230613      71.075962    
    362000   1.008082       18.030958      71.068202    
    363000   1.0019061      18.585156      70.434814    
    364000   1.0045833      17.882653      70.253336    
    365000   1.0085848      18.236875      70.299549    
    366000   1.0137201      18.793624      70.072838    
    367000   0.95710961     18.397247      70.198944    
    368000   0.99956201     18.623147      70.040691    
    369000   1.0252308      18.667451      69.913376    
    370000   0.99390379     18.60884       70.022079    
    371000   0.98360748     18.425126      69.888512    
    372000   0.9869799      18.80156       69.539412    
    373000   1.0105398      18.364052      69.555804    
    374000   0.99809389     18.73758       69.595788    
    375000   0.95512552     17.66809       69.655101    
    376000   0.96659386     18.30573       69.673622    
    377000   1.0081824      18.125942      69.728305    
    378000   1.0133104      18.318636      69.773713    
    379000   0.95220803     18.070285      69.635681    
    380000   1.0231109      18.200615      69.232517    
    381000   1.0019313      18.114088      69.328433    
    382000   0.9753533      18.295683      69.198574    
    383000   1.0020173      18.117455      68.786348    
    384000   0.95992047     18.322436      68.742312    
    385000   1.006778       18.750874      68.705303    
    386000   0.99850018     18.882619      68.570597    
    387000   1.0474061      18.740187      68.37375     
    388000   0.96854255     18.157242      68.167909    
    389000   1.0550139      18.583162      68.042789    
    390000   1.0372925      18.366593      67.888884    
    391000   0.99304403     18.050828      67.781669    
    392000   0.99479198     18.839264      67.446286    
    393000   1.0105609      18.231319      67.359956    
    394000   0.99728977     18.501272      67.439562    
    395000   0.98012676     18.371186      67.103398    
    396000   1.0090476      18.702305      67.155095    
    397000   0.98153808     18.042891      66.986438    
    398000   1.049176       18.678009      67.027428    
    399000   0.99402445     18.297739      66.763852    
    400000   0.99437121     18.597005      66.81344     
    401000   1.008813       18.165002      66.478719    
    402000   0.95138735     18.010502      66.596641    
    403000   0.99697273     18.17078       66.588218    
    404000   0.97384364     17.586251      66.561829    
    405000   0.98458383     18.28114       66.132655    
    406000   1.0091062      18.39206       66.17351     
    407000   0.98853833     18.717931      66.21043     
    408000   0.99740374     18.319214      65.949106    
    409000   1.0665812      18.315821      65.854868    
    410000   1.0178313      18.567064      65.653347    
    411000   0.99484916     18.128615      65.250166    
    412000   0.95722066     18.311382      65.250895    
    413000   1.0293644      18.175362      65.087023    
    414000   0.97727763     18.350403      64.940389    
    415000   0.97979603     18.055951      64.819302    
    416000   1.0534827      19.12002       65.019186    
    417000   1.0406023      18.25117       64.676639    
    418000   0.98902528     18.028233      64.546155    
    419000   1.0208082      18.631942      64.355327    
    420000   0.9979135      18.05793       64.105982    
    421000   1.0093524      18.649652      64.038995    
    422000   1.0376449      18.982308      63.969779    
    423000   1.0065876      18.874449      63.954615    
    424000   1.0155598      18.383409      63.989576    
    425000   1.0134252      18.542473      63.534787    
    426000   0.98316584     17.723239      63.23868     
    427000   1.0038771      18.051851      62.87388     
    428000   1.0180731      18.732115      62.866772    
    429000   1.0077316      18.375404      62.788478    
    430000   0.99629859     18.704847      62.692207    
    431000   1.0518104      18.948829      62.740799    
    432000   0.9580519      18.228133      62.498216    
    433000   1.0271574      18.736891      62.592927    
    434000   1.0117309      18.348967      62.295874    
    435000   1.0001539      19.040137      62.451536    
    436000   1.0058957      18.230142      62.263238    
    437000   0.9733124      18.534248      62.023352    
    438000   0.98991076     18.297282      62.152378    
    439000   1.0643045      17.791052      62.142596    
    440000   1.0138448      18.612357      61.989088    
    441000   0.99805375     18.128366      61.969801    
    442000   1.0230163      18.901467      61.939897    
    443000   0.99104179     18.786091      61.731002    
    444000   0.98188746     17.880874      61.368735    
    445000   1.0138534      18.306322      61.233947    
    446000   0.98557622     18.136097      61.249624    
    447000   1.0177618      18.720483      61.241623    
    448000   0.95351388     18.345024      61.226735    
    449000   1.0024007      18.819752      60.937465    
    450000   0.99414871     17.651165      60.919113    
    451000   1.0020256      17.991673      60.645043    
    452000   0.99618283     17.742271      60.651281    
    453000   1.0717489      18.851088      60.637019    
    454000   0.96440862     17.836102      60.61498     
    455000   0.98298404     18.323898      60.117457    
    456000   0.97397124     18.169672      59.905596    
    457000   0.98988561     18.397379      59.869295    
    458000   0.99690807     18.459175      59.536856    
    459000   1.0074077      18.439786      59.438316    
    460000   0.9822146      18.599278      59.424037    
    461000   0.95476227     18.471107      59.312641    
    462000   0.96274286     18.071189      59.043238    
    463000   0.97998159     18.418929      58.88364     
    464000   1.0300864      18.048467      58.617708    
    465000   1.0142588      18.014464      58.535733    
    466000   1.0046197      17.962843      58.447158    
    467000   1.0656459      18.713143      58.354836    
    468000   0.98661532     18.597892      58.087732    
    469000   0.99350189     18.365458      57.8882      
    470000   0.99865452     18.207106      57.85064     
    471000   1.0064492      17.922287      57.878042    
    472000   1.0163768      17.835484      57.625443    
    473000   1.0145066      18.438181      57.424736    
    474000   0.97997717     18.582184      57.302674    
    475000   1.0111135      18.787036      57.246004    
    476000   0.98845863     17.818288      57.2029      
    477000   0.98141609     18.360107      57.299632    
    478000   1.0103874      18.622667      57.355337    
    479000   1.000249       18.079578      57.191646    
    480000   0.9780553      18.247254      57.121383    
    481000   1.0280804      18.066718      57.168899    
    482000   1.0488405      18.464165      57.020558    
    483000   0.96143003     18.328761      56.851888    
    484000   0.97461685     18.349415      56.63473     
    485000   1.0243212      18.159396      56.418941    
    486000   1.0667554      18.440623      56.156721    
    487000   0.96091893     18.53066       56.393783    
    488000   1.0638598      18.429289      56.495987    
    489000   1.1000848      18.139365      56.259488    
    490000   0.99702148     18.671812      56.287954    
    491000   1.0395242      17.977447      56.205021    
    492000   0.99935663     18.601882      55.670829    
    493000   0.98577636     17.838589      55.385436    
    494000   1.0218486      17.796628      55.158517    
    495000   1.0205863      18.234885      55.143471    
    496000   1.0385086      18.828132      54.961957    
    497000   0.99339362     18.50267       54.731983    
    498000   1.0206393      17.846418      54.604154    
    499000   0.98889267     18.403737      54.636432    
    500000   1.0122813      19.144591      54.718356    
    501000   1.0030564      18.159193      54.472358    
    502000   1.0581559      18.691528      54.444198    
    503000   0.97832502     18.166475      54.369028    
    504000   0.98915984     18.238751      54.173574    
    505000   0.99776283     18.289236      54.077894    
    506000   1.0139857      18.069611      53.808384    
    507000   1.0109407      18.034283      53.817766    
    508000   1.0275264      18.286856      53.666619    
    509000   1.0116377      17.441143      53.589099    
    510000   0.91236401     18.075425      53.417561    
    511000   0.98774997     18.018685      53.30896     
    512000   1.0060936      17.894246      52.968539    
    513000   1.0064622      18.192878      52.990175    
    514000   0.98896167     17.90013       52.818378    
    515000   0.9829073      18.030114      52.480551    
    516000   0.97596862     17.038117      52.488881    
    517000   1.0023797      17.873577      52.735948    
    518000   1.0086611      18.151886      52.577928    
    519000   0.99325792     18.188147      52.699286    
    520000   0.99292199     18.250309      52.294889    
    521000   0.97759488     18.391217      52.398676    
    522000   1.0206088      17.430983      52.152942    
    523000   0.99967401     18.495126      52.018055    
    524000   0.99739835     18.273307      52.014335    
    525000   0.99154006     18.465535      51.867205    
    526000   1.0044986      17.977769      51.676721    
    527000   1.0345495      18.132622      51.417493    
    528000   1.0049372      18.222768      51.241963    
    529000   1.0094814      17.732648      51.181712    
    530000   1.0007898      17.914896      51.001557    
    531000   1.0020461      17.909252      51.128484    
    532000   1.0010479      17.945888      50.881657    
    533000   0.98164677     18.495348      50.75417     
    534000   1.0240628      17.946291      50.310839    
    535000   1.0053987      18.093885      50.143209    
    536000   1.0264529      18.256783      50.08432     
    537000   1.0181871      17.87359       50.046848    
    538000   1.0449009      18.740857      49.853155    
    539000   1.0068001      18.038721      49.789534    
    540000   0.96546102     17.660151      49.399522    
    541000   1.0118313      18.638613      48.97959     
    542000   0.98163298     18.295111      49.250911    
    543000   1.0136908      18.603139      49.467471    
    544000   1.021917       17.482936      49.452909    
    545000   1.0031525      18.338341      49.209836    
    546000   0.98506208     18.03443       49.211195    
    547000   0.95936705     17.52352       49.040734    
    548000   0.95267859     17.766212      48.804793    
    549000   1.0071342      18.200509      48.515706    
    550000   0.99537323     17.896319      48.48941     
    551000   0.99876077     18.303698      48.100634    
    552000   1.0030007      18.272541      47.732275    
    553000   0.9973999      17.950354      47.407376    
    554000   1.0075902      18.082805      47.364779    
    555000   1.0026098      17.95604       47.359917    
    556000   1.0305888      18.25231       46.966584    
    557000   0.98596206     18.014095      46.773612    
    558000   1.0300387      18.391077      46.610424    
    559000   1.008738       17.705586      46.562614    
    560000   1.0321742      18.382577      46.597675    
    561000   1.0166767      18.149613      46.40548     
    562000   1.0194533      18.465535      46.301481    
    563000   1.0007124      18.071941      46.19196     
    564000   1.0472002      17.96524       46.246274    
    565000   1.0310411      17.786169      46.200258    
    566000   0.99628524     18.747736      46.199417    
    567000   0.97291308     17.561918      45.925451    
    568000   1.0340644      17.911699      45.818352    
    569000   1.0279624      18.257893      45.521641    
    570000   0.98129889     17.729788      45.619323    
    571000   1.0716298      18.207274      45.525416    
    572000   1.0000922      18.417266      45.513836    
    573000   0.9959244      18.320828      45.483885    
    574000   1.0085429      17.675386      45.310119    
    575000   1.0092878      18.060839      45.066547    
    576000   0.99820257     17.63795       44.825444    
    577000   1.0572711      18.950548      44.797308    
    578000   0.9746527      18.480821      44.846194    
    579000   1.0345302      18.091466      44.763416    
    580000   0.99489838     17.588585      44.434963    
    581000   0.97355045     17.0595        44.413045    
    582000   0.95202085     17.928637      44.239773    
    583000   0.97801982     18.080804      44.325102    
    584000   1.0283838      17.896549      44.383649    
    585000   1.0567011      18.17003       44.243647    
    586000   0.99036182     17.902419      44.244084    
    587000   1.0295733      17.826128      43.874709    
    588000   0.98939679     17.783226      43.739299    
    589000   1.0063964      17.967142      43.628739    
    590000   0.95784676     17.721144      43.386972    
    591000   0.96900115     17.821049      43.252939    
    592000   1.0184724      18.598497      43.268612    
    593000   1.003737       18.239749      43.051124    
    594000   0.98676285     17.401274      42.945596    
    595000   1.0136835      18.397403      42.766301    
    596000   1.0799166      17.244349      42.798483    
    597000   0.97750532     18.167296      42.782536    
    598000   1.0014657      18.433235      42.69418     
    599000   0.96153868     18.264925      42.695954    
    600000   0.99673211     17.904241      42.446229    
    601000   1.0196499      17.909054      42.145277    
    602000   0.979661       17.927778      41.868868    
    603000   0.99569934     18.410912      41.685       
    604000   0.94299567     18.02591       41.348843    
    605000   0.95103608     17.633949      41.453101    
    606000   1.0128755      18.126481      41.358813    
    607000   1.0137028      18.395887      41.315878    
    608000   1.056992       18.374933      40.999532    
    609000   1.0140079      17.823156      40.931037    
    610000   0.99636233     17.78061       40.866961    
    611000   0.98065628     17.879473      40.952591    
    612000   0.9911018      17.957343      40.95133     
    613000   0.9886864      18.131801      40.96232     
    614000   1.0151774      18.429975      40.772068    
    615000   0.94953819     17.990298      40.654046    
    616000   1.0150235      18.077026      40.29827     
    617000   0.98831316     18.392959      40.028565    
    618000   1.0372115      18.157449      39.949624    
    619000   1.0240527      18.235974      40.128001    
    620000   0.98025109     18.067607      39.876224    
    621000   1.054655       17.768926      39.871193    
    622000   0.99089251     17.672273      39.867448    
    623000   0.95649592     17.859957      39.558295    
    624000   1.0215508      17.928495      39.490912    
    625000   0.98646992     17.679789      39.570289    
    626000   1.0341476      18.64755       39.458483    
    627000   1.0066736      18.600717      39.654441    
    628000   0.97692681     17.809087      39.508587    
    629000   0.97870763     17.752622      39.375605    
    630000   1.0076835      17.592503      39.474954    
    631000   0.99989869     17.828538      39.448031    
    632000   0.97923254     17.51177       39.432941    
    633000   1.002001       17.252884      39.144817    
    634000   0.97361133     17.858632      39.011794    
    635000   1.0499118      17.964552      38.982731    
    636000   0.98540737     18.037675      38.679813    
    637000   0.96496946     17.765064      38.843196    
    638000   0.99009327     17.624129      38.969712    
    639000   0.99234088     18.870287      38.699858    
    640000   0.99026971     17.839787      38.668093    
    641000   0.97334074     18.306339      38.402296    
    642000   0.98684521     17.90455       38.164795    
    643000   0.998199       19.052034      38.081488    
    644000   0.97236851     18.212625      38.185426    
    645000   0.99646907     18.48147       37.989613    
    646000   0.97951872     18.186763      37.725995    
    647000   1.0595931      17.274741      37.638065    
    648000   0.99864023     18.396578      37.649167    
    649000   0.9945129      17.444553      37.352874    
    650000   0.99566529     17.854075      37.392877    
    651000   0.99908004     17.90616       37.274011    
    652000   0.98065174     18.072849      37.080161    
    653000   0.99359097     17.962833      37.009957    
    654000   1.0185256      18.244955      36.748995    
    655000   1.0430188      17.218487      36.468457    
    656000   1.0058586      18.253807      36.534747    
    657000   0.99085751     18.120154      36.475127    
    658000   0.96654646     17.574037      36.493276    
    659000   1.0027669      18.428312      36.52838     
    660000   0.9897051      17.670117      36.311722    
    661000   1.0085636      17.978649      36.145308    
    662000   1.0132299      18.660686      35.923578    
    663000   0.97174672     17.987594      35.834684    
    664000   1.0191455      17.758083      35.660607    
    665000   1.0363187      18.081564      35.838028    
    666000   1.0482203      18.455962      35.722901    
    667000   0.97446709     18.109311      35.467865    
    668000   1.0278081      18.011866      35.273876    
    669000   1.0036186      17.88213       35.12268     
    670000   1.0332039      18.511482      35.094376    
    671000   1.0008736      18.159957      35.299813    
    672000   0.98949929     18.260961      35.134688    
    673000   0.98418013     18.353175      35.088302    
    674000   1.0046202      17.722071      35.044       
    675000   0.98578527     17.321489      34.75471     
    676000   0.9681901      17.662166      34.956587    
    677000   1.0195248      18.540187      34.992776    
    678000   0.99395161     18.607908      34.890961    
    679000   0.9735909      18.040002      34.9663      
    680000   0.99411792     17.741535      34.83011     
    681000   0.98631502     18.158799      34.441207    
    682000   0.97156537     17.427182      34.192738    
    683000   1.0492834      17.242553      34.052992    
    684000   1.0173887      17.677924      33.721567    
    685000   0.96075193     17.379685      33.462953    
    686000   1.009996       18.203224      33.175912    
    687000   1.0847605      18.536236      33.135736    
    688000   1.0103138      17.779604      33.043816    
    689000   0.97774421     17.679504      32.900951    
    690000   0.9852791      17.059807      32.810352    
    691000   0.94197394     17.562657      32.593303    
    692000   1.0119496      17.441546      32.763721    
    693000   0.98531726     17.396161      32.561393    
    694000   1.0142717      17.294386      32.310498    
    695000   0.9640325      17.32965       32.168533    
    696000   1.0103117      17.934194      32.117305    
    697000   0.99641785     18.443549      32.089985    
    698000   0.98727069     18.304449      32.032303    
    699000   0.9752488      17.396841      31.868152    
    700000   0.99666383     17.79267       31.768421    
    701000   0.99915182     17.900193      31.701734    
    702000   1.0263242      18.195613      31.36088     
    703000   1.0199637      18.043432      31.114274    
    704000   0.97177861     17.958633      31.137087    
    705000   1.0186171      17.168379      30.925183    
    706000   1.0407913      17.725114      30.8778      
    707000   1.0150152      18.246757      31.029593    
    708000   0.95177334     17.982866      30.818503    
    709000   1.0001151      17.990093      30.697841    
    710000   1.0180339      18.384859      30.78291     
    711000   1.0208178      17.294307      30.779784    
    712000   0.99398775     17.792865      30.613423    
    713000   0.98563163     18.072092      30.458717    
    714000   0.98332758     17.734519      30.48309     
    715000   0.98033809     17.451931      30.248394    
    716000   0.98036379     17.5274        30.20529     
    717000   0.98835303     17.901086      30.092891    
    718000   1.0298459      17.277591      30.443731    
    719000   1.0016469      18.031108      30.226509    
    720000   0.96827586     17.434705      30.177643    
    721000   1.0157857      17.654356      30.054616    
    722000   1.0177791      18.233217      30.028538    
    723000   0.95277313     18.153105      29.756992    
    724000   1.0060728      17.560066      29.428762    
    725000   0.94574928     18.178141      29.276395    
    726000   1.0645145      17.703285      29.168545    
    727000   0.95998007     17.801928      28.952562    
    728000   1.020583       17.642033      28.791638    
    729000   0.96231299     17.743706      28.946841    
    730000   0.98467362     18.163267      28.943515    
    731000   1.0002445      17.665818      28.841815    
    732000   0.95405037     17.598746      28.771168    
    733000   0.97938815     17.837414      28.814045    
    734000   0.98397461     17.828314      29.053857    
    735000   0.98253407     17.303417      28.824129    
    736000   0.99815942     17.817302      28.812489    
    737000   0.98159353     17.054294      28.753103    
    738000   1.0145697      17.793243      28.673405    
    739000   0.96460949     17.610927      28.423242    
    740000   0.94175321     17.898387      28.327691    
    741000   0.93108034     17.62152       28.284844    
    742000   1.0151563      17.7432        28.026037    
    743000   0.9879989      17.541952      27.805559    
    744000   0.98979554     17.021821      27.778501    
    745000   0.99974243     17.392762      27.628147    
    746000   0.95674243     17.958886      27.58753     
    747000   1.0088122      18.386874      27.240849    
    748000   0.96872618     17.49599       27.236527    
    749000   1.0092804      17.913031      27.22516     
    750000   0.96107643     17.46957       27.026324    
    751000   0.99826687     17.952714      26.623602    
    752000   1.0297968      18.07598       26.447436    
    753000   0.98533887     17.442754      26.554867    
    754000   0.95087514     17.763374      26.45886     
    755000   1.0345529      17.238826      26.408481    
    756000   1.032573       18.02298       26.320863    
    757000   0.96937635     17.71468       25.898121    
    758000   0.96281739     18.060905      25.513449    
    759000   0.97899659     17.3168        25.419711    
    760000   1.0559571      17.731213      25.256149    
    761000   1.0212017      17.600207      25.205103    
    762000   0.97017237     18.406929      25.007763    
    763000   1.0631322      17.594502      24.782308    
    764000   0.93591315     17.789557      24.456712    
    765000   0.99349371     18.106977      24.408189    
    766000   0.9940825      17.537944      24.320671    
    767000   1.0124634      17.521333      23.97866     
    768000   1.0258364      17.560532      23.740696    
    769000   1.0006667      18.072495      23.706866    
    770000   1.0328639      17.799008      23.815384    
    771000   0.96798378     17.542604      23.597897    
    772000   0.97005966     17.935351      23.598768    
    773000   0.94180806     17.380054      23.387333    
    774000   1.0162932      17.739953      23.283333    
    775000   0.98825281     17.375893      22.876596    
    776000   0.98153386     17.793596      22.517702    
    777000   1.0537174      18.014753      22.337678    
    778000   0.95222203     17.682884      22.11155     
    779000   1.0333243      17.437398      21.987357    
    780000   1.0621957      18.174591      21.811349    
    781000   0.97900628     16.790028      21.579104    
    782000   0.98139916     17.529854      21.651105    
    783000   0.98460912     17.166841      21.599574    
    784000   1.0119707      17.486052      21.269276    
    785000   0.99455553     17.614381      21.107692    
    786000   1.0193749      17.315704      20.83053     
    787000   0.95509386     17.521882      20.842911    
    788000   0.99425653     17.534259      20.672569    
    789000   1.0246589      17.560512      20.230347    
    790000   0.97566631     17.950678      20.071673    
    791000   0.96936263     17.62956       20.004356    
    792000   0.96926714     17.242513      19.952487    
    793000   0.93498095     17.20482       19.58628     
    794000   1.038178       17.750193      19.599099    
    795000   1.0332069      17.272104      19.493474    
    796000   0.9914931      17.127795      19.608495    
    797000   0.95848562     17.613875      19.482099    
    798000   1.0031471      17.809215      19.259699    
    799000   1.0332519      17.867959      19.114481    
    800000   1.0070819      17.236803      19.03407     
    801000   1.0122805      17.742445      19.208719    
    802000   0.96609098     17.971308      19.258116    
    803000   0.99991327     17.68468       19.280649    
    804000   1.0039537      17.693676      19.350578    
    805000   1.010722       17.738604      19.135063    
    806000   0.95811964     16.67148       18.991629    
    807000   1.0257997      18.279643      18.905362    
    808000   0.99744549     17.790856      18.850429    
    809000   1.0412111      17.500618      18.737212    
    810000   0.95844149     17.644646      18.47326     
    811000   1.0569154      17.03208       18.217578    
    812000   0.9970064      16.902886      18.201537    
    813000   0.97467129     18.099974      18.108764    
    814000   1.0086439      17.653641      17.951492    
    815000   0.9583499      17.877623      17.790494    
    816000   1.0019276      17.217258      17.581212    
    817000   1.0484129      18.231004      17.57431     
    818000   0.98757225     17.658788      17.411504    
    819000   0.93865476     16.297857      17.281719    
    820000   1.0114568      17.128909      17.158973    
    821000   1.0036228      17.594251      17.017881    
    822000   1.0000377      17.57703       16.887407    
    823000   1.0470576      17.221872      16.615557    
    824000   1.0815179      17.617199      16.264096    
    825000   1.0000172      17.491281      16.048123    
    826000   1.0672414      18.300978      16.227646    
    827000   1.0082837      17.405659      16.02206     
    828000   1.0229904      17.745355      15.883392    
    829000   1.0220678      17.590942      15.686739    
    830000   0.99995067     17.369687      15.293681    
    831000   0.99889997     17.811887      15.235059    
    832000   0.94390723     17.70957       14.960965    
    833000   1.0176964      17.667366      14.621292    
    834000   1.0153028      17.720162      14.707576    
    835000   1.0005833      17.430513      14.606078    
    836000   0.94124688     17.637382      14.173203    
    837000   1.0307491      17.850443      13.950494    
    838000   0.99859822     17.314943      13.683978    
    839000   0.98522674     17.401124      13.558813    
    840000   1.0066952      17.848636      13.544707    
    841000   1.0493469      17.813343      13.399184    
    842000   0.98074504     17.180692      13.030726    
    843000   1.009324       17.517119      12.694512    
    844000   0.95098964     17.788171      12.468342    
    845000   0.98952782     17.246711      12.124291    
    846000   1.0683584      17.909691      12.143971    
    847000   0.98987452     17.453724      12.111293    
    848000   1.0305019      17.131388      12.066762    
    849000   1.0276323      17.427157      11.945346    
    850000   0.961462       15.968531      11.836342    
    851000   1.009716       16.452329      11.903006    
    852000   1.0539446      17.155142      12.069789    
    853000   1.0374864      17.143448      11.915001    
    854000   0.98435047     16.804495      12.040612    
    855000   1.0315124      16.938566      11.873403    
    856000   0.98004595     17.974999      11.510254    
    857000   1.01413        17.195271      11.456176    
    858000   1.0293543      17.039445      11.377414    
    859000   1.0314837      17.305226      11.294421    
    860000   0.97653236     16.775257      11.280927    
    861000   0.99403165     17.22212       11.277373    
    862000   1.0169473      17.473582      11.019923    
    863000   0.96626824     16.99798       11.051044    
    864000   0.97501051     17.015864      10.791637    
    865000   1.0228277      17.307656      10.708373    
    866000   1.0703856      17.758215      10.455696    
    867000   1.0261248      17.679434      10.525412    
    868000   0.97463127     17.261764      10.318265    
    869000   0.99464949     16.849185      10.137485    
    870000   0.98309133     16.845742      10.029314    
    871000   1.0059004      17.31971       9.9202382    
    872000   1.0155212      17.570013      9.8315325    
    873000   1.0165223      17.680907      9.6668923    
    874000   1.0101172      17.557684      9.619725     
    875000   0.97840899     17.007614      9.4086444    
    876000   1.023924       17.291991      9.5656065    
    877000   1.0473141      17.556842      9.5464454    
    878000   1.0452954      17.800804      9.6322333    
    879000   1.0467442      16.886939      9.6438182    
    880000   0.99322818     17.18053       9.8057047    
    881000   1.0150472      17.405905      9.8365186    
    882000   1.0059478      17.507304      9.6598541    
    883000   1.0209256      17.305235      9.4738566    
    884000   1.0123166      17.642729      9.4322389    
    885000   0.95336601     17.324612      9.3143606    
    886000   1.0010069      17.779736      9.0358623    
    887000   0.99395468     17.293437      9.0880994    
    888000   1.0064158      16.941801      8.9714977    
    889000   1.0055507      17.313281      8.9450206    
    890000   0.98062521     17.05182       8.8029725    
    891000   0.97025806     16.890339      8.7081507    
    892000   0.97888823     16.796958      8.5367528    
    893000   1.0351095      16.78582       8.3037317    
    894000   1.0231241      17.12163       8.3325341    
    895000   1.0062097      16.880418      8.3536159    
    896000   1.0037515      17.369585      8.659689     
    897000   0.97689415     16.92293       8.9357533    
    898000   0.9808978      17.074845      8.9941892    
    899000   0.94400439     17.518881      9.1645523    
    900000   0.99352352     16.977086      9.2351327    
    901000   1.0110239      17.333849      9.0046692    
    902000   1.0138046      17.558031      9.0790757    
    903000   0.97499812     17.192808      9.0241335    
    904000   1.0098095      17.190864      9.2224019    
    905000   0.99308855     16.544308      9.2479915    
    906000   0.97446212     16.948101      9.1996318    
    907000   1.0102991      17.625369      9.0747701    
    908000   1.0146621      16.240304      8.8864115    
    909000   0.97257674     17.010916      8.7466149    
    910000   1.0217367      17.696249      8.3320469    
    911000   1.0074259      16.98078       8.1528822    
    912000   1.0027512      17.132924      8.000615     
    913000   1.0008027      16.82516       7.8690661    
    914000   1.0147425      17.231326      7.7004862    
    915000   0.98940385     16.522582      7.621081     
    916000   1.0055891      17.320568      7.3393986    
    917000   1.0034799      17.545144      7.2212978    
    918000   1.013894       17.341185      7.2133845    
Fix halt condition for fix-id 3 met on step 919000 with value 6.895117596234355 (src/fix_halt.cpp:237)
    919000   0.97367375     17.2252        6.8951176    
Loop time of 1370.25 on 2 procs for 819000 steps with 799 atoms

Performance: 516413.871 tau/day, 597.701 timesteps/s
53.3% CPU use with 2 MPI tasks x 1 OpenMP threads

MPI task timing breakdown:
Section |  min time  |  avg time  |  max time  |%varavg| %total
---------------------------------------------------------------
Pair    | 0.24292    | 276.47     | 552.71     |1661.3 | 20.18
Bond    | 0.25112    | 27.269     | 54.287     | 517.4 |  1.99
Neigh   | 687.52     | 687.56     | 687.6      |   0.2 | 50.18
Comm    | 1.0037     | 1.0844     | 1.1652     |   7.8 |  0.08
Output  | 3.9218     | 3.9523     | 3.9828     |   1.5 |  0.29
Modify  | 1.7793     | 30.317     | 58.854     | 518.3 |  2.21
Other   |            | 343.6      |            |       | 25.07

Nlocal:          399.5 ave         799 max           0 min
Histogram: 1 0 0 0 0 0 0 0 0 1
Nghost:              0 ave           0 max           0 min
Histogram: 2 0 0 0 0 0 0 0 0 0
Neighs:        71829.5 ave      143659 max           0 min
Histogram: 1 0 0 0 0 0 0 0 0 1

Total # of neighbors = 143659
Ave neighs/atom = 179.7985
Ave special neighs/atom = 1.9974969
Neighbor list builds = 7724
Dangerous builds = 0

# This simulation is done
# Move onto the next one
clear
OMP_NUM_THREADS environment is not set. Defaulting to 1 thread. (src/comm.cpp:98)
  using 1 OpenMP thread(s) per MPI task
next f
jump SELF

###
# Reference paper:
# K. Kremer and G. S. Grest
# Dynamics of entangled linear polymer melts: A molecular-dynamics simulation
# J Chem Phys 92, 5057 (1990)

##################################
# MIHIR: for branched polymers
# LJ minimum first to expand and explore, then collapse
###

###
# Looping through the various tshaped polymers to simulate,
# define variables to switch through
variable f index bb66nuc1bl33bn3d30tot100 bb133nuc1bl66bn3d30tot200 bb200nuc1bl100bn3d30tot300 bb266nuc1bl133bn3d30tot400 bb333nuc1bl166bn3d30tot500 bb400nuc1bl200bn3d30tot600 bb466nuc1bl233bn3d30tot700 bb533nuc1bl266bn3d30tot800 bb600nuc1bl300bn3d30tot900 bb666nuc1bl333bn3d30tot1000 bb733nuc1bl366bn3d30tot1100 bb800nuc1bl400bn3d30tot1200
###


###
# Box and units  (use LJ units and periodic boundaries)
###

units lj
log tshaped/logs/$f.log
log tshaped/logs/bb600nuc1bl300bn3d30tot900.log
