#atom_style bond #no stiffness
atom_style angle #with stiffness

boundary        p p p
###
# Pair interactions require lists of neighbours to be calculated
###

#neighbor 0.3 bin
neighbor 4 bin

neigh_modify every 1 delay 1 check yes
atom_modify sort 0 0
### Generate RESTART file, SPECIAL format, not a .txt file ###
### Useful if simulation crashes ###

restart 1000000 tshaped/restarts/$f.restart
restart 1000000 tshaped/restarts/bb666nuc1bl333bn3d30tot1000.restart
#############################



### READ "start" data file ###

read_data tshaped/$f.dat
read_data tshaped/bb666nuc1bl333bn3d30tot1000.dat
Reading data file ...
  orthogonal box = (-1000 -1000 -1000) to (1000 1000 1000)
  1 by 1 by 2 MPI processor grid
  reading atoms ...
  1000 atoms
  scanning bonds ...
  2 = max bonds/atom
  scanning angles ...
  3 = max angles/atom
  reading bonds ...
  999 bonds
  reading angles ...
  999 angles
Finding 1-2 1-3 1-4 neighbors ...
  special bond factors lj:    0        0        0       
  special bond factors coul:  0        0        0       
     3 = max # of 1-2 neighbors
     3 = max # of 1-3 neighbors
     6 = max # of 1-4 neighbors
     9 = max # of special neighbors
  special bonds CPU = 0.001 seconds
  read_data CPU = 0.112 seconds

######################

### READ "REstart" data file ###

######################



###
# Define groups (atom type 1 is group 'all')
###
group all type 1
1000 atoms in group all


###
# Dump configs - "simple dumpings"
###

###
# Dump configs + box coords
###

dump   1   all   custom   1000  tshaped/trjs/$f.lammpstrj  id  x y z  ix iy iz
dump   1   all   custom   1000  tshaped/trjs/bb666nuc1bl333bn3d30tot1000.lammpstrj  id  x y z  ix iy iz
dump_modify   1   format line "%d %.5f %.5f %.5f %d %d %d"

########################################################################


###################################################################
# Stiffness term
#
# E = K * (1+cos(theta)), K>0
#
angle_style   cosine
#change this coefficient to change stiffness (e.g. 1,5,10)
angle_coeff   1 1.0
###################################################################

###################################################################
# Pair interaction between non-bonded atoms
#
#  Lennard-Jones 12-6 potential with cutoff:
#  potential E=4epsilon[ (sigma/r)^12 - (sigma/r)^6]  for r<r_cut
#
#  1.12246 = 2^(1/6) is the minimum of the potential


pair_style      lj/cut 1.12246152962189
#pair_style      lj/cut 3

#
#  pair_modify shift yes adds a constant to the potential such

#  that E(r_cut)=0. Forces remains unchanged.
#

pair_modify     shift yes

#
#  pair_coeff for lj/cut, specify 4:
#    * atom type interacting with
#    * atom type
#    * epsilon (energy units)
#    * sigma (distance units)
#

pair_coeff      1 1 1.0 1.0
###################################################################

###################################################################
# Pair interaction between non-bonded atoms
#
#  soft potential, for PUSHING apart overlapping atoms
#  potential E=A*(1 + cos(pi*r/r_c))
#
#  1.12246 = 2^(1/6) is the cut-off r_c

#pair_style     soft 1.12246152962189

#
#  pair_coeff for soft, specify 3:
#    * atom type interacting with
#    * atom type
#    * A
#
#

#pair_coeff      1 1 100.0
###################################################################

###################################################################
# Pair interaction between bonded atoms
#
# Fene potential + Lennard Jones 12-6:

#
#  E= - 0.5 K R0^2 ln[ 1- (r/R0)^2]
#     + 4epsilon[ (sigma/r)^12 - (sigma/r)^6] + epsilon
#

bond_style   fene


#
# For style fene, specify:
#   * bond type
#   * K (energy/distance^2)
#   * R0 (distance)
#   * epsilon (energy)  (LJ component)
#   * sigma (distance)  (LJ component)
#


special_bonds fene #<=== I M P O R T A N T (new command)
Finding 1-2 1-3 1-4 neighbors ...
  special bond factors lj:    0        1        1       
  special bond factors coul:  0        1        1       
     3 = max # of 1-2 neighbors
     9 = max # of special neighbors
  special bonds CPU = 0.000 seconds

bond_coeff   1   30   2   1.0   1.0


###################################################

###################################################################
# Pair interaction between bonded atoms
#
# Harmonic potential:
#
#  E= K * (R-R0)^2
#

#bond_style   harmonic

#
# For style harmonic, specify:
#   * bond type
#   * K (energy/distance^2)
#   * R0 (distance)
#

#bond_coeff   1   60.0   1.0
#bond_coeff   2   harmonic 0.1   1.0

###################################################
compute 1 all gyration
variable rog equal c_1
#compute 2 all coord/atom cutoff 1.1

#dump 2 all custom 10000 contact_number.dump id c_2


###
# Set up fixes
###
thermo_style   custom   step  temp enthalpy c_1
fix 1 all nve   ###NVE ensemble

fix 2 all   langevin   1.0 1.0 1.0  100103   ###Langevin integrator Tstart Tstop 1/friction rndseed


##### Sample thermodynamic info  (temperature, energy, pressure, etc.) #####
thermo 1000









############################################################################

###
# set timestep of integrator

timestep 0.01

###
# run integration for a number of steps
###
#run 0
#variable r equal c_1
#if "$r < 63.1" then "quit 1"

# lj potential minimum, cause molecule to explore
run 100000
Generated 0 of 0 mixed pair_coeff terms from geometric mixing rule
Neighbor list info ...
  update: every = 1 steps, delay = 1 steps, check = yes
  max neighbors/atom: 2000, page size: 100000
  master list distance cutoff = 5.1224615
  ghost atom cutoff = 5.1224615
  binsize = 2.5612308, bins = 781 781 781
  1 neighbor lists, perpetual/occasional/extra = 1 0 0
  (1) pair lj/cut, perpetual
      attributes: half, newton on
      pair build: half/bin/newton
      stencil: half/bin/3d
      bin: standard
WARNING: Communication cutoff 5.12246152962189 is shorter than a bond length based estimate of 5.455. This may lead to errors. (src/comm.cpp:723)
Per MPI rank memory allocation (min/avg/max) = 939.5 | 940.1 | 940.7 Mbytes
   Step          Temp         Enthalpy         c_1      
         0   0              13.311897      170.62068    
      1000   0.98011255     17.884575      170.17892    
      2000   1.0107102      18.020119      169.78259    
      3000   1.0126079      18.342465      169.49301    
      4000   1.016509       18.370183      169.21111    
      5000   1.0028105      18.440422      168.79654    
      6000   1.0153201      18.333446      168.40019    
      7000   0.98949242     18.533147      167.92009    
      8000   1.0080752      18.391409      167.59382    
      9000   0.97460987     18.575119      167.41524    
     10000   1.0011553      18.486008      167.00532    
     11000   1.0136244      18.902889      166.64298    
     12000   1.0020306      18.616712      166.46017    
     13000   0.99652739     19.147485      166.02171    
     14000   1.0209853      18.828082      165.79656    
     15000   1.0054423      19.050822      165.65605    
     16000   1.013948       19.135603      165.49699    
     17000   1.0544052      19.070341      165.34343    
     18000   0.98664078     19.054425      165.22906    
     19000   1.0023826      19.064357      164.96787    
     20000   1.0060535      18.66962       164.57433    
     21000   1.0245825      19.336137      164.4489     
     22000   0.98309289     18.529697      164.26405    
     23000   1.0593454      19.573674      164.09372    
     24000   1.0082021      19.198748      163.79029    
     25000   0.99477146     19.19527       163.72468    
     26000   0.9843911      18.990434      163.38387    
     27000   0.98714979     19.063804      163.15475    
     28000   0.97489849     18.823127      162.94606    
     29000   1.0382226      18.846517      162.80397    
     30000   1.0312667      18.774645      162.65758    
     31000   0.99800702     18.574928      162.31561    
     32000   0.97419135     18.67579       162.03386    
     33000   1.021126       18.816027      161.9423     
     34000   0.95337555     18.683706      161.53467    
     35000   1.0154177      18.970679      161.21832    
     36000   1.0213767      19.168955      161.10461    
     37000   1.0010856      19.40773       160.91145    
     38000   1.0184946      19.056501      160.7056     
     39000   1.0155478      18.954754      160.4965     
     40000   0.97753874     19.511368      160.22891    
     41000   0.96420121     19.274519      159.93211    
     42000   1.014251       19.577631      160.02736    
     43000   1.0210084      19.751         159.74141    
     44000   1.0697221      19.111096      159.47231    
     45000   1.0138065      19.176181      159.24394    
     46000   1.064195       19.185926      158.97176    
     47000   1.0104711      19.082807      159.11362    
     48000   1.0451722      19.555725      158.90773    
     49000   1.0562715      18.8957        158.41019    
     50000   1.0104646      19.19555       158.19552    
     51000   0.99858927     19.250495      158.0478     
     52000   1.0124593      19.924329      157.96462    
     53000   1.0162168      19.509187      157.76057    
     54000   0.97937635     19.3854        157.44908    
     55000   0.92138992     18.986013      157.3846     
     56000   0.99134884     19.134502      157.24052    
     57000   1.0084512      19.631467      157.1582     
     58000   1.0308137      19.333951      156.80567    
     59000   0.98375357     19.567024      156.73559    
     60000   1.038603       19.558285      156.65671    
     61000   0.95411971     19.364277      156.23033    
     62000   0.947987       19.578783      156.07807    
     63000   0.99267791     19.499987      155.66762    
     64000   1.0039035      19.485501      155.52504    
     65000   1.0182245      19.294764      155.40567    
     66000   0.95584877     19.356613      155.25764    
     67000   0.9452273      19.529468      155.02568    
     68000   0.99237828     19.813148      154.65001    
     69000   1.0256654      19.591896      154.34582    
     70000   0.99973319     19.418325      153.95434    
     71000   1.0150312      19.664783      153.84245    
     72000   0.99986042     19.783859      153.61802    
     73000   0.98371746     18.983072      153.21776    
     74000   0.95712611     19.858375      153.10397    
     75000   1.003857       19.593264      153.26116    
     76000   1.0191829      19.324666      153.34997    
     77000   1.0143908      19.720904      153.289      
     78000   0.98164985     19.971778      153.21342    
     79000   1.0216655      19.830301      153.11545    
     80000   1.0023327      19.099349      152.9376     
     81000   0.98307545     19.771752      152.89025    
     82000   0.98856403     19.90658       152.73081    
     83000   1.0029779      19.871175      152.63434    
     84000   1.0341803      19.661702      152.59283    
     85000   0.9694697      19.124014      152.47819    
     86000   1.018371       19.529021      152.31937    
     87000   1.0059126      19.119624      152.09262    
     88000   0.99225044     19.567269      151.76699    
     89000   0.98822334     19.627679      151.67635    
     90000   0.97610462     19.456506      151.52496    
     91000   0.99549835     19.279337      151.32809    
     92000   0.97777128     19.847746      151.16756    
     93000   1.0300991      19.746012      150.96156    
     94000   0.95194432     19.2024        150.92999    
     95000   1.0281065      19.752439      150.99889    
     96000   1.0213819      19.568329      150.79867    
     97000   1.0392715      19.991561      150.58114    
     98000   0.97798844     19.287059      150.39351    
     99000   0.95625592     19.673635      150.50745    
    100000   0.98154073     19.643677      150.33357    
Loop time of 258.499 on 2 procs for 100000 steps with 1000 atoms

Performance: 334236.952 tau/day, 386.848 timesteps/s
54.1% CPU use with 2 MPI tasks x 1 OpenMP threads

MPI task timing breakdown:
Section |  min time  |  avg time  |  max time  |%varavg| %total
---------------------------------------------------------------
Pair    | 0.0084971  | 1.6751     | 3.3416     | 128.8 |  0.65
Bond    | 0.030806   | 3.8907     | 7.7506     | 195.7 |  1.51
Neigh   | 236.91     | 236.93     | 236.94     |   0.1 | 91.66
Comm    | 0.15971    | 0.17178    | 0.18386    |   2.9 |  0.07
Output  | 0.64816    | 0.65712    | 0.66609    |   1.1 |  0.25
Modify  | 0.12929    | 4.2497     | 8.3701     | 199.9 |  1.64
Other   |            | 10.93      |            |       |  4.23

Nlocal:            500 ave        1000 max           0 min
Histogram: 1 0 0 0 0 0 0 0 0 1
Nghost:              0 ave           0 max           0 min
Histogram: 2 0 0 0 0 0 0 0 0 0
Neighs:           2535 ave        5070 max           0 min
Histogram: 1 0 0 0 0 0 0 0 0 1

Total # of neighbors = 5070
Ave neighs/atom = 5.07
Ave special neighs/atom = 1.998
Neighbor list builds = 1065
Dangerous builds = 0

# Replace lj potential, now collapse
pair_style      lj/cut 3

# Cutoff simul when gyration under 5
# Variable created with equal requires v_ + 'name'
fix 3 all halt 1000 v_rog < 7

run 5000000
Generated 0 of 0 mixed pair_coeff terms from geometric mixing rule
Per MPI rank memory allocation (min/avg/max) = 939.5 | 940.1 | 940.7 Mbytes
   Step          Temp         Enthalpy         c_1      
    100000   0.98154073     19.158687      150.33357    
    101000   0.93851705     19.086056      150.31928    
    102000   1.0065924      19.338522      150.16857    
    103000   0.94921436     19.090926      149.92853    
    104000   1.02724        19.422922      149.44332    
    105000   0.98889073     19.422122      149.19516    
    106000   1.0317399      19.458713      148.89989    
    107000   1.0153521      19.211073      148.83029    
    108000   1.0099463      19.135797      148.73393    
    109000   1.0372898      19.692285      148.81141    
    110000   0.98938307     18.962328      148.85706    
    111000   1.0309104      19.507054      148.64639    
    112000   1.0064289      19.054465      148.40662    
    113000   0.95830697     19.118506      148.1362     
    114000   1.0302811      19.204282      147.82182    
    115000   1.0052876      18.937433      147.80192    
    116000   0.98144551     19.357325      147.61947    
    117000   0.96760019     18.576288      147.3874     
    118000   0.99412715     19.224626      147.4269     
    119000   0.98076051     18.94224       147.36119    
    120000   1.03366        19.546779      147.19134    
    121000   1.0059995      19.471964      146.90095    
    122000   0.96492227     18.905491      146.74638    
    123000   0.99124156     19.001379      146.47673    
    124000   0.99879644     18.456897      146.36104    
    125000   0.97053134     18.649059      146.15799    
    126000   1.0127881      18.900928      145.90104    
    127000   0.99653806     18.912776      145.76617    
    128000   0.97966146     19.576852      145.61342    
    129000   0.99824904     18.652435      145.60014    
    130000   0.97631437     18.88485       145.62837    
    131000   1.0363036      19.0506        145.43148    
    132000   1.0200343      19.55244       145.33333    
    133000   1.0123426      19.556067      145.36761    
    134000   1.029202       19.009078      145.21094    
    135000   0.9661271      19.643367      144.97097    
    136000   1.0163734      19.068117      144.92632    
    137000   0.99780813     19.228094      144.6968     
    138000   0.96431184     19.093183      144.68479    
    139000   0.98535136     18.856735      144.38848    
    140000   1.0287754      19.4097        144.00853    
    141000   1.0096559      18.954999      143.81517    
    142000   1.0181176      18.930853      143.67219    
    143000   0.99428153     19.253629      143.61842    
    144000   1.0060992      19.242205      143.39771    
    145000   1.0347418      19.320305      143.25491    
    146000   0.99197842     18.374279      143.32563    
    147000   1.0480781      19.214368      143.17318    
    148000   1.0088155      19.379195      143.01673    
    149000   0.96732852     19.311031      142.78654    
    150000   1.0001314      19.316199      142.69827    
    151000   0.97861181     19.158083      142.76686    
    152000   1.017547       18.770748      142.67406    
    153000   0.95821387     19.317821      142.46285    
    154000   0.99688942     19.512497      142.28823    
    155000   0.96656109     19.051306      142.20931    
    156000   1.0049765      19.312215      141.85883    
    157000   0.99142029     19.408433      141.8229     
    158000   1.0299329      19.474974      141.64637    
    159000   1.024368       19.234998      141.51475    
    160000   1.0173819      19.966246      141.56088    
    161000   0.96757293     18.802264      141.32205    
    162000   0.96649995     19.507177      140.99503    
    163000   0.99417315     18.562436      140.83778    
    164000   0.98979924     19.167917      140.79404    
    165000   0.99502123     18.874952      140.64964    
    166000   0.97517155     19.341724      140.33211    
    167000   0.99801859     19.320651      139.98054    
    168000   0.99162613     19.13347       139.7159     
    169000   1.0048257      18.886142      139.71166    
    170000   1.0064703      19.295802      139.45284    
    171000   1.018327       19.340149      139.264      
    172000   0.98813634     19.179584      139.32071    
    173000   1.0190167      18.893137      139.25914    
    174000   1.0356143      19.200581      139.29038    
    175000   1.0131003      19.235514      139.27666    
    176000   0.99287899     18.921058      139.42235    
    177000   1.0168963      19.008763      139.02321    
    178000   0.99260086     19.199274      138.93244    
    179000   0.99318137     19.327163      138.88815    
    180000   0.97774517     19.687246      138.64168    
    181000   1.0178687      19.133667      138.56704    
    182000   1.0420888      19.086843      138.41533    
    183000   1.0083414      19.07459       138.25443    
    184000   0.96190082     19.33161       138.14035    
    185000   0.95935058     18.848216      137.86034    
    186000   1.0424348      19.158872      137.88712    
    187000   0.99049391     19.056495      137.66349    
    188000   0.93901302     19.150341      137.50933    
    189000   0.98189677     18.894058      137.40535    
    190000   1.0292996      18.999331      137.36867    
    191000   1.0145519      19.321773      137.01449    
    192000   0.96621157     18.731908      136.80608    
    193000   1.0106596      19.198321      136.66444    
    194000   0.99713433     19.087538      136.50721    
    195000   0.99669226     19.292101      136.24141    
    196000   0.98887315     19.1968        135.98454    
    197000   0.96520757     18.598617      135.90097    
    198000   1.0096822      18.926032      135.81936    
    199000   0.94185967     19.371614      135.7973     
    200000   0.97305306     19.078957      135.73505    
    201000   0.98695503     18.829005      135.49511    
    202000   1.0272153      18.991263      135.32073    
    203000   1.0203241      19.172113      135.06725    
    204000   0.98664112     18.911059      134.93078    
    205000   0.99179046     19.622591      134.7319     
    206000   1.00776        18.975355      134.53398    
    207000   1.0070191      19.326439      134.50781    
    208000   1.0287934      18.835591      134.13294    
    209000   1.0104297      19.424921      134.01726    
    210000   1.0173982      18.764521      134.05016    
    211000   0.96645394     19.067927      133.84665    
    212000   1.0067005      19.127423      133.9846     
    213000   1.0133681      18.687794      133.87218    
    214000   1.0553496      19.130033      133.85039    
    215000   1.0127709      18.99752       133.84144    
    216000   0.97058254     19.379815      133.68647    
    217000   1.0202859      18.915562      133.45045    
    218000   1.0101357      19.22674       133.27749    
    219000   1.0229972      19.203628      133.07775    
    220000   0.99921546     18.903522      132.89422    
    221000   1.0402589      19.277103      132.83479    
    222000   1.0152946      18.936167      132.51704    
    223000   0.99004459     18.851789      132.43607    
    224000   1.0353894      18.784599      132.18764    
    225000   1.0200948      19.086315      132.3543     
    226000   1.0190084      19.134007      132.14459    
    227000   1.0218776      19.026872      132.06859    
    228000   1.0362238      19.297899      132.13248    
    229000   1.0199194      18.922325      132.01596    
    230000   0.99982402     19.414489      131.88824    
    231000   1.0132552      19.093039      131.88182    
    232000   1.0039         19.082747      131.68158    
    233000   0.96780817     19.1735        131.544      
    234000   1.0218194      19.0194        131.47565    
    235000   0.99021155     19.358188      131.31987    
    236000   1.0206026      19.266906      131.30972    
    237000   1.0022693      19.647799      130.97546    
    238000   1.0180289      19.343979      130.69265    
    239000   0.97275614     18.606046      130.89524    
    240000   0.983361       18.81345       130.40804    
    241000   1.0053502      19.288232      130.15096    
    242000   0.9950367      18.866973      129.95291    
    243000   1.0310492      19.38494       130.10654    
    244000   1.0410535      19.180023      130.00068    
    245000   1.0416511      19.027835      129.91835    
    246000   1.0121275      19.046716      129.69206    
    247000   1.0255201      18.919505      129.6239     
    248000   0.94793987     18.570245      129.34338    
    249000   1.013499       19.192851      128.97012    
    250000   1.0427896      19.144022      128.72097    
    251000   1.0235557      19.314796      128.61459    
    252000   0.99355067     19.261229      128.51763    
    253000   0.95223258     18.894062      128.31244    
    254000   0.99695763     18.891185      127.99422    
    255000   1.0019065      19.35803       127.78022    
    256000   1.0199345      19.13501       127.77704    
    257000   1.0282715      19.212061      127.60672    
    258000   1.0276818      19.279808      127.33077    
    259000   0.97135445     19.163222      127.31415    
    260000   0.93109545     18.769513      127.26335    
    261000   1.0269048      19.034068      127.09067    
    262000   0.9567381      18.831846      126.81018    
    263000   1.0031029      18.836174      126.73559    
    264000   1.0013592      18.789875      126.55446    
    265000   1.0264925      18.950878      126.45926    
    266000   0.9926819      18.903406      126.55358    
    267000   1.0329768      18.445316      126.4611     
    268000   1.0615509      19.35218       126.08096    
    269000   1.019692       18.526551      125.91411    
    270000   1.0057274      19.218261      125.88054    
    271000   0.94912398     18.851173      125.97477    
    272000   0.98256168     18.635069      125.72272    
    273000   0.98235769     18.832186      125.61275    
    274000   1.0091353      19.183504      125.6394     
    275000   1.0259417      18.789094      125.32875    
    276000   1.004565       19.408286      125.05664    
    277000   0.99918558     18.271532      125.01948    
    278000   1.0238916      18.849719      125.04198    
    279000   1.0170145      19.203972      124.79527    
    280000   0.98892191     18.946678      124.54291    
    281000   0.98170694     18.785553      124.40446    
    282000   0.98213076     18.733659      124.17325    
    283000   1.0058038      18.782911      124.18073    
    284000   0.96034244     19.172389      124.07543    
    285000   0.99593056     18.795667      123.89503    
    286000   0.96041021     18.334741      123.6408     
    287000   1.0082959      19.080969      123.59561    
    288000   0.98154365     19.024142      123.44881    
    289000   0.98660373     18.911871      123.50224    
    290000   1.0246345      19.093408      123.24107    
    291000   0.98250467     18.692761      123.12632    
    292000   1.0034795      18.818319      123.12246    
    293000   1.0303297      18.843828      122.72105    
    294000   1.0261604      19.205959      122.57566    
    295000   0.99678302     18.56558       122.55893    
    296000   1.0383523      18.980254      122.34941    
    297000   1.004865       18.636466      122.04391    
    298000   1.036896       18.928614      121.91683    
    299000   1.0009419      18.981959      121.92263    
    300000   0.99006866     18.873678      121.7507     
    301000   0.97541476     19.096438      121.61936    
    302000   0.98133565     18.464433      121.53076    
    303000   1.0146232      19.18757       121.54361    
    304000   0.96414133     18.711307      121.3887     
    305000   1.0146113      18.662185      121.35578    
    306000   1.0371693      18.670769      121.11828    
    307000   0.93157527     18.886233      120.76906    
    308000   1.0445198      18.971881      120.50678    
    309000   0.98778194     18.875884      120.59672    
    310000   1.0055526      18.602957      120.38326    
    311000   1.0019189      18.699529      120.22523    
    312000   1.0056446      19.179938      120.13124    
    313000   1.0143795      19.034641      120.07589    
    314000   0.94847481     18.644787      119.89791    
    315000   1.0431171      19.255161      120.00392    
    316000   1.0107121      19.125038      119.87146    
    317000   1.0011951      18.867508      119.97227    
    318000   0.97260973     18.704538      119.97981    
    319000   0.9952341      18.902835      119.65805    
    320000   1.0111705      18.768617      119.45412    
    321000   0.96286839     18.649355      119.29337    
    322000   0.97938553     19.451368      119.22416    
    323000   1.0094778      19.066181      119.04242    
    324000   0.98614972     18.81134       118.9078     
    325000   1.039822       18.820538      118.75417    
    326000   1.0197477      18.636917      118.5358     
    327000   1.0254484      18.846878      118.30448    
    328000   0.99713381     18.420641      118.39437    
    329000   0.99828704     18.922596      118.24787    
    330000   0.98021905     18.660181      118.18874    
    331000   1.007121       19.305027      118.11877    
    332000   0.98905283     18.926937      117.75522    
    333000   0.97075844     18.723783      117.91383    
    334000   0.93685007     18.361052      117.84357    
    335000   1.0444069      18.727568      117.72913    
    336000   0.99277667     18.788077      117.4513     
    337000   1.0327736      18.815498      117.2192     
    338000   1.0328603      18.754459      117.16866    
    339000   1.0104261      19.664893      116.82688    
    340000   0.95657043     18.801717      116.71251    
    341000   1.0013816      19.080367      116.64364    
    342000   0.9987608      18.777226      116.57825    
    343000   0.93114298     18.873335      116.31482    
    344000   1.019428       19.654163      115.93151    
    345000   0.96707235     18.354457      115.84726    
    346000   0.99141753     19.31389       115.66461    
    347000   1.0437273      18.525097      115.63855    
    348000   1.0030961      19.51255       115.51918    
    349000   1.0122173      19.07988       115.09808    
    350000   1.0242912      19.283235      115.04603    
    351000   1.0153122      18.851458      114.99821    
    352000   0.95462794     17.991922      114.87975    
    353000   1.0111851      18.607246      114.55407    
    354000   0.99267454     18.565047      114.35955    
    355000   1.0286317      19.132446      114.416      
    356000   0.94369816     18.910316      114.37239    
    357000   1.0372039      18.635279      114.15886    
    358000   0.99966234     19.148871      114.08553    
    359000   1.041206       18.725881      114.19472    
    360000   0.9633402      18.38873       114.10601    
    361000   1.0192164      18.830119      113.83976    
    362000   1.0078463      18.327179      113.45148    
    363000   1.0062504      18.345895      113.31255    
    364000   1.0007719      18.495538      113.09967    
    365000   0.97075903     19.485749      113.05728    
    366000   1.0225048      19.30642       113.13499    
    367000   1.0189855      19.013071      113.06913    
    368000   0.99149937     19.044706      112.86752    
    369000   1.0144536      18.826743      112.47575    
    370000   0.98429142     18.81383       112.32037    
    371000   0.97806029     18.971964      111.9441     
    372000   1.0591574      18.745727      111.75972    
    373000   0.9824787      18.943644      111.54295    
    374000   1.0234539      19.354116      111.5875     
    375000   0.99876127     19.186867      111.34377    
    376000   0.95448802     18.484085      111.17308    
    377000   1.0193758      19.421957      111.17255    
    378000   1.0215407      18.927377      111.27391    
    379000   1.056177       19.125278      111.23339    
    380000   1.0483146      19.118833      110.84904    
    381000   0.98049603     18.83034       110.71961    
    382000   1.0291645      18.948458      110.75965    
    383000   1.0410869      19.401389      110.65974    
    384000   1.0191203      19.004993      110.26389    
    385000   1.0467403      18.669355      110.07688    
    386000   1.0058334      18.978959      110.00084    
    387000   1.0092696      19.147693      109.95269    
    388000   0.98821774     19.101096      109.54284    
    389000   1.0402162      18.91806       109.36134    
    390000   0.96397725     18.491448      109.17181    
    391000   0.97052649     18.854663      109.0497     
    392000   1.0114465      18.494534      108.89162    
    393000   0.96842177     18.288517      108.65846    
    394000   1.0207776      18.51041       108.74166    
    395000   1.0001168      18.577388      108.73876    
    396000   0.982774       18.715663      108.67858    
    397000   1.0375195      18.33746       108.47225    
    398000   0.97219816     18.465914      108.18425    
    399000   0.99544051     18.977511      108.15767    
    400000   0.97869424     18.98565       108.18257    
    401000   1.0309752      18.946222      108.12564    
    402000   1.0181475      18.882297      108.14986    
    403000   0.97441228     19.027671      107.87638    
    404000   1.017029       18.487769      107.7058     
    405000   0.99149696     19.21795       107.49533    
    406000   1.0230707      18.874959      107.40679    
    407000   0.96317237     18.831902      107.2182     
    408000   0.92857266     18.421609      107.07307    
    409000   0.99894823     19.101059      106.82714    
    410000   1.002914       18.798765      106.63686    
    411000   1.0142512      18.780515      106.47023    
    412000   1.0063629      18.870837      106.59014    
    413000   0.96699585     18.446945      106.58719    
    414000   1.0298896      18.221925      106.55361    
    415000   1.0279715      19.172769      106.36553    
    416000   0.97830745     18.956666      106.47652    
    417000   0.98302582     18.425498      106.35521    
    418000   1.0129748      18.93031       106.22687    
    419000   0.97753493     18.868868      106.18751    
    420000   0.99849839     19.006068      106.13228    
    421000   1.0176149      18.805764      106.19807    
    422000   0.99642649     18.775911      106.27245    
    423000   0.98425477     19.151319      106.14064    
    424000   0.98720114     18.68427       106.00706    
    425000   0.99896851     18.6927        106.1136     
    426000   1.0044867      19.238735      105.85721    
    427000   1.0210526      19.062625      105.75224    
    428000   0.97634339     18.848689      105.46641    
    429000   1.0316412      18.813384      105.32449    
    430000   1.0355181      18.859736      105.29192    
    431000   0.98914831     18.48371       105.33143    
    432000   0.99022913     18.44496       105.38024    
    433000   1.0323635      18.371103      105.43075    
    434000   0.9887989      18.306073      105.17239    
    435000   1.0519916      19.09022       105.15157    
    436000   0.98169022     18.647946      105.11482    
    437000   0.95350221     18.535495      104.87104    
    438000   1.0214267      18.383654      104.91858    
    439000   1.0171582      18.888847      104.96677    
    440000   1.0198636      18.90673       104.93767    
    441000   0.96872225     18.913278      104.75396    
    442000   1.0288646      19.009884      104.65746    
    443000   0.99391451     18.79257       104.5905     
    444000   1.0072866      18.440359      104.45675    
    445000   0.97999972     18.895366      104.26055    
    446000   0.98446217     18.261156      104.20246    
    447000   1.0096321      18.920441      104.30788    
    448000   1.0095916      18.887939      104.111      
    449000   1.0200313      19.358415      104.10807    
    450000   0.9921776      19.533832      103.85897    
    451000   0.99197977     19.039042      103.7114     
    452000   0.98606496     18.291572      103.71167    
    453000   1.044967       18.492283      103.46436    
    454000   1.0025548      18.131472      103.40085    
    455000   1.0444411      19.162978      103.12129    
    456000   0.95657333     18.610933      102.88646    
    457000   1.0037553      18.579336      102.90561    
    458000   1.0248714      18.028259      102.78604    
    459000   0.99357858     18.67927       102.53585    
    460000   1.0030436      18.245934      102.47661    
    461000   1.005978       18.443468      102.31889    
    462000   1.0041079      18.723832      102.33247    
    463000   0.98250995     19.104231      102.16096    
    464000   1.0100826      18.732599      102.27934    
    465000   0.99211131     18.845282      102.24521    
    466000   0.99754862     18.398903      102.02609    
    467000   1.0208975      18.623062      101.84043    
    468000   0.99717402     18.608601      101.65425    
    469000   1.0187133      18.873803      101.64152    
    470000   1.0178528      18.849633      101.63571    
    471000   0.99952663     18.680122      101.46868    
    472000   0.99144133     18.726665      101.29823    
    473000   0.92717654     18.220031      101.30866    
    474000   1.0054955      18.597446      101.07561    
    475000   0.97569826     18.557487      100.89567    
    476000   1.0091995      18.521365      100.92299    
    477000   1.0140116      18.473275      100.57303    
    478000   0.96697449     18.707441      100.46228    
    479000   1.0391452      18.818373      100.36299    
    480000   1.0602449      18.234223      100.23028    
    481000   1.0080525      18.612283      100.16609    
    482000   1.0239178      18.890373      100.02604    
    483000   1.0185398      18.618648      100.07096    
    484000   1.0248787      18.586737      99.833894    
    485000   1.0181982      19.057543      99.867041    
    486000   0.98057642     19.022383      99.652886    
    487000   0.98319116     18.378124      99.430639    
    488000   0.95748017     18.537455      99.297109    
    489000   1.0069886      18.237385      99.246956    
    490000   1.0480818      18.783573      99.039701    
    491000   0.9996863      19.088563      99.100356    
    492000   1.0290568      18.826097      99.026793    
    493000   1.0457814      18.242631      99.026253    
    494000   0.99223572     18.630878      98.653565    
    495000   0.93828238     18.273996      98.517703    
    496000   1.0175009      18.998059      98.415962    
    497000   1.0110729      18.729699      98.419803    
    498000   0.98626211     18.156694      98.450539    
    499000   0.97117797     18.37002       98.142481    
    500000   0.97189323     18.819477      98.095021    
    501000   0.99011278     18.628047      97.882939    
    502000   1.04278        18.465094      97.935171    
    503000   1.005671       18.475722      97.725445    
    504000   0.99816618     18.508218      97.571067    
    505000   0.99568168     18.771099      97.628461    
    506000   0.93696672     18.522314      97.530845    
    507000   0.9958918      18.532861      97.523064    
    508000   1.0094541      18.484773      97.190983    
    509000   1.0388315      19.028207      97.106549    
    510000   1.0554946      18.224181      96.759447    
    511000   1.0196942      18.867681      96.668591    
    512000   0.99068075     18.80191       96.649189    
    513000   1.0005794      18.543047      96.523619    
    514000   1.0579         18.584743      96.410194    
    515000   1.0156178      18.733378      96.54227     
    516000   1.0183657      19.061885      96.38463     
    517000   1.0032928      18.665581      95.969459    
    518000   1.027957       18.612606      95.638196    
    519000   1.0885028      18.963561      95.441213    
    520000   1.0354399      18.511472      95.252699    
    521000   0.98821973     18.292723      94.938682    
    522000   0.98130628     18.674825      95.168537    
    523000   0.95007535     18.344335      95.173308    
    524000   0.9962693      18.911759      95.231738    
    525000   1.0340042      18.445875      95.20515     
    526000   0.98244759     18.308563      94.874673    
    527000   0.96990495     18.343367      94.690709    
    528000   0.96236931     18.460507      94.630198    
    529000   0.98788728     18.589619      94.619453    
    530000   0.99704907     18.596942      94.38723     
    531000   0.98999224     18.454277      94.244442    
    532000   0.99160115     18.312425      94.253059    
    533000   0.98414208     18.19018       94.121006    
    534000   1.0023387      18.854401      94.041295    
    535000   1.0196698      18.306289      94.053737    
    536000   1.0004674      18.43877       94.015235    
    537000   0.95813274     18.20374       93.732309    
    538000   1.0094028      18.277452      93.438113    
    539000   1.0192099      17.732962      93.470453    
    540000   0.98326739     18.276749      93.605364    
    541000   1.0072505      18.339729      93.419716    
    542000   1.0050392      18.327487      93.171508    
    543000   0.95069295     17.799611      93.301252    
    544000   0.96943197     18.167982      93.104354    
    545000   0.99184342     18.297523      92.863965    
    546000   1.0430237      18.337114      92.759322    
    547000   1.0450396      18.301933      92.635003    
    548000   1.0023789      18.444274      92.371964    
    549000   0.97697051     18.679164      92.426366    
    550000   0.9970453      18.664194      92.218854    
    551000   0.99882134     18.486176      92.196772    
    552000   0.98864975     18.084083      92.256101    
    553000   1.0341225      18.602111      92.32415     
    554000   0.95618947     18.002543      92.170618    
    555000   0.95672024     18.774071      92.213605    
    556000   1.0076486      18.427089      92.129817    
    557000   1.0194774      18.25357       92.121482    
    558000   0.98204634     18.878374      92.043534    
    559000   1.0034439      18.518617      91.862568    
    560000   0.96814703     17.979133      91.538967    
    561000   1.0177536      18.64887       91.573585    
    562000   1.0166087      18.387799      91.272208    
    563000   1.0052235      18.593399      90.981932    
    564000   1.0059691      18.366441      90.810659    
    565000   1.0258891      17.9771        90.686225    
    566000   0.98720101     18.792353      90.838383    
    567000   1.0668837      18.640338      90.877095    
    568000   1.0183989      17.991294      90.73107     
    569000   1.0040209      18.439384      90.668685    
    570000   0.9890653      18.306722      90.645899    
    571000   1.0263987      18.873326      90.515575    
    572000   1.0290228      18.517201      90.448247    
    573000   0.9779525      17.739977      90.430066    
    574000   1.0206018      18.450046      90.443105    
    575000   0.97728604     18.408417      90.406088    
    576000   1.014081       18.215236      90.170745    
    577000   1.0065163      18.679242      90.027962    
    578000   1.0426648      18.190709      89.832155    
    579000   0.98553423     18.6666        89.956907    
    580000   0.96317985     18.991109      89.731867    
    581000   1.0168663      18.545528      89.62954     
    582000   1.0060744      18.64585       89.64475     
    583000   1.0416523      18.082723      89.626817    
    584000   1.0173786      17.727608      89.632965    
    585000   1.0237333      18.535023      89.517443    
    586000   1.0293456      17.911449      89.321219    
    587000   1.0284746      18.124481      89.322154    
    588000   0.99547495     18.595205      89.205769    
    589000   1.0104856      18.098486      89.192493    
    590000   0.98922042     18.517259      89.159036    
    591000   0.98520306     18.2016        88.991475    
    592000   0.98276802     18.342132      88.716847    
    593000   0.96624922     18.43105       88.612244    
    594000   1.0045018      18.568334      88.374721    
    595000   1.0351215      18.539827      88.225694    
    596000   1.0180404      18.720279      87.984402    
    597000   0.99512287     17.647366      88.063046    
    598000   1.0066242      18.114138      87.618122    
    599000   0.98042828     18.443781      87.413131    
    600000   0.97835956     18.484482      87.391284    
    601000   1.0203927      18.954684      87.236194    
    602000   1.0257261      19.052318      87.358851    
    603000   1.0048396      18.000086      87.359208    
    604000   1.0278648      18.930305      87.123323    
    605000   0.99204008     18.290144      86.941303    
    606000   0.92895421     18.450109      86.689764    
    607000   1.0220809      18.107301      86.518193    
    608000   1.0044143      18.192894      86.320504    
    609000   1.0267871      18.698277      86.162677    
    610000   1.0297099      18.399716      85.945928    
    611000   1.0031824      18.560286      86.095124    
    612000   0.98938859     18.431052      85.95896     
    613000   1.0010371      18.312136      85.596424    
    614000   1.0086907      18.298933      85.57324     
    615000   1.0034686      18.184948      85.331497    
    616000   0.96524204     18.538445      85.014573    
    617000   0.99479728     17.896376      84.668697    
    618000   0.97063174     18.596935      84.467046    
    619000   0.97428019     18.262065      84.194025    
    620000   0.98290701     18.393468      84.217027    
    621000   0.97054732     18.097119      83.957051    
    622000   0.97350723     19.346477      83.800562    
    623000   1.0024486      18.277553      83.527545    
    624000   1.0159328      18.669974      83.381774    
    625000   1.0220669      18.791823      83.286136    
    626000   0.99720465     18.162396      83.242631    
    627000   1.0006696      18.402887      83.261545    
    628000   0.97072768     18.063511      83.233984    
    629000   0.99843194     18.483291      83.105372    
    630000   1.0193263      18.270678      82.986504    
    631000   0.97494098     18.660686      82.90521     
    632000   1.0375474      18.634041      82.749508    
    633000   1.0021138      18.365635      82.609337    
    634000   1.0109213      18.328403      82.458861    
    635000   1.0138503      18.7392        82.402077    
    636000   0.98280064     18.416262      82.436335    
    637000   1.0353715      18.799838      82.301761    
    638000   1.0084325      18.163246      82.294672    
    639000   0.97353371     17.998056      82.400075    
    640000   1.0483157      18.175597      82.39232     
    641000   1.0121207      18.468895      82.283878    
    642000   1.0064027      18.375214      82.190098    
    643000   0.99684976     18.448155      82.023103    
    644000   1.0315976      18.105358      81.940982    
    645000   1.0028355      18.708418      81.872582    
    646000   0.99367793     18.414039      81.825989    
    647000   1.0092238      18.08938       82.022482    
    648000   1.0286397      18.361951      81.935465    
    649000   1.0048201      18.161663      81.798194    
    650000   1.0584237      18.755087      81.763482    
    651000   0.99169892     18.554645      81.870315    
    652000   1.0091473      18.268104      81.728835    
    653000   1.0362582      18.459498      81.551903    
    654000   1.002791       18.326838      81.623656    
    655000   0.98337917     17.777289      81.664604    
    656000   1.0000128      18.928626      81.612196    
    657000   0.97313534     18.100949      81.813928    
    658000   0.95557938     18.085449      81.645701    
    659000   0.98489146     18.272791      81.458324    
    660000   1.0176393      18.375528      81.31176     
    661000   1.0122401      18.883068      81.275182    
    662000   1.0248518      18.491079      81.116502    
    663000   1.0230362      18.22551       80.923348    
    664000   0.99909152     18.336503      80.692131    
    665000   1.023782       18.321469      80.46424     
    666000   1.0139408      18.335321      80.340269    
    667000   1.0044471      18.442688      80.303795    
    668000   1.036263       18.038696      80.398894    
    669000   1.0549904      18.352733      80.211748    
    670000   1.0443675      18.540305      80.104722    
    671000   0.9783526      18.39475       80.014666    
    672000   0.97555133     18.490434      80.075735    
    673000   0.99042211     18.282524      80.079038    
    674000   0.99207102     18.17828       79.971558    
    675000   1.0276449      18.332283      79.911544    
    676000   1.0214958      18.264619      79.809428    
    677000   1.0051383      18.014461      79.562044    
    678000   1.0136821      18.317541      79.400429    
    679000   1.0218244      18.280801      79.474822    
    680000   0.96958131     17.987725      79.088984    
    681000   0.9756476      18.339117      78.747303    
    682000   0.94581806     18.354336      78.741412    
    683000   0.96282545     18.620327      78.560518    
    684000   0.97176387     17.661327      78.621207    
    685000   0.99775614     18.180595      78.761864    
    686000   0.99357372     18.462667      78.621261    
    687000   1.000701       18.666665      78.73803     
    688000   1.022326       18.58959       78.743759    
    689000   0.98170841     17.908422      78.619062    
    690000   0.9599438      17.754374      78.670408    
    691000   1.0354022      18.399257      78.888262    
    692000   1.038379       17.668765      78.740363    
    693000   1.0179112      18.924438      78.537863    
    694000   1.0149039      18.342041      78.345652    
    695000   1.0345933      18.162945      78.137822    
    696000   1.007076       18.63896       78.228121    
    697000   0.95965119     18.121082      78.036083    
    698000   0.98221824     18.460651      77.796045    
    699000   1.0188942      18.910754      77.678378    
    700000   0.98873764     18.534726      77.702713    
    701000   1.0039387      17.215465      77.674218    
    702000   1.0271917      18.065268      77.352196    
    703000   0.97512552     18.039102      77.167902    
    704000   1.0369472      18.707614      76.977822    
    705000   1.015058       18.431315      76.684338    
    706000   0.99087863     18.500739      76.581968    
    707000   0.99405639     18.181048      76.678706    
    708000   0.99548695     18.264262      76.551468    
    709000   1.0173442      17.808099      76.389741    
    710000   0.97282539     18.265306      76.11736     
    711000   1.0109553      18.799863      76.259833    
    712000   1.0289428      18.197922      76.246312    
    713000   1.0046212      18.06387       76.179322    
    714000   1.0047207      18.504246      75.974484    
    715000   0.98107707     17.64185       76.001847    
    716000   1.0315136      18.783017      75.943846    
    717000   1.0213025      18.20343       75.665976    
    718000   1.0116893      18.210871      75.750756    
    719000   1.0616715      18.776777      75.779564    
    720000   1.0604049      18.610738      75.639133    
    721000   1.0293571      18.51263       75.493299    
    722000   0.96141609     17.869896      75.269651    
    723000   0.98914277     17.957865      75.003005    
    724000   0.98767736     18.599913      75.029005    
    725000   1.0201564      18.73553       74.795024    
    726000   1.0073735      18.08966       74.680439    
    727000   0.99946334     18.289973      74.629504    
    728000   0.98199252     17.852214      74.663406    
    729000   0.96773723     18.008748      74.678221    
    730000   0.97490261     18.649997      74.698989    
    731000   0.97653238     17.685311      74.757666    
    732000   1.020686       18.031793      74.485317    
    733000   0.98872592     18.036117      74.46705     
    734000   1.0022853      18.573727      74.525946    
    735000   0.9750634      18.188732      74.180847    
    736000   0.97173788     17.965748      74.221671    
    737000   1.0090263      18.336884      74.089606    
    738000   0.98780614     17.592763      73.779399    
    739000   1.0004525      18.702063      73.508745    
    740000   0.9900308      17.722969      73.428559    
    741000   1.0283961      18.097038      73.271766    
    742000   0.99745069     18.370903      73.031503    
    743000   1.0019761      18.433294      72.976725    
    744000   1.0083533      18.136612      72.739736    
    745000   1.0429626      18.165188      72.659601    
    746000   0.99324778     18.212566      72.659727    
    747000   0.97190823     18.163198      72.567644    
    748000   0.98591561     18.893733      72.530454    
    749000   1.0408783      18.248411      72.477226    
    750000   1.0079314      18.454555      72.268071    
    751000   1.0221541      18.424596      72.136637    
    752000   1.0259014      18.564991      72.131347    
    753000   1.0242807      18.39513       72.010224    
    754000   1.0166575      18.617893      71.681609    
    755000   0.9973359      18.246406      71.420631    
    756000   1.0111779      18.427185      71.366219    
    757000   0.99681857     18.081064      71.261259    
    758000   0.99218823     18.610682      71.236154    
    759000   1.0170572      17.900329      71.300705    
    760000   0.94886121     18.261684      71.202203    
    761000   0.9805775      18.100807      71.143027    
    762000   1.0585203      18.060632      71.172975    
    763000   0.9917209      18.394964      71.312943    
    764000   1.0203524      18.389553      71.280782    
    765000   0.99156439     18.237631      71.1635      
    766000   0.96226207     17.980022      71.076371    
    767000   1.0118048      17.829593      71.134423    
    768000   0.99885043     18.460987      71.223684    
    769000   0.9720003      18.020353      71.116484    
    770000   1.0143827      18.122135      71.051346    
    771000   1.0032222      18.510834      70.85692     
    772000   0.99146835     18.184785      70.816952    
    773000   0.99056889     18.084716      70.840246    
    774000   1.0017587      18.288057      70.746352    
    775000   1.0050194      18.208927      70.583037    
    776000   1.0402111      18.419986      70.332778    
    777000   0.98395714     18.518933      70.188137    
    778000   1.0109779      17.577831      70.156431    
    779000   1.0005574      18.038896      70.139415    
    780000   0.9643081      17.972133      69.945298    
    781000   1.0521748      18.732732      70.167371    
    782000   0.98516675     18.499141      69.788921    
    783000   1.0189013      17.92678       69.845197    
    784000   0.97984506     17.822847      69.775279    
    785000   0.98172668     17.756376      69.642659    
    786000   1.0027385      18.176441      69.404469    
    787000   1.0175872      17.858521      69.142419    
    788000   0.97835233     18.322143      69.080191    
    789000   1.0164189      18.136651      69.00579     
    790000   1.0215656      18.799896      68.788923    
    791000   0.9993792      18.383227      68.769       
    792000   0.9957346      18.155533      68.617439    
    793000   0.96710416     17.988624      68.480337    
    794000   0.96251268     17.763532      68.492065    
    795000   0.99792569     18.157318      68.218966    
    796000   0.98493697     17.982709      68.114408    
    797000   1.0252351      17.720307      67.93851     
    798000   1.0137727      17.593234      67.55338     
    799000   1.0126946      17.805775      67.403439    
    800000   0.98484463     17.470694      67.233725    
    801000   0.99101093     17.834918      67.396544    
    802000   0.99265499     18.671635      67.199224    
    803000   1.0160079      18.042124      67.119768    
    804000   1.0499595      18.130924      66.91857     
    805000   1.0118673      18.189718      67.141168    
    806000   1.0657309      18.20607       66.990028    
    807000   0.9730468      18.016266      67.021015    
    808000   1.0066555      17.364092      66.802499    
    809000   1.0038652      17.799052      66.484009    
    810000   0.99968839     18.194147      66.476308    
    811000   1.0170988      18.013819      66.397106    
    812000   1.0031179      17.682422      66.455808    
    813000   0.99900342     18.257678      66.35911     
    814000   0.98755863     18.625403      66.39997     
    815000   1.0284523      18.232917      66.332977    
    816000   0.98258985     18.109817      66.186932    
    817000   1.0108183      18.197588      66.248221    
    818000   0.99452168     17.988926      66.14186     
    819000   1.0098536      17.899822      65.908514    
    820000   0.99527471     18.29759       66.061806    
    821000   1.0609222      18.424172      66.025864    
    822000   1.0222653      17.805677      65.779157    
    823000   1.0236389      18.272345      65.618173    
    824000   1.0275127      17.880073      65.430274    
    825000   0.95197154     18.114053      65.097754    
    826000   1.0483414      18.219228      65.058826    
    827000   0.96073458     18.507246      65.049058    
    828000   0.99167564     17.766266      64.825961    
    829000   0.9870412      18.527487      64.68145     
    830000   1.0272027      18.469624      64.398631    
    831000   0.99326062     18.515134      64.539409    
    832000   1.0246584      18.006623      64.279421    
    833000   0.95814802     17.488085      63.77377     
    834000   1.0180642      18.028393      63.511318    
    835000   1.0161261      17.932123      63.151216    
    836000   0.95556915     18.238335      62.945764    
    837000   1.006295       17.787461      62.888373    
    838000   1.0316641      18.234941      62.913827    
    839000   1.0213995      17.464193      63.067487    
    840000   1.0126926      18.256618      62.675591    
    841000   0.99845446     17.862768      62.50532     
    842000   1.0071242      17.69762       62.45474     
    843000   1.0343019      18.062617      62.138952    
    844000   1.0070078      17.832955      62.168383    
    845000   1.0037176      18.411043      62.024565    
    846000   0.99093123     17.651337      61.833457    
    847000   1.0266511      17.722224      61.680522    
    848000   0.99041867     17.953812      61.475142    
    849000   1.0174093      18.121092      61.143015    
    850000   0.99805689     17.967547      61.0482      
    851000   1.0363019      18.239928      60.934182    
    852000   0.9935476      17.931788      60.781018    
    853000   0.97749089     17.805572      60.625426    
    854000   1.0272148      18.546965      60.457176    
    855000   0.98807516     18.23042       60.106649    
    856000   0.99102919     18.03117       59.919881    
    857000   0.99472562     18.198775      59.872351    
    858000   0.98380921     18.117673      59.706431    
    859000   1.0293136      17.864183      59.567319    
    860000   0.99021301     18.147354      59.2514      
    861000   0.97703833     17.934129      58.938145    
    862000   0.99160272     17.855607      58.926894    
    863000   0.98365313     17.822165      58.794932    
    864000   1.024292       17.253479      58.822243    
    865000   1.0542393      17.931427      58.709367    
    866000   1.0109263      18.026152      58.674025    
    867000   0.97366382     18.320681      58.46142     
    868000   1.0034206      17.720985      58.347191    
    869000   0.99272896     18.078313      58.293729    
    870000   1.0211546      17.992044      58.08285     
    871000   0.94115394     17.4867        58.071744    
    872000   1.0246581      17.590419      58.115161    
    873000   1.0132334      18.240714      57.996581    
    874000   0.93269057     17.424338      57.886046    
    875000   1.0100295      18.003485      57.991965    
    876000   1.0393953      18.110847      58.057352    
    877000   1.0400225      18.091598      58.119753    
    878000   1.0009743      17.969309      57.880007    
    879000   1.0266925      17.53977       57.770992    
    880000   0.95791777     18.121257      57.538315    
    881000   0.98158012     17.400406      57.376831    
    882000   1.0372629      17.865304      57.239202    
    883000   0.97513416     18.119478      57.048466    
    884000   1.034569       17.859164      56.862491    
    885000   1.0037878      17.988133      56.781314    
    886000   0.99050112     18.313607      56.828828    
    887000   0.99398562     17.61863       56.798043    
    888000   1.0158301      17.743217      56.53558     
    889000   1.0415152      17.878018      56.431861    
    890000   1.0375314      17.97026       56.304149    
    891000   0.97072497     17.778117      56.221534    
    892000   1.034989       17.639325      55.902894    
    893000   1.032749       17.938964      55.740615    
    894000   0.96507177     18.2666        55.657415    
    895000   1.0146337      17.924353      55.727532    
    896000   1.0040622      18.238991      55.517031    
    897000   0.96608212     17.896897      55.249016    
    898000   0.98252451     18.070991      55.164001    
    899000   0.99639589     17.221346      54.974735    
    900000   0.97781467     17.65018       54.806763    
    901000   1.0062962      17.70425       54.869633    
    902000   1.0296854      17.923678      54.816466    
    903000   0.98970296     17.388111      54.766425    
    904000   1.001109       17.838185      54.593618    
    905000   1.0130001      18.37546       54.667689    
    906000   0.99509116     17.616372      54.559688    
    907000   1.037314       17.910266      54.463573    
    908000   0.9769858      17.640564      54.158699    
    909000   0.98870166     18.26014       53.884027    
    910000   0.97265838     18.359177      53.522094    
    911000   0.97504937     17.539707      53.395441    
    912000   1.027129       17.398185      53.128676    
    913000   0.99883653     17.686218      53.077117    
    914000   0.98052104     17.689786      52.937868    
    915000   0.95244985     17.622034      52.870828    
    916000   0.99406876     17.697094      52.978545    
    917000   1.0107242      17.855955      52.840022    
    918000   0.98294179     18.29805       52.725461    
    919000   0.97152635     18.170791      52.773582    
    920000   1.0295284      17.805987      52.824502    
    921000   0.98561796     17.814671      52.584753    
    922000   1.0247921      17.938287      52.470796    
    923000   1.018274       17.622308      52.60068     
    924000   1.0087652      17.626607      52.319438    
    925000   1.0123337      17.978952      52.177262    
    926000   0.99536784     17.70083       52.198056    
    927000   0.98999353     18.012795      52.350584    
    928000   0.99025078     17.847479      52.222041    
    929000   0.99816834     17.922091      52.280842    
    930000   0.98871754     18.329772      52.317576    
    931000   1.01246        18.303677      52.103265    
    932000   1.0005191      17.566147      51.932329    
    933000   1.0350415      17.857359      51.699487    
    934000   1.0204625      17.629143      51.467371    
    935000   0.96960645     18.056647      51.344186    
    936000   1.0080711      18.26984       51.053574    
    937000   1.0059771      17.955199      51.124531    
    938000   0.96341819     18.116713      51.257682    
    939000   0.98818893     17.777918      51.122976    
    940000   0.99341667     17.716171      51.161337    
    941000   0.99129724     17.89619       51.185449    
    942000   1.0157638      18.339863      51.000378    
    943000   1.0157922      17.800792      50.829354    
    944000   0.98679028     18.075617      50.865361    
    945000   0.97940117     17.893226      50.566042    
    946000   1.0295859      17.950269      50.740444    
    947000   0.99547949     17.752828      50.668255    
    948000   1.0073429      17.65746       50.394741    
    949000   0.97159193     18.270752      50.108323    
    950000   0.99589015     17.617275      50.148395    
    951000   1.0284301      17.335511      50.101658    
    952000   0.97612902     18.312695      49.879577    
    953000   0.99743883     17.810344      49.989479    
    954000   1.0091298      17.624802      49.87972     
    955000   0.97526156     18.131225      49.852854    
    956000   1.0140303      18.101848      49.689344    
    957000   0.98124307     17.879623      49.529315    
    958000   1.003338       17.782294      49.224464    
    959000   1.0214078      17.778098      48.989511    
    960000   1.0257315      18.142317      48.826993    
    961000   1.0424378      18.167094      48.837968    
    962000   0.98288403     17.313097      48.568265    
    963000   0.96573897     17.514294      48.622103    
    964000   1.0004805      17.494299      48.425591    
    965000   0.96976747     17.988642      48.229778    
    966000   1.0173287      17.525383      48.356148    
    967000   1.0260398      17.713392      48.303799    
    968000   0.9646436      17.724654      48.202925    
    969000   1.012431       17.683464      48.398367    
    970000   1.0058185      17.53316       48.327603    
    971000   0.96254606     17.772564      48.388719    
    972000   0.98814619     17.813765      48.203706    
    973000   0.99046915     18.029931      48.129956    
    974000   1.02104        17.534896      47.845831    
    975000   0.98567259     18.30984       47.576949    
    976000   1.0188576      17.868695      47.483762    
    977000   1.0009682      17.28791       47.336628    
    978000   1.0132242      16.903238      47.227782    
    979000   1.0234294      17.860668      47.205648    
    980000   1.0019301      17.675256      46.844312    
    981000   1.0501482      18.067851      46.739123    
    982000   0.98765925     17.425519      46.558185    
    983000   1.0124141      17.880754      46.551105    
    984000   1.0182416      17.771104      46.612833    
    985000   0.99437272     18.25971       46.4546      
    986000   1.0570859      18.031305      46.454455    
    987000   0.98268202     17.940854      46.316724    
    988000   0.976685       17.964991      46.005325    
    989000   0.96513611     17.309871      45.965764    
    990000   1.0324627      17.66773       45.753018    
    991000   0.98463401     18.276399      45.912962    
    992000   0.98168404     18.187384      45.800877    
    993000   1.0000318      17.907272      45.664527    
    994000   1.0351708      17.793389      45.658909    
    995000   0.96648725     17.48559       45.239456    
    996000   1.0386794      17.963928      45.341072    
    997000   0.98374958     17.491412      45.22158     
    998000   0.96327072     18.114848      45.38695     
    999000   0.99563114     17.838634      45.299139    
   1000000   0.97920775     18.431336      45.232194    
   1001000   0.98744185     18.070173      45.212071    
   1002000   1.0078068      17.522333      45.102193    
   1003000   1.0167911      17.636579      45.198914    
   1004000   0.9946272      17.637601      44.995577    
   1005000   0.98532264     17.417493      44.899217    
   1006000   0.96244925     18.209844      44.825187    
   1007000   0.99582045     18.163283      44.742205    
   1008000   1.0119162      17.545996      44.637304    
   1009000   1.0094957      17.836874      44.589518    
   1010000   1.0000904      18.352057      44.41269     
   1011000   0.98483845     18.337788      44.274411    
   1012000   0.96325126     17.807354      44.383735    
   1013000   0.97682763     17.913504      44.452697    
   1014000   1.0417099      18.091493      44.30974     
   1015000   1.0615784      17.530361      44.089145    
   1016000   0.95894166     17.373872      44.102918    
   1017000   0.972402       17.882906      44.006347    
   1018000   0.99964923     17.605372      44.026945    
   1019000   0.95981036     17.395152      43.961396    
   1020000   1.0069751      17.653294      44.058937    
   1021000   1.0316303      17.481863      43.858718    
   1022000   1.0175237      17.671742      43.898585    
   1023000   0.98926339     17.460482      44.015313    
   1024000   0.99242835     17.603041      43.866603    
   1025000   0.99245243     17.647561      43.606153    
   1026000   1.0111861      17.548742      43.408708    
   1027000   1.0237886      17.929262      43.37032     
   1028000   1.0261745      17.70182       43.272503    
   1029000   0.95533192     17.860439      43.173988    
   1030000   1.0140704      17.756533      42.92455     
   1031000   0.97008145     17.599276      42.582782    
   1032000   1.055714       17.753106      42.460682    
   1033000   1.001489       18.103645      42.471989    
   1034000   0.94101774     17.326842      42.571304    
   1035000   0.98769057     17.063858      42.474425    
   1036000   0.98079663     17.760503      42.149177    
   1037000   0.99830758     17.733875      41.997468    
   1038000   1.0052954      17.849431      42.061235    
   1039000   1.0081647      17.575708      41.973136    
   1040000   1.0040673      17.697234      42.012021    
   1041000   0.95337864     17.843013      41.851873    
   1042000   1.0007013      17.84077       41.879831    
   1043000   0.98681212     17.534204      41.850437    
   1044000   1.0374005      17.626791      41.884521    
   1045000   1.0195089      17.614209      41.981048    
   1046000   0.98082825     17.48943       41.5608      
   1047000   1.0018902      17.6473        41.347994    
   1048000   0.99189017     17.945274      41.242246    
   1049000   1.0125492      17.737306      41.179269    
   1050000   0.96206988     17.382772      41.193852    
   1051000   1.006504       17.33219       41.243404    
   1052000   1.0244238      17.968493      41.185486    
   1053000   1.0008337      17.194538      41.343422    
   1054000   0.98124917     17.890988      41.265189    
   1055000   0.97461238     18.808995      41.263565    
   1056000   0.9788243      18.068875      40.973907    
   1057000   0.96093919     17.430702      40.927845    
   1058000   1.0020982      18.001006      40.991709    
   1059000   1.0041249      18.179603      40.897933    
   1060000   1.0158331      17.755279      40.849005    
   1061000   0.9904105      17.870911      40.443218    
   1062000   1.0225844      18.211908      40.518389    
   1063000   1.0111442      18.008457      40.645632    
   1064000   0.98797111     17.810435      40.60432     
   1065000   0.99603237     17.529893      40.512926    
   1066000   0.95444189     17.332655      40.353635    
   1067000   1.0235758      17.269915      40.011496    
   1068000   0.96142761     17.458031      39.885769    
   1069000   0.96444592     17.880929      39.621165    
   1070000   1.0122125      17.451046      39.497484    
   1071000   1.0483716      17.859956      39.70727     
   1072000   1.0094775      17.758945      39.673774    
   1073000   0.94395227     17.858172      39.517579    
   1074000   1.0106619      17.268584      39.205586    
   1075000   0.98918006     18.111027      39.071657    
   1076000   1.0061078      17.568759      39.172484    
   1077000   0.9743081      18.042948      39.100273    
   1078000   1.0223276      18.179875      38.689099    
   1079000   0.99460736     17.348437      38.7166      
   1080000   0.9688827      17.579156      38.629064    
   1081000   1.0378686      17.311041      38.518171    
   1082000   1.0073721      17.85253       38.202694    
   1083000   1.0580463      18.5677        37.953546    
   1084000   0.99345523     17.36175       37.823492    
   1085000   1.0210688      17.267739      37.638033    
   1086000   1.0253253      17.500307      37.544588    
   1087000   1.0096828      17.36552       37.454482    
   1088000   1.0035685      17.196476      37.293155    
   1089000   1.0291654      17.676472      37.194029    
   1090000   0.99091527     17.679312      37.213465    
   1091000   0.97211915     17.934445      37.205828    
   1092000   1.0166962      17.631703      37.005307    
   1093000   0.99797454     17.86179       36.871957    
   1094000   0.99441775     17.845961      36.718842    
   1095000   0.98545923     17.25304       36.687116    
   1096000   0.99110776     17.649791      36.737476    
   1097000   0.97619632     18.069244      36.686462    
   1098000   0.95525015     17.387867      36.680284    
   1099000   0.97733516     17.938472      36.460732    
   1100000   1.0113039      17.708438      36.16579     
   1101000   1.0240045      17.613603      36.169426    
   1102000   0.99241639     17.523732      36.013092    
   1103000   0.98837586     17.355386      35.817955    
   1104000   1.0367028      17.863428      35.612113    
   1105000   1.008284       18.133221      35.706149    
   1106000   1.0079487      17.587792      35.655487    
   1107000   1.0032519      17.787863      35.598356    
   1108000   1.0198298      17.669718      35.585976    
   1109000   0.98333138     17.59409       35.423018    
   1110000   1.0180057      18.070067      35.176888    
   1111000   1.0004688      17.47253       35.105954    
   1112000   0.97576366     17.590819      35.031543    
   1113000   1.0823028      17.073064      35.030305    
   1114000   1.0130612      17.492042      34.811368    
   1115000   1.0390098      17.587713      34.574826    
   1116000   0.99453567     17.728269      34.6042      
   1117000   1.0830504      17.563801      34.625817    
   1118000   1.0027052      17.06034       34.663803    
   1119000   0.97706215     18.039352      34.522055    
   1120000   1.0394385      17.798761      34.385947    
   1121000   1.016441       17.773256      33.986684    
   1122000   1.0080406      17.290123      33.634182    
   1123000   1.0316878      17.341849      33.586693    
   1124000   0.99023483     17.058683      33.602898    
   1125000   1.0013642      17.250199      33.747863    
   1126000   0.93394973     17.70801       33.60271     
   1127000   0.99469379     17.527964      33.559678    
   1128000   0.99158727     17.421591      33.627532    
   1129000   0.99914311     17.66458       33.450271    
   1130000   1.0197077      17.887592      33.370618    
   1131000   1.003024       18.121096      33.419413    
   1132000   1.0239535      17.050798      33.350505    
   1133000   1.0059502      17.490052      33.40507     
   1134000   1.0082353      17.888394      33.326446    
   1135000   0.95767568     17.409487      33.431967    
   1136000   1.006174       17.754063      33.256581    
   1137000   1.0348534      17.555015      32.954704    
   1138000   0.93016195     17.709446      32.954984    
   1139000   1.0157588      17.502629      32.750844    
   1140000   0.99258724     17.564056      32.636347    
   1141000   0.98503206     17.899266      32.608139    
   1142000   1.0199966      17.374016      32.641887    
   1143000   1.0011922      18.158717      32.509943    
   1144000   1.0675731      17.710065      32.379403    
   1145000   0.98776859     17.671377      32.308739    
   1146000   0.98331935     17.382186      32.087921    
   1147000   0.98514649     17.204733      32.104091    
   1148000   0.99912118     18.146004      32.180614    
   1149000   0.98570624     17.633557      32.237168    
   1150000   1.018879       17.416353      32.166817    
   1151000   0.9995874      17.76148       31.837101    
   1152000   1.0293191      18.125954      31.961485    
   1153000   1.0060518      17.774552      31.966861    
   1154000   1.0014235      17.292557      31.855799    
   1155000   1.0081249      17.085676      31.931913    
   1156000   1.0314065      17.75552       31.873665    
   1157000   1.003143       18.100032      31.539013    
   1158000   1.0156449      17.614424      31.333746    
   1159000   0.96554899     17.442734      31.226386    
   1160000   1.0048652      17.035504      31.077817    
   1161000   0.98229188     17.621503      30.951981    
   1162000   1.0211909      17.545788      30.869278    
   1163000   1.0093039      17.970842      31.197861    
   1164000   0.98463318     17.378992      31.076755    
   1165000   1.0022092      17.945326      31.113987    
   1166000   0.99100048     17.659493      31.097732    
   1167000   1.0264214      17.213965      31.166619    
   1168000   0.97311533     17.804301      31.057973    
   1169000   0.95481328     17.173139      30.633633    
   1170000   0.98775858     17.433806      30.773869    
   1171000   1.0671751      18.128743      30.645184    
   1172000   0.9971616      17.837131      30.96439     
   1173000   1.0180485      17.469595      30.887008    
   1174000   1.030052       17.505629      30.80822     
   1175000   1.0084879      17.468718      30.728338    
   1176000   0.999677       17.812047      30.643056    
   1177000   1.0000814      17.649236      30.4905      
   1178000   0.97034503     17.851218      30.558207    
   1179000   1.0206699      17.628122      30.394576    
   1180000   1.0355379      17.810469      30.084915    
   1181000   1.0213536      17.713769      30.020118    
   1182000   0.98385985     17.097126      29.858385    
   1183000   1.0636338      17.749864      30.009733    
   1184000   0.99489084     17.600471      29.775338    
   1185000   1.0160349      17.755456      29.831974    
   1186000   0.99550543     17.838939      29.82281     
   1187000   0.96857665     16.917544      29.765036    
   1188000   1.0089275      17.699196      29.439131    
   1189000   1.0009256      17.456767      29.610503    
   1190000   1.0112731      18.021193      29.604716    
   1191000   1.0448173      18.163335      29.598394    
   1192000   1.0383789      17.34947       29.779203    
   1193000   0.95274778     16.910299      29.50484     
   1194000   0.98874166     17.708976      29.221294    
   1195000   1.0331119      17.358738      29.036181    
   1196000   0.97881873     17.271499      28.741209    
   1197000   1.0082907      17.566832      28.688746    
   1198000   1.0272625      18.041535      28.741641    
   1199000   0.98529086     17.407241      28.636424    
   1200000   1.0142998      17.478835      28.653673    
   1201000   1.0214981      17.533567      28.674617    
   1202000   1.0259054      17.488077      28.72736     
   1203000   0.9593627      17.431202      28.767685    
   1204000   1.000955       17.504556      28.727594    
   1205000   1.0246117      17.713716      28.782049    
   1206000   0.99278573     17.941826      28.739188    
   1207000   0.98423503     17.325694      28.818668    
   1208000   1.0064136      17.361149      28.702353    
   1209000   1.0160804      17.525943      28.590356    
   1210000   0.99806318     17.457756      28.640758    
   1211000   1.0234863      16.706224      28.55677     
   1212000   0.99763879     17.660942      28.498982    
   1213000   0.98407484     17.432718      28.337197    
   1214000   1.0132635      17.589876      28.164192    
   1215000   0.98995969     17.532091      27.860801    
   1216000   1.027577       17.901667      27.771533    
   1217000   1.0040047      17.773624      27.537123    
   1218000   0.95662169     17.497298      27.320418    
   1219000   0.98260728     17.82145       27.110709    
   1220000   1.0284519      17.43483       26.991181    
   1221000   0.97550142     17.163846      26.854843    
   1222000   0.98063395     17.083355      26.796563    
   1223000   1.0154031      17.509938      26.721624    
   1224000   0.99291405     17.742139      26.408222    
   1225000   0.98834438     17.155084      26.158262    
   1226000   1.0139517      17.862181      25.845086    
   1227000   0.99432771     17.293656      25.928242    
   1228000   1.0200158      17.330639      25.853005    
   1229000   1.018005       17.373529      25.694544    
   1230000   1.0092338      17.773148      25.46332     
   1231000   0.94424066     17.815884      25.472794    
   1232000   1.0325125      17.874397      25.459083    
   1233000   1.0379196      17.334221      25.366181    
   1234000   1.0233556      17.319729      25.330606    
   1235000   0.99662402     17.66626       25.145281    
   1236000   1.0235456      17.62442       24.907288    
   1237000   0.99502714     18.123259      24.738166    
   1238000   0.99722288     17.653844      24.736445    
   1239000   0.99267906     17.256788      24.636376    
   1240000   1.0309293      17.368599      24.635122    
   1241000   0.96454694     17.456019      24.635078    
   1242000   0.99228797     17.685262      24.486193    
   1243000   0.98351949     17.198006      24.277605    
   1244000   0.97091173     17.249994      24.353361    
   1245000   1.025697       17.132121      24.420049    
   1246000   1.0334828      17.50195       24.32637     
   1247000   1.0111166      17.93297       24.29772     
   1248000   1.0392243      17.748786      23.971799    
   1249000   1.0385698      17.766706      23.745767    
   1250000   1.0135871      17.568691      23.516078    
   1251000   1.0347185      17.72324       23.367471    
   1252000   1.0231562      18.021253      23.136291    
   1253000   0.98342099     16.825042      22.918612    
   1254000   0.99046811     17.810253      22.786623    
   1255000   1.0413231      17.795312      22.710458    
   1256000   0.9870079      17.446917      22.672921    
   1257000   0.99617611     16.818805      22.725658    
   1258000   1.0134178      17.666485      22.469064    
   1259000   0.97511612     17.431296      22.24226     
   1260000   0.93016701     17.127089      22.192145    
   1261000   0.98837612     17.440762      22.251226    
   1262000   0.97436606     17.525611      22.095177    
   1263000   0.96245253     17.246003      21.80989     
   1264000   0.97072194     17.508793      21.437982    
   1265000   1.0157718      17.762628      21.440334    
   1266000   0.96469935     17.733272      21.519615    
   1267000   1.0057049      16.940749      21.487135    
   1268000   0.97734526     17.548947      21.29712     
   1269000   0.98930058     17.420931      21.275769    
   1270000   1.0359016      17.214855      21.110964    
   1271000   0.9894619      17.195492      20.969271    
   1272000   1.039178       17.849058      20.838452    
   1273000   0.98020094     17.305758      20.740019    
   1274000   1.0331978      17.130621      20.488787    
   1275000   0.98796117     17.721996      20.503269    
   1276000   0.97500077     17.537722      20.434578    
   1277000   0.96205325     17.033916      20.270774    
   1278000   0.99230313     17.581054      20.345099    
   1279000   1.0341091      17.734776      20.366112    
   1280000   1.0067689      17.072842      20.423537    
   1281000   0.97838821     17.765414      20.343913    
   1282000   1.0093581      17.60789       20.102169    
   1283000   1.0215856      17.775531      19.996393    
   1284000   0.98265655     17.288079      19.753363    
   1285000   0.99062106     16.865363      19.639472    
   1286000   0.99959666     17.064301      19.649116    
   1287000   0.99126956     16.960905      19.400911    
   1288000   1.0144884      18.034401      19.241546    
   1289000   1.007515       17.132013      18.978901    
   1290000   1.0099688      17.908067      19.033737    
   1291000   1.0002721      17.181555      19.04639     
   1292000   0.96731838     17.541216      19.058383    
   1293000   0.98502842     16.886759      18.973892    
   1294000   1.0366753      17.842529      18.958174    
   1295000   0.9971173      17.609978      19.033417    
   1296000   1.0182606      18.04319       19.048334    
   1297000   1.0240916      17.86065       18.973372    
   1298000   1.0256856      17.212016      18.889756    
   1299000   0.947316       17.405672      18.847124    
   1300000   0.97090198     17.043068      18.899674    
   1301000   0.9808706      17.504362      18.995377    
   1302000   0.97434085     17.101271      18.914128    
   1303000   0.97486619     17.151959      18.569066    
   1304000   0.99419002     17.435741      18.684148    
   1305000   1.0086773      17.241445      18.600768    
   1306000   1.0311327      17.36335       18.562528    
   1307000   0.96664343     17.293502      18.738571    
   1308000   0.97308577     17.16942       18.67809     
   1309000   1.0431374      17.713645      18.472761    
   1310000   1.0203006      17.305253      18.171482    
   1311000   0.99219426     17.487158      18.061147    
   1312000   1.0227856      17.297978      18.005675    
   1313000   1.0039377      17.157401      18.097967    
   1314000   0.98714146     17.818394      18.130073    
   1315000   0.96572944     17.694938      18.013125    
   1316000   0.99558841     17.347891      17.830638    
   1317000   0.99177402     17.298839      17.642726    
   1318000   1.0054796      17.27569       17.669864    
   1319000   1.0130601      16.771347      17.637652    
   1320000   0.99781811     16.813312      17.556616    
   1321000   0.96533903     17.446088      17.418583    
   1322000   0.97364224     17.208469      17.286825    
   1323000   0.95324039     17.160135      17.090242    
   1324000   1.0235393      17.254354      16.888174    
   1325000   0.98390524     17.524579      16.932141    
   1326000   0.98865457     17.348821      16.835326    
   1327000   1.0185476      17.568987      16.58779     
   1328000   0.99512686     17.89118       16.383152    
   1329000   0.98992761     17.418322      16.266935    
   1330000   1.0004528      17.398847      16.160574    
   1331000   1.0037605      17.368188      15.930894    
   1332000   1.0036621      17.493094      16.043542    
   1333000   1.0184194      16.846079      15.649541    
   1334000   1.0065143      17.444619      15.390634    
   1335000   1.0295532      17.689528      15.270683    
   1336000   0.95940092     17.321917      14.860727    
   1337000   1.0413978      17.767482      14.505601    
   1338000   0.97673723     17.660241      14.298313    
   1339000   1.0021568      17.438319      14.292673    
   1340000   0.97607807     17.932202      14.382095    
   1341000   0.97627953     17.327905      14.119096    
   1342000   0.9572562      17.251273      13.789277    
   1343000   1.0062069      18.199559      13.694224    
   1344000   1.0096045      17.006044      13.725433    
   1345000   0.97757832     17.05857       13.687036    
   1346000   0.99681958     17.208907      13.417331    
   1347000   0.98493545     17.561348      13.447434    
   1348000   1.0223325      17.40839       13.240149    
   1349000   0.99087349     17.21907       13.07659     
   1350000   0.99252758     18.139789      13.018815    
   1351000   0.95985929     16.678368      12.807497    
   1352000   0.99991451     17.615644      12.736789    
   1353000   0.97381446     17.106686      12.24492     
   1354000   1.0290788      17.455013      12.254728    
   1355000   1.0035985      17.499792      12.217021    
   1356000   0.99838909     16.864999      12.224086    
   1357000   0.99815617     16.731581      12.021929    
   1358000   0.99153605     17.170676      11.807298    
   1359000   0.95239565     17.59698       11.749473    
   1360000   1.0800663      17.075053      11.631813    
   1361000   1.0240395      16.661493      11.740811    
   1362000   0.97933049     16.956571      11.781082    
   1363000   1.0260519      17.025363      11.883817    
   1364000   0.97886516     16.85416       11.810007    
   1365000   0.96738548     17.334923      11.645856    
   1366000   1.0127829      16.929936      11.61072     
   1367000   1.0322735      17.284076      11.667017    
   1368000   0.99491872     17.190342      11.431322    
   1369000   0.98226332     16.670038      11.374557    
   1370000   0.98523583     16.872832      11.215527    
   1371000   0.97153451     16.724055      11.168973    
   1372000   1.0128782      16.986291      11.305226    
   1373000   0.96433657     16.423309      11.083138    
   1374000   0.97793637     16.604327      10.984771    
   1375000   1.0353968      17.17714       11.00068     
   1376000   1.0008479      17.160014      10.915656    
   1377000   0.97637498     17.065206      10.838547    
   1378000   0.99005828     17.038573      10.788266    
   1379000   1.0666246      17.638315      10.868287    
   1380000   1.0069292      17.594867      10.512986    
   1381000   0.99038636     16.918593      10.472783    
   1382000   0.95760371     17.043913      10.628118    
   1383000   0.9958354      17.016075      10.508551    
   1384000   1.0356738      17.450246      10.206872    
   1385000   0.98341983     17.021569      10.152894    
   1386000   1.0282894      17.614077      10.164993    
   1387000   0.97675219     16.901814      10.041914    
   1388000   1.0055255      17.173531      9.9841829    
   1389000   0.9841669      17.371012      9.8145711    
   1390000   0.98811276     17.416355      9.8304757    
   1391000   1.0423328      16.705492      9.683528     
   1392000   1.0284074      16.882341      9.7095227    
   1393000   1.0207567      16.770513      9.7480669    
   1394000   1.007509       17.419022      9.7070256    
   1395000   1.0062427      17.498831      9.6178246    
   1396000   1.0133919      17.76554       9.6066455    
   1397000   0.99910582     16.783967      9.4715206    
   1398000   1.0544934      17.433884      9.4294102    
   1399000   0.99248158     16.561525      9.479507     
   1400000   1.018341       17.500037      9.4653554    
   1401000   0.99664298     17.525519      8.9985691    
   1402000   0.99147808     16.759954      8.8754207    
   1403000   0.99902345     17.162944      8.6878453    
   1404000   1.0267425      17.447858      8.4695678    
   1405000   0.98630496     16.840117      8.4311166    
   1406000   1.0649799      16.84882       8.2476231    
   1407000   0.99478586     16.971803      8.1297808    
   1408000   0.97185471     16.954917      8.222302     
   1409000   1.0191378      17.191594      8.223696     
   1410000   0.94916382     17.199075      8.2354197    
   1411000   1.0523106      17.132512      8.4276384    
   1412000   0.99708139     17.070941      8.4290589    
   1413000   1.0073298      17.100875      8.2313897    
   1414000   0.99046941     17.429771      8.3798477    
   1415000   1.0163703      17.19626       8.2961351    
   1416000   1.0390204      16.893742      8.2124104    
   1417000   0.98634168     16.37615       7.9649354    
   1418000   0.95990295     17.140564      7.7435972    
   1419000   0.971661       17.299926      7.5373744    
   1420000   1.0093536      17.004597      7.4742414    
   1421000   0.97233781     16.561437      7.4596283    
   1422000   1.0195204      17.519354      7.2027336    
Fix halt condition for fix-id 3 met on step 1423000 with value 6.919513773648248 (src/fix_halt.cpp:237)
   1423000   0.98447753     17.064778      6.9195138    
Loop time of 2121.52 on 2 procs for 1323000 steps with 1000 atoms

Performance: 538799.505 tau/day, 623.611 timesteps/s
64.0% CPU use with 2 MPI tasks x 1 OpenMP threads

MPI task timing breakdown:
Section |  min time  |  avg time  |  max time  |%varavg| %total
---------------------------------------------------------------
Pair    | 0.2851     | 462.17     | 924.05     |2148.5 | 21.78
Bond    | 0.37701    | 45.616     | 90.856     | 669.8 |  2.15
Neigh   | 976.58     | 976.63     | 976.68     |   0.2 | 46.03
Comm    | 1.4529     | 1.7532     | 2.0534     |  22.7 |  0.08
Output  | 9.1858     | 9.2131     | 9.2404     |   0.9 |  0.43
Modify  | 2.3239     | 50.166     | 98.007     | 675.5 |  2.36
Other   |            | 576        |            |       | 27.15

Nlocal:            500 ave        1000 max           0 min
Histogram: 1 0 0 0 0 0 0 0 0 1
Nghost:              0 ave           0 max           0 min
Histogram: 2 0 0 0 0 0 0 0 0 0
Neighs:         106288 ave      212575 max           0 min
Histogram: 1 0 0 0 0 0 0 0 0 1

Total # of neighbors = 212575
Ave neighs/atom = 212.575
Ave special neighs/atom = 1.998
Neighbor list builds = 12928
Dangerous builds = 0

# This simulation is done
# Move onto the next one
clear
OMP_NUM_THREADS environment is not set. Defaulting to 1 thread. (src/comm.cpp:98)
  using 1 OpenMP thread(s) per MPI task
next f
jump SELF

###
# Reference paper:
# K. Kremer and G. S. Grest
# Dynamics of entangled linear polymer melts: A molecular-dynamics simulation
# J Chem Phys 92, 5057 (1990)

##################################
# MIHIR: for branched polymers
# LJ minimum first to expand and explore, then collapse
###

###
# Looping through the various tshaped polymers to simulate,
# define variables to switch through
variable f index bb66nuc1bl33bn3d30tot100 bb133nuc1bl66bn3d30tot200 bb200nuc1bl100bn3d30tot300 bb266nuc1bl133bn3d30tot400 bb333nuc1bl166bn3d30tot500 bb400nuc1bl200bn3d30tot600 bb466nuc1bl233bn3d30tot700 bb533nuc1bl266bn3d30tot800 bb600nuc1bl300bn3d30tot900 bb666nuc1bl333bn3d30tot1000 bb733nuc1bl366bn3d30tot1100 bb800nuc1bl400bn3d30tot1200
###


###
# Box and units  (use LJ units and periodic boundaries)
###

units lj
log tshaped/logs/$f.log
log tshaped/logs/bb733nuc1bl366bn3d30tot1100.log
