#atom_style bond #no stiffness
atom_style angle #with stiffness

boundary        p p p
###
# Pair interactions require lists of neighbours to be calculated
###

#neighbor 0.3 bin
neighbor 4 bin

neigh_modify every 1 delay 1 check yes
atom_modify sort 0 0
### Generate RESTART file, SPECIAL format, not a .txt file ###
### Useful if simulation crashes ###

restart 1000000 tshaped/restarts3/$f.restart
restart 1000000 tshaped/restarts3/bb333nuc1bl166bn3d30tot500.restart
#############################



### READ "start" data file ###

read_data tshaped/$f.dat
read_data tshaped/bb333nuc1bl166bn3d30tot500.dat
Reading data file ...
  orthogonal box = (-1000 -1000 -1000) to (1000 1000 1000)
  1 by 1 by 1 MPI processor grid
  reading atoms ...
  499 atoms
  scanning bonds ...
  2 = max bonds/atom
  scanning angles ...
  3 = max angles/atom
  reading bonds ...
  498 bonds
  reading angles ...
  498 angles
Finding 1-2 1-3 1-4 neighbors ...
  special bond factors lj:    0        0        0       
  special bond factors coul:  0        0        0       
     3 = max # of 1-2 neighbors
     3 = max # of 1-3 neighbors
     6 = max # of 1-4 neighbors
     9 = max # of special neighbors
  special bonds CPU = 0.002 seconds
  read_data CPU = 0.082 seconds

######################

### READ "REstart" data file ###

######################



###
# Define groups (atom type 1 is group 'all')
###
group all type 1
499 atoms in group all


###
# Dump configs - "simple dumpings"
###

###
# Dump configs + box coords
###

dump   1   all   custom   1000  tshaped/trjs3/$f.lammpstrj  id  x y z  ix iy iz
dump   1   all   custom   1000  tshaped/trjs3/bb333nuc1bl166bn3d30tot500.lammpstrj  id  x y z  ix iy iz
dump_modify   1   format line "%d %.5f %.5f %.5f %d %d %d"

########################################################################


###################################################################
# Stiffness term
#
# E = K * (1+cos(theta)), K>0
#
angle_style   cosine
#change this coefficient to change stiffness (e.g. 1,5,10)
angle_coeff   1 1.0
###################################################################

###################################################################
# Pair interaction between non-bonded atoms
#
#  Lennard-Jones 12-6 potential with cutoff:
#  potential E=4epsilon[ (sigma/r)^12 - (sigma/r)^6]  for r<r_cut
#
#  1.12246 = 2^(1/6) is the minimum of the potential


pair_style      lj/cut 1.12246152962189
#pair_style      lj/cut 3

#
#  pair_modify shift yes adds a constant to the potential such

#  that E(r_cut)=0. Forces remains unchanged.
#

pair_modify     shift yes

#
#  pair_coeff for lj/cut, specify 4:
#    * atom type interacting with
#    * atom type
#    * epsilon (energy units)
#    * sigma (distance units)
#

pair_coeff      1 1 1.0 1.0
###################################################################

###################################################################
# Pair interaction between non-bonded atoms
#
#  soft potential, for PUSHING apart overlapping atoms
#  potential E=A*(1 + cos(pi*r/r_c))
#
#  1.12246 = 2^(1/6) is the cut-off r_c

#pair_style     soft 1.12246152962189

#
#  pair_coeff for soft, specify 3:
#    * atom type interacting with
#    * atom type
#    * A
#
#

#pair_coeff      1 1 100.0
###################################################################

###################################################################
# Pair interaction between bonded atoms
#
# Fene potential + Lennard Jones 12-6:

#
#  E= - 0.5 K R0^2 ln[ 1- (r/R0)^2]
#     + 4epsilon[ (sigma/r)^12 - (sigma/r)^6] + epsilon
#

bond_style   fene


#
# For style fene, specify:
#   * bond type
#   * K (energy/distance^2)
#   * R0 (distance)
#   * epsilon (energy)  (LJ component)
#   * sigma (distance)  (LJ component)
#


special_bonds fene #<=== I M P O R T A N T (new command)
Finding 1-2 1-3 1-4 neighbors ...
  special bond factors lj:    0        1        1       
  special bond factors coul:  0        1        1       
     3 = max # of 1-2 neighbors
     9 = max # of special neighbors
  special bonds CPU = 0.000 seconds

bond_coeff   1   30   2   1.0   1.0


###################################################

###################################################################
# Pair interaction between bonded atoms
#
# Harmonic potential:
#
#  E= K * (R-R0)^2
#

#bond_style   harmonic

#
# For style harmonic, specify:
#   * bond type
#   * K (energy/distance^2)
#   * R0 (distance)
#

#bond_coeff   1   60.0   1.0
#bond_coeff   2   harmonic 0.1   1.0

###################################################
compute 1 all gyration
variable rog equal c_1
#compute 2 all coord/atom cutoff 1.1

#dump 2 all custom 10000 contact_number.dump id c_2


###
# Set up fixes
###
thermo_style   custom   step  temp enthalpy c_1
fix 1 all nve   ###NVE ensemble

fix 2 all   langevin   1.0 1.0 1.0  158102   ###Langevin integrator Tstart Tstop 1/friction rndseed


##### Sample thermodynamic info  (temperature, energy, pressure, etc.) #####
thermo 1000









############################################################################

###
# set timestep of integrator

timestep 0.01

###
# run integration for a number of steps
###
#run 0
#variable r equal c_1
#if "$r < 63.1" then "quit 1"

# lj potential minimum, cause molecule to explore
run 100000
Generated 0 of 0 mixed pair_coeff terms from geometric mixing rule
Last active /omp style is angle_style cosine/omp
Neighbor list info ...
  update: every = 1 steps, delay = 1 steps, check = yes
  max neighbors/atom: 2000, page size: 100000
  master list distance cutoff = 5.1224615
  ghost atom cutoff = 5.1224615
  binsize = 2.5612308, bins = 781 781 781
  1 neighbor lists, perpetual/occasional/extra = 1 0 0
  (1) pair lj/cut/omp, perpetual
      attributes: half, newton on, omp
      pair build: half/bin/newton/omp
      stencil: half/bin/3d
      bin: standard
WARNING: Communication cutoff 5.12246152962189 is shorter than a bond length based estimate of 5.455. This may lead to errors. (src/comm.cpp:723)
Per MPI rank memory allocation (min/avg/max) = 1860 | 1860 | 1860 Mbytes
   Step          Temp         Enthalpy         c_1      
         0   0              13.39584       82.507509    
      1000   0.97989987     19.129057      81.980304    
      2000   1.0431462      18.909462      81.768521    
      3000   0.98385401     18.831048      81.451434    
      4000   0.97136071     18.107209      80.89661     
      5000   1.0326819      18.76912       80.087553    
      6000   0.91942941     18.601622      79.389308    
      7000   1.0394113      19.864747      78.800001    
      8000   0.94862114     19.767966      78.522859    
      9000   1.0075602      19.781582      77.514479    
     10000   0.95274811     19.180905      77.222093    
     11000   1.0230946      19.785213      76.794557    
     12000   1.0449025      19.83866       76.404922    
     13000   0.99045469     19.714332      76.209095    
     14000   1.0376584      19.300449      75.502941    
     15000   0.97436153     19.358547      74.70699     
     16000   0.98742315     19.525054      74.494601    
     17000   0.98325238     19.051569      74.199027    
     18000   0.99931563     19.593324      73.758009    
     19000   1.0372217      19.822975      73.520572    
     20000   1.0031341      19.845083      73.511375    
     21000   1.0321522      19.701099      73.325781    
     22000   0.96932209     19.559777      73.142351    
     23000   1.0798689      20.315182      72.554058    
     24000   1.0136912      20.443151      72.505754    
     25000   0.97526909     20.180114      72.530734    
     26000   0.96177598     19.484678      72.520076    
     27000   1.0199862      19.557715      72.327918    
     28000   1.0479943      19.737886      72.02463     
     29000   0.95540241     20.178116      71.686745    
     30000   0.97879537     20.133761      71.277865    
     31000   0.89742993     20.158647      70.789894    
     32000   1.0034806      20.132369      70.671519    
     33000   1.0003694      19.841744      70.667238    
     34000   1.0441727      20.125061      70.362715    
     35000   1.0685741      20.200647      69.814434    
     36000   0.9711864      19.666412      69.513663    
     37000   0.98991541     20.225931      69.629226    
     38000   0.98167036     20.232761      69.320766    
     39000   1.0191833      19.209853      68.925925    
     40000   0.98616592     19.955152      68.797926    
     41000   1.0443485      20.12884       68.651745    
     42000   1.0012452      20.694644      68.44177     
     43000   0.97179984     20.371013      68.223694    
     44000   1.0033599      20.314236      68.112023    
     45000   1.0098964      20.849954      68.046449    
     46000   0.96020993     19.936268      67.909323    
     47000   0.98705951     19.627722      67.646513    
     48000   0.98525464     20.214872      67.364839    
     49000   1.0329698      20.245418      67.033504    
     50000   1.113551       20.355198      66.768336    
     51000   1.03762        21.540545      66.814584    
     52000   1.0172097      19.858375      66.762213    
     53000   0.9475887      19.759894      66.354754    
     54000   0.99085472     20.027915      66.367264    
     55000   0.97743389     19.514274      66.152256    
     56000   0.96492731     19.701036      65.768525    
     57000   1.0480723      20.509154      65.750224    
     58000   0.94528411     19.999182      65.462963    
     59000   1.0228426      19.754267      65.496092    
     60000   0.90556975     20.229777      65.066236    
     61000   1.0560054      20.488316      64.606788    
     62000   0.98121379     20.327076      64.604872    
     63000   0.98771678     20.14478       64.463511    
     64000   1.0590842      19.922689      64.525975    
     65000   1.0151017      20.76852       64.450608    
     66000   0.95874881     20.351347      64.23149     
     67000   0.99841337     19.665519      63.967953    
     68000   0.99413681     20.495296      64.094933    
     69000   0.95900862     19.775799      63.874113    
     70000   1.0153765      20.345428      63.51662     
     71000   0.9686743      20.21388       63.705843    
     72000   1.005769       20.910315      63.592262    
     73000   0.99240982     20.798836      63.825471    
     74000   0.98729487     20.053304      63.720046    
     75000   1.0257419      20.069337      63.754301    
     76000   1.0483449      19.762259      63.579546    
     77000   1.0530892      20.936568      63.743596    
     78000   0.97381397     19.750162      63.44467     
     79000   0.95996456     20.410934      63.095264    
     80000   1.0302586      20.57392       62.916641    
     81000   0.94950303     19.868914      62.953969    
     82000   1.0009574      20.392977      62.941352    
     83000   1.0215487      20.163577      62.740594    
     84000   1.0171017      20.425333      62.681043    
     85000   0.93818438     18.974809      62.687979    
     86000   0.99096234     20.185522      62.854101    
     87000   0.95848557     20.725644      62.835788    
     88000   0.99033418     20.496321      62.956712    
     89000   0.98583518     20.074971      62.610826    
     90000   1.0282462      20.604703      62.514249    
     91000   0.97151833     20.076243      62.33415     
     92000   1.1415468      20.313294      61.892761    
     93000   1.0366756      20.849632      61.311797    
     94000   1.0615763      20.697293      61.51817     
     95000   1.0130618      20.28667       61.212779    
     96000   1.0617824      20.382314      60.832837    
     97000   1.0725664      19.961072      60.509621    
     98000   0.9663508      20.563657      60.162647    
     99000   0.99629065     20.589013      59.875179    
    100000   1.0109069      20.481792      59.616686    
Loop time of 626.176 on 2 procs for 100000 steps with 499 atoms

Performance: 137980.363 tau/day, 159.699 timesteps/s
101.1% CPU use with 1 MPI tasks x 2 OpenMP threads

MPI task timing breakdown:
Section |  min time  |  avg time  |  max time  |%varavg| %total
---------------------------------------------------------------
Pair    | 0.74637    | 0.74637    | 0.74637    |   0.0 |  0.12
Bond    | 1.4573     | 1.4573     | 1.4573     |   0.0 |  0.23
Neigh   | 620.73     | 620.73     | 620.73     |   0.0 | 99.13
Comm    | 0.034331   | 0.034331   | 0.034331   |   0.0 |  0.01
Output  | 0.23069    | 0.23069    | 0.23069    |   0.0 |  0.04
Modify  | 2.7174     | 2.7174     | 2.7174     |   0.0 |  0.43
Other   |            | 0.2623     |            |       |  0.04

Nlocal:            499 ave         499 max         499 min
Histogram: 1 0 0 0 0 0 0 0 0 0
Nghost:              0 ave           0 max           0 min
Histogram: 1 0 0 0 0 0 0 0 0 0
Neighs:           3270 ave        3270 max        3270 min
Histogram: 1 0 0 0 0 0 0 0 0 0

Total # of neighbors = 3270
Ave neighs/atom = 6.5531062
Ave special neighs/atom = 1.995992
Neighbor list builds = 1056
Dangerous builds = 0

# Replace lj potential, now collapse
pair_style      lj/cut 3

# Cutoff simul when gyration under 5
# Variable created with equal requires v_ + 'name'
fix 3 all halt 1000 v_rog < 7

run 5000000
Generated 0 of 0 mixed pair_coeff terms from geometric mixing rule
Last active /omp style is angle_style cosine/omp
Per MPI rank memory allocation (min/avg/max) = 1860 | 1860 | 1860 Mbytes
   Step          Temp         Enthalpy         c_1      
    100000   1.0109069      19.782406      59.616686    
    101000   1.0454715      19.91982       59.110987    
    102000   1.0686609      19.921314      59.171922    
    103000   1.0512923      20.18229       58.868731    
    104000   0.99693175     19.452817      58.570231    
    105000   1.002872       19.629293      58.413124    
    106000   1.0240586      19.434779      58.137098    
    107000   0.98393675     19.23309       58.076554    
    108000   1.0605211      19.735066      57.842091    
    109000   0.9859713      19.54309       57.816124    
    110000   1.063787       20.178844      57.709386    
    111000   1.007073       19.274453      57.623867    
    112000   0.9760858      19.759109      57.122638    
    113000   0.98755625     19.127055      57.07275     
    114000   1.1244425      19.209012      56.910056    
    115000   1.035203       18.727159      56.92965     
    116000   1.0114197      19.299237      56.741154    
    117000   1.0329518      19.185765      56.421165    
    118000   0.99605639     18.654389      56.374927    
    119000   0.99884046     19.395495      56.161712    
    120000   0.96942659     18.438839      55.988719    
    121000   1.0206609      19.734014      55.806481    
    122000   0.9509578      19.269542      55.7375      
    123000   1.0150713      19.610792      55.328879    
    124000   0.95916254     19.650814      55.122128    
    125000   0.97160032     19.633335      55.003066    
    126000   0.91648526     18.972731      54.976852    
    127000   1.0257037      19.424597      54.736116    
    128000   0.96740711     19.303235      54.703642    
    129000   1.0530082      19.626107      54.648101    
    130000   0.99067342     19.244055      54.281274    
    131000   1.0055037      19.039655      54.09794     
    132000   0.93291804     18.634639      54.133267    
    133000   0.95319992     18.859258      53.787273    
    134000   0.99035547     19.511732      54.139575    
    135000   0.97964107     18.630597      53.755438    
    136000   0.94664622     18.77404       53.652462    
    137000   0.89946927     19.520774      53.397163    
    138000   0.97803006     18.605295      53.503608    
    139000   1.0408722      19.770013      53.233478    
    140000   1.0246183      19.36802       52.634216    
    141000   1.0011383      19.317376      52.173451    
    142000   0.9545713      19.295721      51.547744    
    143000   0.97845444     18.911462      51.217956    
    144000   0.97540865     19.271926      51.041545    
    145000   0.98948508     18.183385      51.093144    
    146000   1.0507802      19.576064      50.653663    
    147000   1.0400042      19.193952      50.286625    
    148000   0.97246424     18.905963      49.917147    
    149000   1.0726976      19.464652      49.589936    
    150000   0.93879971     18.292717      49.588166    
    151000   1.0179086      18.430451      49.668229    
    152000   1.0191868      19.223666      49.686142    
    153000   0.97105234     18.660938      49.49205     
    154000   0.95673139     18.842325      49.181404    
    155000   0.99872957     18.784167      48.782826    
    156000   0.99189096     18.659654      48.569338    
    157000   1.0278558      18.530305      48.089909    
    158000   1.023664       18.744022      47.795494    
    159000   1.0375831      18.439003      47.694111    
    160000   0.97325016     18.132291      47.572772    
    161000   0.98198614     19.172174      46.902961    
    162000   0.99563108     18.87386       46.654761    
    163000   0.99038208     18.271061      46.495017    
    164000   1.0409125      18.343663      46.421713    
    165000   0.98870112     19.280308      46.444876    
    166000   1.0056104      18.306168      46.385024    
    167000   0.9876057      18.17265       46.460825    
    168000   0.98636503     18.825816      46.640836    
    169000   0.99145984     19.309958      46.312035    
    170000   0.99580676     18.769791      46.009623    
    171000   1.0398165      18.471235      45.725548    
    172000   0.93756271     18.485392      45.714803    
    173000   1.030516       18.259737      45.291828    
    174000   1.0429008      19.049114      45.318634    
    175000   1.043854       18.926875      45.046562    
    176000   0.95085132     18.467536      44.633909    
    177000   1.0200121      19.155816      44.56643     
    178000   0.98069697     18.639962      44.412545    
    179000   0.93995372     19.027561      44.47651     
    180000   0.927164       18.848297      44.024267    
    181000   1.0773687      18.927495      43.825022    
    182000   0.99110542     19.01657       43.737868    
    183000   1.0229443      18.710488      43.349118    
    184000   1.008066       18.034766      43.237177    
    185000   1.0270862      19.778587      42.984381    
    186000   1.0231036      18.612204      42.677653    
    187000   1.0701944      18.779106      42.651024    
    188000   0.9928845      18.473457      42.862992    
    189000   0.99134287     18.284778      42.398495    
    190000   1.0588367      18.894945      42.406746    
    191000   1.0784574      18.627106      41.992266    
    192000   1.0001718      18.657622      41.989586    
    193000   1.0439704      17.649979      41.734388    
    194000   0.99810187     18.064593      41.29432     
    195000   0.99873666     19.801459      40.995862    
    196000   0.97496038     18.869243      41.040364    
    197000   0.98193407     18.278836      41.047313    
    198000   0.98969489     18.43138       41.055076    
    199000   0.97672278     18.241207      40.88546     
    200000   1.0092356      18.315351      40.516955    
    201000   1.0606999      18.810303      40.199148    
    202000   1.0508921      18.576531      39.922086    
    203000   0.95481904     18.310371      39.625897    
    204000   1.0352674      18.579039      39.370633    
    205000   1.0588427      19.686194      38.923501    
    206000   0.99639666     19.078938      38.845182    
    207000   0.96950568     18.499769      38.564844    
    208000   0.93108904     18.729852      38.542044    
    209000   0.99614732     18.522416      38.382469    
    210000   1.0228038      18.317386      37.98486     
    211000   0.96382542     18.687095      37.831244    
    212000   0.98719666     18.270534      37.963499    
    213000   1.0525551      19.231944      37.873189    
    214000   0.96883947     18.381246      37.547807    
    215000   0.98391002     18.496878      36.741897    
    216000   0.98896918     17.889787      36.31789     
    217000   0.97365852     18.766176      36.054491    
    218000   1.0026874      18.23928       35.440192    
    219000   0.91807635     18.368734      35.082242    
    220000   1.0162022      18.062352      35.523354    
    221000   0.98735457     18.834224      35.435066    
    222000   1.0467053      18.95974       35.437154    
    223000   0.94753017     18.321888      35.204564    
    224000   0.97247888     18.059165      35.402777    
    225000   0.98834302     17.621816      35.25155     
    226000   1.0418757      17.480511      35.189459    
    227000   0.97116367     17.57797       35.26603     
    228000   1.0032107      18.81879       35.103196    
    229000   1.0910517      19.193227      34.730922    
    230000   1.0472129      18.656491      34.358222    
    231000   0.90688731     19.047222      34.297731    
    232000   1.0476196      18.963414      33.702248    
    233000   0.99820742     18.814316      33.390973    
    234000   0.99759651     18.814622      33.06519     
    235000   1.022968       18.059072      32.958218    
    236000   1.0054962      17.694115      33.031445    
    237000   0.97410966     18.037018      32.912487    
    238000   0.94323901     18.014461      32.963135    
    239000   0.96415772     18.679869      32.770844    
    240000   1.0631633      17.626708      32.577641    
    241000   1.0462622      18.756781      32.065226    
    242000   1.0590014      18.624068      31.884595    
    243000   0.9936339      17.399596      31.864033    
    244000   0.94428634     18.594273      31.470072    
    245000   0.94861939     18.326549      30.897618    
    246000   0.9694119      18.272889      30.449999    
    247000   0.99937813     18.429288      29.985542    
    248000   1.0243781      18.430118      29.512958    
    249000   1.0529695      18.752342      29.100632    
    250000   0.99584802     18.12241       28.963014    
    251000   0.97347565     18.225102      28.785652    
    252000   0.99035572     18.083438      28.644136    
    253000   1.0086779      18.825023      28.369641    
    254000   1.0158446      18.352109      28.081318    
    255000   1.012418       18.204244      27.959945    
    256000   1.0159896      18.300818      27.69244     
    257000   1.0896327      18.749611      27.583176    
    258000   0.96807309     19.012026      27.462392    
    259000   0.99148455     18.231053      27.585369    
    260000   0.95206488     18.311453      27.476826    
    261000   1.0462697      18.833794      27.566624    
    262000   1.0163134      18.177678      27.543896    
    263000   0.97685932     18.095549      27.101376    
    264000   0.98436173     18.762719      26.770293    
    265000   0.94610029     18.533511      26.505161    
    266000   0.98436147     18.655054      26.362403    
    267000   1.0159432      17.960598      26.269038    
    268000   0.94340471     17.925791      26.138841    
    269000   0.98306538     18.28422       25.814182    
    270000   0.9910218      17.712924      25.554205    
    271000   0.98483279     18.159887      25.273068    
    272000   1.0057705      18.41624       25.149059    
    273000   1.0226333      18.411625      24.982772    
    274000   1.0251221      18.004268      24.866016    
    275000   1.0132142      17.837034      24.656294    
    276000   0.98286974     18.335996      24.551857    
    277000   0.94321879     17.862258      24.41084     
    278000   1.0122564      18.633257      24.378252    
    279000   1.0380728      18.362797      23.969195    
    280000   0.9985409      17.476555      23.712526    
    281000   1.0074461      17.610577      23.682786    
    282000   1.0227727      18.14514       23.967331    
    283000   0.94346773     18.378876      23.625159    
    284000   0.95752527     17.116751      23.575569    
    285000   1.0284505      18.188655      23.499874    
    286000   0.98528487     18.557432      23.362775    
    287000   0.96346802     17.806313      23.111683    
    288000   0.97135415     18.026131      22.645996    
    289000   1.0639061      17.854193      22.421331    
    290000   1.0118098      18.441511      22.628271    
    291000   0.98649052     17.760289      22.382655    
    292000   1.006632       17.870487      22.052214    
    293000   0.92328737     18.228159      21.753968    
    294000   1.0041996      19.002889      21.720798    
    295000   0.95239743     18.297907      21.177174    
    296000   0.99376521     18.033253      20.859746    
    297000   0.97225973     17.734913      20.713275    
    298000   0.99242165     17.232063      20.577392    
    299000   1.0122589      18.285648      20.658425    
    300000   0.98293569     18.027834      20.449436    
    301000   0.95586753     18.367986      20.309795    
    302000   1.117348       16.973041      20.187948    
    303000   1.0194147      18.211209      19.999377    
    304000   1.0117655      18.149783      19.913447    
    305000   1.0057907      18.206104      19.613088    
    306000   1.0172684      17.674891      19.402385    
    307000   1.0250819      17.903333      19.221176    
    308000   1.026412       17.845665      18.977638    
    309000   0.97287477     18.049846      18.933716    
    310000   0.9790199      17.770178      18.530438    
    311000   0.9953783      17.683072      18.714366    
    312000   1.0400037      18.521197      18.470878    
    313000   1.0173051      17.781242      18.400654    
    314000   0.99751383     18.322363      18.056094    
    315000   1.0045797      17.580809      17.886302    
    316000   1.0245156      18.255613      17.765368    
    317000   0.92955493     17.462019      17.731191    
    318000   1.0304288      17.35397       17.589183    
    319000   0.99201097     18.057667      17.475314    
    320000   0.95454692     18.419527      17.501927    
    321000   0.99374964     17.912719      17.387911    
    322000   0.99047555     17.801561      17.367297    
    323000   0.93397041     17.643208      17.380239    
    324000   1.0137119      17.718163      17.172523    
    325000   0.98046559     17.839211      16.861989    
    326000   0.99985299     18.016578      16.655018    
    327000   1.0456432      18.564869      16.769357    
    328000   0.9602027      17.686976      16.743061    
    329000   1.0053126      18.152379      16.483072    
    330000   0.96543083     17.974823      16.285039    
    331000   1.0471037      17.515519      15.879652    
    332000   1.0186709      18.47196       15.5124      
    333000   0.99585283     17.652301      15.328867    
    334000   1.0753625      17.681376      15.327972    
    335000   1.0054041      17.878139      15.295671    
    336000   0.96923742     17.93203       15.210427    
    337000   1.0049433      17.919095      14.999441    
    338000   0.96811556     18.398463      15.089648    
    339000   1.0235546      17.755563      14.92863     
    340000   1.0183584      17.858724      14.828005    
    341000   0.96151841     17.701027      14.440219    
    342000   1.030581       18.778289      14.281109    
    343000   0.99035094     18.336135      13.847104    
    344000   1.0270346      18.021295      14.00916     
    345000   0.97255124     18.27897       13.872937    
    346000   1.0238752      17.80638       13.828424    
    347000   1.0046532      17.601193      13.592749    
    348000   1.0099223      18.026922      13.402663    
    349000   1.0327988      18.539969      13.61848     
    350000   0.94284766     18.321976      13.689565    
    351000   1.0137794      17.885726      13.68339     
    352000   1.0506791      17.977733      13.432212    
    353000   0.93639608     17.271001      13.494263    
    354000   0.99917479     17.923177      13.391755    
    355000   0.97946596     18.341457      12.949977    
    356000   0.9770812      17.884896      12.541474    
    357000   1.0411017      17.607944      12.452291    
    358000   0.95117527     17.897343      12.644865    
    359000   1.0064707      17.854418      12.725747    
    360000   1.0409628      17.277278      12.248101    
    361000   0.9892445      17.933082      12.041525    
    362000   1.033905       17.961884      11.837431    
    363000   1.0730853      18.260723      11.481557    
    364000   1.0130856      17.56091       10.93751     
    365000   1.0522539      17.640555      10.479922    
    366000   1.0122666      17.255787      10.498342    
    367000   0.96979654     17.25992       9.9921374    
    368000   1.0269646      17.320109      9.7831277    
    369000   1.0365674      17.51605       9.7420506    
    370000   1.0722729      17.42158       9.6486356    
    371000   1.0358004      17.931496      9.4764953    
    372000   1.005877       17.808185      9.1619401    
    373000   1.0474552      18.119025      8.8728119    
    374000   1.0372951      17.518859      8.6955326    
    375000   1.0610881      17.487365      8.192963     
    376000   0.9598847      17.201501      8.0225961    
    377000   0.98937672     17.603065      7.7724929    
    378000   0.98813801     18.111112      7.4454834    
    379000   0.97390443     16.723428      7.2799631    
    380000   0.98738784     17.772059      7.0722188    
Fix halt condition for fix-id 3 met on step 381000 with value 6.92856227656001 (src/fix_halt.cpp:237)
    381000   0.94080617     17.584967      6.9285623    
Loop time of 614.77 on 2 procs for 281000 steps with 499 atoms

Performance: 394918.410 tau/day, 457.081 timesteps/s
106.9% CPU use with 1 MPI tasks x 2 OpenMP threads

MPI task timing breakdown:
Section |  min time  |  avg time  |  max time  |%varavg| %total
---------------------------------------------------------------
Pair    | 25.28      | 25.28      | 25.28      |   0.0 |  4.11
Bond    | 4.3587     | 4.3587     | 4.3587     |   0.0 |  0.71
Neigh   | 575.74     | 575.74     | 575.74     |   0.0 | 93.65
Comm    | 0.10354    | 0.10354    | 0.10354    |   0.0 |  0.02
Output  | 0.61594    | 0.61594    | 0.61594    |   0.0 |  0.10
Modify  | 7.8674     | 7.8674     | 7.8674     |   0.0 |  1.28
Other   |            | 0.8033     |            |       |  0.13

Nlocal:            499 ave         499 max         499 min
Histogram: 1 0 0 0 0 0 0 0 0 0
Nghost:              0 ave           0 max           0 min
Histogram: 1 0 0 0 0 0 0 0 0 0
Neighs:          61383 ave       61383 max       61383 min
Histogram: 1 0 0 0 0 0 0 0 0 0

Total # of neighbors = 61383
Ave neighs/atom = 123.01202
Ave special neighs/atom = 1.995992
Neighbor list builds = 2503
Dangerous builds = 0

# This simulation is done
# Move onto the next one
clear
  using 2 OpenMP thread(s) per MPI task
package omp 0
using multi-threaded neighbor list subroutines
next f
jump SELF

###
# Reference paper:
# K. Kremer and G. S. Grest
# Dynamics of entangled linear polymer melts: A molecular-dynamics simulation
# J Chem Phys 92, 5057 (1990)

##################################
# MIHIR: for branched polymers
# LJ minimum first to expand and explore, then collapse
###

###
# Looping through the various tshaped polymers to simulate,
# define variables to switch through
variable f index bb66nuc1bl33bn3d30tot100 bb133nuc1bl66bn3d30tot200 bb200nuc1bl100bn3d30tot300 bb266nuc1bl133bn3d30tot400 bb333nuc1bl166bn3d30tot500 bb400nuc1bl200bn3d30tot600 bb466nuc1bl233bn3d30tot700 bb533nuc1bl266bn3d30tot800 bb600nuc1bl300bn3d30tot900 bb666nuc1bl333bn3d30tot1000 bb733nuc1bl366bn3d30tot1100 bb800nuc1bl400bn3d30tot1200
###


###
# Box and units  (use LJ units and periodic boundaries)
###

units lj
log tshaped/logs3/$f.log
log tshaped/logs3/bb400nuc1bl200bn3d30tot600.log
