#atom_style bond #no stiffness
atom_style angle #with stiffness

boundary        p p p
###
# Pair interactions require lists of neighbours to be calculated
###

#neighbor 0.3 bin
neighbor 4 bin

neigh_modify every 1 delay 1 check yes
atom_modify sort 0 0
### Generate RESTART file, SPECIAL format, not a .txt file ###
### Useful if simulation crashes ###

restart 1000000 tshaped/restarts3/$f.restart
restart 1000000 tshaped/restarts3/bb400nuc1bl200bn3d30tot600.restart
#############################



### READ "start" data file ###

read_data tshaped/$f.dat
read_data tshaped/bb400nuc1bl200bn3d30tot600.dat
Reading data file ...
  orthogonal box = (-1000 -1000 -1000) to (1000 1000 1000)
  1 by 1 by 1 MPI processor grid
  reading atoms ...
  601 atoms
  scanning bonds ...
  2 = max bonds/atom
  scanning angles ...
  3 = max angles/atom
  reading bonds ...
  600 bonds
  reading angles ...
  600 angles
Finding 1-2 1-3 1-4 neighbors ...
  special bond factors lj:    0        0        0       
  special bond factors coul:  0        0        0       
     3 = max # of 1-2 neighbors
     3 = max # of 1-3 neighbors
     6 = max # of 1-4 neighbors
     9 = max # of special neighbors
  special bonds CPU = 0.001 seconds
  read_data CPU = 0.062 seconds

######################

### READ "REstart" data file ###

######################



###
# Define groups (atom type 1 is group 'all')
###
group all type 1
601 atoms in group all


###
# Dump configs - "simple dumpings"
###

###
# Dump configs + box coords
###

dump   1   all   custom   1000  tshaped/trjs3/$f.lammpstrj  id  x y z  ix iy iz
dump   1   all   custom   1000  tshaped/trjs3/bb400nuc1bl200bn3d30tot600.lammpstrj  id  x y z  ix iy iz
dump_modify   1   format line "%d %.5f %.5f %.5f %d %d %d"

########################################################################


###################################################################
# Stiffness term
#
# E = K * (1+cos(theta)), K>0
#
angle_style   cosine
#change this coefficient to change stiffness (e.g. 1,5,10)
angle_coeff   1 1.0
###################################################################

###################################################################
# Pair interaction between non-bonded atoms
#
#  Lennard-Jones 12-6 potential with cutoff:
#  potential E=4epsilon[ (sigma/r)^12 - (sigma/r)^6]  for r<r_cut
#
#  1.12246 = 2^(1/6) is the minimum of the potential


pair_style      lj/cut 1.12246152962189
#pair_style      lj/cut 3

#
#  pair_modify shift yes adds a constant to the potential such

#  that E(r_cut)=0. Forces remains unchanged.
#

pair_modify     shift yes

#
#  pair_coeff for lj/cut, specify 4:
#    * atom type interacting with
#    * atom type
#    * epsilon (energy units)
#    * sigma (distance units)
#

pair_coeff      1 1 1.0 1.0
###################################################################

###################################################################
# Pair interaction between non-bonded atoms
#
#  soft potential, for PUSHING apart overlapping atoms
#  potential E=A*(1 + cos(pi*r/r_c))
#
#  1.12246 = 2^(1/6) is the cut-off r_c

#pair_style     soft 1.12246152962189

#
#  pair_coeff for soft, specify 3:
#    * atom type interacting with
#    * atom type
#    * A
#
#

#pair_coeff      1 1 100.0
###################################################################

###################################################################
# Pair interaction between bonded atoms
#
# Fene potential + Lennard Jones 12-6:

#
#  E= - 0.5 K R0^2 ln[ 1- (r/R0)^2]
#     + 4epsilon[ (sigma/r)^12 - (sigma/r)^6] + epsilon
#

bond_style   fene


#
# For style fene, specify:
#   * bond type
#   * K (energy/distance^2)
#   * R0 (distance)
#   * epsilon (energy)  (LJ component)
#   * sigma (distance)  (LJ component)
#


special_bonds fene #<=== I M P O R T A N T (new command)
Finding 1-2 1-3 1-4 neighbors ...
  special bond factors lj:    0        1        1       
  special bond factors coul:  0        1        1       
     3 = max # of 1-2 neighbors
     9 = max # of special neighbors
  special bonds CPU = 0.000 seconds

bond_coeff   1   30   2   1.0   1.0


###################################################

###################################################################
# Pair interaction between bonded atoms
#
# Harmonic potential:
#
#  E= K * (R-R0)^2
#

#bond_style   harmonic

#
# For style harmonic, specify:
#   * bond type
#   * K (energy/distance^2)
#   * R0 (distance)
#

#bond_coeff   1   60.0   1.0
#bond_coeff   2   harmonic 0.1   1.0

###################################################
compute 1 all gyration
variable rog equal c_1
#compute 2 all coord/atom cutoff 1.1

#dump 2 all custom 10000 contact_number.dump id c_2


###
# Set up fixes
###
thermo_style   custom   step  temp enthalpy c_1
fix 1 all nve   ###NVE ensemble

fix 2 all   langevin   1.0 1.0 1.0  158102   ###Langevin integrator Tstart Tstop 1/friction rndseed


##### Sample thermodynamic info  (temperature, energy, pressure, etc.) #####
thermo 1000









############################################################################

###
# set timestep of integrator

timestep 0.01

###
# run integration for a number of steps
###
#run 0
#variable r equal c_1
#if "$r < 63.1" then "quit 1"

# lj potential minimum, cause molecule to explore
run 100000
Generated 0 of 0 mixed pair_coeff terms from geometric mixing rule
Last active /omp style is angle_style cosine/omp
Neighbor list info ...
  update: every = 1 steps, delay = 1 steps, check = yes
  max neighbors/atom: 2000, page size: 100000
  master list distance cutoff = 5.1224615
  ghost atom cutoff = 5.1224615
  binsize = 2.5612308, bins = 781 781 781
  1 neighbor lists, perpetual/occasional/extra = 1 0 0
  (1) pair lj/cut/omp, perpetual
      attributes: half, newton on, omp
      pair build: half/bin/newton/omp
      stencil: half/bin/3d
      bin: standard
WARNING: Communication cutoff 5.12246152962189 is shorter than a bond length based estimate of 5.455. This may lead to errors. (src/comm.cpp:723)
Per MPI rank memory allocation (min/avg/max) = 1860 | 1860 | 1860 Mbytes
   Step          Temp         Enthalpy         c_1      
         0   0              13.220355      105.26482    
      1000   1.0026342      17.446442      104.75928    
      2000   1.0326057      17.638099      104.23594    
      3000   1.0147631      18.51377       103.52955    
      4000   0.93944669     18.146853      103.21696    
      5000   1.000197       18.4664        102.66669    
      6000   0.9301491      18.618177      102.1746     
      7000   1.0432822      18.885952      101.71831    
      8000   1.0162533      18.321279      101.18712    
      9000   1.003013       18.264155      100.67288    
     10000   1.0233582      18.597367      100.16546    
     11000   0.97113554     18.544321      99.55551     
     12000   0.99386758     19.035576      98.950399    
     13000   0.98101411     19.362424      98.883489    
     14000   0.97536463     18.848704      98.388272    
     15000   0.98202348     18.729539      97.859308    
     16000   1.0303902      18.369673      97.419619    
     17000   0.9818062      19.16978       96.849481    
     18000   1.0660132      19.242037      96.570033    
     19000   1.0180087      18.973008      96.361296    
     20000   1.0516833      19.435172      95.856842    
     21000   1.0416942      19.901438      95.445856    
     22000   0.96884502     19.433241      95.328809    
     23000   0.94663488     19.055954      95.125104    
     24000   0.96458526     19.514666      94.60614     
     25000   0.98052553     19.22892       94.048584    
     26000   1.0218919      19.132044      93.918589    
     27000   0.98996566     19.677416      93.565903    
     28000   1.0048964      19.296045      93.339533    
     29000   1.0250694      19.302217      93.204184    
     30000   1.0253773      18.570924      92.800935    
     31000   1.0577894      20.119752      92.351117    
     32000   1.041676       20.019335      92.225525    
     33000   1.03392        18.956022      92.051698    
     34000   0.95466941     19.217616      91.535929    
     35000   0.95175016     19.901631      91.315688    
     36000   0.9672687      19.834263      90.991899    
     37000   1.0045714      19.868754      90.943741    
     38000   0.98661277     20.196945      90.650409    
     39000   1.0174914      19.423625      90.141936    
     40000   1.0295496      19.49081       89.943434    
     41000   0.99649615     19.461658      89.62239     
     42000   0.98788253     19.592489      89.530136    
     43000   0.91657981     19.794227      89.467934    
     44000   1.0479704      19.98506       89.28642     
     45000   1.0007283      20.13827       88.932636    
     46000   0.99755947     20.294815      88.629653    
     47000   0.97770013     19.119132      88.418388    
     48000   1.0908688      20.342754      88.119498    
     49000   0.96107681     19.959906      88.01425     
     50000   1.0285657      20.219964      87.462132    
     51000   1.0432171      19.782199      87.247311    
     52000   1.0071         20.81385       87.046926    
     53000   1.0380641      20.444123      86.706765    
     54000   0.98395112     19.489047      86.357656    
     55000   0.93150737     19.711864      86.180938    
     56000   1.0087443      20.031958      85.784016    
     57000   1.0618678      20.481894      85.482385    
     58000   1.0072355      20.620398      85.178355    
     59000   0.99308771     19.817553      85.123134    
     60000   1.0527042      21.055794      85.077695    
     61000   1.0350374      20.460953      85.001794    
     62000   1.027459       20.372105      84.721998    
     63000   0.96167021     19.578466      84.60516     
     64000   0.97427698     20.157858      84.64081     
     65000   1.0226168      20.249864      84.250431    
     66000   1.0022334      19.772358      84.079048    
     67000   0.92906723     19.763595      84.078208    
     68000   0.97343526     19.546983      83.677663    
     69000   0.94073        19.842061      83.649255    
     70000   1.0078043      19.417977      83.380173    
     71000   1.0274034      20.175999      82.679615    
     72000   1.0548556      20.168764      82.655261    
     73000   0.90366399     19.953902      82.54411     
     74000   0.97191865     20.136617      82.361429    
     75000   1.0355376      20.813319      82.335661    
     76000   0.9566831      20.323954      82.199472    
     77000   0.97681149     19.914904      82.342708    
     78000   0.99117427     20.082946      82.301855    
     79000   1.0297909      19.803299      82.201425    
     80000   1.0173236      20.172945      81.831039    
     81000   1.037076       19.713765      81.664807    
     82000   1.0086075      20.151387      81.677321    
     83000   0.9688068      19.685781      81.424944    
     84000   1.0405798      19.900576      80.964436    
     85000   1.0356265      20.154599      80.672777    
     86000   1.0008309      20.533863      80.609319    
     87000   0.9456729      20.017671      80.379384    
     88000   0.98476994     21.036313      80.131662    
     89000   0.97967606     20.218743      79.871498    
     90000   0.98449716     20.216371      79.862917    
     91000   0.9753383      20.562995      80.173963    
     92000   0.94298803     20.34371       80.002601    
     93000   0.95165415     20.050937      79.765561    
     94000   1.0206134      19.688393      79.754536    
     95000   1.0556668      20.672304      79.58085     
     96000   0.97940681     19.487413      79.372021    
     97000   0.9758775      21.015082      79.120267    
     98000   1.028872       20.152374      78.964484    
     99000   0.99036637     20.411043      78.866908    
    100000   0.94829333     19.44032       78.908701    
Loop time of 629.253 on 2 procs for 100000 steps with 601 atoms

Performance: 137305.667 tau/day, 158.919 timesteps/s
101.2% CPU use with 1 MPI tasks x 2 OpenMP threads

MPI task timing breakdown:
Section |  min time  |  avg time  |  max time  |%varavg| %total
---------------------------------------------------------------
Pair    | 0.78539    | 0.78539    | 0.78539    |   0.0 |  0.12
Bond    | 1.6303     | 1.6303     | 1.6303     |   0.0 |  0.26
Neigh   | 623.17     | 623.17     | 623.17     |   0.0 | 99.03
Comm    | 0.037404   | 0.037404   | 0.037404   |   0.0 |  0.01
Output  | 0.23513    | 0.23513    | 0.23513    |   0.0 |  0.04
Modify  | 3.0896     | 3.0896     | 3.0896     |   0.0 |  0.49
Other   |            | 0.307      |            |       |  0.05

Nlocal:            601 ave         601 max         601 min
Histogram: 1 0 0 0 0 0 0 0 0 0
Nghost:              0 ave           0 max           0 min
Histogram: 1 0 0 0 0 0 0 0 0 0
Neighs:           3530 ave        3530 max        3530 min
Histogram: 1 0 0 0 0 0 0 0 0 0

Total # of neighbors = 3530
Ave neighs/atom = 5.8735441
Ave special neighs/atom = 1.9966722
Neighbor list builds = 1056
Dangerous builds = 0

# Replace lj potential, now collapse
pair_style      lj/cut 3

# Cutoff simul when gyration under 5
# Variable created with equal requires v_ + 'name'
fix 3 all halt 1000 v_rog < 7

run 5000000
Generated 0 of 0 mixed pair_coeff terms from geometric mixing rule
Last active /omp style is angle_style cosine/omp
Per MPI rank memory allocation (min/avg/max) = 1860 | 1860 | 1860 Mbytes
   Step          Temp         Enthalpy         c_1      
    100000   0.94829333     18.811232      78.908701    
    101000   0.98559718     19.522232      78.839504    
    102000   1.02928        19.692729      78.385958    
    103000   1.0251997      19.948503      78.055623    
    104000   1.0147883      19.336693      77.729286    
    105000   1.0481192      19.145992      77.569318    
    106000   0.94981472     19.257539      77.252534    
    107000   0.97084127     18.656115      77.251689    
    108000   1.0198416      19.9613        76.996619    
    109000   1.0082708      19.475924      76.875557    
    110000   0.98404045     18.876989      76.592392    
    111000   0.9446868      18.856534      76.506595    
    112000   0.94714219     19.778761      76.481993    
    113000   1.0304159      19.486259      76.266942    
    114000   1.019364       19.213334      76.135998    
    115000   1.0504758      19.509006      76.255985    
    116000   0.98998265     18.971358      76.017841    
    117000   1.0106232      19.194074      75.635011    
    118000   0.96850106     19.190577      75.747118    
    119000   1.044283       19.831128      75.9226      
    120000   1.0300868      19.271074      75.792174    
    121000   0.98297451     19.29668       75.562268    
    122000   1.0176808      19.315014      75.227025    
    123000   1.006363       19.716657      75.293027    
    124000   1.0013198      18.879097      75.014306    
    125000   0.92826135     19.504305      74.610627    
    126000   1.0094217      19.928784      74.411488    
    127000   1.0170489      18.98758       74.009012    
    128000   1.0451385      19.176299      73.808682    
    129000   0.98761476     18.74658       73.695541    
    130000   0.98232723     18.80763       73.367658    
    131000   0.97173093     19.436378      72.863111    
    132000   0.97278669     19.217448      72.645964    
    133000   1.0106646      19.515458      72.410402    
    134000   0.98013283     18.787964      72.122867    
    135000   0.98015238     18.966499      71.810579    
    136000   1.0435621      18.844392      71.531758    
    137000   0.99290612     18.991118      70.967923    
    138000   0.99428665     19.301825      70.624018    
    139000   1.0017778      19.581492      70.342246    
    140000   0.95173168     19.423667      70.041948    
    141000   1.0266892      19.075464      70.02471     
    142000   0.96495965     18.961539      69.732682    
    143000   1.0616328      19.670552      69.469192    
    144000   0.94652052     19.589707      69.423976    
    145000   1.0613245      19.297793      69.121       
    146000   0.95856575     18.848909      69.078567    
    147000   0.97583901     19.22202       68.872857    
    148000   1.0330234      18.614219      68.74109     
    149000   0.95066953     18.449772      68.412888    
    150000   1.0165227      19.041094      68.275594    
    151000   1.0112922      19.914294      67.783183    
    152000   0.97605059     18.767275      67.514517    
    153000   1.043894       18.714764      67.541825    
    154000   1.0517123      19.5628        67.26531     
    155000   1.0220383      19.170797      66.764634    
    156000   0.99875765     19.749174      66.339187    
    157000   1.0121047      19.186966      66.162334    
    158000   0.99906155     19.648138      66.163659    
    159000   1.0187364      18.9646        65.985376    
    160000   1.04073        19.697802      65.766852    
    161000   1.045002       19.153748      65.670996    
    162000   0.98960237     18.359434      65.711497    
    163000   1.0021092      18.828443      65.569224    
    164000   1.0354602      19.418656      65.558204    
    165000   1.0478475      19.286123      65.487983    
    166000   0.94695741     19.458924      65.210372    
    167000   1.0297556      18.93458       65.06294     
    168000   1.0332805      18.406561      64.98288     
    169000   0.98069754     18.916633      64.881462    
    170000   0.96139366     18.715293      64.48016     
    171000   0.97724384     19.126067      64.163337    
    172000   1.015385       19.526507      63.783932    
    173000   0.99478356     19.742002      63.794404    
    174000   0.97821591     18.898329      63.747721    
    175000   1.0364174      18.767785      63.554127    
    176000   1.0002449      19.14904       63.481181    
    177000   1.0063292      19.751569      63.313771    
    178000   0.98549799     18.359671      63.097493    
    179000   0.99818987     19.060567      62.963104    
    180000   0.98939838     19.2113        62.777943    
    181000   0.99372499     19.713637      62.716241    
    182000   0.97105933     18.360563      62.600639    
    183000   0.9901743      18.665394      62.590548    
    184000   1.003397       18.550365      62.639214    
    185000   0.97291969     18.70397       62.688466    
    186000   1.0121768      18.515074      62.827891    
    187000   0.95247136     18.010371      62.88288     
    188000   1.0062328      18.445287      62.809304    
    189000   0.9931917      18.269492      62.650797    
    190000   1.0533806      19.938765      62.591285    
    191000   0.98384381     18.501013      62.575772    
    192000   1.0225782      18.594529      62.38045     
    193000   1.0114069      19.132341      62.239824    
    194000   0.9868677      18.908978      61.903563    
    195000   1.0327116      18.436221      61.589752    
    196000   0.99739932     18.41043       61.51858     
    197000   0.95279858     18.365943      61.372835    
    198000   0.96450087     19.011819      61.007329    
    199000   0.97712695     18.198082      60.781447    
    200000   1.054541       19.629816      60.30427     
    201000   1.0359998      18.665777      59.752027    
    202000   0.99074122     18.803142      59.47981     
    203000   0.9544937      18.891446      59.234063    
    204000   0.97863638     18.331276      59.364132    
    205000   0.9831868      18.472321      59.415746    
    206000   1.0242952      19.470742      59.145501    
    207000   1.0024975      18.700278      58.957627    
    208000   1.0258199      18.282287      58.510101    
    209000   0.96434261     18.733261      58.34373     
    210000   1.0376065      18.979199      58.243046    
    211000   1.0065239      18.99135       58.272781    
    212000   1.0074415      17.875609      58.003121    
    213000   0.9730864      18.026916      57.82067     
    214000   0.99151948     18.569475      57.807377    
    215000   0.97874291     18.597446      57.708649    
    216000   0.95437789     18.282543      57.745312    
    217000   1.0129835      18.729635      57.44411     
    218000   0.98733147     18.966589      57.2035      
    219000   1.0019776      17.936803      57.314748    
    220000   0.99405608     18.687395      57.131143    
    221000   1.0148795      19.276561      56.928363    
    222000   1.0171568      18.897114      56.339625    
    223000   1.0111237      19.411869      56.286393    
    224000   0.97522705     19.0708        56.037999    
    225000   0.98248658     17.780619      55.667314    
    226000   0.98895608     18.627366      55.813566    
    227000   1.0275357      18.878038      55.860033    
    228000   0.99459254     18.960989      55.43834     
    229000   1.0101765      18.835918      55.014404    
    230000   1.0223483      18.809429      54.876812    
    231000   1.0198796      18.725305      54.659644    
    232000   1.0406605      18.659416      54.583267    
    233000   1.0091418      18.327815      54.446213    
    234000   1.0554405      18.874904      54.186947    
    235000   1.0511248      18.381519      53.965237    
    236000   0.95761567     19.11024       53.668391    
    237000   0.91574849     18.853253      53.457454    
    238000   0.96213466     18.87079       53.264475    
    239000   1.0530257      18.74798       52.99898     
    240000   0.97545212     18.290376      52.79177     
    241000   0.97268613     18.582654      52.441922    
    242000   1.0498255      18.922599      52.339307    
    243000   0.97021521     19.126732      52.162405    
    244000   1.0300824      18.314245      51.826362    
    245000   0.91451352     18.408308      51.83731     
    246000   0.99551239     18.851772      51.746683    
    247000   1.0615309      18.833092      51.420382    
    248000   1.0163059      19.05173       51.2618      
    249000   0.96604903     18.442309      51.204473    
    250000   0.97763239     18.451387      50.877421    
    251000   1.0048577      18.217367      50.546532    
    252000   1.0223643      18.019014      50.36106     
    253000   1.026878       18.160684      50.343978    
    254000   1.0186186      18.837418      50.061791    
    255000   1.0133528      18.484569      49.845479    
    256000   0.98097408     17.917184      49.609885    
    257000   1.0250356      18.485505      49.45639     
    258000   0.99094604     18.640701      49.287969    
    259000   1.0508189      18.902892      49.123732    
    260000   0.94659189     18.575426      49.414837    
    261000   0.99895187     18.498086      49.482862    
    262000   0.98254201     19.078722      49.468803    
    263000   0.95138028     19.608453      49.21523     
    264000   0.9411709      18.63552       49.070643    
    265000   1.011313       18.149389      48.929991    
    266000   0.98803029     18.271964      48.610229    
    267000   0.92458506     17.71826       48.282678    
    268000   1.0256049      18.359694      48.120967    
    269000   1.0312743      18.854578      48.03174     
    270000   0.95816893     18.842929      47.811074    
    271000   0.91652928     17.535435      47.634526    
    272000   0.99779151     18.340158      47.292552    
    273000   1.0384904      17.857752      47.1764      
    274000   1.0357003      18.088323      46.879264    
    275000   0.98743619     18.531424      46.649077    
    276000   0.96660106     17.990848      46.560029    
    277000   0.98417362     18.641034      46.131315    
    278000   0.99658281     18.82718       45.874202    
    279000   1.033111       18.448438      45.956219    
    280000   0.96726185     17.849639      45.766028    
    281000   0.98693489     17.992221      45.808109    
    282000   1.0416326      18.826966      45.518763    
    283000   1.0312654      19.034152      45.411056    
    284000   0.98759294     17.690598      45.484886    
    285000   0.99116155     18.678499      45.23169     
    286000   1.0078115      18.637574      45.044757    
    287000   1.002442       19.002632      44.91112     
    288000   0.97111029     18.555734      44.985254    
    289000   1.0047202      19.114541      44.693079    
    290000   1.0301571      18.988804      44.502345    
    291000   0.99430667     18.632993      44.247534    
    292000   0.99248654     18.268981      44.322813    
    293000   1.005259       18.533214      44.376491    
    294000   0.98532392     18.516661      44.393571    
    295000   1.0432374      18.031701      44.057679    
    296000   1.0572427      18.763707      43.93926     
    297000   0.99603542     18.411113      43.918617    
    298000   0.99724196     18.639631      43.914431    
    299000   1.0301298      18.130508      43.883845    
    300000   1.0459266      19.143058      43.361519    
    301000   1.0007334      18.380396      42.979357    
    302000   1.0247441      18.590402      42.776097    
    303000   0.98698123     18.049989      42.694645    
    304000   0.9776901      18.164844      42.385946    
    305000   0.99662657     17.933622      42.172504    
    306000   0.89647803     18.199305      41.992296    
    307000   1.0351714      18.427876      41.768773    
    308000   1.0218672      17.914553      41.494234    
    309000   0.92365537     18.574226      41.268329    
    310000   1.0235661      18.416761      40.829933    
    311000   0.98205947     18.321963      40.56931     
    312000   1.0114596      18.342929      40.342722    
    313000   0.94538279     18.377767      40.137817    
    314000   0.98938363     18.3147        39.915198    
    315000   0.99864088     18.192385      39.971633    
    316000   1.0365443      17.946226      39.863071    
    317000   1.0172425      18.958141      39.825056    
    318000   1.0712077      18.435338      39.471966    
    319000   0.96943895     18.165117      39.52667     
    320000   1.0045372      18.107804      39.419251    
    321000   0.99197052     18.310637      39.485126    
    322000   1.0213119      18.843854      39.157723    
    323000   0.96617989     18.593929      38.87813     
    324000   1.0332143      19.155116      38.68005     
    325000   0.97021469     18.36564       38.344489    
    326000   1.0215591      19.000607      37.987931    
    327000   1.0041351      18.512746      37.807383    
    328000   1.031224       17.813012      37.815528    
    329000   0.93371094     18.805926      37.430368    
    330000   0.90979506     18.505938      37.432854    
    331000   0.95829398     18.439063      37.231333    
    332000   0.94603471     18.217324      37.171147    
    333000   0.96959938     18.264485      37.227982    
    334000   1.016043       18.197572      36.85826     
    335000   1.0297513      17.664563      36.708413    
    336000   1.0003367      18.996495      36.775936    
    337000   0.96440954     18.446844      36.404791    
    338000   1.0503308      18.464346      36.446357    
    339000   0.9790206      17.950418      36.1911      
    340000   0.97564214     18.001462      36.227876    
    341000   0.99965943     18.589033      36.211582    
    342000   0.98226021     17.916021      36.088884    
    343000   0.9586691      18.821033      35.953532    
    344000   0.98337608     18.208954      35.467453    
    345000   0.94855633     18.335715      35.473967    
    346000   0.98136017     17.972975      35.294794    
    347000   0.95727711     17.811495      35.339567    
    348000   1.0040218      18.179234      35.207305    
    349000   1.0447029      18.338079      34.981187    
    350000   1.0546287      17.736623      34.897159    
    351000   1.0210894      18.556864      34.838818    
    352000   1.041709       18.376112      34.868799    
    353000   1.0209564      18.858792      34.713225    
    354000   0.98178801     18.822116      34.792177    
    355000   1.0299354      18.943368      34.847542    
    356000   1.0201073      17.825226      35.028284    
    357000   1.018667       17.833952      34.643585    
    358000   0.99617848     17.295911      34.610897    
    359000   0.98290502     17.792177      34.325869    
    360000   0.93444596     18.677563      33.999439    
    361000   0.96442159     17.88022       33.863797    
    362000   1.0239237      17.592793      33.503525    
    363000   1.0383627      18.738406      32.983466    
    364000   1.0094319      18.158517      33.086789    
    365000   0.97559087     18.835528      33.004549    
    366000   1.0209596      17.973295      32.767105    
    367000   0.97586783     17.638989      32.463823    
    368000   0.98068077     18.512525      32.393342    
    369000   0.95993909     17.66704       32.423705    
    370000   0.96096234     17.879973      32.08099     
    371000   0.95265778     18.757382      31.783633    
    372000   1.0017259      18.366188      31.555078    
    373000   1.0030674      17.114337      31.514649    
    374000   1.0202648      18.09688       31.401062    
    375000   1.0112836      18.717346      31.313429    
    376000   0.95542212     17.026048      31.050952    
    377000   0.99423207     17.883859      30.867081    
    378000   0.94939513     18.25313       30.736002    
    379000   1.004335       17.517513      30.614897    
    380000   1.0302162      18.26023       30.359526    
    381000   1.0286406      18.850525      30.295001    
    382000   0.97194161     17.958884      30.058504    
    383000   0.98942758     18.007927      30.319193    
    384000   0.98769636     18.003427      29.971993    
    385000   0.97069996     18.162521      29.631233    
    386000   0.98502436     18.128766      29.49079     
    387000   1.0066726      17.536512      29.213504    
    388000   1.0727352      18.091894      29.232801    
    389000   1.0269514      17.416551      28.933215    
    390000   1.0150612      17.847637      28.688022    
    391000   0.98338209     18.493301      28.399785    
    392000   1.0066058      17.652191      28.448227    
    393000   1.0725245      18.631419      28.505742    
    394000   1.031295       18.38582       28.078623    
    395000   0.96987236     17.266031      27.588782    
    396000   0.97145327     17.961755      27.049422    
    397000   1.011536       18.339148      26.867483    
    398000   1.0107047      18.153603      26.712145    
    399000   1.0519414      18.29025       26.373575    
    400000   1.0230477      18.591879      26.283396    
    401000   1.0108397      17.63794       26.16534     
    402000   0.94697068     18.060237      26.129826    
    403000   0.92377892     17.44281       25.730063    
    404000   0.96795258     18.816706      25.565545    
    405000   1.0392132      17.524293      25.356265    
    406000   1.0667761      18.04867       25.292297    
    407000   0.9977872      18.004226      25.067689    
    408000   1.0243007      17.73477       24.820697    
    409000   1.0092716      18.256683      24.607471    
    410000   0.99346719     17.690322      24.451916    
    411000   1.0129365      18.020427      24.323938    
    412000   0.97434498     17.579481      23.914291    
    413000   0.96845865     18.541804      23.777123    
    414000   1.0447697      17.728675      23.739202    
    415000   1.0286272      17.234667      23.433532    
    416000   0.98891776     17.857825      23.613532    
    417000   0.96366748     18.041643      23.602757    
    418000   0.99170026     17.611053      23.236091    
    419000   1.0039363      18.805008      23.16803     
    420000   0.9715506      17.731719      22.907682    
    421000   1.0071513      17.342915      22.882195    
    422000   1.0043404      17.672093      22.693867    
    423000   1.0360985      17.921841      22.380343    
    424000   0.92802623     17.943357      22.073931    
    425000   1.0131961      17.371817      22.061542    
    426000   1.041916       17.34059       21.899478    
    427000   1.0146648      18.341716      21.775989    
    428000   0.96065922     18.96503       21.719726    
    429000   1.035355       17.595392      21.337656    
    430000   0.99093125     17.998461      21.172417    
    431000   0.98139908     18.077976      21.094482    
    432000   0.96597394     18.068694      20.859355    
    433000   1.0260156      18.460724      20.751507    
    434000   1.0359216      17.430959      20.738456    
    435000   1.0156978      18.273325      20.592399    
    436000   0.9800267      16.814018      20.391568    
    437000   1.0056945      18.204952      20.017292    
    438000   0.9719693      18.492308      19.696611    
    439000   1.0163692      16.933837      19.339804    
    440000   1.0169588      17.775635      18.925684    
    441000   0.98942788     17.816073      18.781037    
    442000   1.0060626      17.654177      18.443157    
    443000   0.99796542     17.998651      18.313136    
    444000   0.97988769     18.029324      18.113592    
    445000   0.96268893     17.589048      17.883116    
    446000   1.0567026      18.055622      17.83773     
    447000   0.95813747     17.493624      17.757275    
    448000   0.98622157     16.909416      17.664021    
    449000   1.0458654      18.214429      17.455747    
    450000   1.0067613      18.00048       17.649381    
    451000   0.98717281     17.538555      17.392641    
    452000   1.0324003      18.202376      17.160752    
    453000   1.0612596      17.8319        16.981039    
    454000   0.98552042     17.992735      16.870766    
    455000   1.0211672      17.734172      16.719865    
    456000   0.98354555     17.815489      16.734669    
    457000   1.0097087      18.146657      16.720422    
    458000   1.0348224      17.498912      16.651153    
    459000   0.98866745     17.469056      16.385376    
    460000   1.0424322      17.720173      16.14667     
    461000   0.95428676     17.814904      16.003566    
    462000   1.0220193      17.471557      15.962635    
    463000   0.97002964     17.701993      15.767591    
    464000   0.95227327     17.938129      15.577004    
    465000   1.0105353      18.613206      15.444995    
    466000   0.9896768      17.628073      15.659306    
    467000   1.0202614      17.124369      15.195305    
    468000   0.91392644     18.437584      14.884834    
    469000   1.0183461      18.072873      14.845229    
    470000   1.0115975      18.110928      14.661188    
    471000   0.99077079     17.874873      14.616809    
    472000   1.0287925      17.402632      14.305071    
    473000   1.0457536      18.00752       14.082951    
    474000   0.98247659     17.106851      13.811431    
    475000   1.0140968      17.871528      13.515857    
    476000   1.0487405      18.002572      13.147581    
    477000   0.94399839     16.77834       13.074655    
    478000   1.0106296      17.29036       13.192178    
    479000   0.97988914     17.578414      12.930676    
    480000   0.98023704     17.466849      12.981091    
    481000   1.0417955      17.599197      13.041317    
    482000   0.98182843     17.494416      12.743624    
    483000   1.0502247      18.146223      12.775532    
    484000   0.99776957     18.015995      12.771865    
    485000   1.0830634      18.150828      12.778551    
    486000   1.0848423      18.087096      12.575066    
    487000   0.98733674     17.373826      12.416529    
    488000   0.99730714     17.338158      12.35233     
    489000   0.96490662     17.869229      12.10925     
    490000   0.93051958     17.788784      11.985865    
    491000   1.0829556      17.987079      11.805127    
    492000   1.0270771      17.946732      11.794494    
    493000   0.96452639     17.931727      11.813899    
    494000   1.0274372      17.307213      11.896842    
    495000   0.96637282     17.06955       11.820095    
    496000   0.99749155     16.657458      11.829008    
    497000   0.97114286     16.920322      12.095793    
    498000   0.97792247     17.506298      11.893526    
    499000   1.0381141      16.71073       11.666014    
    500000   1.0823716      17.463802      11.216773    
    501000   0.98446593     17.462539      10.700978    
    502000   1.004323       17.573753      10.390785    
    503000   1.0339543      17.073636      10.213838    
    504000   1.0049095      17.281569      9.8452895    
    505000   1.002595       17.532041      9.7265985    
    506000   0.97322387     17.168748      9.5862945    
    507000   1.0737476      17.614428      9.4217959    
    508000   1.0132981      17.869673      9.0906938    
    509000   1.0187701      17.377788      8.8624568    
    510000   0.92943304     16.814376      8.9860664    
    511000   1.0527498      17.788896      8.8877495    
    512000   1.0112574      16.580377      8.6923315    
    513000   1.0469597      17.082703      8.4106674    
    514000   1.0250451      17.565465      8.3747702    
    515000   0.9762371      16.090989      8.338627     
    516000   1.0502649      17.266895      8.1165909    
    517000   0.93976903     16.76768       7.902885     
    518000   0.9867571      17.302843      7.8920571    
    519000   0.98137421     17.173958      7.9798338    
    520000   0.97304133     17.489586      7.8919626    
    521000   0.9593508      17.276337      7.4452017    
    522000   1.0129746      17.679966      7.2826685    
    523000   0.99200404     16.780484      7.1810477    
Fix halt condition for fix-id 3 met on step 524000 with value 6.96665479886439 (src/fix_halt.cpp:237)
    524000   1.0176091      17.564255      6.9666548    
Loop time of 969.968 on 2 procs for 424000 steps with 601 atoms

Performance: 377678.402 tau/day, 437.128 timesteps/s
108.6% CPU use with 1 MPI tasks x 2 OpenMP threads

MPI task timing breakdown:
Section |  min time  |  avg time  |  max time  |%varavg| %total
---------------------------------------------------------------
Pair    | 53.303     | 53.303     | 53.303     |   0.0 |  5.50
Bond    | 8.1252     | 8.1252     | 8.1252     |   0.0 |  0.84
Neigh   | 891.17     | 891.17     | 891.17     |   0.0 | 91.88
Comm    | 0.18053    | 0.18053    | 0.18053    |   0.0 |  0.02
Output  | 1.1213     | 1.1213     | 1.1213     |   0.0 |  0.12
Modify  | 14.55      | 14.55      | 14.55      |   0.0 |  1.50
Other   |            | 1.522      |            |       |  0.16

Nlocal:            601 ave         601 max         601 min
Histogram: 1 0 0 0 0 0 0 0 0 0
Nghost:              0 ave           0 max           0 min
Histogram: 1 0 0 0 0 0 0 0 0 0
Neighs:          87879 ave       87879 max       87879 min
Histogram: 1 0 0 0 0 0 0 0 0 0

Total # of neighbors = 87879
Ave neighs/atom = 146.2213
Ave special neighs/atom = 1.9966722
Neighbor list builds = 3910
Dangerous builds = 0

# This simulation is done
# Move onto the next one
clear
  using 2 OpenMP thread(s) per MPI task
package omp 0
using multi-threaded neighbor list subroutines
next f
jump SELF

###
# Reference paper:
# K. Kremer and G. S. Grest
# Dynamics of entangled linear polymer melts: A molecular-dynamics simulation
# J Chem Phys 92, 5057 (1990)

##################################
# MIHIR: for branched polymers
# LJ minimum first to expand and explore, then collapse
###

###
# Looping through the various tshaped polymers to simulate,
# define variables to switch through
variable f index bb66nuc1bl33bn3d30tot100 bb133nuc1bl66bn3d30tot200 bb200nuc1bl100bn3d30tot300 bb266nuc1bl133bn3d30tot400 bb333nuc1bl166bn3d30tot500 bb400nuc1bl200bn3d30tot600 bb466nuc1bl233bn3d30tot700 bb533nuc1bl266bn3d30tot800 bb600nuc1bl300bn3d30tot900 bb666nuc1bl333bn3d30tot1000 bb733nuc1bl366bn3d30tot1100 bb800nuc1bl400bn3d30tot1200
###


###
# Box and units  (use LJ units and periodic boundaries)
###

units lj
log tshaped/logs3/$f.log
log tshaped/logs3/bb466nuc1bl233bn3d30tot700.log
