#atom_style bond #no stiffness
atom_style angle #with stiffness

boundary        p p p
###
# Pair interactions require lists of neighbours to be calculated
###

#neighbor 0.3 bin
neighbor 4 bin

neigh_modify every 1 delay 1 check yes
atom_modify sort 0 0
### Generate RESTART file, SPECIAL format, not a .txt file ###
### Useful if simulation crashes ###

restart 1000000 tshaped/restarts3/$f.restart
restart 1000000 tshaped/restarts3/bb533nuc1bl266bn3d30tot800.restart
#############################



### READ "start" data file ###

read_data tshaped/$f.dat
read_data tshaped/bb533nuc1bl266bn3d30tot800.dat
Reading data file ...
  orthogonal box = (-1000 -1000 -1000) to (1000 1000 1000)
  1 by 1 by 1 MPI processor grid
  reading atoms ...
  799 atoms
  scanning bonds ...
  2 = max bonds/atom
  scanning angles ...
  3 = max angles/atom
  reading bonds ...
  798 bonds
  reading angles ...
  798 angles
Finding 1-2 1-3 1-4 neighbors ...
  special bond factors lj:    0        0        0       
  special bond factors coul:  0        0        0       
     3 = max # of 1-2 neighbors
     3 = max # of 1-3 neighbors
     6 = max # of 1-4 neighbors
     9 = max # of special neighbors
  special bonds CPU = 0.001 seconds
  read_data CPU = 0.106 seconds

######################

### READ "REstart" data file ###

######################



###
# Define groups (atom type 1 is group 'all')
###
group all type 1
799 atoms in group all


###
# Dump configs - "simple dumpings"
###

###
# Dump configs + box coords
###

dump   1   all   custom   1000  tshaped/trjs3/$f.lammpstrj  id  x y z  ix iy iz
dump   1   all   custom   1000  tshaped/trjs3/bb533nuc1bl266bn3d30tot800.lammpstrj  id  x y z  ix iy iz
dump_modify   1   format line "%d %.5f %.5f %.5f %d %d %d"

########################################################################


###################################################################
# Stiffness term
#
# E = K * (1+cos(theta)), K>0
#
angle_style   cosine
#change this coefficient to change stiffness (e.g. 1,5,10)
angle_coeff   1 1.0
###################################################################

###################################################################
# Pair interaction between non-bonded atoms
#
#  Lennard-Jones 12-6 potential with cutoff:
#  potential E=4epsilon[ (sigma/r)^12 - (sigma/r)^6]  for r<r_cut
#
#  1.12246 = 2^(1/6) is the minimum of the potential


pair_style      lj/cut 1.12246152962189
#pair_style      lj/cut 3

#
#  pair_modify shift yes adds a constant to the potential such

#  that E(r_cut)=0. Forces remains unchanged.
#

pair_modify     shift yes

#
#  pair_coeff for lj/cut, specify 4:
#    * atom type interacting with
#    * atom type
#    * epsilon (energy units)
#    * sigma (distance units)
#

pair_coeff      1 1 1.0 1.0
###################################################################

###################################################################
# Pair interaction between non-bonded atoms
#
#  soft potential, for PUSHING apart overlapping atoms
#  potential E=A*(1 + cos(pi*r/r_c))
#
#  1.12246 = 2^(1/6) is the cut-off r_c

#pair_style     soft 1.12246152962189

#
#  pair_coeff for soft, specify 3:
#    * atom type interacting with
#    * atom type
#    * A
#
#

#pair_coeff      1 1 100.0
###################################################################

###################################################################
# Pair interaction between bonded atoms
#
# Fene potential + Lennard Jones 12-6:

#
#  E= - 0.5 K R0^2 ln[ 1- (r/R0)^2]
#     + 4epsilon[ (sigma/r)^12 - (sigma/r)^6] + epsilon
#

bond_style   fene


#
# For style fene, specify:
#   * bond type
#   * K (energy/distance^2)
#   * R0 (distance)
#   * epsilon (energy)  (LJ component)
#   * sigma (distance)  (LJ component)
#


special_bonds fene #<=== I M P O R T A N T (new command)
Finding 1-2 1-3 1-4 neighbors ...
  special bond factors lj:    0        1        1       
  special bond factors coul:  0        1        1       
     3 = max # of 1-2 neighbors
     9 = max # of special neighbors
  special bonds CPU = 0.001 seconds

bond_coeff   1   30   2   1.0   1.0


###################################################

###################################################################
# Pair interaction between bonded atoms
#
# Harmonic potential:
#
#  E= K * (R-R0)^2
#

#bond_style   harmonic

#
# For style harmonic, specify:
#   * bond type
#   * K (energy/distance^2)
#   * R0 (distance)
#

#bond_coeff   1   60.0   1.0
#bond_coeff   2   harmonic 0.1   1.0

###################################################
compute 1 all gyration
variable rog equal c_1
#compute 2 all coord/atom cutoff 1.1

#dump 2 all custom 10000 contact_number.dump id c_2


###
# Set up fixes
###
thermo_style   custom   step  temp enthalpy c_1
fix 1 all nve   ###NVE ensemble

fix 2 all   langevin   1.0 1.0 1.0  158102   ###Langevin integrator Tstart Tstop 1/friction rndseed


##### Sample thermodynamic info  (temperature, energy, pressure, etc.) #####
thermo 1000









############################################################################

###
# set timestep of integrator

timestep 0.01

###
# run integration for a number of steps
###
#run 0
#variable r equal c_1
#if "$r < 63.1" then "quit 1"

# lj potential minimum, cause molecule to explore
run 100000
Generated 0 of 0 mixed pair_coeff terms from geometric mixing rule
Last active /omp style is angle_style cosine/omp
Neighbor list info ...
  update: every = 1 steps, delay = 1 steps, check = yes
  max neighbors/atom: 2000, page size: 100000
  master list distance cutoff = 5.1224615
  ghost atom cutoff = 5.1224615
  binsize = 2.5612308, bins = 781 781 781
  1 neighbor lists, perpetual/occasional/extra = 1 0 0
  (1) pair lj/cut/omp, perpetual
      attributes: half, newton on, omp
      pair build: half/bin/newton/omp
      stencil: half/bin/3d
      bin: standard
WARNING: Communication cutoff 5.12246152962189 is shorter than a bond length based estimate of 5.455. This may lead to errors. (src/comm.cpp:723)
Per MPI rank memory allocation (min/avg/max) = 1860 | 1860 | 1860 Mbytes
   Step          Temp         Enthalpy         c_1      
         0   0              13.173265      142.10606    
      1000   1.0002163      17.016159      141.70606    
      2000   1.0025475      17.388836      141.04652    
      3000   0.99327913     17.613109      140.50479    
      4000   1.0198183      18.129539      139.82166    
      5000   0.9614879      17.730698      139.30319    
      6000   0.93193272     17.835745      138.91825    
      7000   1.0313729      17.842579      138.28542    
      8000   1.020398       18.528772      137.56733    
      9000   0.98145524     18.481449      137.04345    
     10000   1.0535908      18.166981      136.52338    
     11000   1.0457923      18.205115      136.09426    
     12000   0.9521747      18.369908      135.7045     
     13000   1.0157634      18.476448      135.00052    
     14000   1.0216419      18.52893       134.51045    
     15000   0.99904173     18.265746      134.12089    
     16000   0.99526615     18.618236      133.5477     
     17000   0.97509601     19.191317      133.24226    
     18000   0.98301684     18.871428      132.95286    
     19000   1.020014       18.531489      132.73765    
     20000   1.0264712      18.675445      132.32254    
     21000   1.0141189      18.650117      131.88592    
     22000   1.0095324      18.479456      131.54191    
     23000   1.0285619      18.455876      131.15463    
     24000   0.97648038     19.214142      130.67754    
     25000   1.0244765      18.720022      130.36898    
     26000   0.9625642      19.175513      130.12184    
     27000   1.0109676      19.053999      129.87934    
     28000   1.0201225      19.087307      129.63946    
     29000   1.0020411      19.094178      129.342      
     30000   1.0179367      19.616441      128.97051    
     31000   1.0041171      19.098617      128.5281     
     32000   0.99371132     19.244997      128.3427     
     33000   1.0187406      19.234306      128.05591    
     34000   1.0264774      18.894105      127.85721    
     35000   1.0342351      19.184228      127.86017    
     36000   1.0158279      19.784723      127.48931    
     37000   0.99532456     19.131242      127.09488    
     38000   1.0278686      19.237051      126.6857     
     39000   1.0059765      19.025278      126.69763    
     40000   0.96383337     19.307182      126.18394    
     41000   0.98687163     20.054168      125.93927    
     42000   0.95779351     19.505852      125.83219    
     43000   0.99838454     19.413988      125.62349    
     44000   1.0128784      19.018014      125.35983    
     45000   1.0039607      19.722124      125.01871    
     46000   1.0166836      19.226625      125.03664    
     47000   0.91904476     19.622621      124.94299    
     48000   0.97273679     19.487464      124.668      
     49000   1.0083184      19.590837      124.68649    
     50000   1.0156476      19.880882      124.37194    
     51000   0.99710439     19.62607       124.18537    
     52000   0.99397012     19.529118      124.18027    
     53000   0.98872712     19.10643       124.05142    
     54000   0.98547667     19.671312      123.94787    
     55000   0.9541802      19.321931      123.54692    
     56000   1.0039893      19.946557      123.23421    
     57000   1.0169591      20.166647      122.82416    
     58000   0.96102393     19.504044      122.61182    
     59000   0.96068993     19.586832      122.2102     
     60000   0.96033321     19.375305      121.7391     
     61000   1.0058152      19.845195      121.50683    
     62000   0.98707723     19.289129      121.51338    
     63000   0.96553114     19.795526      121.16195    
     64000   0.99891772     19.638366      121.12101    
     65000   0.99601915     19.579009      121.09079    
     66000   1.0488282      19.121099      120.91382    
     67000   0.9639908      19.746694      120.55196    
     68000   0.95590277     19.585311      120.22964    
     69000   1.0289751      20.226975      119.91042    
     70000   1.0255478      19.737831      119.75567    
     71000   1.0037912      19.630985      119.68473    
     72000   0.99438275     19.771902      119.43972    
     73000   1.016703       19.946787      119.42915    
     74000   1.0444874      19.886788      119.24907    
     75000   1.0321624      19.904127      119.04502    
     76000   1.010172       19.737568      118.96077    
     77000   1.0480661      20.33646       118.62328    
     78000   0.98349318     20.228186      118.41089    
     79000   1.0615779      19.214286      118.17361    
     80000   0.97761492     20.198801      118.26012    
     81000   0.97323101     19.541364      118.08736    
     82000   1.0493464      19.610076      117.81553    
     83000   0.9962907      20.098051      117.41523    
     84000   1.0153787      19.977782      117.45151    
     85000   0.98199226     19.830181      116.94547    
     86000   1.0502757      19.74712       116.75808    
     87000   0.98924579     19.782939      116.76789    
     88000   0.95704107     19.901046      116.4738     
     89000   1.0234478      19.40086       116.17793    
     90000   1.0249233      19.889008      116.00226    
     91000   0.96601223     19.921996      115.74947    
     92000   1.006035       20.177886      115.47472    
     93000   1.0073341      20.024309      115.34893    
     94000   1.0031229      20.058951      115.27915    
     95000   1.0033343      19.61283       115.05546    
     96000   0.94646382     20.13331       114.75819    
     97000   1.0123975      20.291993      114.81859    
     98000   0.95762528     19.899609      114.62796    
     99000   1.0022595      19.872933      114.48336    
    100000   0.97096482     19.315518      114.29382    
Loop time of 552.596 on 2 procs for 100000 steps with 799 atoms

Performance: 156352.817 tau/day, 180.964 timesteps/s
101.6% CPU use with 1 MPI tasks x 2 OpenMP threads

MPI task timing breakdown:
Section |  min time  |  avg time  |  max time  |%varavg| %total
---------------------------------------------------------------
Pair    | 0.96713    | 0.96713    | 0.96713    |   0.0 |  0.18
Bond    | 2.0904     | 2.0904     | 2.0904     |   0.0 |  0.38
Neigh   | 544.85     | 544.85     | 544.85     |   0.0 | 98.60
Comm    | 0.039034   | 0.039034   | 0.039034   |   0.0 |  0.01
Output  | 0.27021    | 0.27021    | 0.27021    |   0.0 |  0.05
Modify  | 4.0156     | 4.0156     | 4.0156     |   0.0 |  0.73
Other   |            | 0.3618     |            |       |  0.07

Nlocal:            799 ave         799 max         799 min
Histogram: 1 0 0 0 0 0 0 0 0 0
Nghost:              0 ave           0 max           0 min
Histogram: 1 0 0 0 0 0 0 0 0 0
Neighs:           4282 ave        4282 max        4282 min
Histogram: 1 0 0 0 0 0 0 0 0 0

Total # of neighbors = 4282
Ave neighs/atom = 5.359199
Ave special neighs/atom = 1.9974969
Neighbor list builds = 1046
Dangerous builds = 0

# Replace lj potential, now collapse
pair_style      lj/cut 3

# Cutoff simul when gyration under 5
# Variable created with equal requires v_ + 'name'
fix 3 all halt 1000 v_rog < 7

run 5000000
Generated 0 of 0 mixed pair_coeff terms from geometric mixing rule
Last active /omp style is angle_style cosine/omp
Per MPI rank memory allocation (min/avg/max) = 1860 | 1860 | 1860 Mbytes
   Step          Temp         Enthalpy         c_1      
    100000   0.97096482     18.795712      114.29382    
    101000   1.0069008      19.38415       113.98739    
    102000   1.0672073      19.983133      114.00902    
    103000   1.0616996      19.193226      113.78548    
    104000   1.0424128      18.938052      113.60046    
    105000   0.97026386     18.930113      113.31217    
    106000   0.98541401     19.386744      113.13985    
    107000   1.0343703      19.458358      112.84764    
    108000   0.95744327     18.909677      112.36095    
    109000   0.98831896     18.886141      112.10603    
    110000   1.0167398      19.131636      111.72218    
    111000   0.98729222     19.496114      111.50239    
    112000   1.0082257      19.419082      111.13632    
    113000   0.98521209     19.330047      111.08753    
    114000   1.0189324      19.136169      110.69959    
    115000   1.0038804      19.082433      110.37318    
    116000   1.0173497      19.582783      110.02186    
    117000   1.0206306      19.692718      109.89662    
    118000   1.0057844      19.062696      109.72548    
    119000   1.004321       19.878239      109.4615     
    120000   0.97911559     18.885725      109.27389    
    121000   1.0010952      19.779012      109.22763    
    122000   0.98955299     19.505501      109.16332    
    123000   0.99979667     18.68698       109.30471    
    124000   1.0246888      19.572822      109.06619    
    125000   1.0460807      18.9546        109.19476    
    126000   1.0262339      19.386826      109.04864    
    127000   1.0291758      18.946077      108.8405     
    128000   1.0142042      19.352011      108.5223     
    129000   1.0195254      19.971018      108.40084    
    130000   0.97764116     19.422393      108.40229    
    131000   1.0260285      20.096544      108.15923    
    132000   0.99995634     18.911664      108.10536    
    133000   0.96837746     19.118889      107.89552    
    134000   1.0087318      19.308539      107.83331    
    135000   0.96243637     19.27445       107.71701    
    136000   1.0049928      19.453993      107.35131    
    137000   0.95777651     19.113911      106.84774    
    138000   1.0170606      19.029118      106.62835    
    139000   0.99076379     19.31199       106.38827    
    140000   0.99385487     19.292406      106.29386    
    141000   0.95332656     19.282861      106.23815    
    142000   0.97094274     19.67791       106.05053    
    143000   1.0213414      19.592365      105.77261    
    144000   1.0422067      19.788658      105.58077    
    145000   0.97658249     18.588018      105.37297    
    146000   0.98853936     18.780723      105.55169    
    147000   0.98860263     19.222087      105.51681    
    148000   1.0166619      18.89427       105.20782    
    149000   1.008298       19.467308      105.07223    
    150000   0.99091065     19.388148      104.85538    
    151000   1.0069079      18.809769      104.65395    
    152000   0.99701411     19.484576      104.57642    
    153000   0.98710045     18.673748      104.26211    
    154000   0.99911434     19.181511      104.10132    
    155000   0.98530795     19.509098      104.0632     
    156000   0.96692699     18.496655      103.9725     
    157000   0.99820329     19.476683      103.57292    
    158000   1.00019        19.106971      103.27103    
    159000   0.98847904     19.427801      103.03065    
    160000   1.0210613      19.842388      102.91076    
    161000   1.0297101      19.073241      102.67527    
    162000   1.007315       18.381306      102.52771    
    163000   1.0636462      19.499697      102.37749    
    164000   0.99097897     18.941247      102.14381    
    165000   1.0116244      19.188141      102.0233     
    166000   0.97163229     18.667132      101.92938    
    167000   0.99629259     18.809295      101.92708    
    168000   1.0375903      19.785755      101.63043    
    169000   0.96870967     19.701001      101.58468    
    170000   0.99705082     19.22276       101.63657    
    171000   1.0146632      18.940048      101.54582    
    172000   0.99447348     19.158273      101.32876    
    173000   0.96937253     19.437857      101.23475    
    174000   0.98211888     18.972956      100.90017    
    175000   0.96961311     18.93247       100.67263    
    176000   1.0576023      19.242607      100.57629    
    177000   0.96739487     19.337139      100.59196    
    178000   1.009019       19.384106      100.29529    
    179000   1.0212707      19.071044      100.13124    
    180000   1.0021854      19.368915      100.01609    
    181000   1.0224783      18.859516      99.78929     
    182000   1.0409496      19.675611      99.666358    
    183000   0.96587667     18.777664      99.609106    
    184000   0.97938396     18.985047      99.592551    
    185000   1.0077873      18.832255      99.290278    
    186000   1.0003314      19.274503      98.925079    
    187000   0.99438792     19.573801      98.673178    
    188000   1.0052438      19.348433      98.491343    
    189000   0.99426668     18.137652      98.110779    
    190000   0.9785573      19.191775      98.063139    
    191000   0.98626195     19.370409      98.118483    
    192000   1.0186183      19.081546      98.063347    
    193000   1.0312594      18.861909      98.082632    
    194000   1.0126557      19.917543      97.669466    
    195000   1.0221749      19.092264      97.523894    
    196000   0.97440878     18.396405      97.322519    
    197000   0.98685691     19.330991      97.221605    
    198000   0.97455986     18.799211      97.032744    
    199000   1.0028331      18.841901      96.660245    
    200000   1.0441807      18.394703      96.31698     
    201000   0.99352196     18.687147      96.202335    
    202000   0.95402913     18.900182      96.190651    
    203000   1.0631098      19.110063      96.016173    
    204000   0.99631435     18.287884      95.737763    
    205000   0.97597147     18.693763      95.605975    
    206000   1.0295667      20.004158      95.533933    
    207000   1.0391389      19.585462      95.311841    
    208000   1.0541999      19.194599      95.131045    
    209000   0.99366327     18.719594      94.603538    
    210000   1.0026769      19.022719      94.458947    
    211000   0.98840532     18.99569       94.286434    
    212000   1.0051968      18.409637      94.246598    
    213000   1.0102646      19.309643      94.079221    
    214000   0.99474649     19.430871      93.682987    
    215000   0.98104954     18.462911      93.616368    
    216000   1.0130672      19.454974      93.386856    
    217000   0.98566696     19.564547      93.37769     
    218000   1.0202868      19.282001      93.323473    
    219000   1.0120606      18.540879      93.399297    
    220000   1.0310683      19.021209      93.093652    
    221000   0.98650632     18.531317      92.893141    
    222000   1.0102561      18.96647       92.606503    
    223000   0.98557923     19.13921       92.810875    
    224000   0.96997642     18.987711      92.759424    
    225000   1.0490307      18.730388      92.721683    
    226000   1.0490445      18.975111      92.603745    
    227000   0.98871252     19.169923      92.742166    
    228000   1.0105916      18.486319      92.679959    
    229000   1.0204847      18.399805      92.495406    
    230000   1.0622024      18.301082      92.51878     
    231000   0.99689343     19.407754      92.34733     
    232000   0.98031158     18.629732      92.286994    
    233000   1.0447332      18.584826      92.224795    
    234000   0.99871527     18.871025      92.393897    
    235000   0.96431557     18.72525       92.27743     
    236000   0.99800151     19.442362      92.059005    
    237000   1.0704749      18.998302      91.751798    
    238000   1.0101527      19.306058      91.490802    
    239000   1.0086746      19.130743      91.754935    
    240000   1.017957       18.853221      91.733049    
    241000   0.99487947     19.228745      91.553111    
    242000   1.0184582      18.962447      91.382467    
    243000   1.0199259      19.126172      91.040817    
    244000   1.0182985      18.405038      90.756277    
    245000   0.98490273     19.360665      90.272006    
    246000   0.96844361     19.011152      90.031784    
    247000   1.0195137      18.92367       89.911958    
    248000   1.0035247      18.969149      89.587458    
    249000   1.022011       19.202809      89.45024     
    250000   0.98676191     19.509134      89.243379    
    251000   1.008163       19.018786      89.103595    
    252000   1.0188521      18.838386      88.815689    
    253000   0.97247714     18.429092      88.595297    
    254000   0.99531845     19.366065      88.312342    
    255000   0.98057271     18.852695      87.986011    
    256000   1.0477949      19.194642      87.838227    
    257000   0.9966614      19.303884      87.600859    
    258000   1.0147477      18.608842      87.821821    
    259000   1.0201947      18.987642      87.799813    
    260000   1.0347457      18.928779      87.739806    
    261000   1.0234322      19.303016      87.785817    
    262000   0.99262808     18.685278      87.71995     
    263000   1.0266749      19.443903      87.810392    
    264000   0.98329808     18.359229      87.469635    
    265000   0.97141577     19.218606      87.4317      
    266000   1.0420829      19.171463      87.203575    
    267000   1.0060052      18.744367      86.860929    
    268000   0.97017983     18.319103      86.776234    
    269000   1.0254116      19.606835      86.521578    
    270000   0.99410938     18.773272      86.643579    
    271000   0.99523082     18.628198      86.358919    
    272000   1.0059441      19.326823      85.956999    
    273000   0.9908567      18.650951      85.661545    
    274000   1.0473544      18.656379      85.4162      
    275000   1.0355438      18.808586      85.429629    
    276000   1.0112538      18.127828      85.496718    
    277000   0.9666568      18.959134      85.405392    
    278000   0.98833272     18.729462      85.362108    
    279000   1.0110663      19.394764      85.133187    
    280000   0.99568884     19.392304      84.888784    
    281000   1.0248645      19.295932      84.831923    
    282000   1.0098546      18.829039      84.876724    
    283000   1.012146       18.974997      84.765393    
    284000   0.99399954     18.383352      84.647571    
    285000   0.96780469     18.647325      84.316299    
    286000   0.96704714     18.884289      84.259305    
    287000   0.98285388     18.309754      83.951265    
    288000   0.95542614     18.541         83.556174    
    289000   0.99445267     18.459261      83.323837    
    290000   0.98076581     18.92092       82.985632    
    291000   1.0426116      19.002832      82.717048    
    292000   0.98215061     19.083322      82.567188    
    293000   1.0150549      18.142647      82.391906    
    294000   1.0327951      18.970469      82.18866     
    295000   1.0007319      19.033813      82.032557    
    296000   0.97005693     19.298205      82.125443    
    297000   1.0013922      18.616435      82.05743     
    298000   1.0037339      19.276648      81.911818    
    299000   0.96059138     18.954413      81.788476    
    300000   1.0123449      18.608815      81.65643     
    301000   1.0146394      19.031461      81.603722    
    302000   0.97125716     18.774181      81.394136    
    303000   1.0284473      18.573461      81.53756     
    304000   1.0302525      18.916342      81.407016    
    305000   0.96883074     19.025724      81.459043    
    306000   0.9952076      18.148594      81.166118    
    307000   1.0440487      18.228145      80.913963    
    308000   0.97989196     19.045968      80.527217    
    309000   1.0088186      18.63992       80.38751     
    310000   0.98958519     18.900024      80.279782    
    311000   1.0685122      18.230402      80.035831    
    312000   0.9732209      18.684698      80.034178    
    313000   1.004535       19.12353       80.06402     
    314000   0.99783517     18.37227       80.048415    
    315000   1.0471222      18.895927      79.982737    
    316000   1.0207323      18.684831      80.106359    
    317000   1.0610139      18.970868      80.434126    
    318000   1.0034101      18.996509      80.044391    
    319000   1.0046686      18.806181      79.801975    
    320000   0.93525232     18.406109      79.708132    
    321000   1.0531902      18.660914      79.777426    
    322000   1.0185514      18.857249      79.672039    
    323000   1.0111505      18.466306      79.44162     
    324000   1.0481656      18.656185      79.136462    
    325000   1.0106449      18.454094      79.037478    
    326000   0.97937881     18.914877      79.063064    
    327000   0.97867065     18.131822      79.186362    
    328000   0.9759705      18.429585      79.3099      
    329000   0.93688404     18.632164      78.988912    
    330000   0.97477287     17.868003      78.962618    
    331000   0.9760984      18.731713      79.043584    
    332000   1.0346993      18.14162       78.8138      
    333000   1.0377595      18.880456      78.398727    
    334000   1.0246421      18.717297      78.409235    
    335000   1.0213479      18.209675      78.170745    
    336000   0.98299721     18.867116      78.137452    
    337000   0.96488415     18.912848      78.238813    
    338000   1.0440872      18.692633      78.046721    
    339000   1.024432       18.184243      78.060581    
    340000   1.0391209      18.303802      78.017907    
    341000   0.97593123     18.521083      77.561294    
    342000   1.0148917      18.962701      77.553257    
    343000   0.99162247     18.37641       77.544824    
    344000   1.0209221      18.432431      77.502659    
    345000   1.0115164      18.598578      77.405281    
    346000   0.95899533     18.793487      77.008316    
    347000   1.0226721      18.553622      76.993635    
    348000   0.99521651     18.681664      76.83375     
    349000   0.99658421     18.645245      76.752183    
    350000   1.008699       18.456871      76.613233    
    351000   0.99493283     18.799382      76.590474    
    352000   0.97191218     18.349704      76.431263    
    353000   1.024764       18.949901      76.361603    
    354000   1.0268188      18.316985      76.404146    
    355000   0.96501081     18.168846      76.060417    
    356000   1.0419988      19.069209      75.895551    
    357000   1.0205558      18.594508      75.775606    
    358000   1.0363177      18.981054      75.628457    
    359000   1.0305159      18.385851      75.511034    
    360000   1.010391       18.651965      75.333856    
    361000   1.0008779      18.257772      75.107788    
    362000   0.98934362     18.53344       75.006858    
    363000   0.94981267     18.011507      74.85801     
    364000   1.0095481      18.635492      74.598683    
    365000   1.0092373      18.416083      74.42876     
    366000   1.0050338      18.511028      74.229195    
    367000   1.0189011      18.676301      73.989925    
    368000   1.0185942      18.422811      74.090123    
    369000   0.99094485     18.198127      73.858716    
    370000   1.0103368      18.945163      73.738342    
    371000   1.0734595      18.616949      73.855866    
    372000   0.96127293     18.190282      73.781394    
    373000   0.98667837     17.926104      73.708589    
    374000   1.0221247      18.629664      73.783262    
    375000   0.99540003     18.223433      73.860583    
    376000   1.0259048      18.255066      73.628461    
    377000   1.0356058      18.733336      73.529846    
    378000   0.9870657      18.818001      73.550477    
    379000   1.0123733      17.682116      73.214319    
    380000   1.0127293      18.887734      72.938281    
    381000   1.0571571      18.670362      72.490138    
    382000   1.0294698      18.531802      72.118258    
    383000   1.0137052      18.425853      72.16233     
    384000   1.0340774      18.711193      71.982551    
    385000   1.0257484      18.532496      71.57318     
    386000   1.010269       18.469918      71.521702    
    387000   1.0015282      17.847282      71.210184    
    388000   0.98538673     18.198649      70.831718    
    389000   0.99072197     18.290396      70.813496    
    390000   0.99996592     18.357193      70.674987    
    391000   0.99574405     18.636315      70.371579    
    392000   1.0289127      18.003016      70.037311    
    393000   0.95834496     18.098237      70.306618    
    394000   0.99942473     18.131702      70.097019    
    395000   1.0045071      17.907619      69.906926    
    396000   0.98294142     18.533905      69.710232    
    397000   0.9607889      19.005964      69.618833    
    398000   1.0309459      18.693424      69.354907    
    399000   0.96409272     18.807111      69.119461    
    400000   1.0135539      18.387014      68.72072     
    401000   0.97002604     18.217716      68.31712     
    402000   0.97890734     18.193803      68.402135    
    403000   0.9598441      18.164936      68.404519    
    404000   1.0333942      18.582375      67.99039     
    405000   1.0736825      18.156832      67.769066    
    406000   1.0292226      18.886959      67.829071    
    407000   1.0353119      18.921191      67.896819    
    408000   0.96483266     18.626321      67.655291    
    409000   0.98965777     18.562869      67.549293    
    410000   1.00098        18.731712      67.474538    
    411000   0.97058874     18.323021      67.600656    
    412000   0.97372518     17.519048      67.56674     
    413000   0.96639505     18.179076      67.379885    
    414000   1.0100717      18.130684      66.930205    
    415000   1.0236279      18.330139      66.744675    
    416000   0.98487865     18.014197      66.670586    
    417000   0.98550419     18.330725      66.812432    
    418000   0.99354829     18.503187      66.578773    
    419000   1.0291785      18.600927      66.16659     
    420000   0.98875103     18.650896      66.179403    
    421000   0.98288297     18.602092      65.883759    
    422000   1.0210311      18.350891      65.863396    
    423000   0.98894876     18.842773      65.653164    
    424000   0.9812436      18.76533       65.594119    
    425000   1.0345483      18.437646      65.526322    
    426000   1.0111054      17.943497      65.621258    
    427000   1.0150473      18.389821      65.523782    
    428000   0.96945977     17.995295      65.298738    
    429000   0.93052041     18.541867      65.12488     
    430000   0.95055668     18.029833      65.355828    
    431000   1.0149049      17.724253      64.787169    
    432000   0.98349799     18.082991      64.80234     
    433000   0.97498485     18.396342      64.674062    
    434000   1.0272072      18.638204      64.466902    
    435000   1.0123064      17.997307      64.286811    
    436000   1.0068903      18.297586      64.180182    
    437000   0.94259316     18.466751      64.053889    
    438000   1.0579312      18.236081      64.197894    
    439000   0.98176536     18.076818      64.055387    
    440000   1.0218975      18.647107      63.772919    
    441000   0.9790551      17.875379      63.601867    
    442000   0.9844291      18.340038      63.439627    
    443000   1.0034968      17.871111      63.403069    
    444000   1.0102163      18.241036      63.25689     
    445000   1.0216216      18.477568      63.095639    
    446000   1.0004699      18.531885      62.69494     
    447000   1.0693399      18.519883      62.599132    
    448000   0.99871637     18.049762      62.711362    
    449000   0.99955399     17.794138      62.652441    
    450000   1.042815       18.630632      62.27497     
    451000   1.0209164      18.264493      62.221468    
    452000   1.0265589      18.306882      61.9366      
    453000   0.99076625     18.652197      61.74522     
    454000   0.98434132     18.32222       61.813404    
    455000   0.97114714     18.668232      61.854045    
    456000   1.0146503      18.394089      61.764995    
    457000   1.0319386      18.355188      61.807149    
    458000   0.99001825     17.721041      61.589699    
    459000   1.0016267      18.480657      61.338193    
    460000   1.0333584      18.675134      61.101386    
    461000   1.0158173      18.337357      60.904316    
    462000   0.96859589     18.374027      60.793553    
    463000   0.99424626     17.770349      60.653464    
    464000   0.98694745     17.869439      60.53126     
    465000   1.0166923      18.67632       60.768351    
    466000   1.0129798      19.006315      60.681629    
    467000   1.0145598      18.105465      60.515355    
    468000   0.99744716     18.231143      60.324344    
    469000   0.99937632     18.591647      60.010128    
    470000   0.99933786     18.466838      60.071976    
    471000   1.0021992      18.460815      59.990608    
    472000   1.029343       18.44342       60.01393     
    473000   0.98743344     17.958274      60.076821    
    474000   0.97695245     18.081068      59.945087    
    475000   0.99672982     19.073815      60.028827    
    476000   0.97282933     17.814144      59.7384      
    477000   1.0075738      18.132706      59.555032    
    478000   0.97538905     18.333453      59.321954    
    479000   0.97152349     18.288588      59.124676    
    480000   1.0221058      17.966372      59.209634    
    481000   1.024454       18.314221      59.173083    
    482000   1.0167491      18.664102      58.990002    
    483000   1.0245089      17.809741      58.719401    
    484000   0.95979722     18.310436      58.646964    
    485000   0.99487031     18.02255       58.480223    
    486000   1.0160428      18.422826      58.372853    
    487000   0.97875776     18.007576      58.303094    
    488000   1.0202132      18.23087       58.192347    
    489000   1.0542398      19.346556      57.882       
    490000   0.99262507     18.517311      57.58328     
    491000   0.97378627     18.038126      57.339523    
    492000   1.0254112      18.275552      57.129564    
    493000   1.0198778      18.084209      57.233121    
    494000   0.94933477     17.891432      57.221749    
    495000   1.0145137      18.546344      57.018408    
    496000   0.97467381     17.650879      56.882249    
    497000   0.98708945     18.153755      56.621509    
    498000   1.0048946      17.95486       56.475808    
    499000   1.0193         18.24461       56.484625    
    500000   1.0410038      17.933068      56.260099    
    501000   1.0171109      18.424581      56.30894     
    502000   1.0293999      18.576893      56.208513    
    503000   0.99829053     17.886306      56.162471    
    504000   1.0235536      18.907254      56.142087    
    505000   0.96758524     18.360548      56.013598    
    506000   0.97312579     18.379469      55.910112    
    507000   1.0015693      18.013374      55.693888    
    508000   0.98987002     17.730205      55.484265    
    509000   1.0594428      18.363724      55.402216    
    510000   1.0039176      18.096039      55.288064    
    511000   0.99439997     17.93905       55.241801    
    512000   1.0033795      18.244022      55.163622    
    513000   1.0101836      17.860485      55.072579    
    514000   1.0271405      17.961626      55.182603    
    515000   1.0193137      18.345197      55.058548    
    516000   0.95075823     18.107641      54.846804    
    517000   0.98069366     17.676504      54.706463    
    518000   1.0413015      18.337201      54.608732    
    519000   0.93641863     18.134117      54.392182    
    520000   1.0832748      18.207013      54.364075    
    521000   1.0192366      18.65855       54.427755    
    522000   0.97411465     17.808923      54.490553    
    523000   0.98868066     18.393401      54.188452    
    524000   1.0000355      17.712656      54.115527    
    525000   0.99527977     18.20253       53.86616     
    526000   0.99953359     18.250148      53.584697    
    527000   0.99372046     17.711679      53.344165    
    528000   1.0015475      18.165633      53.203452    
    529000   1.0554226      18.470236      52.951466    
    530000   0.97582651     18.217105      52.754194    
    531000   1.0030933      17.988926      52.536337    
    532000   1.0127051      18.178642      52.038953    
    533000   0.98016303     17.423716      52.032128    
    534000   0.97996741     18.087473      51.940059    
    535000   1.0452422      18.678124      51.674329    
    536000   0.97632755     17.993         51.795478    
    537000   0.97839165     17.775845      51.761497    
    538000   1.0220275      18.596145      51.516268    
    539000   1.0629537      18.217014      51.524449    
    540000   1.064176       18.49733       51.379053    
    541000   1.0058621      18.415115      51.087663    
    542000   1.0430669      18.155301      50.831828    
    543000   0.99698833     17.137603      50.693969    
    544000   0.9734614      18.329643      50.536037    
    545000   1.0443764      18.226026      50.341916    
    546000   1.013369       18.58793       50.08491     
    547000   0.98217711     18.143207      50.164104    
    548000   1.0405458      18.270479      50.083598    
    549000   0.98837964     18.558135      50.082407    
    550000   0.99474945     18.546581      50.084275    
    551000   0.99492008     18.049454      49.85759     
    552000   1.0970372      18.564561      49.308095    
    553000   1.0017787      17.766424      49.038089    
    554000   1.0140409      17.745822      49.031483    
    555000   0.98804659     18.732807      49.206221    
    556000   0.97220996     17.950577      49.113097    
    557000   1.0057282      18.301585      49.291615    
    558000   1.0131877      17.546414      49.564152    
    559000   1.0768986      18.667992      49.502326    
    560000   0.98997039     17.924091      49.295685    
    561000   0.97000273     17.844577      49.197624    
    562000   0.98836296     18.418932      49.054738    
    563000   1.0493515      17.659301      49.202857    
    564000   1.0799278      18.129581      49.071997    
    565000   1.0007636      18.605899      49.194285    
    566000   1.0390091      18.614182      49.040609    
    567000   0.92049372     17.763876      48.805605    
    568000   1.0220299      17.885029      48.612981    
    569000   1.0116152      18.335241      48.447742    
    570000   0.9949204      17.641765      48.264337    
    571000   1.0084729      18.382311      48.179288    
    572000   0.98337385     17.767193      48.232868    
    573000   1.0200013      17.394756      48.04334     
    574000   1.0485217      18.356105      48.262957    
    575000   0.98920954     18.253039      48.106841    
    576000   1.0551786      18.066829      47.922466    
    577000   1.0042968      18.660039      47.709283    
    578000   1.0250082      18.354751      47.477568    
    579000   0.98795112     17.882872      47.44735     
    580000   1.0200265      18.478745      47.175253    
    581000   1.0276582      18.006434      46.787945    
    582000   0.99565835     18.358113      46.74051     
    583000   0.98914841     17.934237      46.770316    
    584000   1.0048593      18.384025      46.458848    
    585000   0.96368066     18.893577      46.075322    
    586000   0.9846829      17.910537      45.859291    
    587000   1.0261987      17.577066      45.68827     
    588000   1.0076727      17.993457      45.710473    
    589000   1.0447442      18.569356      45.432352    
    590000   0.96275107     17.964492      45.199919    
    591000   1.0629619      18.215917      45.168736    
    592000   0.96121115     18.065801      44.929165    
    593000   0.95456164     17.745805      44.833564    
    594000   1.0134546      17.984502      44.909484    
    595000   0.97970366     17.793615      44.851026    
    596000   1.0006428      17.434716      44.516669    
    597000   0.96330935     17.959296      44.421841    
    598000   0.98904797     17.31213       44.408061    
    599000   1.0142772      17.795611      44.170088    
    600000   1.033877       18.119753      44.184662    
    601000   0.94500979     18.270821      44.085334    
    602000   0.97692643     17.863889      43.885433    
    603000   1.0544982      17.873302      43.950481    
    604000   0.97367762     17.358032      43.802887    
    605000   0.98235088     18.175703      43.605895    
    606000   0.98079096     17.625102      43.410661    
    607000   1.0367917      18.196313      43.126777    
    608000   0.99940602     18.450122      42.889013    
    609000   0.99762799     17.700691      42.813705    
    610000   0.97409653     17.862364      42.870612    
    611000   1.0489455      17.909931      42.903975    
    612000   0.97001805     17.443714      42.665015    
    613000   0.95967271     17.729068      42.571611    
    614000   0.99013127     17.940311      42.541456    
    615000   0.9459861      17.821878      42.413392    
    616000   0.98771264     17.53496       42.383088    
    617000   1.0856604      18.436347      42.318876    
    618000   0.99302137     18.064472      42.14922     
    619000   0.96964273     18.279772      42.176237    
    620000   1.0040016      18.21767       41.930314    
    621000   1.007807       18.053497      41.83896     
    622000   1.0139802      17.742752      41.623503    
    623000   0.99848333     17.675772      41.593342    
    624000   0.98284568     18.132774      41.464347    
    625000   0.99656351     18.24613       41.001532    
    626000   0.97983744     18.295859      40.923975    
    627000   0.97637355     17.496875      40.728219    
    628000   0.93332595     17.86692       40.2483      
    629000   0.99713264     17.561743      40.084774    
    630000   0.96333221     18.248543      39.827792    
    631000   1.040272       18.530192      39.707469    
    632000   1.0172348      18.769192      39.435462    
    633000   1.0066814      18.173545      39.444676    
    634000   1.0506355      17.876536      39.095749    
    635000   1.0408641      17.946533      38.802359    
    636000   0.97303889     17.221431      38.642563    
    637000   0.99183323     17.781818      38.598396    
    638000   1.0072351      17.499455      38.705017    
    639000   1.0276265      17.951234      38.608456    
    640000   0.98826886     17.896948      38.49276     
    641000   0.98548424     17.805396      38.421196    
    642000   1.0094595      18.128938      38.363309    
    643000   1.0139961      17.85365       38.4007      
    644000   1.0617902      18.304549      38.369025    
    645000   1.0154336      18.092698      38.510635    
    646000   1.010271       17.918356      38.405459    
    647000   1.0229278      17.508715      38.316787    
    648000   0.96493589     18.315854      38.394565    
    649000   1.047416       17.853517      38.443206    
    650000   0.98870193     18.188473      38.407187    
    651000   0.98803863     17.930272      38.282504    
    652000   0.98787894     18.316028      38.049735    
    653000   0.96683315     18.00705       38.259654    
    654000   1.0279064      18.002501      38.257608    
    655000   1.0255093      18.16251       38.254529    
    656000   0.97107069     17.916134      38.069929    
    657000   1.0652344      17.641979      37.955175    
    658000   0.98412258     17.960454      37.895805    
    659000   0.94420269     17.813695      37.682989    
    660000   0.98929025     17.444412      37.924607    
    661000   1.0166794      17.109583      38.047163    
    662000   1.011305       18.161884      37.895434    
    663000   1.0049786      17.843684      37.66496     
    664000   0.99278992     17.740892      37.680794    
    665000   0.96933483     17.97186       37.864966    
    666000   0.96795925     17.543307      37.797492    
    667000   1.0242206      17.905184      37.916293    
    668000   0.99925873     17.394137      38.010746    
    669000   0.99523838     17.41069       37.881572    
    670000   0.98071248     17.733298      37.624997    
    671000   1.045951       18.387438      37.538639    
    672000   1.0029765      18.235773      37.173995    
    673000   0.94921564     17.108132      36.998586    
    674000   1.0070376      18.525671      36.939756    
    675000   0.98248266     17.614168      37.126127    
    676000   1.0052381      17.558782      37.042909    
    677000   0.94408007     17.750717      36.746918    
    678000   1.019675       18.536264      36.643523    
    679000   0.99797353     18.078967      36.407043    
    680000   1.0301364      18.132508      36.285908    
    681000   0.99798435     17.357728      35.895969    
    682000   1.0330892      17.76315       35.960813    
    683000   1.0170422      18.265533      35.828824    
    684000   0.97390563     17.58477       35.613193    
    685000   1.0045313      17.78777       35.512371    
    686000   1.0282109      17.899595      35.491562    
    687000   1.0105272      18.682101      35.514525    
    688000   1.0308051      17.709883      35.271019    
    689000   1.0613629      18.082955      35.007701    
    690000   0.98594265     17.845524      34.875183    
    691000   0.94909111     17.935032      34.820619    
    692000   1.0062061      17.965871      34.811352    
    693000   0.9903089      17.267234      34.755773    
    694000   0.96408782     17.401867      34.613898    
    695000   1.0278954      17.560457      34.588814    
    696000   1.004384       18.084847      34.371955    
    697000   0.99998108     18.199829      34.2323      
    698000   0.9936285      17.757581      34.185663    
    699000   1.0228493      17.713306      34.031128    
    700000   1.0441515      17.893328      34.176006    
    701000   1.0024249      17.995366      34.304473    
    702000   1.0337836      18.087351      34.345745    
    703000   0.97588914     17.833239      34.218466    
    704000   1.0075317      17.587372      34.06722     
    705000   0.94197088     17.811784      33.940688    
    706000   0.99869264     17.870498      33.541076    
    707000   1.0495175      17.907331      33.647092    
    708000   0.97417255     17.495915      33.617396    
    709000   0.99830878     17.395837      33.508743    
    710000   1.0166373      18.043378      33.169103    
    711000   1.0236417      17.965678      32.705158    
    712000   1.0158889      17.332222      32.513509    
    713000   0.97064425     17.571         32.293067    
    714000   1.0471289      17.987888      32.162085    
    715000   1.0038642      16.954781      32.028589    
    716000   0.99548477     17.587383      31.863119    
    717000   0.98717809     17.900417      31.685078    
    718000   0.98176105     17.946797      31.573923    
    719000   1.0423014      17.873823      31.461781    
    720000   1.0345392      17.975471      31.214292    
    721000   1.0154506      18.212767      31.159428    
    722000   0.99514163     17.622852      31.222218    
    723000   0.999505       17.470246      31.245586    
    724000   1.0074861      17.941328      31.424003    
    725000   1.0024944      16.978775      31.251365    
    726000   0.972696       17.978627      31.254318    
    727000   1.0021911      17.721985      31.332751    
    728000   0.98535153     17.712589      31.441744    
    729000   0.96533667     17.76374       31.457712    
    730000   0.98816556     18.253891      31.226367    
    731000   1.0101054      17.757698      31.129749    
    732000   0.9990857      17.593903      30.929012    
    733000   0.97828858     17.849491      31.074636    
    734000   1.0373084      18.040551      30.751668    
    735000   0.90980092     17.278496      30.693379    
    736000   0.99867741     18.436215      30.773307    
    737000   0.95041771     17.89597       30.352116    
    738000   0.99893101     17.667651      30.272243    
    739000   1.0160069      18.410195      30.265344    
    740000   1.0107497      17.630679      30.254082    
    741000   1.0217899      17.138258      29.918268    
    742000   0.94930229     17.748217      29.820407    
    743000   1.0165127      18.177677      29.616089    
    744000   0.99269601     17.701801      29.586831    
    745000   0.99122983     17.654599      29.407458    
    746000   1.0087624      17.755181      29.050196    
    747000   1.0188676      17.61985       29.014465    
    748000   1.0141655      17.622628      29.041776    
    749000   1.0282727      17.471231      29.072428    
    750000   0.97869338     17.741772      29.101402    
    751000   0.99475013     17.545003      28.952533    
    752000   0.94379711     17.17615       28.840335    
    753000   1.0017143      17.282361      28.404893    
    754000   1.0190658      17.911504      28.205514    
    755000   0.99658255     17.894149      27.931091    
    756000   1.0094235      17.570438      27.890049    
    757000   1.0098215      17.193517      27.808422    
    758000   0.96416238     17.59372       27.521719    
    759000   0.92910649     18.205442      27.434451    
    760000   1.0025575      17.355039      27.312263    
    761000   0.98717585     18.073313      27.393056    
    762000   0.99473642     17.983741      27.061263    
    763000   0.96327807     17.515826      26.978786    
    764000   1.0383173      17.846978      27.076282    
    765000   0.99254477     17.241519      27.017184    
    766000   1.0177688      17.591204      26.916874    
    767000   1.0106686      17.640884      26.730114    
    768000   0.95704305     18.096691      26.674937    
    769000   1.0430326      17.276783      26.613959    
    770000   1.0134175      17.249653      26.435683    
    771000   1.063946       18.469307      26.021601    
    772000   0.97579659     17.186868      25.558937    
    773000   1.0239514      18.334898      25.494405    
    774000   1.0134974      17.350929      25.417751    
    775000   1.0457949      18.626704      25.35935     
    776000   0.96575809     17.109329      25.007433    
    777000   1.0036376      17.683446      24.980853    
    778000   1.0043213      18.039273      24.900134    
    779000   1.0020294      17.537801      25.004838    
    780000   0.99386515     17.696878      25.187061    
    781000   1.0706706      17.537207      25.121349    
    782000   0.98707996     17.449821      25.147945    
    783000   1.0461308      17.685287      25.084124    
    784000   1.0623643      18.128166      25.055321    
    785000   1.0057381      18.208498      24.972834    
    786000   0.96873441     17.355193      24.883024    
    787000   1.0028032      17.721994      24.729288    
    788000   0.99419285     17.597761      24.55206     
    789000   1.0075345      17.955218      24.596778    
    790000   0.96894379     17.454979      24.574234    
    791000   1.0345718      17.193586      24.434455    
    792000   1.0134345      17.593836      24.180352    
    793000   0.99350706     17.820431      24.082732    
    794000   0.99667473     17.599149      23.847074    
    795000   0.95438066     17.097155      23.776631    
    796000   0.93747343     17.701956      23.513146    
    797000   1.0010801      17.866037      23.438007    
    798000   0.96686863     17.457411      23.176759    
    799000   1.0270138      17.750543      22.924102    
    800000   1.0275063      17.930389      22.617691    
    801000   1.0105515      17.275116      22.328392    
    802000   0.97986724     17.59899       22.433401    
    803000   0.9712248      18.074379      22.190599    
    804000   1.0012693      17.422774      21.973936    
    805000   1.0428112      18.032165      21.970199    
    806000   1.0060834      17.075536      21.876442    
    807000   0.98567588     16.909553      21.599335    
    808000   1.0027371      18.34432       21.395913    
    809000   0.98758411     17.593921      21.053226    
    810000   0.97689351     17.775099      21.035709    
    811000   1.0034112      17.637973      20.73779     
    812000   1.0149674      17.01285       20.746877    
    813000   1.0004718      18.028807      20.556531    
    814000   1.0534921      17.724652      20.170376    
    815000   1.026554       17.791238      20.04787     
    816000   1.0113799      17.708469      20.180212    
    817000   0.98074658     17.521251      20.158342    
    818000   1.0630052      17.888717      20.287147    
    819000   0.98236063     18.151182      20.233114    
    820000   0.97872203     17.406703      20.044456    
    821000   0.98806058     17.43303       19.911535    
    822000   1.0496202      18.37385       20.107757    
    823000   1.0159595      17.766409      20.018579    
    824000   1.0273678      17.710871      20.091065    
    825000   1.0127945      17.247061      20.099103    
    826000   0.9422764      17.30108       20.043349    
    827000   0.96064892     17.836511      19.72603     
    828000   0.98600034     18.250801      19.302636    
    829000   1.0266804      17.546253      18.996169    
    830000   1.0031168      17.731745      18.815855    
    831000   1.0318015      17.572804      18.994147    
    832000   1.021461       17.10188       18.750815    
    833000   0.99042257     17.450503      18.529883    
    834000   0.98594937     17.769647      18.354744    
    835000   1.0088798      17.695754      18.165131    
    836000   1.0025156      17.503075      18.063215    
    837000   0.99740358     17.939428      17.753622    
    838000   1.0215748      17.481373      17.806925    
    839000   0.96979984     17.432787      18.035962    
    840000   1.0443855      17.253767      17.899911    
    841000   1.0101533      17.515371      17.811498    
    842000   1.0228147      17.588463      17.780073    
    843000   1.0455484      17.639164      17.590595    
    844000   1.037586       17.77154       17.400465    
    845000   1.0142345      17.323873      17.260544    
    846000   1.0873996      17.282584      16.93048     
    847000   0.98432308     17.474761      16.628829    
    848000   1.0356638      17.458234      16.465335    
    849000   1.0030476      18.026714      16.173579    
    850000   1.0172804      17.912129      16.114673    
    851000   0.98464754     17.103977      15.958914    
    852000   0.98360694     17.412705      15.914113    
    853000   1.0398188      17.15631       15.924766    
    854000   1.043861       16.793709      15.87042     
    855000   0.99928634     17.594656      16.05733     
    856000   0.9764372      17.610686      16.141871    
    857000   0.94727731     17.135789      16.154404    
    858000   1.0211388      17.309006      16.172848    
    859000   0.97569306     17.576761      16.375747    
    860000   1.0038295      17.338593      16.257032    
    861000   1.0055875      17.566366      16.283814    
    862000   1.0079759      17.656132      16.3577      
    863000   1.0147498      16.688016      16.070356    
    864000   1.0035158      17.4911        16.204621    
    865000   0.96532278     17.442573      16.122764    
    866000   0.96978874     17.233098      16.28331     
    867000   0.98838155     17.153197      16.294578    
    868000   0.96549431     17.23202       15.989139    
    869000   1.0016428      17.301497      15.700693    
    870000   1.0156698      16.897167      15.534485    
    871000   1.0175653      17.531128      15.532232    
    872000   1.0025659      16.852042      15.577679    
    873000   0.96779322     17.340743      15.549802    
    874000   0.96824057     17.159498      15.376134    
    875000   1.02809        17.719508      15.32088     
    876000   1.0427499      17.773231      14.939063    
    877000   0.95366055     17.702398      14.958328    
    878000   1.0308383      17.17406       14.828031    
    879000   1.0157285      17.903131      14.871615    
    880000   0.97926362     16.965365      14.847047    
    881000   0.97376994     17.267203      14.791427    
    882000   1.0399895      17.320495      14.831742    
    883000   1.0448016      17.785956      14.775805    
    884000   1.0139683      17.124937      14.563903    
    885000   1.0654017      17.624331      14.420492    
    886000   1.0112135      16.599349      14.53174     
    887000   0.972802       17.542843      14.589011    
    888000   1.0048171      17.019637      14.501378    
    889000   1.0204043      17.346383      14.347614    
    890000   0.99878975     17.160131      14.034043    
    891000   0.96275742     17.204551      13.804789    
    892000   0.94803115     17.857994      13.759001    
    893000   1.0332727      17.618394      13.898279    
    894000   1.0040362      17.313123      13.846432    
    895000   0.99227991     17.906947      13.689754    
    896000   1.02859        17.416284      13.526687    
    897000   0.97508677     17.184569      13.624094    
    898000   0.98796355     17.31963       13.405643    
    899000   1.0069566      17.65672       13.238838    
    900000   1.031224       17.306168      13.138668    
    901000   0.98927927     17.1778        12.925912    
    902000   0.99960843     18.016775      12.970827    
    903000   1.0194219      17.167129      13.091067    
    904000   1.0259475      17.515075      13.223729    
    905000   1.0369755      17.286342      12.982229    
    906000   0.99633081     16.648224      12.81832     
    907000   1.020024       17.381119      12.340689    
    908000   1.0413494      16.604314      12.402789    
    909000   0.98081272     17.451346      12.329429    
    910000   0.99398292     17.22465       12.121016    
    911000   1.0210075      17.470255      12.067209    
    912000   1.0510693      17.147882      12.00338     
    913000   1.0267863      17.805523      12.06281     
    914000   0.98776989     17.288341      11.962097    
    915000   1.021525       17.001357      11.87602     
    916000   0.97805623     17.63532       11.71724     
    917000   1.027821       17.387631      11.583985    
    918000   0.97977329     17.027009      11.347456    
    919000   1.0434039      16.698176      11.363758    
    920000   0.97994499     17.42028       11.289004    
    921000   1.0166238      17.503187      11.301352    
    922000   1.0271782      16.999886      11.163387    
    923000   0.94725661     17.502816      11.228029    
    924000   1.0446708      17.249029      11.221003    
    925000   0.9993784      17.486647      11.265533    
    926000   1.0009862      17.085399      11.217434    
    927000   0.99891021     16.796323      11.417319    
    928000   1.0347796      17.165183      11.411644    
    929000   1.0492138      17.256895      11.374268    
    930000   0.96089213     17.279067      11.452742    
    931000   1.0624579      17.369748      11.228058    
    932000   0.97057775     17.133741      11.189877    
    933000   1.015815       16.90856       11.23965     
    934000   0.93749539     17.595277      11.000705    
    935000   1.0432801      17.529998      10.57304     
    936000   1.0031124      17.515287      10.341376    
    937000   1.0384055      17.664557      10.184619    
    938000   1.0265014      16.82559       10.191427    
    939000   1.0031372      16.949107      9.7839985    
    940000   0.99298346     16.851209      9.6625269    
    941000   1.0109006      17.114376      9.615621     
    942000   0.94222129     17.289846      9.480891     
    943000   1.0025686      16.870439      9.3323194    
    944000   0.97147982     17.676552      9.4784684    
    945000   0.9755124      17.294506      9.4034892    
    946000   0.97121458     17.279508      9.318022     
    947000   0.99154957     16.717496      9.1294868    
    948000   0.96706902     16.799154      9.0429978    
    949000   1.0518515      17.690379      9.0192771    
    950000   0.98896002     17.494246      8.8447065    
    951000   1.0091884      17.845585      8.8151349    
    952000   1.0232365      17.666959      8.7567014    
    953000   0.98739671     16.562783      8.7369871    
    954000   0.94584059     16.997674      8.5667708    
    955000   1.0661376      16.918955      8.5050263    
    956000   0.95250161     16.649125      8.5633891    
    957000   1.0028738      17.059707      8.2103548    
    958000   1.0334808      17.592083      8.0218346    
    959000   1.0332877      17.308476      7.8023454    
    960000   0.99391439     17.020796      8.0388077    
    961000   1.0156569      17.13645       8.0279923    
    962000   0.99249284     17.319457      7.830866     
    963000   0.98530379     16.458149      7.7452054    
    964000   0.98730667     16.841134      7.7873176    
    965000   1.0211465      17.334564      7.726824     
    966000   0.97547355     16.734296      7.5894837    
    967000   1.0121167      17.050948      7.2668893    
    968000   1.0637488      17.920681      7.2290325    
    969000   1.026546       17.413692      7.1067473    
Fix halt condition for fix-id 3 met on step 970000 with value 6.882040603596778 (src/fix_halt.cpp:237)
    970000   0.90706548     17.124842      6.8820406    
Loop time of 1938.22 on 2 procs for 870000 steps with 799 atoms

Performance: 387819.804 tau/day, 448.866 timesteps/s
113.5% CPU use with 1 MPI tasks x 2 OpenMP threads

MPI task timing breakdown:
Section |  min time  |  avg time  |  max time  |%varavg| %total
---------------------------------------------------------------
Pair    | 184.24     | 184.24     | 184.24     |   0.0 |  9.51
Bond    | 20.71      | 20.71      | 20.71      |   0.0 |  1.07
Neigh   | 1688.5     | 1688.5     | 1688.5     |   0.0 | 87.12
Comm    | 0.40632    | 0.40632    | 0.40632    |   0.0 |  0.02
Output  | 2.5228     | 2.5228     | 2.5228     |   0.0 |  0.13
Modify  | 38.043     | 38.043     | 38.043     |   0.0 |  1.96
Other   |            | 3.765      |            |       |  0.19

Nlocal:            799 ave         799 max         799 min
Histogram: 1 0 0 0 0 0 0 0 0 0
Nghost:              0 ave           0 max           0 min
Histogram: 1 0 0 0 0 0 0 0 0 0
Neighs:         147014 ave      147014 max      147014 min
Histogram: 1 0 0 0 0 0 0 0 0 0

Total # of neighbors = 147014
Ave neighs/atom = 183.9975
Ave special neighs/atom = 1.9974969
Neighbor list builds = 8167
Dangerous builds = 0

# This simulation is done
# Move onto the next one
clear
  using 2 OpenMP thread(s) per MPI task
package omp 0
using multi-threaded neighbor list subroutines
next f
jump SELF

###
# Reference paper:
# K. Kremer and G. S. Grest
# Dynamics of entangled linear polymer melts: A molecular-dynamics simulation
# J Chem Phys 92, 5057 (1990)

##################################
# MIHIR: for branched polymers
# LJ minimum first to expand and explore, then collapse
###

###
# Looping through the various tshaped polymers to simulate,
# define variables to switch through
variable f index bb66nuc1bl33bn3d30tot100 bb133nuc1bl66bn3d30tot200 bb200nuc1bl100bn3d30tot300 bb266nuc1bl133bn3d30tot400 bb333nuc1bl166bn3d30tot500 bb400nuc1bl200bn3d30tot600 bb466nuc1bl233bn3d30tot700 bb533nuc1bl266bn3d30tot800 bb600nuc1bl300bn3d30tot900 bb666nuc1bl333bn3d30tot1000 bb733nuc1bl366bn3d30tot1100 bb800nuc1bl400bn3d30tot1200
###


###
# Box and units  (use LJ units and periodic boundaries)
###

units lj
log tshaped/logs3/$f.log
log tshaped/logs3/bb600nuc1bl300bn3d30tot900.log
