#atom_style bond #no stiffness
atom_style angle #with stiffness

boundary        p p p
###
# Pair interactions require lists of neighbours to be calculated
###

#neighbor 0.3 bin
neighbor 4 bin

neigh_modify every 1 delay 1 check yes
atom_modify sort 0 0
### Generate RESTART file, SPECIAL format, not a .txt file ###
### Useful if simulation crashes ###

restart 1000000 tshaped/restarts3/$f.restart
restart 1000000 tshaped/restarts3/bb600nuc1bl300bn3d30tot900.restart
#############################



### READ "start" data file ###

read_data tshaped/$f.dat
read_data tshaped/bb600nuc1bl300bn3d30tot900.dat
Reading data file ...
  orthogonal box = (-1000 -1000 -1000) to (1000 1000 1000)
  1 by 1 by 1 MPI processor grid
  reading atoms ...
  901 atoms
  scanning bonds ...
  2 = max bonds/atom
  scanning angles ...
  3 = max angles/atom
  reading bonds ...
  900 bonds
  reading angles ...
  900 angles
Finding 1-2 1-3 1-4 neighbors ...
  special bond factors lj:    0        0        0       
  special bond factors coul:  0        0        0       
     3 = max # of 1-2 neighbors
     3 = max # of 1-3 neighbors
     6 = max # of 1-4 neighbors
     9 = max # of special neighbors
  special bonds CPU = 0.001 seconds
  read_data CPU = 0.129 seconds

######################

### READ "REstart" data file ###

######################



###
# Define groups (atom type 1 is group 'all')
###
group all type 1
901 atoms in group all


###
# Dump configs - "simple dumpings"
###

###
# Dump configs + box coords
###

dump   1   all   custom   1000  tshaped/trjs3/$f.lammpstrj  id  x y z  ix iy iz
dump   1   all   custom   1000  tshaped/trjs3/bb600nuc1bl300bn3d30tot900.lammpstrj  id  x y z  ix iy iz
dump_modify   1   format line "%d %.5f %.5f %.5f %d %d %d"

########################################################################


###################################################################
# Stiffness term
#
# E = K * (1+cos(theta)), K>0
#
angle_style   cosine
#change this coefficient to change stiffness (e.g. 1,5,10)
angle_coeff   1 1.0
###################################################################

###################################################################
# Pair interaction between non-bonded atoms
#
#  Lennard-Jones 12-6 potential with cutoff:
#  potential E=4epsilon[ (sigma/r)^12 - (sigma/r)^6]  for r<r_cut
#
#  1.12246 = 2^(1/6) is the minimum of the potential


pair_style      lj/cut 1.12246152962189
#pair_style      lj/cut 3

#
#  pair_modify shift yes adds a constant to the potential such

#  that E(r_cut)=0. Forces remains unchanged.
#

pair_modify     shift yes

#
#  pair_coeff for lj/cut, specify 4:
#    * atom type interacting with
#    * atom type
#    * epsilon (energy units)
#    * sigma (distance units)
#

pair_coeff      1 1 1.0 1.0
###################################################################

###################################################################
# Pair interaction between non-bonded atoms
#
#  soft potential, for PUSHING apart overlapping atoms
#  potential E=A*(1 + cos(pi*r/r_c))
#
#  1.12246 = 2^(1/6) is the cut-off r_c

#pair_style     soft 1.12246152962189

#
#  pair_coeff for soft, specify 3:
#    * atom type interacting with
#    * atom type
#    * A
#
#

#pair_coeff      1 1 100.0
###################################################################

###################################################################
# Pair interaction between bonded atoms
#
# Fene potential + Lennard Jones 12-6:

#
#  E= - 0.5 K R0^2 ln[ 1- (r/R0)^2]
#     + 4epsilon[ (sigma/r)^12 - (sigma/r)^6] + epsilon
#

bond_style   fene


#
# For style fene, specify:
#   * bond type
#   * K (energy/distance^2)
#   * R0 (distance)
#   * epsilon (energy)  (LJ component)
#   * sigma (distance)  (LJ component)
#


special_bonds fene #<=== I M P O R T A N T (new command)
Finding 1-2 1-3 1-4 neighbors ...
  special bond factors lj:    0        1        1       
  special bond factors coul:  0        1        1       
     3 = max # of 1-2 neighbors
     9 = max # of special neighbors
  special bonds CPU = 0.000 seconds

bond_coeff   1   30   2   1.0   1.0


###################################################

###################################################################
# Pair interaction between bonded atoms
#
# Harmonic potential:
#
#  E= K * (R-R0)^2
#

#bond_style   harmonic

#
# For style harmonic, specify:
#   * bond type
#   * K (energy/distance^2)
#   * R0 (distance)
#

#bond_coeff   1   60.0   1.0
#bond_coeff   2   harmonic 0.1   1.0

###################################################
compute 1 all gyration
variable rog equal c_1
#compute 2 all coord/atom cutoff 1.1

#dump 2 all custom 10000 contact_number.dump id c_2


###
# Set up fixes
###
thermo_style   custom   step  temp enthalpy c_1
fix 1 all nve   ###NVE ensemble

fix 2 all   langevin   1.0 1.0 1.0  158102   ###Langevin integrator Tstart Tstop 1/friction rndseed


##### Sample thermodynamic info  (temperature, energy, pressure, etc.) #####
thermo 1000









############################################################################

###
# set timestep of integrator

timestep 0.01

###
# run integration for a number of steps
###
#run 0
#variable r equal c_1
#if "$r < 63.1" then "quit 1"

# lj potential minimum, cause molecule to explore
run 100000
Generated 0 of 0 mixed pair_coeff terms from geometric mixing rule
Last active /omp style is angle_style cosine/omp
Neighbor list info ...
  update: every = 1 steps, delay = 1 steps, check = yes
  max neighbors/atom: 2000, page size: 100000
  master list distance cutoff = 5.1224615
  ghost atom cutoff = 5.1224615
  binsize = 2.5612308, bins = 781 781 781
  1 neighbor lists, perpetual/occasional/extra = 1 0 0
  (1) pair lj/cut/omp, perpetual
      attributes: half, newton on, omp
      pair build: half/bin/newton/omp
      stencil: half/bin/3d
      bin: standard
WARNING: Communication cutoff 5.12246152962189 is shorter than a bond length based estimate of 5.455. This may lead to errors. (src/comm.cpp:723)
Per MPI rank memory allocation (min/avg/max) = 1860 | 1860 | 1860 Mbytes
   Step          Temp         Enthalpy         c_1      
         0   0              13.347517      151.89156    
      1000   1.040515       18.547135      151.38434    
      2000   1.0628944      18.867266      150.95859    
      3000   0.94728932     18.939802      150.802      
      4000   0.96353265     18.21252       150.61801    
      5000   0.94170803     18.588712      150.35088    
      6000   1.0233015      19.10046       150.20519    
      7000   0.97891956     18.735684      149.91629    
      8000   0.97254519     18.772903      149.8716     
      9000   1.0048112      18.589438      149.74682    
     10000   1.0098211      18.170457      149.59365    
     11000   0.99788007     18.939823      149.17898    
     12000   1.0715881      19.552217      148.90884    
     13000   0.98220135     19.175096      148.51695    
     14000   0.97429129     19.371055      148.34937    
     15000   0.97980815     18.738755      148.13499    
     16000   0.99779079     18.595936      147.59027    
     17000   0.98849786     19.016045      147.1368     
     18000   1.0423213      18.990499      146.96692    
     19000   0.99489838     19.059646      146.85452    
     20000   1.0486059      19.581975      146.54852    
     21000   0.97598485     19.441998      146.45393    
     22000   1.0473547      19.302436      146.17384    
     23000   0.99232696     19.021351      146.18558    
     24000   1.0413536      19.759344      146.06992    
     25000   0.99350843     19.072323      145.90723    
     26000   1.0522772      19.628754      145.76219    
     27000   1.0027518      19.373911      145.50176    
     28000   1.0361849      18.993038      145.26748    
     29000   0.98994819     19.142536      145.10421    
     30000   0.96633684     19.809887      144.82762    
     31000   0.95641283     19.26381       144.50228    
     32000   1.0164113      19.841136      144.27599    
     33000   1.0317039      19.664189      144.27151    
     34000   0.99005664     18.976546      144.01386    
     35000   0.99925154     19.409269      143.45573    
     36000   0.9967278      19.13639       143.32598    
     37000   1.0064734      19.648308      143.27415    
     38000   0.98478899     19.08874       143.07566    
     39000   0.97909593     19.690182      142.87537    
     40000   0.97773294     19.456709      142.4811     
     41000   0.97805156     18.908327      142.10295    
     42000   1.0093543      19.274745      141.72792    
     43000   1.0019699      19.836427      141.47076    
     44000   0.99522397     19.019898      141.34888    
     45000   0.97772273     19.13223       140.99775    
     46000   0.95825767     19.758347      140.69576    
     47000   1.0200701      19.694074      140.58488    
     48000   1.0089988      19.542452      140.55031    
     49000   1.0055777      19.567236      140.4653     
     50000   1.0239553      20.347899      140.458      
     51000   0.99986915     19.447361      140.42277    
     52000   0.97668462     19.787233      140.07988    
     53000   0.99416651     18.939305      139.83898    
     54000   1.0077918      19.576212      139.62416    
     55000   0.97246422     19.805904      139.35824    
     56000   0.98489584     19.456665      139.09795    
     57000   0.99070486     20.290845      139.03027    
     58000   1.0537845      19.264913      138.87973    
     59000   0.96844696     20.137001      138.58872    
     60000   1.0019653      19.134281      138.20317    
     61000   1.0053389      19.933041      137.9455     
     62000   0.95499294     19.636031      137.64056    
     63000   0.94486563     19.033484      137.56149    
     64000   0.99772028     19.369988      137.46717    
     65000   0.97662354     19.603607      137.32945    
     66000   1.024731       19.558222      136.94191    
     67000   1.0171324      19.555537      136.99289    
     68000   1.053775       19.555789      136.7697     
     69000   0.98197116     19.600248      136.46908    
     70000   0.94527977     19.55122       136.23049    
     71000   1.0284573      19.19468       135.86356    
     72000   1.0203768      19.894303      135.58512    
     73000   0.9845174      19.510901      135.50697    
     74000   1.0506499      19.823199      135.58093    
     75000   1.0295019      19.832414      135.03269    
     76000   0.99908539     19.314732      134.84231    
     77000   0.96697514     19.827544      134.38802    
     78000   0.99787458     19.157279      134.01704    
     79000   0.99341037     19.666561      133.98641    
     80000   0.94258324     19.698446      133.94326    
     81000   1.0216971      19.361036      133.75734    
     82000   0.96858248     19.040615      133.37745    
     83000   0.99033584     19.765042      133.11447    
     84000   1.0180441      19.554451      132.97981    
     85000   0.97734661     19.78832       132.708      
     86000   0.95660934     19.685329      132.4206     
     87000   1.0163534      19.546154      132.34749    
     88000   1.0381774      19.814023      132.056      
     89000   1.0171829      20.012526      131.83325    
     90000   1.0731301      19.895134      131.75885    
     91000   0.99416224     19.543088      131.58056    
     92000   1.0440657      20.222831      131.453      
     93000   1.0074949      20.185695      131.29095    
     94000   1.0157298      19.497049      131.11895    
     95000   0.95394847     20.30995       131.00481    
     96000   1.0248811      19.517775      131.00213    
     97000   1.0484494      20.294796      130.97267    
     98000   0.99769525     19.92005       130.75798    
     99000   1.0041258      19.48419       130.54679    
    100000   0.99638096     20.038117      130.51147    
Loop time of 592.103 on 2 procs for 100000 steps with 901 atoms

Performance: 145920.500 tau/day, 168.889 timesteps/s
102.3% CPU use with 1 MPI tasks x 2 OpenMP threads

MPI task timing breakdown:
Section |  min time  |  avg time  |  max time  |%varavg| %total
---------------------------------------------------------------
Pair    | 1.4353     | 1.4353     | 1.4353     |   0.0 |  0.24
Bond    | 3.1259     | 3.1259     | 3.1259     |   0.0 |  0.53
Neigh   | 580.54     | 580.54     | 580.54     |   0.0 | 98.05
Comm    | 0.054635   | 0.054635   | 0.054635   |   0.0 |  0.01
Output  | 0.34603    | 0.34603    | 0.34603    |   0.0 |  0.06
Modify  | 6.0606     | 6.0606     | 6.0606     |   0.0 |  1.02
Other   |            | 0.5358     |            |       |  0.09

Nlocal:            901 ave         901 max         901 min
Histogram: 1 0 0 0 0 0 0 0 0 0
Nghost:              0 ave           0 max           0 min
Histogram: 1 0 0 0 0 0 0 0 0 0
Neighs:           4668 ave        4668 max        4668 min
Histogram: 1 0 0 0 0 0 0 0 0 0

Total # of neighbors = 4668
Ave neighs/atom = 5.1809101
Ave special neighs/atom = 1.9977802
Neighbor list builds = 1072
Dangerous builds = 0

# Replace lj potential, now collapse
pair_style      lj/cut 3

# Cutoff simul when gyration under 5
# Variable created with equal requires v_ + 'name'
fix 3 all halt 1000 v_rog < 7

run 5000000
Generated 0 of 0 mixed pair_coeff terms from geometric mixing rule
Last active /omp style is angle_style cosine/omp
Per MPI rank memory allocation (min/avg/max) = 1860 | 1860 | 1860 Mbytes
   Step          Temp         Enthalpy         c_1      
    100000   0.99638096     19.541235      130.51147    
    101000   0.96448919     18.992995      130.27655    
    102000   0.97416737     18.85041       130.14334    
    103000   0.93992452     19.010684      129.87669    
    104000   1.0061893      19.662858      130.16457    
    105000   0.98078614     19.318202      129.94159    
    106000   1.0246394      19.372531      129.69265    
    107000   0.95610246     19.131774      129.25777    
    108000   0.997147       19.464624      128.84772    
    109000   0.91383346     18.516593      128.60908    
    110000   0.95124009     19.152842      128.3826     
    111000   1.0058866      19.412504      127.99423    
    112000   1.0277118      19.831113      127.86223    
    113000   1.0314152      19.529636      127.66116    
    114000   0.96326204     18.874027      127.53836    
    115000   0.97106494     19.52575       127.15399    
    116000   0.99233796     18.810329      127.04012    
    117000   1.0156831      19.295366      126.79012    
    118000   0.98763257     19.407087      126.67748    
    119000   0.96720983     19.263084      126.27725    
    120000   0.99298426     19.122458      125.84043    
    121000   0.95608907     19.255895      125.70159    
    122000   1.0161482      19.785755      125.59818    
    123000   0.96412127     19.171306      125.28417    
    124000   0.99352662     19.104024      125.14496    
    125000   1.0268722      19.023501      124.98628    
    126000   0.99797494     19.008311      125.04825    
    127000   1.0086297      19.283424      124.81396    
    128000   0.98232579     19.45283       124.59548    
    129000   1.0311961      19.30477       124.48558    
    130000   0.96965552     19.027603      124.22962    
    131000   0.99500941     19.450269      124.06823    
    132000   0.97870851     18.82089       123.73255    
    133000   0.97348879     19.052018      123.80066    
    134000   0.98461055     18.99076       123.93281    
    135000   1.0650467      19.390524      123.73562    
    136000   0.97890959     20.09052       123.54813    
    137000   0.96623395     18.967999      123.51686    
    138000   0.99993057     19.969554      123.52241    
    139000   0.98791761     19.295749      123.35113    
    140000   0.95926678     18.894745      123.19768    
    141000   0.99394371     19.277766      123.02982    
    142000   0.98240345     19.149881      122.99099    
    143000   0.96896598     19.158396      122.97016    
    144000   1.0516522      19.520012      122.67407    
    145000   0.95592316     19.072776      122.57068    
    146000   1.0300463      19.307919      122.33368    
    147000   1.0430453      19.216934      122.32299    
    148000   1.0259648      19.566788      122.19285    
    149000   1.0034334      18.92968       121.91298    
    150000   0.9923751      19.294746      121.68191    
    151000   1.0032953      19.267434      121.14944    
    152000   0.96349716     19.397824      120.75528    
    153000   0.96990349     18.977515      120.82461    
    154000   1.0362226      19.410433      120.58997    
    155000   1.0192788      19.709622      120.25313    
    156000   0.98423977     18.829886      120.06307    
    157000   0.95552027     19.344264      119.94518    
    158000   0.99909152     18.885726      119.92164    
    159000   0.98488356     19.153813      119.65843    
    160000   0.98306777     19.23412       119.44025    
    161000   0.99202957     19.020466      119.14076    
    162000   0.94212656     19.000232      119.13872    
    163000   1.0188747      18.831824      118.98439    
    164000   0.99375539     19.008881      118.8459     
    165000   1.030013       19.008314      118.84707    
    166000   0.98037907     18.922536      118.71476    
    167000   1.0159859      19.522127      118.2859     
    168000   0.97963754     18.796061      118.08604    
    169000   0.98168405     19.38937       118.19843    
    170000   0.95839111     18.940132      118.30268    
    171000   1.0479458      19.746356      118.17521    
    172000   1.0078998      19.024581      117.82878    
    173000   1.0054531      18.71645       117.87249    
    174000   1.0099788      19.395356      117.59286    
    175000   0.99182342     18.990056      117.59703    
    176000   0.95114586     18.344409      117.39498    
    177000   1.0019084      19.752709      117.44458    
    178000   1.0074724      19.355641      117.30942    
    179000   1.020668       18.974711      117.06       
    180000   1.0106588      19.469829      116.88172    
    181000   1.0190225      19.20162       116.58993    
    182000   1.0462355      19.121012      116.46585    
    183000   0.99971774     19.269833      116.34502    
    184000   1.0272513      18.926041      116.16864    
    185000   0.99549078     19.16254       116.10506    
    186000   1.0244258      19.031253      115.91025    
    187000   1.0021589      19.817487      115.86721    
    188000   0.94748829     19.25244       115.81962    
    189000   0.99871634     19.155446      115.5334     
    190000   0.98590283     19.250201      115.31506    
    191000   1.0184498      19.329693      114.9682     
    192000   0.97708199     19.107294      114.68215    
    193000   1.0042816      18.848332      114.51748    
    194000   0.99668974     18.904743      114.43129    
    195000   1.0036637      19.22627       114.24786    
    196000   1.0276498      18.685885      114.27534    
    197000   0.99202604     18.566673      114.04214    
    198000   1.0218502      18.884801      114.01449    
    199000   1.000209       19.202387      113.9098     
    200000   1.0020107      19.131951      113.65771    
    201000   0.98788869     19.664109      113.32705    
    202000   1.0239426      19.292582      113.06501    
    203000   0.98540617     19.277138      113.10651    
    204000   1.022877       18.751472      112.94917    
    205000   0.98913857     19.684748      112.98622    
    206000   1.0349448      19.157839      112.98432    
    207000   0.99454151     18.895729      113.03882    
    208000   0.99817423     18.76177       112.87896    
    209000   0.99502693     19.033507      112.42646    
    210000   1.0294173      19.141534      112.23513    
    211000   1.0142244      19.293774      112.27943    
    212000   1.0612314      19.480132      112.14285    
    213000   1.0872184      18.865419      111.82108    
    214000   1.0296221      18.927422      111.73537    
    215000   1.0047019      19.638205      111.72155    
    216000   0.96157903     19.249049      111.54913    
    217000   0.93715699     18.55141       111.50835    
    218000   0.99737516     18.964552      111.33463    
    219000   0.98939706     19.240453      111.31443    
    220000   0.99421039     18.385249      111.16418    
    221000   1.009382       19.269382      111.12483    
    222000   1.0395847      18.842411      110.88165    
    223000   1.0182221      18.719177      110.94675    
    224000   0.98876536     19.353476      110.66146    
    225000   0.99876742     18.715366      110.71146    
    226000   0.95270246     18.42129       110.42148    
    227000   0.98749919     19.194176      110.33734    
    228000   0.99239722     19.137437      109.84167    
    229000   1.0246599      18.901647      109.90276    
    230000   1.0212553      18.836927      109.59106    
    231000   0.98061075     18.391151      109.51808    
    232000   1.001206       19.283774      109.62902    
    233000   1.0283697      18.60006       109.43765    
    234000   1.0375329      19.220368      109.45654    
    235000   0.95846471     19.101634      109.23935    
    236000   0.96521377     19.492209      108.9268     
    237000   1.0129901      18.842433      108.90514    
    238000   0.98191227     19.445391      108.50487    
    239000   1.0518235      19.384604      108.71275    
    240000   0.95926521     19.140706      108.53068    
    241000   0.98891803     18.67871       108.34714    
    242000   1.0117305      18.724543      108.13217    
    243000   1.0026569      18.809233      108.04165    
    244000   1.0630664      18.787995      108.01233    
    245000   1.0180567      19.104478      108.03542    
    246000   0.96333165     19.000225      107.88635    
    247000   0.99871187     18.98219       107.56127    
    248000   0.9965763      19.386004      107.25175    
    249000   1.0185245      18.760257      107.07173    
    250000   1.0345308      18.894735      107.08108    
    251000   0.93266666     18.703361      106.83633    
    252000   1.0359856      19.301929      106.35355    
    253000   1.0201891      18.942196      106.15742    
    254000   0.96195975     18.873901      105.96628    
    255000   0.98682862     18.423052      105.68947    
    256000   1.0158081      18.453735      105.41559    
    257000   1.0009267      19.151484      105.24436    
    258000   1.0282133      18.905527      105.34486    
    259000   1.0086181      18.803668      105.1626     
    260000   0.99823805     19.005439      104.84113    
    261000   1.0100656      19.042885      104.82237    
    262000   0.9674654      18.97269       104.41995    
    263000   1.0059315      19.056642      104.51113    
    264000   1.0271107      18.947096      104.66896    
    265000   1.0442324      19.244388      104.80729    
    266000   1.0674812      19.343665      104.91439    
    267000   1.0131198      19.005885      104.78353    
    268000   1.0455457      18.976733      104.48481    
    269000   0.98532941     19.03415       104.33234    
    270000   0.96786351     18.573674      104.21847    
    271000   1.0134167      18.941361      104.1458     
    272000   0.96377023     18.750678      104.04936    
    273000   0.99314255     18.600243      103.81726    
    274000   0.99544227     19.016822      103.65221    
    275000   0.96936019     18.803158      103.69156    
    276000   0.97280554     18.665609      103.43675    
    277000   1.0275803      19.205907      103.45692    
    278000   1.0109828      19.245624      102.97155    
    279000   0.98618131     18.744151      103.00265    
    280000   0.98393774     18.928148      102.95666    
    281000   1.0022389      18.649472      102.95776    
    282000   0.9583606      18.766784      103.1264     
    283000   0.93863832     18.632165      102.89634    
    284000   0.99993697     19.009338      102.98832    
    285000   1.0022672      18.939171      102.86916    
    286000   1.0426416      19.112116      102.89645    
    287000   0.98660914     19.221314      102.64531    
    288000   0.97517433     19.063964      102.38613    
    289000   0.99877961     18.520711      102.34737    
    290000   0.9771713      18.712434      101.89563    
    291000   0.98691878     18.92509       102.0224     
    292000   0.95750215     18.439111      101.9595     
    293000   1.0190828      18.560048      101.76022    
    294000   0.96791729     18.733029      101.56539    
    295000   1.039705       19.190134      101.58912    
    296000   0.96778984     19.30325       101.12426    
    297000   1.0264841      18.809906      100.99364    
    298000   0.98211297     18.810407      100.91547    
    299000   1.0146046      18.963148      100.58103    
    300000   1.0175257      18.99684       100.4047     
    301000   1.0015724      18.916843      100.30499    
    302000   1.050716       19.52876       100.10113    
    303000   1.0273288      19.293458      99.808074    
    304000   0.95447145     19.035207      99.620336    
    305000   0.99038964     18.979037      99.474688    
    306000   0.98500576     18.752325      99.484089    
    307000   1.0361082      18.692275      99.487036    
    308000   1.0289168      18.668175      99.31316     
    309000   1.0216459      18.518147      99.11543     
    310000   0.9940219      19.093182      99.07959     
    311000   1.0186107      19.796269      98.920628    
    312000   0.98651276     18.790807      98.827627    
    313000   0.98762593     18.753725      98.667939    
    314000   0.98341873     18.619135      98.542099    
    315000   1.0165533      18.946762      98.48614     
    316000   1.0131354      18.726848      98.438214    
    317000   1.0339497      19.010595      98.170277    
    318000   0.99403239     18.639357      98.173592    
    319000   0.9975847      18.837511      98.13617     
    320000   1.0377869      19.329338      98.042605    
    321000   0.95510977     18.882617      97.879301    
    322000   0.98804847     19.073517      97.742822    
    323000   0.98158053     18.822479      97.538318    
    324000   0.98724751     18.547168      97.425855    
    325000   1.0110939      18.812535      97.33709     
    326000   1.0257939      19.232629      97.173978    
    327000   1.0128572      18.824754      97.120711    
    328000   0.93816605     18.78474       96.900332    
    329000   0.9363305      18.781501      96.847356    
    330000   0.95304819     18.536643      96.611808    
    331000   0.99809984     18.73998       96.30061     
    332000   0.97728695     18.667317      96.095541    
    333000   1.0124638      19.153545      95.885179    
    334000   0.97780805     18.721397      95.780429    
    335000   0.94879411     19.174387      95.671189    
    336000   0.97669886     18.724327      95.533437    
    337000   0.9808683      18.675566      95.3522      
    338000   0.98315301     19.110344      95.101712    
    339000   1.0074386      18.453711      95.175173    
    340000   0.97188467     18.527178      95.166503    
    341000   0.94483749     18.60469       95.025985    
    342000   1.0033834      18.78242       95.063507    
    343000   0.98403794     18.710322      94.881689    
    344000   0.98692891     19.192846      94.789689    
    345000   0.97440488     18.861876      94.881926    
    346000   1.0028084      18.838603      94.525434    
    347000   1.0147389      19.038492      94.528066    
    348000   1.0296072      18.442809      94.193936    
    349000   0.9590326      18.482843      94.30487     
    350000   1.0352044      18.587431      94.174929    
    351000   0.99136626     18.795288      94.115817    
    352000   1.0256222      18.429806      94.12852     
    353000   0.99460256     18.373455      94.070459    
    354000   0.99278142     18.867008      94.14699     
    355000   0.96631474     18.321012      94.248637    
    356000   0.9914421      18.378786      94.283551    
    357000   0.99060362     19.415088      94.19206     
    358000   1.0116266      19.283255      94.031927    
    359000   1.0157544      18.295701      93.850853    
    360000   1.0000182      18.76713       93.715757    
    361000   1.0099729      18.791107      93.647291    
    362000   0.97541812     18.669667      93.567949    
    363000   0.97914461     18.204578      93.258333    
    364000   0.99229587     18.628384      93.421992    
    365000   0.9720631      18.370506      93.591676    
    366000   0.97535855     19.127758      93.559959    
    367000   0.98040972     18.567739      93.600654    
    368000   0.9981181      18.458322      93.622282    
    369000   1.0296033      18.841289      93.943394    
    370000   0.97684147     18.882976      93.861295    
    371000   0.99806646     18.842812      93.869293    
    372000   1.011736       18.933365      93.442272    
    373000   1.0009349      18.949284      93.230551    
    374000   0.995192       18.728833      93.316871    
    375000   1.017215       19.117706      93.358576    
    376000   1.0030662      18.867577      93.223832    
    377000   1.0318012      18.284737      93.197873    
    378000   1.0248053      18.329419      92.763977    
    379000   0.99591788     18.348284      92.674055    
    380000   0.97655344     18.477552      92.423183    
    381000   1.0017369      18.339399      92.189286    
    382000   0.97680345     18.723911      92.101194    
    383000   1.0277389      18.968594      91.878623    
    384000   0.96945664     18.220747      91.780639    
    385000   1.0250485      18.616376      91.611129    
    386000   1.0154841      18.635437      91.501513    
    387000   0.99167823     18.986425      91.42069     
    388000   0.95736537     19.177015      91.422924    
    389000   1.0099079      18.869932      91.445154    
    390000   0.99467253     19.028483      91.089837    
    391000   0.97806011     18.914045      90.799087    
    392000   1.050968       18.620151      90.833911    
    393000   0.9717226      18.59551       90.595602    
    394000   0.94999085     18.913688      90.491545    
    395000   1.0132812      18.389384      90.307889    
    396000   0.9833071      18.369148      90.061043    
    397000   1.0073425      18.364596      89.975139    
    398000   0.99552613     19.368753      89.685367    
    399000   0.97699692     18.810715      89.491       
    400000   1.0290012      18.704358      89.081893    
    401000   1.0714112      18.684203      88.932036    
    402000   1.0359126      18.763902      89.082931    
    403000   1.025492       19.017738      88.814442    
    404000   1.0624608      18.972077      88.622625    
    405000   1.0506341      18.694111      88.231106    
    406000   1.0283267      18.596524      88.064517    
    407000   1.0127373      18.575474      87.818366    
    408000   0.96569418     18.369445      87.907373    
    409000   1.009861       19.112141      87.822824    
    410000   1.0427463      18.274513      87.651088    
    411000   0.98674804     18.773953      87.708263    
    412000   1.0273956      18.904867      87.393353    
    413000   1.0911295      18.943432      87.198803    
    414000   0.94909647     18.661869      86.976086    
    415000   1.0116443      18.109141      86.732528    
    416000   1.0039856      18.785211      86.626023    
    417000   1.0128732      18.497433      86.541791    
    418000   0.98440044     18.886863      86.387301    
    419000   0.99335253     18.291765      86.399883    
    420000   0.97477386     18.612433      86.105636    
    421000   1.0388514      18.810988      85.967929    
    422000   0.99080748     18.343152      85.755013    
    423000   0.99278363     18.936966      85.540323    
    424000   1.0242885      19.080644      85.349395    
    425000   1.047632       19.036457      85.241441    
    426000   0.97640153     18.472108      84.99367     
    427000   0.94497145     18.611785      84.735846    
    428000   0.99815972     18.317133      84.556475    
    429000   1.0092065      18.614095      84.480263    
    430000   1.0232512      18.572269      84.512069    
    431000   0.9629954      18.751973      84.38792     
    432000   0.97422688     18.395689      84.290813    
    433000   0.97722895     19.074734      83.929575    
    434000   0.98901387     18.38682       83.916889    
    435000   0.96520415     18.543336      84.008475    
    436000   1.0142885      18.591329      83.86249     
    437000   0.99269676     18.974123      83.648056    
    438000   1.0025911      18.449315      83.370882    
    439000   1.01117        18.810973      83.203108    
    440000   1.0113589      19.007488      83.096247    
    441000   1.0378359      18.737712      82.94228     
    442000   0.98582833     18.509785      82.953877    
    443000   1.0069429      19.023369      82.827407    
    444000   1.0126195      18.943415      82.874787    
    445000   1.0272848      18.827931      82.73991     
    446000   1.0318265      18.707348      82.874164    
    447000   1.0038698      18.616639      82.939721    
    448000   1.0389413      18.338934      82.592917    
    449000   0.96371678     18.233954      82.650652    
    450000   0.94536724     18.352213      82.635627    
    451000   0.98741346     19.198246      82.165953    
    452000   0.98741548     18.843717      82.180145    
    453000   1.011074       18.571756      82.044239    
    454000   0.99994904     18.334529      81.95995     
    455000   1.0188471      18.266657      81.975305    
    456000   1.034441       18.70905       82.103239    
    457000   0.99122605     18.962881      82.248166    
    458000   1.0069077      18.324329      82.2705      
    459000   0.9995819      19.003597      82.154389    
    460000   0.95777856     18.437055      81.969095    
    461000   0.98499345     18.58869       81.69353     
    462000   0.99531455     19.081052      81.662906    
    463000   0.99315234     18.977384      81.595733    
    464000   1.0110191      18.115287      81.515125    
    465000   1.0290093      18.219556      81.253983    
    466000   0.98166899     18.235768      81.14624     
    467000   1.0239614      18.300423      81.38187     
    468000   0.97391297     18.260693      81.3345      
    469000   1.0157615      18.406235      81.241192    
    470000   0.97845324     18.50057       80.96719     
    471000   1.0170711      18.296539      81.006835    
    472000   0.9971684      18.3996        80.895494    
    473000   0.97691252     18.131531      80.680279    
    474000   1.0265444      18.900055      80.477604    
    475000   1.0078374      18.283924      80.273494    
    476000   1.0423166      18.722082      80.045149    
    477000   1.0122634      18.344385      79.850137    
    478000   1.0000316      18.381459      79.597198    
    479000   1.0316174      18.774777      79.301077    
    480000   1.0000106      19.025931      79.482725    
    481000   0.99751338     19.366524      79.616553    
    482000   1.0292876      18.745456      79.321598    
    483000   0.98703704     18.871832      79.221077    
    484000   1.0089721      18.466959      79.062215    
    485000   1.0255962      18.768217      78.942762    
    486000   0.96730103     18.345765      78.880107    
    487000   0.99197275     18.074744      78.642544    
    488000   0.97113681     18.456523      78.684282    
    489000   1.02584        17.884294      78.63489     
    490000   1.0022511      19.151365      78.497356    
    491000   0.97336652     18.372703      78.186132    
    492000   0.97013282     18.355386      78.104603    
    493000   0.96664434     17.969789      77.839989    
    494000   0.98043193     18.255992      77.462127    
    495000   0.97898372     19.089007      77.223347    
    496000   1.047485       18.805509      77.211283    
    497000   1.0514005      18.863165      77.259659    
    498000   0.9892714      18.932344      77.072883    
    499000   1.007651       18.057107      76.765207    
    500000   1.0209722      18.541803      76.468538    
    501000   1.0155907      18.600369      76.352076    
    502000   1.041386       18.492949      76.189489    
    503000   0.97580132     18.10017       76.00203     
    504000   0.99790395     18.203564      75.737164    
    505000   0.9937729      18.507769      75.702017    
    506000   1.0424017      18.378263      75.59988     
    507000   1.0373455      18.51307       75.559111    
    508000   0.99406554     18.003427      75.384482    
    509000   1.0233958      18.131505      75.312136    
    510000   0.9690086      18.238433      74.956408    
    511000   1.0074963      18.315857      74.897071    
    512000   0.98424586     18.298459      74.692841    
    513000   1.0481367      18.23961       74.547433    
    514000   1.0166527      18.504888      74.491283    
    515000   1.0085814      18.501241      74.5536      
    516000   1.018897       19.072652      74.367587    
    517000   0.9700772      17.698115      74.334899    
    518000   1.0030504      18.269453      74.341764    
    519000   1.0088816      18.124207      74.222952    
    520000   1.0256741      18.364912      74.131735    
    521000   0.9557921      18.125823      74.069396    
    522000   1.0602905      18.127967      74.006553    
    523000   1.0197913      18.466926      73.727062    
    524000   0.99809849     18.443772      73.623386    
    525000   0.98311782     18.78749       73.564424    
    526000   1.0073879      18.575655      73.621272    
    527000   1.0125837      18.192089      73.461694    
    528000   0.9987326      17.919133      73.082831    
    529000   1.0228084      18.313382      72.805386    
    530000   1.0177282      17.680456      72.935871    
    531000   1.0007936      18.283724      72.388694    
    532000   0.99414345     18.251351      72.251391    
    533000   0.94775673     18.071927      72.115116    
    534000   1.018609       18.411897      72.000865    
    535000   1.0013254      18.215356      71.632463    
    536000   1.0133168      17.817511      71.565754    
    537000   1.023062       18.444562      71.434439    
    538000   0.98659579     18.232877      71.511455    
    539000   0.97821671     18.6414        71.357388    
    540000   0.98241593     18.58003       71.319141    
    541000   0.98858229     18.159686      71.119658    
    542000   1.0123852      18.699825      71.198391    
    543000   1.0046697      17.679297      70.783101    
    544000   0.99287604     17.983591      70.690084    
    545000   0.99248106     17.773383      70.543004    
    546000   0.98593597     18.759561      70.444812    
    547000   0.95085675     18.228458      70.341038    
    548000   1.0251044      18.70337       70.38151     
    549000   1.0215983      18.705731      70.372628    
    550000   0.99758665     18.388902      70.435099    
    551000   1.0004559      18.19574       70.391854    
    552000   1.0174237      18.319229      70.465824    
    553000   0.9767694      18.655112      70.484312    
    554000   0.99648486     17.973104      70.335347    
    555000   0.99672522     18.748912      70.33019     
    556000   1.0374983      18.492992      70.134139    
    557000   1.0262653      18.957994      70.116101    
    558000   1.0225124      18.576109      70.176924    
    559000   1.0369702      18.216058      70.20509     
    560000   0.98419095     18.23641       70.011902    
    561000   0.99017274     18.121857      69.866803    
    562000   1.0189         18.44849       69.563147    
    563000   0.99160613     18.626147      69.588775    
    564000   1.0028733      18.072721      69.594836    
    565000   0.98402512     18.423886      69.556633    
    566000   0.99068733     18.332741      69.288033    
    567000   1.0145032      18.014112      68.98946     
    568000   0.96434958     18.222609      68.689412    
    569000   1.0214858      18.165821      68.548551    
    570000   0.9818897      18.823927      68.46728     
    571000   0.99506479     17.513107      68.309113    
    572000   1.0250265      18.397168      68.232315    
    573000   1.010625       18.267135      67.956795    
    574000   1.0170574      18.860777      67.687184    
    575000   1.0103495      18.198263      67.627915    
    576000   0.97334637     17.783034      67.463533    
    577000   0.99012996     17.958609      67.386908    
    578000   0.98667197     17.833617      67.419497    
    579000   0.98883564     18.767235      67.310564    
    580000   1.0095494      18.69347       67.038446    
    581000   1.0025862      18.359417      66.872897    
    582000   1.0090788      18.41057       66.747185    
    583000   1.0042579      18.319213      66.901651    
    584000   0.93075885     17.568047      66.870982    
    585000   0.94174833     18.142115      66.805775    
    586000   1.0105678      18.453733      67.035554    
    587000   0.99516154     18.435687      66.818089    
    588000   1.0225929      18.035596      66.676092    
    589000   1.0092102      18.322904      66.10074     
    590000   0.98066998     17.246396      65.611025    
    591000   0.98210336     18.410958      65.580499    
    592000   0.97768835     17.915592      65.43899     
    593000   1.0542853      18.473347      65.438888    
    594000   1.037529       17.948109      65.379656    
    595000   1.0318269      18.28494       65.19469     
    596000   0.96986785     18.307611      64.918517    
    597000   1.0274056      18.558446      64.755334    
    598000   0.96909191     18.198187      64.684275    
    599000   1.0311171      18.229544      64.602694    
    600000   1.0101864      18.850683      64.584248    
    601000   0.99072703     18.449794      64.553618    
    602000   0.96031248     17.597037      64.482579    
    603000   0.96966674     17.664626      64.504124    
    604000   0.9889677      18.373923      64.271486    
    605000   0.99667389     18.86137       64.280926    
    606000   1.0289691      17.76241       64.195655    
    607000   1.0111418      18.602395      64.210046    
    608000   1.0024805      18.478794      63.897958    
    609000   0.98453139     17.961556      63.779043    
    610000   1.0300849      18.530664      63.481384    
    611000   1.0392281      18.458454      63.532043    
    612000   0.98929453     17.346458      63.450264    
    613000   1.0220618      18.632294      63.149062    
    614000   1.0067862      17.942402      62.982205    
    615000   1.0316989      17.774113      62.899586    
    616000   0.98653722     17.790696      62.580664    
    617000   0.9741913      18.30283       62.365261    
    618000   0.99236235     18.080602      62.178858    
    619000   0.96698213     18.312679      62.172386    
    620000   1.0488431      17.801997      61.863266    
    621000   0.98413976     17.843586      61.969436    
    622000   1.0076746      18.439058      61.834955    
    623000   0.96651541     17.642695      61.653188    
    624000   1.0290482      18.294885      61.613243    
    625000   0.97201021     18.566774      61.780179    
    626000   0.9897845      17.86956       61.682759    
    627000   0.92249589     17.752728      61.58035     
    628000   0.95792656     18.215671      61.552332    
    629000   0.98986171     17.814406      61.613142    
    630000   0.98074133     17.834691      61.477264    
    631000   1.0274263      18.152897      61.333865    
    632000   0.9872634      17.373671      61.221995    
    633000   1.0004668      17.866658      61.149979    
    634000   0.99999451     17.878816      61.185749    
    635000   1.0614769      18.970667      61.016564    
    636000   1.0180519      18.758775      60.968502    
    637000   0.99238908     17.914948      60.871381    
    638000   0.98440066     17.885757      60.671659    
    639000   1.0287373      18.093041      60.702602    
    640000   1.0242061      17.953644      60.527975    
    641000   0.98174901     18.204031      60.572287    
    642000   0.99818565     18.037847      60.677236    
    643000   0.99627204     18.192243      60.592291    
    644000   1.043118       18.429861      60.680534    
    645000   0.9750564      17.788896      60.433094    
    646000   1.0070997      18.29691       60.079901    
    647000   0.99391893     18.275437      59.84241     
    648000   1.0042615      18.574439      59.583547    
    649000   0.97603766     17.883378      59.302328    
    650000   0.99741193     18.273049      59.176399    
    651000   0.98891644     18.385562      58.842111    
    652000   1.0248849      18.696897      58.763446    
    653000   0.95813825     17.904075      58.423078    
    654000   0.98732563     18.380106      58.443764    
    655000   1.0041828      18.183637      58.25502     
    656000   1.0267625      17.895965      58.342293    
    657000   1.0767089      19.020515      58.251165    
    658000   1.0085065      17.453441      58.314386    
    659000   0.99620342     17.841626      58.352317    
    660000   1.0061558      18.075632      58.098658    
    661000   0.98738045     18.295094      57.865508    
    662000   0.99547128     18.478565      57.89184     
    663000   1.0306508      18.126671      57.636806    
    664000   1.0209858      17.824932      57.549758    
    665000   0.9975685      17.873835      57.487029    
    666000   1.0127366      18.202283      57.289919    
    667000   0.98840069     18.014108      57.258795    
    668000   1.0463628      18.387743      57.130477    
    669000   0.98511971     17.659783      56.936076    
    670000   1.026749       17.89104       56.865016    
    671000   1.0047435      17.820237      56.52646     
    672000   0.9835922      18.286416      56.33312     
    673000   1.0274828      18.143002      56.206032    
    674000   0.96374856     18.38399       55.860027    
    675000   1.0401339      18.090923      55.440952    
    676000   1.0173313      18.092207      55.05765     
    677000   1.002819       18.279015      54.929423    
    678000   0.97605607     18.283134      55.049813    
    679000   0.99568382     18.012797      55.043575    
    680000   0.99689053     18.397213      54.821001    
    681000   1.0208031      18.27227       54.574988    
    682000   0.98065899     18.020108      54.324559    
    683000   0.9889864      18.557958      54.019951    
    684000   1.0050672      17.539384      53.685643    
    685000   0.98971744     18.160019      53.75286     
    686000   1.0186514      18.289503      53.658415    
    687000   1.0020516      18.071029      53.593096    
    688000   0.96694287     17.442259      53.462811    
    689000   0.96510385     17.643088      53.562013    
    690000   1.0160383      17.712263      53.367792    
    691000   0.9953453      17.612645      53.175482    
    692000   0.98997837     17.309648      53.000657    
    693000   1.0045254      17.942454      52.763536    
    694000   1.0463072      17.890178      52.908261    
    695000   1.0036011      18.378159      52.743323    
    696000   1.0182758      18.020656      52.849629    
    697000   0.99754222     18.136057      52.703727    
    698000   1.0462667      18.17685       52.50556     
    699000   0.96626275     18.114521      52.271077    
    700000   0.94594333     17.884736      52.353172    
    701000   1.0286649      18.187191      52.067455    
    702000   0.98020347     17.780462      51.865657    
    703000   0.98108004     17.683109      51.848711    
    704000   1.0335735      17.841446      51.63515     
    705000   1.0392829      17.995065      51.444351    
    706000   0.91357598     18.004263      51.420295    
    707000   1.0282374      17.602727      51.365339    
    708000   0.9592738      17.667805      51.261924    
    709000   0.94252468     17.849954      51.363304    
    710000   1.0423873      17.959882      50.932335    
    711000   0.99268068     18.028961      50.989568    
    712000   0.99523827     17.56896       50.795668    
    713000   0.99744959     17.75178       50.532194    
    714000   0.9849197      17.681288      50.273356    
    715000   1.0049192      17.434758      50.107231    
    716000   1.0099077      18.207805      49.933138    
    717000   0.99328556     17.934596      49.516678    
    718000   1.017658       17.595754      49.410201    
    719000   0.98315871     18.048542      49.560922    
    720000   1.003554       17.975261      49.585254    
    721000   0.98593619     17.915832      49.430762    
    722000   1.0380105      17.810641      49.295069    
    723000   0.99384222     17.918439      49.116836    
    724000   0.99996195     17.353945      49.016582    
    725000   0.97798333     17.808733      48.880272    
    726000   0.99629556     18.193235      48.856786    
    727000   1.0032936      18.47355       48.692786    
    728000   0.95827395     17.766812      48.625947    
    729000   0.98715433     17.486824      48.573722    
    730000   0.99909162     17.958991      48.673769    
    731000   1.0469897      17.936828      48.583895    
    732000   1.0288756      18.627102      48.556069    
    733000   0.98523983     18.286466      48.033366    
    734000   1.0202716      18.143938      47.753048    
    735000   1.0107264      17.503405      47.853757    
    736000   1.048237       17.618188      47.739615    
    737000   1.0170669      17.826319      47.600558    
    738000   1.0419596      16.979083      47.347561    
    739000   0.96008239     18.253015      47.384251    
    740000   1.0002571      18.556655      47.338612    
    741000   0.98257701     18.266971      47.124913    
    742000   1.0505575      17.704489      47.118008    
    743000   1.0218816      18.432909      47.167692    
    744000   1.0054496      17.680621      47.094657    
    745000   0.99616765     18.06788       47.084393    
    746000   1.0027921      17.313084      46.814219    
    747000   1.0014123      18.473542      46.63202     
    748000   1.0288279      17.796876      46.479011    
    749000   1.0187076      17.385894      46.505401    
    750000   1.0145669      18.113054      46.458147    
    751000   0.99860371     17.52614       46.338615    
    752000   0.98752042     17.478823      46.129668    
    753000   1.0173231      18.093114      45.93618     
    754000   1.0436393      17.77584       45.718597    
    755000   1.0003635      18.105618      45.422525    
    756000   0.99291224     18.304691      45.255505    
    757000   0.99897152     17.927957      45.00557     
    758000   1.0187783      17.848783      45.045294    
    759000   1.0111215      17.433939      45.09608     
    760000   1.0003398      17.65066       44.956573    
    761000   1.0095316      17.973303      44.809008    
    762000   0.97051408     17.98808       44.879912    
    763000   1.007482       18.417976      44.54272     
    764000   0.96284924     17.654094      44.410186    
    765000   1.0396179      17.247127      44.246721    
    766000   1.0011474      17.961942      44.084174    
    767000   1.0520655      18.670621      43.857766    
    768000   0.9485199      17.835363      43.950156    
    769000   0.99076082     18.329574      43.937067    
    770000   1.0262166      17.837142      43.9612      
    771000   1.009865       17.804104      43.815414    
    772000   1.0362327      18.224783      43.769301    
    773000   1.0195677      18.259668      43.64855     
    774000   0.97071996     18.142984      43.689323    
    775000   1.011466       18.146541      43.522038    
    776000   0.95295657     18.252428      43.62127     
    777000   0.99976137     18.069329      43.462166    
    778000   0.96552247     18.192021      43.341724    
    779000   0.98800805     17.579261      43.253551    
    780000   0.99256974     17.707369      43.368172    
    781000   0.96908428     17.768646      43.265326    
    782000   1.0257515      17.974397      43.208984    
    783000   0.97562138     17.290546      43.068722    
    784000   1.0034801      18.20411       42.949671    
    785000   1.0097817      17.847863      43.072617    
    786000   1.0237252      17.913107      42.92539     
    787000   0.97938056     17.531111      42.949346    
    788000   1.0103827      17.991882      42.740079    
    789000   0.9797407      17.423445      42.683902    
    790000   0.98893293     17.962686      42.298202    
    791000   1.0188134      17.908537      42.063652    
    792000   1.0195835      17.817166      41.768606    
    793000   0.93848213     17.936498      41.761241    
    794000   0.9926121      17.657859      41.553251    
    795000   0.96005522     17.889942      41.456147    
    796000   0.9573533      18.323246      41.398007    
    797000   0.99832072     17.864869      41.472955    
    798000   1.0083673      17.836726      41.275698    
    799000   1.0052615      16.871151      41.43004     
    800000   0.99890442     17.730927      41.389086    
    801000   1.0077961      17.330715      41.309911    
    802000   1.0099201      17.864944      41.122297    
    803000   0.97312914     17.841616      41.253367    
    804000   1.031739       17.938038      41.455966    
    805000   0.99133954     17.57863       41.39491     
    806000   1.0304052      17.912483      41.058836    
    807000   1.0277023      18.349221      40.933559    
    808000   1.0040858      17.759561      40.651769    
    809000   0.98746223     17.383701      40.495829    
    810000   1.0134334      18.18482       40.374332    
    811000   1.0051342      18.007323      40.165705    
    812000   0.97948145     17.714         40.216588    
    813000   0.97883772     17.682797      40.133594    
    814000   0.99815601     17.270986      40.040333    
    815000   0.9660521      17.738698      40.168346    
    816000   1.0270614      17.620462      40.272351    
    817000   0.97230194     17.80143       40.299885    
    818000   1.0151416      17.507474      39.984055    
    819000   1.0637377      17.813897      40.010324    
    820000   1.0082867      17.693753      40.002039    
    821000   0.99969232     17.722543      39.996197    
    822000   1.0032313      17.874925      40.107173    
    823000   0.97012438     17.531909      39.930245    
    824000   0.97599243     17.740867      39.893414    
    825000   1.0376496      18.239814      39.698577    
    826000   1.0434425      18.482177      39.499201    
    827000   0.98504282     17.481948      39.123019    
    828000   0.95951996     18.047753      39.19543     
    829000   1.0295971      17.773431      39.175088    
    830000   0.97522697     17.451603      38.986097    
    831000   1.0797659      18.107024      38.853859    
    832000   1.0437993      17.715467      38.836789    
    833000   0.99936448     17.40379       38.586652    
    834000   0.99799264     17.72422       38.475985    
    835000   0.98090529     18.533982      38.287687    
    836000   0.99176152     17.709368      38.154437    
    837000   0.9610639      17.615484      37.795947    
    838000   1.0172355      17.86404       37.854907    
    839000   0.93079387     17.222306      37.99739     
    840000   0.97057869     17.825388      37.915281    
    841000   1.0186768      17.238194      37.951896    
    842000   0.98526507     17.183987      37.892366    
    843000   1.0230875      17.476577      37.501938    
    844000   1.001004       17.795889      37.418838    
    845000   1.0130339      17.890089      37.351385    
    846000   1.0281077      17.385085      37.278953    
    847000   1.0529168      17.497928      36.698225    
    848000   1.0325471      17.629335      36.565785    
    849000   0.97824805     17.529815      36.055515    
    850000   0.98497233     17.085126      35.939034    
    851000   1.028435       17.477444      35.724841    
    852000   0.97076751     18.044301      35.892287    
    853000   0.97909445     17.658591      35.708703    
    854000   0.9964687      17.58363       35.31411     
    855000   1.0625931      17.98973       35.264164    
    856000   0.99275333     17.845902      35.100042    
    857000   0.98305381     17.243885      34.899183    
    858000   1.0115915      17.651293      34.849329    
    859000   1.004832       17.764389      34.850508    
    860000   1.0818395      17.456066      34.761017    
    861000   1.011486       17.106083      34.630408    
    862000   1.0333852      17.516291      34.898534    
    863000   0.98772862     17.96965       34.871964    
    864000   0.95118206     17.974529      34.604449    
    865000   0.98724739     17.357843      34.279033    
    866000   1.001976       17.158246      34.001202    
    867000   0.9683153      17.402023      33.865358    
    868000   0.97728663     17.664642      33.795059    
    869000   0.9982644      18.50481       33.712865    
    870000   0.97750022     17.559199      33.443062    
    871000   1.0165544      18.172135      33.454077    
    872000   1.0350872      17.501757      33.344575    
    873000   0.9699499      17.487657      33.165853    
    874000   0.9942737      18.138519      32.984681    
    875000   0.97188682     17.57453       32.568244    
    876000   1.0132713      17.873529      32.520429    
    877000   1.0065547      17.526776      32.452581    
    878000   0.98576832     17.82493       32.229724    
    879000   0.97977177     17.427361      31.943956    
    880000   1.0327783      17.821011      31.741578    
    881000   0.98409208     17.849846      31.951434    
    882000   1.0120382      18.040593      31.865031    
    883000   0.97668019     17.728541      31.849415    
    884000   1.0292574      18.132771      31.849083    
    885000   1.0225189      18.250881      32.012675    
    886000   1.0009882      18.411117      31.89754     
    887000   0.9761901      17.207615      31.942629    
    888000   1.0072677      17.166597      31.849598    
    889000   1.0223653      17.932761      31.767223    
    890000   0.97892183     17.678769      31.649627    
    891000   0.92665836     17.449094      31.345045    
    892000   1.0230299      17.353124      31.265413    
    893000   1.0307918      17.900398      31.030941    
    894000   0.98753144     18.334625      30.916774    
    895000   1.0345691      17.481481      30.644561    
    896000   0.97757958     17.752376      30.657753    
    897000   0.99317166     17.832802      30.692568    
    898000   1.0125142      18.161924      30.554357    
    899000   1.0164705      17.720617      30.414059    
    900000   0.98166925     18.051751      30.440214    
    901000   1.0415944      17.218681      30.542641    
    902000   1.0445974      17.715988      30.368891    
    903000   0.97574773     17.498076      30.266193    
    904000   0.99986091     17.900782      29.930535    
    905000   1.0092359      17.270798      29.778633    
    906000   0.92916354     17.386717      29.722729    
    907000   0.99351258     17.442395      29.665382    
    908000   0.98523998     17.793897      29.523116    
    909000   1.0169295      18.10451       29.204218    
    910000   1.0519116      17.410612      29.161766    
    911000   0.97758337     17.858854      28.996489    
    912000   1.0256806      17.619857      28.936857    
    913000   1.014641       17.842081      28.62688     
    914000   1.0223159      17.868969      28.691201    
    915000   1.0174334      17.646044      28.361677    
    916000   1.0332251      17.915246      28.307816    
    917000   0.94142449     17.090066      28.454675    
    918000   1.0351463      17.401136      28.228666    
    919000   1.0213161      16.888347      28.366402    
    920000   1.0383721      17.512295      28.288742    
    921000   1.0234446      17.353319      28.182769    
    922000   1.0229692      17.681294      28.05795     
    923000   0.95553883     17.106699      28.021245    
    924000   1.0176759      17.457025      27.949211    
    925000   0.97437716     17.191626      27.681607    
    926000   1.0250681      17.228419      27.586337    
    927000   0.98513615     17.748915      27.423779    
    928000   0.9495855      17.839562      27.342799    
    929000   1.0293939      17.794858      27.096571    
    930000   0.98520781     17.879125      27.067501    
    931000   1.0422653      18.026534      27.095598    
    932000   0.97957766     17.213838      26.799754    
    933000   0.96780966     17.093351      26.792604    
    934000   1.0144932      17.535186      26.904635    
    935000   0.99263288     17.703968      26.66258     
    936000   0.99097307     17.532109      26.527365    
    937000   1.0162759      17.556154      26.541991    
    938000   1.0283679      17.171164      26.559196    
    939000   1.029675       17.45485       26.23814     
    940000   0.95986081     17.599955      26.10032     
    941000   1.0514689      17.693365      26.158789    
    942000   1.0315369      17.800209      26.256932    
    943000   0.98971869     17.294124      26.354367    
    944000   1.0176017      17.220087      26.286866    
    945000   0.99079664     17.089728      26.197268    
    946000   0.99535213     18.118782      26.091538    
    947000   0.98232422     17.587658      26.047364    
    948000   0.98450765     17.216673      26.083215    
    949000   1.0529198      18.361823      26.263282    
    950000   1.04245        17.884113      26.160653    
    951000   1.0122614      17.438359      26.039297    
    952000   0.95242845     17.393372      25.863513    
    953000   1.0119237      18.091056      26.00442     
    954000   0.93976001     17.983618      25.781614    
    955000   0.97099168     17.63105       25.794431    
    956000   1.0173674      17.534992      25.559402    
    957000   1.0031177      16.94581       25.407793    
    958000   1.0025758      17.383903      25.298623    
    959000   1.0175719      17.599669      25.066376    
    960000   1.0152277      18.164932      24.735608    
    961000   0.98968796     17.812499      24.725559    
    962000   1.0582597      16.841713      24.804691    
    963000   1.0077916      17.185283      24.709886    
    964000   1.022676       17.451356      24.670406    
    965000   0.99381184     18.072506      24.617604    
    966000   0.95914751     17.996487      24.348699    
    967000   0.98681842     17.271774      24.363726    
    968000   1.0131524      18.306314      24.568822    
    969000   0.96049465     17.197872      24.634069    
    970000   0.97865784     17.528037      24.640739    
    971000   1.0050859      17.522188      24.286657    
    972000   0.99263194     17.806446      24.195869    
    973000   1.029717       17.143718      24.036128    
    974000   0.99101867     17.75549       23.899488    
    975000   0.97720153     17.863695      23.634193    
    976000   1.0010424      17.525001      23.62048     
    977000   1.0266934      16.545408      23.373121    
    978000   0.99651708     17.219931      23.068155    
    979000   1.0150721      17.674461      22.921382    
    980000   0.96575702     17.388351      22.7956      
    981000   0.9483091      17.909303      22.493553    
    982000   1.0109509      17.366254      22.122423    
    983000   0.95613304     17.502072      21.99048     
    984000   0.98739698     17.661561      21.777578    
    985000   1.0127077      17.735499      21.691359    
    986000   1.0483242      17.610264      21.250062    
    987000   1.0309942      17.50351       21.294388    
    988000   1.0210489      18.097549      21.11143     
    989000   0.96520817     17.341803      21.163886    
    990000   1.0101862      17.319516      20.956465    
    991000   0.99269568     17.543399      20.929707    
    992000   1.0217018      18.101301      20.87184     
    993000   1.0106246      17.423402      20.74593     
    994000   0.99337563     17.101978      20.783717    
    995000   1.0203433      17.98113       20.260802    
    996000   1.0579911      17.631082      19.911141    
    997000   1.0119168      17.503883      19.636688    
    998000   1.0178779      16.99827       19.415369    
    999000   0.96236024     17.68126       19.386675    
   1000000   1.0081822      17.457662      19.559179    
   1001000   0.99469903     17.079183      19.233347    
   1002000   1.0331423      17.466759      18.947807    
   1003000   1.0847171      17.60267       18.678374    
   1004000   1.039572       17.36971       18.468114    
   1005000   0.91040495     17.436697      18.242911    
   1006000   0.97874711     17.038158      17.975673    
   1007000   0.9967953      17.346843      18.091529    
   1008000   1.0477091      17.155438      17.784473    
   1009000   0.96899904     17.296793      17.743329    
   1010000   0.98162601     17.916543      17.587176    
   1011000   0.98812829     17.34142       17.602103    
   1012000   0.97000482     17.540478      17.447265    
   1013000   0.99863912     16.847483      17.529254    
   1014000   1.0155843      17.750575      17.600158    
   1015000   0.97685656     16.989603      17.429471    
   1016000   1.0355489      17.419547      17.329824    
   1017000   1.0092233      17.537133      17.287666    
   1018000   0.96656756     17.610888      17.103326    
   1019000   1.0339997      17.622622      16.784132    
   1020000   1.0432094      17.397386      16.619118    
   1021000   0.99070696     16.913896      16.499503    
   1022000   1.010983       17.292694      16.234687    
   1023000   0.97939655     17.37869       16.255212    
   1024000   0.99151914     17.293396      16.280613    
   1025000   1.031254       17.672854      16.107103    
   1026000   0.94811965     17.116961      15.718144    
   1027000   0.96871702     17.059219      15.539935    
   1028000   0.99853417     17.84962       15.162103    
   1029000   1.0184822      17.535121      15.030542    
   1030000   0.97356552     17.098079      14.728212    
   1031000   1.0157041      17.522013      14.733178    
   1032000   1.0103294      17.128857      14.590923    
   1033000   0.98064269     17.266505      14.536463    
   1034000   1.0157155      17.665579      14.333197    
   1035000   1.0027623      17.069011      14.045349    
   1036000   1.0185238      17.509554      13.914053    
   1037000   1.0163414      17.236115      13.976098    
   1038000   1.0326009      17.127928      13.763567    
   1039000   0.97608381     16.944488      13.692789    
   1040000   1.0009355      17.057047      13.66808     
   1041000   0.98977102     17.126107      13.361022    
   1042000   1.0403005      17.692724      13.463993    
   1043000   1.0062223      17.220762      13.291395    
   1044000   0.99858024     17.108357      13.42683     
   1045000   0.97979972     16.913192      13.45882     
   1046000   0.97159538     17.420302      13.360068    
   1047000   1.0142408      17.168933      13.275834    
   1048000   1.024942       16.952473      13.318071    
   1049000   0.98252235     17.097007      13.113048    
   1050000   1.0143964      17.554309      13.149908    
   1051000   1.0032994      17.408731      13.113518    
   1052000   0.96016776     17.230133      13.155519    
   1053000   1.0254452      17.550397      13.211215    
   1054000   1.0371945      17.008333      13.201881    
   1055000   0.97412343     17.397093      13.222631    
   1056000   0.99103932     17.400526      13.208056    
   1057000   0.99457742     17.605838      13.183594    
   1058000   1.0334681      17.03749       12.897405    
   1059000   0.98933738     17.463527      12.932641    
   1060000   0.98074786     16.893582      12.899457    
   1061000   0.98944054     17.070406      12.861663    
   1062000   1.0234208      17.148852      12.685159    
   1063000   0.99070864     16.730026      12.549458    
   1064000   0.99820391     17.757207      12.433285    
   1065000   1.0404345      17.11634       12.339658    
   1066000   0.97455932     17.333655      12.110684    
   1067000   0.95955059     17.190957      12.008288    
   1068000   1.0240351      16.810379      12.098198    
   1069000   1.0031435      17.076712      12.120576    
   1070000   0.98148553     17.427162      12.078958    
   1071000   1.0452236      17.152404      11.940004    
   1072000   0.99554632     16.89522       11.921544    
   1073000   1.01977        17.028326      11.996631    
   1074000   0.96760075     17.169268      11.924454    
   1075000   1.0014737      16.9071        11.659036    
   1076000   1.0406902      16.927742      11.370085    
   1077000   0.96847255     17.588449      11.105004    
   1078000   1.0135004      17.87329       11.07105     
   1079000   0.98835531     17.347065      10.968461    
   1080000   1.0181062      16.74091       10.896047    
   1081000   0.95701413     16.93839       10.988486    
   1082000   1.0106976      17.30371       11.020903    
   1083000   1.0782896      16.732067      10.885845    
   1084000   1.0043696      17.200006      10.753389    
   1085000   1.0109519      16.74954       10.512186    
   1086000   1.0005568      17.287496      10.292094    
   1087000   1.0079588      16.964892      10.300005    
   1088000   1.0010035      16.786532      10.220702    
   1089000   0.96855602     17.512194      10.023195    
   1090000   0.98257549     17.167718      9.8528724    
   1091000   0.99950499     16.740115      10.006821    
   1092000   1.0300927      16.926229      9.7450001    
   1093000   1.0007434      17.454651      9.7365756    
   1094000   1.0070168      16.920663      9.5373081    
   1095000   1.0066509      17.099253      9.5876701    
   1096000   0.98488934     17.313481      9.4474703    
   1097000   1.0081547      16.945153      9.4809001    
   1098000   1.0337099      16.847063      9.3819152    
   1099000   1.0483707      17.445298      9.0566366    
   1100000   1.0101513      17.618994      8.9194767    
   1101000   0.9769696      18.108609      8.7992441    
   1102000   1.0174129      17.441562      8.544034     
   1103000   1.0168472      17.850706      8.4302583    
   1104000   1.0206126      17.110222      8.3035138    
   1105000   1.0462398      17.387254      8.3353174    
   1106000   1.0211721      17.273383      8.4481623    
   1107000   0.99558598     16.542398      8.229182     
   1108000   0.99331384     16.935592      7.9405219    
   1109000   1.0360654      16.892558      7.9404589    
   1110000   0.97299392     17.575427      7.9582008    
   1111000   1.0324625      17.268006      8.0180353    
   1112000   0.97431299     16.944386      7.9769969    
   1113000   0.98520976     17.149646      7.8230865    
   1114000   1.022648       16.583638      7.6401741    
   1115000   0.95288026     16.589952      7.4469293    
   1116000   1.0265379      17.08322       7.4314733    
   1117000   1.043294       16.990615      7.5128106    
   1118000   0.99298207     17.31034       7.5430468    
   1119000   1.0216929      16.609676      7.5780016    
   1120000   1.0174483      16.724378      7.5142175    
   1121000   1.0013029      17.103109      7.410262     
   1122000   0.92653962     16.847085      7.3732006    
   1123000   0.97250127     16.787954      7.2105006    
   1124000   0.99143945     17.39583       7.2189378    
   1125000   1.0150479      16.539055      7.1164799    
Fix halt condition for fix-id 3 met on step 1126000 with value 6.921611223952723 (src/fix_halt.cpp:237)
   1126000   1.042281       17.696508      6.9216112    
Loop time of 2619.73 on 2 procs for 1026000 steps with 901 atoms

Performance: 338380.440 tau/day, 391.644 timesteps/s
115.7% CPU use with 1 MPI tasks x 2 OpenMP threads

MPI task timing breakdown:
Section |  min time  |  avg time  |  max time  |%varavg| %total
---------------------------------------------------------------
Pair    | 290.41     | 290.41     | 290.41     |   0.0 | 11.09
Bond    | 33.372     | 33.372     | 33.372     |   0.0 |  1.27
Neigh   | 2226       | 2226       | 2226       |   0.0 | 84.97
Comm    | 0.62499    | 0.62499    | 0.62499    |   0.0 |  0.02
Output  | 3.4138     | 3.4138     | 3.4138     |   0.0 |  0.13
Modify  | 59.721     | 59.721     | 59.721     |   0.0 |  2.28
Other   |            | 6.228      |            |       |  0.24

Nlocal:            901 ave         901 max         901 min
Histogram: 1 0 0 0 0 0 0 0 0 0
Nghost:              0 ave           0 max           0 min
Histogram: 1 0 0 0 0 0 0 0 0 0
Neighs:         175996 ave      175996 max      175996 min
Histogram: 1 0 0 0 0 0 0 0 0 0

Total # of neighbors = 175996
Ave neighs/atom = 195.33407
Ave special neighs/atom = 1.9977802
Neighbor list builds = 9845
Dangerous builds = 0

# This simulation is done
# Move onto the next one
clear
  using 2 OpenMP thread(s) per MPI task
package omp 0
using multi-threaded neighbor list subroutines
next f
jump SELF

###
# Reference paper:
# K. Kremer and G. S. Grest
# Dynamics of entangled linear polymer melts: A molecular-dynamics simulation
# J Chem Phys 92, 5057 (1990)

##################################
# MIHIR: for branched polymers
# LJ minimum first to expand and explore, then collapse
###

###
# Looping through the various tshaped polymers to simulate,
# define variables to switch through
variable f index bb66nuc1bl33bn3d30tot100 bb133nuc1bl66bn3d30tot200 bb200nuc1bl100bn3d30tot300 bb266nuc1bl133bn3d30tot400 bb333nuc1bl166bn3d30tot500 bb400nuc1bl200bn3d30tot600 bb466nuc1bl233bn3d30tot700 bb533nuc1bl266bn3d30tot800 bb600nuc1bl300bn3d30tot900 bb666nuc1bl333bn3d30tot1000 bb733nuc1bl366bn3d30tot1100 bb800nuc1bl400bn3d30tot1200
###


###
# Box and units  (use LJ units and periodic boundaries)
###

units lj
log tshaped/logs3/$f.log
log tshaped/logs3/bb666nuc1bl333bn3d30tot1000.log
