#atom_style bond #no stiffness
atom_style angle #with stiffness

boundary        p p p
###
# Pair interactions require lists of neighbours to be calculated
###

#neighbor 0.3 bin
neighbor 4 bin

neigh_modify every 1 delay 1 check yes
atom_modify sort 0 0
### Generate RESTART file, SPECIAL format, not a .txt file ###
### Useful if simulation crashes ###

restart 1000000 tshaped/restarts3/$f.restart
restart 1000000 tshaped/restarts3/bb666nuc1bl333bn3d30tot1000.restart
#############################



### READ "start" data file ###

read_data tshaped/$f.dat
read_data tshaped/bb666nuc1bl333bn3d30tot1000.dat
Reading data file ...
  orthogonal box = (-1000 -1000 -1000) to (1000 1000 1000)
  1 by 1 by 1 MPI processor grid
  reading atoms ...
  1000 atoms
  scanning bonds ...
  2 = max bonds/atom
  scanning angles ...
  3 = max angles/atom
  reading bonds ...
  999 bonds
  reading angles ...
  999 angles
Finding 1-2 1-3 1-4 neighbors ...
  special bond factors lj:    0        0        0       
  special bond factors coul:  0        0        0       
     3 = max # of 1-2 neighbors
     3 = max # of 1-3 neighbors
     6 = max # of 1-4 neighbors
     9 = max # of special neighbors
  special bonds CPU = 0.001 seconds
  read_data CPU = 0.144 seconds

######################

### READ "REstart" data file ###

######################



###
# Define groups (atom type 1 is group 'all')
###
group all type 1
1000 atoms in group all


###
# Dump configs - "simple dumpings"
###

###
# Dump configs + box coords
###

dump   1   all   custom   1000  tshaped/trjs3/$f.lammpstrj  id  x y z  ix iy iz
dump   1   all   custom   1000  tshaped/trjs3/bb666nuc1bl333bn3d30tot1000.lammpstrj  id  x y z  ix iy iz
dump_modify   1   format line "%d %.5f %.5f %.5f %d %d %d"

########################################################################


###################################################################
# Stiffness term
#
# E = K * (1+cos(theta)), K>0
#
angle_style   cosine
#change this coefficient to change stiffness (e.g. 1,5,10)
angle_coeff   1 1.0
###################################################################

###################################################################
# Pair interaction between non-bonded atoms
#
#  Lennard-Jones 12-6 potential with cutoff:
#  potential E=4epsilon[ (sigma/r)^12 - (sigma/r)^6]  for r<r_cut
#
#  1.12246 = 2^(1/6) is the minimum of the potential


pair_style      lj/cut 1.12246152962189
#pair_style      lj/cut 3

#
#  pair_modify shift yes adds a constant to the potential such

#  that E(r_cut)=0. Forces remains unchanged.
#

pair_modify     shift yes

#
#  pair_coeff for lj/cut, specify 4:
#    * atom type interacting with
#    * atom type
#    * epsilon (energy units)
#    * sigma (distance units)
#

pair_coeff      1 1 1.0 1.0
###################################################################

###################################################################
# Pair interaction between non-bonded atoms
#
#  soft potential, for PUSHING apart overlapping atoms
#  potential E=A*(1 + cos(pi*r/r_c))
#
#  1.12246 = 2^(1/6) is the cut-off r_c

#pair_style     soft 1.12246152962189

#
#  pair_coeff for soft, specify 3:
#    * atom type interacting with
#    * atom type
#    * A
#
#

#pair_coeff      1 1 100.0
###################################################################

###################################################################
# Pair interaction between bonded atoms
#
# Fene potential + Lennard Jones 12-6:

#
#  E= - 0.5 K R0^2 ln[ 1- (r/R0)^2]
#     + 4epsilon[ (sigma/r)^12 - (sigma/r)^6] + epsilon
#

bond_style   fene


#
# For style fene, specify:
#   * bond type
#   * K (energy/distance^2)
#   * R0 (distance)
#   * epsilon (energy)  (LJ component)
#   * sigma (distance)  (LJ component)
#


special_bonds fene #<=== I M P O R T A N T (new command)
Finding 1-2 1-3 1-4 neighbors ...
  special bond factors lj:    0        1        1       
  special bond factors coul:  0        1        1       
     3 = max # of 1-2 neighbors
     9 = max # of special neighbors
  special bonds CPU = 0.000 seconds

bond_coeff   1   30   2   1.0   1.0


###################################################

###################################################################
# Pair interaction between bonded atoms
#
# Harmonic potential:
#
#  E= K * (R-R0)^2
#

#bond_style   harmonic

#
# For style harmonic, specify:
#   * bond type
#   * K (energy/distance^2)
#   * R0 (distance)
#

#bond_coeff   1   60.0   1.0
#bond_coeff   2   harmonic 0.1   1.0

###################################################
compute 1 all gyration
variable rog equal c_1
#compute 2 all coord/atom cutoff 1.1

#dump 2 all custom 10000 contact_number.dump id c_2


###
# Set up fixes
###
thermo_style   custom   step  temp enthalpy c_1
fix 1 all nve   ###NVE ensemble

fix 2 all   langevin   1.0 1.0 1.0  158102   ###Langevin integrator Tstart Tstop 1/friction rndseed


##### Sample thermodynamic info  (temperature, energy, pressure, etc.) #####
thermo 1000









############################################################################

###
# set timestep of integrator

timestep 0.01

###
# run integration for a number of steps
###
#run 0
#variable r equal c_1
#if "$r < 63.1" then "quit 1"

# lj potential minimum, cause molecule to explore
run 100000
Generated 0 of 0 mixed pair_coeff terms from geometric mixing rule
Last active /omp style is angle_style cosine/omp
Neighbor list info ...
  update: every = 1 steps, delay = 1 steps, check = yes
  max neighbors/atom: 2000, page size: 100000
  master list distance cutoff = 5.1224615
  ghost atom cutoff = 5.1224615
  binsize = 2.5612308, bins = 781 781 781
  1 neighbor lists, perpetual/occasional/extra = 1 0 0
  (1) pair lj/cut/omp, perpetual
      attributes: half, newton on, omp
      pair build: half/bin/newton/omp
      stencil: half/bin/3d
      bin: standard
WARNING: Communication cutoff 5.12246152962189 is shorter than a bond length based estimate of 5.455. This may lead to errors. (src/comm.cpp:723)
Per MPI rank memory allocation (min/avg/max) = 1860 | 1860 | 1860 Mbytes
   Step          Temp         Enthalpy         c_1      
         0   0              13.311897      170.62068    
      1000   0.99992044     17.969764      170.233      
      2000   0.96678387     18.577312      169.74176    
      3000   1.0087919      18.632143      169.12826    
      4000   1.0146158      18.044506      168.89819    
      5000   0.99279027     18.38355       168.46715    
      6000   1.0115159      18.305679      168.19127    
      7000   0.99833823     19.083755      167.83161    
      8000   1.0328353      18.502234      167.65931    
      9000   1.009433       18.777443      167.27514    
     10000   1.0443447      19.57429       166.77219    
     11000   0.98025074     18.390346      166.48905    
     12000   1.0033901      19.067901      166.21148    
     13000   0.99187288     18.301776      165.89445    
     14000   0.96716214     18.646975      165.37732    
     15000   1.0040724      18.556617      165.05549    
     16000   1.0341926      19.68926       164.82912    
     17000   0.99777395     19.067474      164.49514    
     18000   1.0642524      19.446347      164.00762    
     19000   1.0175241      18.824822      163.97953    
     20000   0.97514338     18.846861      163.87991    
     21000   0.98089885     18.913366      163.6368     
     22000   0.97853531     18.743087      163.37201    
     23000   1.0382003      19.103405      162.90496    
     24000   1.0138096      18.407476      162.50037    
     25000   1.0467063      19.283911      162.16778    
     26000   1.0214038      19.138064      162.06452    
     27000   0.9493159      18.804439      161.94826    
     28000   1.0021009      18.693194      161.79957    
     29000   0.98222613     19.377546      161.66896    
     30000   1.0079863      18.603829      161.50279    
     31000   1.001683       18.896869      161.40913    
     32000   0.98084347     19.322446      161.19594    
     33000   1.033357       19.034603      160.92421    
     34000   0.98350641     18.778403      160.70015    
     35000   1.0192826      19.531562      160.5377     
     36000   0.99750673     19.202948      160.21175    
     37000   0.96942067     19.367739      160.01243    
     38000   1.005875       19.157831      159.82542    
     39000   0.99780173     19.300449      159.51102    
     40000   1.0082729      19.44934       159.42125    
     41000   0.96825199     19.364794      159.32094    
     42000   0.9919642      19.067299      159.27778    
     43000   0.99971872     19.236299      158.9851     
     44000   0.99289796     19.268371      158.69308    
     45000   0.98336141     18.789293      158.56564    
     46000   1.0169137      19.357794      158.10245    
     47000   0.99483466     19.499496      157.9376     
     48000   1.0120492      19.048222      157.96665    
     49000   1.028121       19.192198      157.8299     
     50000   1.0166663      19.470504      157.54577    
     51000   0.94033028     19.850905      157.36522    
     52000   1.0295892      19.328912      157.39568    
     53000   1.01812        20.020718      157.04019    
     54000   0.95080436     18.982937      156.80144    
     55000   1.0295911      19.336737      156.64556    
     56000   0.96504641     19.286702      156.40605    
     57000   0.99849086     19.258395      156.17685    
     58000   0.98663803     19.47221       155.83361    
     59000   1.0186112      19.904787      155.74466    
     60000   0.96965144     19.468886      155.87353    
     61000   0.98336529     19.170704      155.77875    
     62000   0.99239466     19.057036      155.68801    
     63000   0.98994736     18.839875      155.56631    
     64000   1.0333806      19.393177      155.26166    
     65000   0.95604029     19.447917      155.11151    
     66000   0.95681673     19.078496      154.9008     
     67000   0.98486952     19.375614      154.80286    
     68000   0.96362735     19.297634      154.55329    
     69000   0.99625223     19.677274      154.29007    
     70000   1.0008802      19.564902      153.98972    
     71000   1.0152787      19.105457      153.76753    
     72000   0.98091607     19.181764      153.81359    
     73000   0.99918379     19.518413      153.65614    
     74000   1.0168115      19.214549      153.73287    
     75000   1.0355522      19.371442      153.86537    
     76000   1.0403811      19.709069      153.78632    
     77000   0.99689357     19.224646      153.74842    
     78000   0.98133379     19.302879      153.49863    
     79000   0.99209453     19.277271      153.33509    
     80000   0.99551481     19.656318      152.95892    
     81000   0.99237758     19.547582      152.61569    
     82000   1.0092508      19.513744      152.59875    
     83000   1.0114817      19.356934      152.46107    
     84000   0.99856288     19.902712      152.29812    
     85000   1.0434151      19.49967       151.96215    
     86000   1.0033729      19.899509      151.61794    
     87000   0.95045145     19.265716      151.33508    
     88000   1.0110918      19.676291      151.23412    
     89000   1.0018584      20.099036      151.2136     
     90000   0.98182136     19.434824      150.95254    
     91000   1.0012754      19.919085      151.00788    
     92000   0.98895544     19.663411      150.81252    
     93000   0.97608287     19.89253       150.4047     
     94000   0.99265192     19.802123      149.99451    
     95000   1.0106392      19.48485       150.14072    
     96000   0.99250457     19.31536       150.05643    
     97000   0.98504808     19.558784      150.02518    
     98000   0.98193829     19.803913      149.99145    
     99000   0.99641996     19.800305      149.82759    
    100000   1.0005054      20.123787      149.46465    
Loop time of 242.593 on 2 procs for 100000 steps with 1000 atoms

Performance: 356151.640 tau/day, 412.213 timesteps/s
104.5% CPU use with 1 MPI tasks x 2 OpenMP threads

MPI task timing breakdown:
Section |  min time  |  avg time  |  max time  |%varavg| %total
---------------------------------------------------------------
Pair    | 1.0325     | 1.0325     | 1.0325     |   0.0 |  0.43
Bond    | 2.3179     | 2.3179     | 2.3179     |   0.0 |  0.96
Neigh   | 233.18     | 233.18     | 233.18     |   0.0 | 96.12
Comm    | 0.03074    | 0.03074    | 0.03074    |   0.0 |  0.01
Output  | 0.29402    | 0.29402    | 0.29402    |   0.0 |  0.12
Modify  | 5.4165     | 5.4165     | 5.4165     |   0.0 |  2.23
Other   |            | 0.3242     |            |       |  0.13

Nlocal:           1000 ave        1000 max        1000 min
Histogram: 1 0 0 0 0 0 0 0 0 0
Nghost:              0 ave           0 max           0 min
Histogram: 1 0 0 0 0 0 0 0 0 0
Neighs:           5220 ave        5220 max        5220 min
Histogram: 1 0 0 0 0 0 0 0 0 0

Total # of neighbors = 5220
Ave neighs/atom = 5.22
Ave special neighs/atom = 1.998
Neighbor list builds = 1072
Dangerous builds = 0

# Replace lj potential, now collapse
pair_style      lj/cut 3

# Cutoff simul when gyration under 5
# Variable created with equal requires v_ + 'name'
fix 3 all halt 1000 v_rog < 7

run 5000000
Generated 0 of 0 mixed pair_coeff terms from geometric mixing rule
Last active /omp style is angle_style cosine/omp
Per MPI rank memory allocation (min/avg/max) = 1860 | 1860 | 1860 Mbytes
   Step          Temp         Enthalpy         c_1      
    100000   1.0005054      19.621959      149.46465    
    101000   1.0606333      18.895873      149.1823     
    102000   1.0294788      19.334981      148.83388    
    103000   1.0679338      19.259823      148.64641    
    104000   1.0149591      19.171858      148.37001    
    105000   1.0438247      19.257935      148.304      
    106000   0.97636229     18.87073       148.24425    
    107000   1.0009181      19.393601      148.17655    
    108000   0.98485525     19.266828      147.98051    
    109000   0.99945216     18.974718      148.04309    
    110000   0.99996225     19.376399      147.88028    
    111000   0.98377825     19.133725      147.56947    
    112000   0.99568346     19.150732      147.55407    
    113000   1.0041321      18.811495      147.37999    
    114000   0.98792298     19.067802      147.3342     
    115000   0.99629746     19.416162      147.39976    
    116000   0.97989566     19.717364      147.31121    
    117000   1.0118316      19.121553      147.25164    
    118000   1.042158       19.469124      147.18002    
    119000   0.99401942     19.153232      147.21453    
    120000   0.99711746     19.10111       147.3901     
    121000   1.0065801      19.016791      147.35668    
    122000   0.98283033     18.980322      147.15247    
    123000   1.0049176      19.413756      146.94485    
    124000   1.0116101      19.159886      146.74269    
    125000   0.97692944     18.755316      146.5729     
    126000   1.0156378      19.010652      146.36604    
    127000   1.0257413      19.341845      146.0678     
    128000   0.97539403     19.389329      146.10189    
    129000   0.99345977     19.052684      145.8907     
    130000   1.0332025      19.16801       145.73317    
    131000   1.0206924      19.644708      145.56945    
    132000   1.0276907      19.756651      145.50708    
    133000   0.99892855     20.005535      145.17319    
    134000   0.98648217     19.490973      144.81116    
    135000   0.96417014     19.335786      144.76721    
    136000   1.0098304      18.948482      144.42682    
    137000   1.0258264      19.150294      144.56042    
    138000   0.98045341     19.377229      144.45696    
    139000   0.95015812     19.054807      144.24162    
    140000   1.0225309      19.05154       143.84779    
    141000   1.0206473      19.546598      143.8234     
    142000   0.99307405     18.790551      143.78856    
    143000   0.97763536     18.917546      143.65325    
    144000   1.0397262      19.67232       143.3524     
    145000   0.98303634     19.094779      143.09568    
    146000   1.0138099      19.214382      142.9485     
    147000   1.0313805      18.952619      142.73259    
    148000   1.0167573      18.94108       142.77613    
    149000   1.0216067      19.645005      142.72849    
    150000   1.0355352      18.892097      142.56345    
    151000   0.98891239     19.266579      142.48856    
    152000   1.0234388      18.931433      142.26841    
    153000   0.98611742     19.184526      141.93016    
    154000   0.98360733     19.155646      141.72879    
    155000   1.0021052      19.13533       141.60099    
    156000   0.99867747     19.066583      141.27649    
    157000   1.0272108      19.035524      141.06346    
    158000   0.96146085     19.196091      140.99777    
    159000   0.95734308     18.938243      141.03394    
    160000   1.0232299      18.952098      140.89215    
    161000   0.99107766     18.613597      140.88313    
    162000   1.0397065      19.497113      140.66253    
    163000   1.0330046      18.95644       140.59308    
    164000   1.0240796      18.761112      140.74253    
    165000   1.0365867      19.518676      140.80373    
    166000   1.0079939      19.208768      140.65073    
    167000   1.0063238      18.631385      140.36632    
    168000   0.9858426      19.500197      140.03959    
    169000   0.99566253     18.991588      139.95636    
    170000   0.97089949     19.12146       139.78755    
    171000   0.99319115     18.652991      139.6838     
    172000   0.99046821     18.763848      139.59614    
    173000   0.98336496     19.087789      139.77887    
    174000   1.0126162      19.451969      139.53992    
    175000   0.99441217     18.676231      139.32929    
    176000   1.0007026      19.248468      139.14298    
    177000   1.010768       19.057825      138.59511    
    178000   0.98143946     18.729623      138.37396    
    179000   1.0162715      19.306158      138.20309    
    180000   0.99812231     18.850188      137.98233    
    181000   1.0105287      19.182099      137.89317    
    182000   0.99159528     19.385181      137.64376    
    183000   1.0221996      18.988996      137.69996    
    184000   1.0001759      18.959531      137.47097    
    185000   0.99616963     19.005888      137.38215    
    186000   1.0094247      19.64734       137.24669    
    187000   0.97713518     19.307878      137.12666    
    188000   1.0259984      19.104119      136.78598    
    189000   0.9943501      19.178361      136.74537    
    190000   1.0135153      18.870431      136.60242    
    191000   1.0169315      19.011388      136.34007    
    192000   0.98840247     18.991372      136.38142    
    193000   1.0230415      19.119467      136.22911    
    194000   1.0402542      18.817871      136.27995    
    195000   1.0030637      19.282502      135.92034    
    196000   1.0291542      18.889698      135.83304    
    197000   1.0134635      19.30227       135.8159     
    198000   0.99558553     19.197201      135.5643     
    199000   0.95531329     18.769685      135.35748    
    200000   0.98836118     19.09997       135.30066    
    201000   1.0467073      19.095297      135.17864    
    202000   1.0136296      18.92882       134.89264    
    203000   1.0008054      19.314177      134.90455    
    204000   0.9978271      18.414614      134.60055    
    205000   0.9947756      18.678672      134.70129    
    206000   1.0100381      19.379869      134.63483    
    207000   0.99321021     18.693935      134.50704    
    208000   1.0142018      18.965704      134.45384    
    209000   0.99988021     18.93996       134.34603    
    210000   1.0442091      18.752746      134.21273    
    211000   1.0280665      18.87251       134.20289    
    212000   1.0171322      18.879384      134.03448    
    213000   1.0163871      19.254336      133.68617    
    214000   0.97847635     18.570979      133.66926    
    215000   1.0282249      19.212232      133.22517    
    216000   0.94984977     18.492094      133.05628    
    217000   0.95999984     19.001035      133.0058     
    218000   1.0154281      19.019085      132.99351    
    219000   0.97129875     18.953057      132.79955    
    220000   1.0173151      18.987917      132.63806    
    221000   0.90974447     18.559411      132.67053    
    222000   1.0252202      19.383522      132.51552    
    223000   0.99259664     18.783654      132.40482    
    224000   1.0100932      19.286874      132.47249    
    225000   1.065808       19.237583      132.22749    
    226000   1.0178556      19.504533      131.93256    
    227000   1.0028472      19.048667      131.79451    
    228000   1.0771839      19.294839      131.62163    
    229000   1.0017873      19.132559      131.62647    
    230000   1.0250118      19.395395      131.53633    
    231000   0.99804414     18.483809      131.28027    
    232000   1.0053056      19.359343      131.08001    
    233000   0.9733229      19.284401      131.06956    
    234000   0.98923814     19.750092      131.04237    
    235000   1.0208025      19.108585      130.73818    
    236000   1.0247143      19.278462      130.24252    
    237000   0.98363435     19.005064      130.03279    
    238000   0.94617919     18.927227      129.95564    
    239000   1.0156625      18.924066      129.70246    
    240000   1.0221934      18.922472      129.53101    
    241000   0.98727336     19.127827      129.39598    
    242000   1.0354286      19.227674      129.30994    
    243000   1.0043872      19.429072      128.99821    
    244000   1.0345275      19.053525      128.76328    
    245000   0.98777843     19.08119       128.35214    
    246000   1.0124925      19.469655      128.16964    
    247000   0.97519017     18.88271       127.96971    
    248000   0.95338503     18.195475      127.7556     
    249000   1.0259751      19.083096      127.44228    
    250000   0.99094723     18.880478      127.31607    
    251000   1.0118911      19.420917      127.09148    
    252000   0.98713563     19.142729      127.11898    
    253000   1.005224       18.917761      126.84675    
    254000   0.93279839     18.967253      126.59376    
    255000   1.0144742      18.778005      126.64409    
    256000   1.0292623      18.625407      126.64558    
    257000   1.0424404      19.623817      126.71097    
    258000   0.9817719      18.871897      126.56419    
    259000   0.99727766     19.026192      126.32601    
    260000   0.98260914     19.068172      126.20014    
    261000   0.976432       18.153274      125.87994    
    262000   1.0003464      19.230348      125.72908    
    263000   0.98481115     19.168467      125.57515    
    264000   0.9723738      18.913835      125.58631    
    265000   0.99365803     18.750705      125.52425    
    266000   0.98447521     18.913636      125.57612    
    267000   1.0461036      18.863557      125.39269    
    268000   0.99658675     19.169227      125.29641    
    269000   0.98396301     18.87034       125.0918     
    270000   1.0383995      19.37939       124.96316    
    271000   1.0262281      19.575017      124.69996    
    272000   0.99959956     18.652288      124.43353    
    273000   0.99489062     18.732371      124.17748    
    274000   1.0482047      19.141678      124.16085    
    275000   1.0103858      18.576277      123.84691    
    276000   0.97571525     19.063454      123.74966    
    277000   0.96131468     18.48868       123.39661    
    278000   0.98178967     18.705005      123.27064    
    279000   0.97862728     19.060835      123.06266    
    280000   1.0068214      18.91297       122.71438    
    281000   0.97473776     19.011002      122.5413     
    282000   0.98807841     18.888554      122.40031    
    283000   1.0267554      19.048606      122.36843    
    284000   0.96417791     18.762932      122.25453    
    285000   1.0208695      18.676352      122.0722     
    286000   1.05766        18.492586      121.6368     
    287000   0.98993911     18.841427      121.63059    
    288000   1.0016794      19.313322      121.52564    
    289000   0.98138582     19.064409      121.35058    
    290000   0.99402516     19.176685      121.43164    
    291000   1.0016094      18.781026      121.20263    
    292000   0.99867556     18.96547       120.95129    
    293000   1.0067583      19.759795      120.77305    
    294000   0.97394276     19.113864      120.75452    
    295000   0.97795657     19.056781      120.80458    
    296000   1.0037629      19.28398       120.33023    
    297000   0.97817304     19.273657      120.27589    
    298000   1.0068544      19.539458      120.27766    
    299000   1.015076       18.95367       120.03731    
    300000   1.0081381      19.057631      119.72664    
    301000   1.000413       18.614261      119.61565    
    302000   0.97013494     18.561765      119.44948    
    303000   0.93690236     19.591451      119.23742    
    304000   0.96665243     19.232997      119.22507    
    305000   1.0216174      19.53556       119.10397    
    306000   1.0558864      19.044608      118.85899    
    307000   1.0181138      18.989278      118.73939    
    308000   0.96981709     19.116351      118.61455    
    309000   1.0048499      18.928624      118.57117    
    310000   0.95836014     19.052606      118.44144    
    311000   0.96783531     18.48772       118.49483    
    312000   1.0063109      19.542314      118.378      
    313000   1.0144134      19.214586      117.96296    
    314000   0.98398864     19.368889      117.72429    
    315000   1.0192263      18.557403      117.59064    
    316000   0.96713134     18.957967      117.52466    
    317000   1.0415898      19.339571      117.50944    
    318000   1.0214042      19.079642      117.57516    
    319000   0.98188737     18.961658      117.42694    
    320000   0.95024564     19.245076      117.40375    
    321000   0.97534043     18.508708      117.29005    
    322000   1.0011613      19.037669      117.13508    
    323000   1.0218027      18.614234      117.07233    
    324000   1.0194633      18.932924      116.91388    
    325000   0.98804358     18.433139      116.91395    
    326000   1.000916       19.13948       116.72932    
    327000   1.0247812      19.049683      116.67898    
    328000   1.0051498      18.871997      116.26192    
    329000   1.0082975      18.797128      116.36173    
    330000   0.93583267     19.224828      116.44039    
    331000   1.0020775      18.547522      116.22526    
    332000   1.0075549      18.92554       116.23403    
    333000   1.0338686      19.05031       116.01541    
    334000   1.0474203      19.075267      115.73989    
    335000   0.97437528     18.923441      115.55329    
    336000   0.96656644     18.420726      115.63784    
    337000   1.0218965      18.716929      115.28988    
    338000   0.97931885     18.781293      115.29173    
    339000   1.007779       18.791168      115.12353    
    340000   1.043405       19.095884      114.91675    
    341000   0.96003449     18.490802      114.77593    
    342000   1.0429237      19.030937      114.71821    
    343000   0.96551288     18.556818      114.67095    
    344000   1.0273304      18.768202      114.66757    
    345000   0.97934254     18.842851      114.5246     
    346000   0.97767272     18.15076       114.85996    
    347000   1.0180314      18.984054      114.97974    
    348000   0.97081021     18.029263      114.842      
    349000   0.99259216     18.711359      114.78703    
    350000   1.0160687      19.172017      114.92952    
    351000   0.94625482     18.602966      114.82895    
    352000   1.0274891      19.144678      114.94255    
    353000   1.0356765      18.69239       114.72714    
    354000   1.0311582      18.915269      114.73914    
    355000   1.0130489      18.686103      114.50564    
    356000   1.0328766      19.049408      114.33909    
    357000   1.0082591      18.97962       114.22512    
    358000   1.024233       18.879001      113.8663     
    359000   0.98602471     18.582796      113.75324    
    360000   1.0035292      18.614871      113.46535    
    361000   0.97178237     18.618188      113.32362    
    362000   1.031683       18.6478        113.31612    
    363000   1.0214167      18.428889      113.42213    
    364000   0.97925567     18.659073      113.35897    
    365000   0.96384255     18.39342       113.05286    
    366000   1.0320912      19.19114       113.18863    
    367000   0.96837815     18.982546      113.00468    
    368000   0.97608839     18.325914      112.98936    
    369000   0.99134276     18.52411       113.07422    
    370000   1.0047104      18.712555      113.0873     
    371000   1.0338082      19.037746      112.97315    
    372000   0.98766165     19.197339      112.87233    
    373000   1.0036589      18.284152      112.91786    
    374000   1.0452404      18.43154       112.86405    
    375000   1.0088604      18.704734      112.80743    
    376000   1.0038606      18.766081      112.57713    
    377000   1.0726248      18.946175      112.58394    
    378000   1.0078183      18.795838      112.51435    
    379000   0.95685835     18.402332      112.37835    
    380000   0.99813553     18.828341      112.14599    
    381000   1.0466588      18.554935      112.12252    
    382000   0.95658869     18.424352      112.03893    
    383000   1.0324774      18.952747      111.82692    
    384000   1.0116484      18.82006       111.83614    
    385000   0.98051457     18.679495      111.88095    
    386000   0.99080841     19.039137      111.81742    
    387000   1.0179489      18.769465      111.58004    
    388000   0.9568066      18.663507      111.46839    
    389000   0.96034725     18.914492      111.58276    
    390000   1.0460267      18.935652      111.51505    
    391000   0.97197853     18.632847      111.26229    
    392000   1.0217357      18.748179      110.98665    
    393000   0.9843961      19.096214      110.53556    
    394000   0.98500341     18.919371      110.39448    
    395000   1.0556309      18.590768      110.08175    
    396000   1.0074598      18.684444      109.96299    
    397000   0.99462059     18.697175      110.06542    
    398000   0.9911683      18.830893      110.02654    
    399000   1.0228379      19.240291      110.17721    
    400000   0.97645738     18.513337      110.19464    
    401000   1.0227808      18.325607      110.07192    
    402000   0.99343408     19.145283      110.12351    
    403000   0.96719935     18.624892      110.17173    
    404000   0.9983418      18.896344      110.20405    
    405000   0.99651039     18.642438      110.27733    
    406000   0.98965947     18.513319      110.31176    
    407000   1.0015206      18.750188      110.27615    
    408000   0.99343968     18.751623      110.22385    
    409000   1.0248198      18.807611      110.42878    
    410000   1.0448604      19.282168      110.20393    
    411000   1.0103798      18.565569      109.95883    
    412000   0.99399555     18.639747      109.90676    
    413000   1.0048881      18.931885      109.97174    
    414000   0.99547193     18.358923      109.76062    
    415000   0.94008584     18.538114      109.62139    
    416000   1.0012067      18.462137      109.77619    
    417000   0.98181456     19.096567      109.66038    
    418000   1.0480742      18.924503      109.53423    
    419000   0.98401545     18.732907      109.42768    
    420000   0.99813796     18.922293      109.34471    
    421000   0.98208387     18.855611      109.13163    
    422000   0.99868357     18.329863      108.93108    
    423000   0.94597474     18.115058      108.92491    
    424000   1.0336268      18.710312      108.7665     
    425000   0.98811698     19.017477      108.57196    
    426000   1.0180747      18.734686      108.37716    
    427000   0.99124432     18.700943      108.10093    
    428000   1.0054871      19.213419      108.03723    
    429000   1.0074635      19.127427      107.74012    
    430000   0.9932885      18.649755      107.69994    
    431000   1.0208825      18.662977      107.82672    
    432000   1.0482771      18.647778      107.82455    
    433000   1.0362331      18.974237      107.88527    
    434000   1.0186966      18.597202      108.10813    
    435000   0.95625055     18.621891      108.32903    
    436000   0.98989835     18.901373      108.4052     
    437000   1.0391927      19.063773      108.27648    
    438000   1.0335097      19.06552       108.14443    
    439000   0.97641374     18.669626      107.84489    
    440000   0.97761573     18.803957      107.56125    
    441000   0.98562602     18.767837      107.56493    
    442000   1.0167729      19.083531      107.14921    
    443000   0.97311902     19.059282      106.8498     
    444000   1.0334371      18.441916      106.57587    
    445000   1.0117672      19.174462      106.49138    
    446000   1.0412827      18.79482       106.38859    
    447000   0.98334687     18.50571       106.26154    
    448000   1.0307148      18.8254        106.10393    
    449000   1.02016        18.7921        105.94728    
    450000   1.0406333      18.240482      105.75709    
    451000   0.97970281     19.148528      105.83803    
    452000   0.95899652     18.647243      105.65831    
    453000   1.0245618      18.935514      105.59988    
    454000   1.0103352      18.618129      105.33817    
    455000   0.99870239     18.524005      105.0961     
    456000   1.0110157      18.708178      105.17216    
    457000   0.97025197     18.929926      105.2201     
    458000   1.0193324      18.578243      104.89518    
    459000   1.0310457      18.703697      104.9597     
    460000   0.99648654     18.336164      104.83152    
    461000   0.99694806     18.65851       104.91303    
    462000   0.96117783     18.808586      104.72308    
    463000   0.96330616     18.270899      104.57236    
    464000   0.99438894     18.36801       104.49724    
    465000   0.99171379     18.423951      104.37139    
    466000   1.0426359      18.486188      104.3483     
    467000   0.9825038      18.832971      104.27308    
    468000   0.99039903     18.972811      104.18299    
    469000   0.98152896     18.347367      103.80995    
    470000   1.043152       18.764207      103.67773    
    471000   0.9879096      18.978405      103.44677    
    472000   1.0017222      18.605997      103.21409    
    473000   1.014483       18.872713      102.99976    
    474000   0.98446002     18.936443      102.59566    
    475000   0.96461386     18.690323      102.56902    
    476000   1.0000544      18.303121      102.44869    
    477000   0.99343794     18.337226      102.43017    
    478000   1.0045107      18.300082      102.28058    
    479000   1.0240099      18.917443      102.19774    
    480000   0.97572471     18.744791      101.81375    
    481000   1.0113076      18.538921      101.7984     
    482000   1.0275356      18.970696      101.63212    
    483000   1.0370461      18.751356      101.46349    
    484000   0.97283553     18.10909       101.45857    
    485000   1.0040479      18.474083      101.06151    
    486000   1.0100502      18.202625      100.96738    
    487000   1.0279828      18.859555      100.89278    
    488000   0.99575412     18.512322      100.41793    
    489000   0.98315189     18.119413      100.25634    
    490000   1.0161638      18.447149      100.2854     
    491000   1.0016256      18.374278      100.43015    
    492000   0.99964759     18.793267      100.46133    
    493000   0.95190801     18.554285      100.23961    
    494000   1.0389543      18.849859      99.963752    
    495000   0.99063635     18.959505      99.889955    
    496000   1.0259704      18.517479      99.955265    
    497000   1.0582123      18.849         99.955961    
    498000   0.97861728     18.746381      99.741542    
    499000   0.99443019     18.332112      99.583243    
    500000   1.0028561      17.926052      99.330804    
    501000   1.0281503      18.284136      99.341852    
    502000   0.9965459      18.375207      99.340894    
    503000   0.99747031     18.689397      99.269922    
    504000   0.99969912     18.741424      99.321875    
    505000   0.95290569     18.584813      99.387311    
    506000   1.0256468      18.160904      99.019698    
    507000   0.99564954     18.64037       98.75488     
    508000   0.9648843      18.588399      98.655399    
    509000   0.9928979      18.579874      98.39198     
    510000   0.97483336     18.410876      98.123903    
    511000   0.99696725     18.889123      98.061776    
    512000   0.9897017      18.22404       98.276778    
    513000   1.030597       18.740314      98.322172    
    514000   0.97941853     18.736623      98.110292    
    515000   0.97192737     18.470999      97.924464    
    516000   1.0252706      18.616818      97.811118    
    517000   0.97611366     18.678959      97.841301    
    518000   1.0352892      18.56673       97.837629    
    519000   1.0525973      18.241553      97.752609    
    520000   0.98041192     18.275945      97.609521    
    521000   1.0368286      18.950507      97.606443    
    522000   1.0294738      18.795601      97.544669    
    523000   0.99809416     18.269184      97.36315     
    524000   0.98607481     18.532483      97.015155    
    525000   1.0156565      18.711031      96.906414    
    526000   1.0277378      18.903876      96.779863    
    527000   1.0088374      18.407184      96.89323     
    528000   0.95776933     18.623416      96.759727    
    529000   1.0330385      18.09077       96.502195    
    530000   1.032625       18.738535      96.33483     
    531000   1.0199785      18.100551      96.118471    
    532000   1.00031        18.507416      96.007765    
    533000   1.0293891      18.975562      95.907895    
    534000   1.013405       18.431434      95.97562     
    535000   0.96428533     18.043335      95.819909    
    536000   1.0069201      18.17857       95.739957    
    537000   0.98580314     17.973188      95.526578    
    538000   1.0471683      18.965546      95.366257    
    539000   1.0061279      18.445809      95.220182    
    540000   0.97764217     18.808142      95.320898    
    541000   0.96277293     18.538865      95.244987    
    542000   0.96723167     18.520324      95.252426    
    543000   0.95452029     18.503201      95.243478    
    544000   1.0224871      18.463964      95.294947    
    545000   0.94459978     18.588534      95.342739    
    546000   1.000914       19.278222      95.22656     
    547000   0.9697338      17.900724      95.085785    
    548000   0.97257845     18.45671       95.146673    
    549000   0.99933937     18.110012      95.078528    
    550000   1.0008632      18.578286      94.896796    
    551000   0.99368041     18.769981      94.824687    
    552000   1.0278679      18.186848      94.517598    
    553000   0.94977992     18.236277      94.107804    
    554000   0.99621696     18.635782      93.808357    
    555000   0.98346144     17.982032      93.659782    
    556000   1.0223358      18.439492      93.61288     
    557000   1.0193788      17.920756      93.404869    
    558000   0.99075291     18.649125      93.338259    
    559000   1.003293       18.243855      93.268081    
    560000   0.99027171     17.894526      93.246867    
    561000   1.0609581      18.516934      93.219233    
    562000   0.97084647     18.478022      92.981261    
    563000   1.0034167      18.538206      92.93333     
    564000   0.94431596     18.717514      92.717484    
    565000   1.0032914      18.366462      92.703093    
    566000   0.98901687     18.938967      92.57311     
    567000   1.0206353      18.431179      92.167618    
    568000   1.0578093      18.345861      91.887545    
    569000   0.97428144     18.475435      91.595896    
    570000   0.98564202     18.453304      91.243761    
    571000   1.0359952      18.259656      90.972875    
    572000   0.99357476     18.916288      90.604007    
    573000   1.0418457      18.189328      90.428522    
    574000   1.0126269      18.208047      90.186081    
    575000   0.99788677     18.075675      89.963001    
    576000   0.93099906     19.268275      89.937985    
    577000   0.94685164     18.060093      89.840057    
    578000   0.95824347     18.187783      89.673244    
    579000   0.99137115     18.062239      89.719219    
    580000   0.97080795     18.307198      89.587004    
    581000   0.96813931     18.177345      89.442754    
    582000   0.97229339     18.310375      89.346016    
    583000   1.0197824      18.206462      89.429566    
    584000   1.0190554      18.404348      89.345659    
    585000   0.94782736     18.416363      89.355053    
    586000   0.99154362     17.855157      89.43932     
    587000   1.0489828      18.306348      89.31958     
    588000   1.0169558      18.822552      89.442625    
    589000   1.0231193      18.253202      89.357065    
    590000   1.0341087      18.3799        89.069816    
    591000   1.0114797      18.551813      88.780723    
    592000   1.0107206      18.459709      88.730693    
    593000   0.99677768     18.554375      88.757992    
    594000   0.99383491     18.399893      88.602772    
    595000   1.0157569      18.330394      88.333488    
    596000   1.0360693      18.355311      87.972156    
    597000   1.0004266      18.463511      87.954759    
    598000   0.96282319     18.01874       88.051551    
    599000   1.0468047      18.884973      88.130502    
    600000   0.98710213     18.109856      88.160154    
    601000   1.0034554      18.213737      88.381013    
    602000   1.0246261      18.370048      88.33757     
    603000   0.98674314     18.500318      88.23503     
    604000   0.99975544     18.757826      88.127414    
    605000   0.98977709     18.600365      88.129778    
    606000   1.0064502      18.242242      87.971129    
    607000   1.008787       18.063487      88.037604    
    608000   0.98704859     18.534502      88.130036    
    609000   1.0119528      18.326428      87.887268    
    610000   1.0120931      18.389741      87.830084    
    611000   0.99619432     18.185321      87.64964     
    612000   1.0071228      18.864044      87.443652    
    613000   0.98453066     18.336831      87.560725    
    614000   0.9727389      18.571337      87.705634    
    615000   1.0290462      17.891663      87.624292    
    616000   1.0075045      18.713932      87.41592     
    617000   1.0049687      18.600943      87.189492    
    618000   1.0052714      18.377602      86.996385    
    619000   0.98891083     18.470485      86.876576    
    620000   0.95758621     17.877643      86.799995    
    621000   1.0203751      18.684261      86.715278    
    622000   1.0170266      18.791083      86.634685    
    623000   0.98654777     18.10494       86.528576    
    624000   1.0480993      17.589425      86.618015    
    625000   1.0292974      19.237081      86.429733    
    626000   1.0082128      18.492153      86.236069    
    627000   1.0533565      17.852687      86.143426    
    628000   1.0138715      18.493732      86.125906    
    629000   0.99558511     18.533701      86.001816    
    630000   1.0105114      18.828483      85.812456    
    631000   1.0053466      18.354368      85.793718    
    632000   1.0380649      18.698046      85.638656    
    633000   1.0138043      18.041191      85.565864    
    634000   1.0412517      19.274976      85.494594    
    635000   0.98501003     18.423164      85.389682    
    636000   0.944565       18.040163      85.217292    
    637000   0.99909639     18.190939      84.86929     
    638000   0.95991447     18.313501      84.952033    
    639000   1.0131385      18.544064      84.805452    
    640000   1.0101148      18.559852      84.763258    
    641000   0.97744238     17.988248      84.708822    
    642000   0.97309372     18.630357      84.655871    
    643000   0.99610364     18.143986      84.45486     
    644000   1.0453363      18.714432      84.236396    
    645000   1.0061561      17.953853      83.953086    
    646000   1.009503       18.162398      83.874823    
    647000   1.0300469      17.965517      83.850356    
    648000   1.0207663      18.162439      83.636647    
    649000   1.0242338      17.721504      83.491719    
    650000   1.0372863      18.655987      83.376736    
    651000   0.96625202     18.402341      83.202165    
    652000   0.98506491     18.088499      82.997337    
    653000   1.001445       18.690372      82.674304    
    654000   0.96855038     18.508403      82.465625    
    655000   0.98900827     17.981313      82.293719    
    656000   1.0080762      18.415205      82.202444    
    657000   0.99105043     18.392184      82.412126    
    658000   0.980855       18.542016      82.365812    
    659000   0.99627676     18.259196      82.441202    
    660000   0.96113508     17.768447      82.253324    
    661000   1.0017371      18.827418      82.100296    
    662000   1.0043372      18.602458      81.830354    
    663000   0.99068766     18.059335      81.848388    
    664000   0.99402778     18.3964        81.461055    
    665000   1.0588249      18.592838      81.338621    
    666000   0.99523332     18.034641      81.183792    
    667000   0.97124006     18.416438      81.045499    
    668000   1.000065       18.785262      80.822482    
    669000   1.0071012      18.611329      80.754978    
    670000   0.97854793     18.70453       80.620269    
    671000   1.0206414      17.809642      80.453951    
    672000   1.0200328      17.779465      80.306334    
    673000   1.0066546      18.573626      80.124614    
    674000   1.0211549      18.320186      80.303791    
    675000   1.0038403      18.436452      80.110261    
    676000   0.98687067     18.380298      80.25395     
    677000   0.98118123     18.536417      80.251374    
    678000   0.97340444     18.111771      80.169929    
    679000   1.0145134      18.16397       79.975126    
    680000   1.016771       18.351665      79.90428     
    681000   0.99126583     17.711455      79.800161    
    682000   1.0320438      18.6899        79.82196     
    683000   1.0056405      17.986732      79.790673    
    684000   1.0174648      18.132068      79.935097    
    685000   0.99578358     17.830633      79.920032    
    686000   1.0457123      18.547022      79.874866    
    687000   1.0336327      17.965949      79.754617    
    688000   1.0198864      18.322049      79.562531    
    689000   0.96729775     17.809013      79.650113    
    690000   1.0017784      18.362029      79.770523    
    691000   1.0171934      18.468571      79.59372     
    692000   1.0159627      18.386506      79.581225    
    693000   0.99617205     17.908187      79.399575    
    694000   1.0081771      18.373869      79.340207    
    695000   1.0059233      18.618817      79.263175    
    696000   0.96461566     18.208528      79.185117    
    697000   0.99515373     18.79421       79.172004    
    698000   1.0098459      18.099899      78.899523    
    699000   0.99770554     18.747822      78.815348    
    700000   0.95190892     18.250521      78.648054    
    701000   0.99033509     17.78846       78.759389    
    702000   0.96622763     18.076272      78.739731    
    703000   1.0499077      18.155807      78.689488    
    704000   1.0189091      18.127574      78.450482    
    705000   1.0317613      18.175722      78.158703    
    706000   0.95168728     17.750612      78.071931    
    707000   1.023873       17.884523      78.094477    
    708000   1.0013842      18.523426      78.155861    
    709000   1.0132305      18.55387       77.964682    
    710000   1.0088475      17.930279      77.958618    
    711000   1.0033019      18.295968      77.716885    
    712000   1.023602       18.506704      77.494526    
    713000   0.99945481     18.324816      77.470149    
    714000   0.99189225     18.66398       77.339352    
    715000   0.99728196     18.466312      77.09107     
    716000   1.0014231      18.208972      77.096015    
    717000   0.99549109     18.523444      76.885399    
    718000   1.0375768      18.179214      76.796446    
    719000   1.004281       18.142197      76.809132    
    720000   0.96352235     17.751092      76.576888    
    721000   1.0218123      17.701657      76.435225    
    722000   1.0102074      17.690478      76.369327    
    723000   0.97736976     17.888329      76.564958    
    724000   1.0195685      18.03068       76.443762    
    725000   1.0210734      17.812755      76.020079    
    726000   0.99901747     19.026513      75.989312    
    727000   0.97740485     18.416862      75.99958     
    728000   0.99454289     18.365946      75.985398    
    729000   1.0209474      18.009675      75.781792    
    730000   1.058523       18.420322      75.477665    
    731000   0.9859901      18.255227      75.272842    
    732000   0.98371232     18.34899       75.297197    
    733000   0.97321604     18.077521      75.190758    
    734000   1.0499253      18.765199      75.117866    
    735000   0.98941352     17.970079      75.07508     
    736000   1.0816848      18.428876      75.051607    
    737000   0.97332219     17.876194      75.03492     
    738000   1.0266631      18.198869      75.091823    
    739000   0.96350279     17.586309      75.10694     
    740000   1.0082243      18.892073      74.86389     
    741000   0.99179854     18.57767       74.586364    
    742000   1.005923       18.01807       74.418854    
    743000   0.99650926     17.88889       74.065114    
    744000   1.0191194      18.607704      73.600704    
    745000   1.0411559      19.303084      73.434503    
    746000   0.99731814     17.982196      73.225894    
    747000   0.96245635     18.016049      72.947658    
    748000   1.0294736      18.285606      72.753328    
    749000   1.002453       18.390965      72.661982    
    750000   1.0072747      18.492553      72.445278    
    751000   0.92180809     18.080558      72.285816    
    752000   1.0027195      17.930458      71.916761    
    753000   0.99469929     18.05714       71.657591    
    754000   0.97862098     18.021625      71.50362     
    755000   0.98290988     17.965072      71.554108    
    756000   1.0140754      18.100644      71.534273    
    757000   0.99439091     17.794749      71.424612    
    758000   1.0194559      17.860424      71.324216    
    759000   0.98091836     18.036929      71.159864    
    760000   1.0082344      18.289085      71.092264    
    761000   1.0434926      18.139393      70.781624    
    762000   1.0097727      18.193945      70.527292    
    763000   1.0241472      17.917222      70.517851    
    764000   0.9691039      17.912307      70.659246    
    765000   1.0225171      18.911637      70.819011    
    766000   0.98816097     18.738283      70.844258    
    767000   0.98522577     17.895994      70.476061    
    768000   0.99795171     18.026985      70.372289    
    769000   1.0275501      18.915963      70.260125    
    770000   1.0146746      17.635139      70.21657     
    771000   0.97323056     17.797415      70.149412    
    772000   1.0128589      18.017363      70.041125    
    773000   0.97974436     18.376331      70.133359    
    774000   0.97141854     18.653939      69.991668    
    775000   0.97286933     17.524348      69.922091    
    776000   1.0291063      17.995932      69.895556    
    777000   0.95404735     18.011213      69.71462     
    778000   1.0329753      17.997343      69.614711    
    779000   1.031845       18.095845      69.480283    
    780000   1.0092182      18.364578      69.380876    
    781000   0.97616914     18.160319      69.196329    
    782000   1.0084843      17.660513      69.157754    
    783000   1.010296       18.270815      69.120467    
    784000   0.98941301     17.847397      68.88845     
    785000   0.96911332     18.580407      68.751303    
    786000   0.99124815     18.108366      68.633004    
    787000   0.99101866     18.419166      68.537527    
    788000   1.0206304      17.737617      68.401512    
    789000   0.99900898     17.754268      68.111146    
    790000   1.0159138      18.477476      67.972189    
    791000   1.0087614      18.403693      67.8729      
    792000   1.0222218      17.863104      67.542713    
    793000   1.0037381      18.254998      67.444808    
    794000   0.99008788     18.305361      67.182326    
    795000   0.99813126     17.688823      67.118324    
    796000   0.99734339     18.165613      66.917522    
    797000   0.98867956     18.273079      66.961       
    798000   0.99809557     17.909833      66.598811    
    799000   1.0384209      18.422415      66.558371    
    800000   1.0016322      18.365255      66.584464    
    801000   0.97694881     17.833806      66.439686    
    802000   0.97640438     17.964498      66.420942    
    803000   0.99693802     18.209486      66.432607    
    804000   1.013892       18.177668      66.160411    
    805000   1.0155769      18.358394      66.011481    
    806000   0.98443254     18.290434      65.639967    
    807000   0.9635594      18.214866      65.542291    
    808000   0.99177259     17.839273      65.347496    
    809000   0.97866886     17.788019      65.349689    
    810000   0.99174979     18.059592      65.307427    
    811000   0.97153999     17.665958      65.300324    
    812000   1.0088031      18.642922      65.120473    
    813000   1.0109443      17.91035       65.143223    
    814000   0.95382653     17.948711      64.965056    
    815000   0.99980563     17.643889      64.802662    
    816000   0.97180502     17.707043      64.468098    
    817000   0.99497703     18.649474      64.509606    
    818000   0.98803584     17.657341      64.490364    
    819000   0.96740701     18.119387      64.117168    
    820000   0.99547995     18.575089      63.81376     
    821000   0.9855622      18.327573      63.684009    
    822000   1.0246877      18.483588      63.709669    
    823000   0.98709114     17.743531      63.428538    
    824000   0.99386053     18.047455      63.405775    
    825000   1.0360657      18.062632      63.696409    
    826000   0.97122659     18.428259      63.663223    
    827000   1.028483       18.059034      63.727832    
    828000   0.98991662     18.043886      63.542137    
    829000   1.0001793      17.965124      63.373515    
    830000   0.98397001     17.929617      63.356748    
    831000   0.98109929     18.395859      63.227601    
    832000   0.99989998     17.64438       62.919       
    833000   1.0165953      17.613         62.956239    
    834000   0.97309565     18.300222      62.852092    
    835000   1.0111637      18.028799      62.803503    
    836000   1.0026379      17.758229      62.804455    
    837000   1.0341452      18.084751      62.586656    
    838000   1.019488       18.779901      62.325134    
    839000   0.96324349     18.059543      62.293287    
    840000   1.0231078      18.078344      62.078901    
    841000   1.0095784      18.120897      61.98998     
    842000   0.99809241     18.503471      61.960614    
    843000   1.0271285      18.163105      61.96135     
    844000   0.96792435     18.280568      61.881415    
    845000   0.98995985     17.868832      61.674351    
    846000   1.0437937      17.776815      61.525176    
    847000   0.98781272     18.011468      61.323002    
    848000   0.95756381     17.562734      60.820217    
    849000   1.0542543      17.339404      60.750135    
    850000   1.0167718      18.397279      60.474885    
    851000   1.0201499      17.448054      60.621757    
    852000   1.0202858      18.117123      60.734207    
    853000   1.0083417      17.612089      60.531182    
    854000   0.99834856     17.458686      60.596528    
    855000   1.0171905      18.12975       60.75672     
    856000   0.99544737     18.231613      60.486471    
    857000   1.0340789      17.866299      60.348286    
    858000   1.0322181      17.992371      60.163607    
    859000   1.0273016      17.331334      60.07464     
    860000   1.0252595      18.297178      60.176869    
    861000   1.0215868      18.675318      60.081531    
    862000   0.99183997     17.270157      60.057186    
    863000   1.0075256      18.093288      59.974515    
    864000   0.98621587     17.873846      59.883813    
    865000   0.97582635     17.609053      59.540903    
    866000   1.0452542      18.280796      59.547217    
    867000   0.98588169     18.378944      59.4558      
    868000   0.9656869      18.547657      59.581073    
    869000   1.0243522      18.243103      59.456907    
    870000   1.0192631      18.238738      59.48577     
    871000   0.96008631     17.486489      59.307679    
    872000   0.97626948     17.48875       58.944638    
    873000   0.97519513     17.69014       58.897518    
    874000   0.96544043     18.091403      59.122333    
    875000   1.0183829      18.107081      59.086479    
    876000   1.0469244      18.370956      59.067141    
    877000   0.99082682     18.542011      59.063382    
    878000   1.0064634      18.173283      59.13344     
    879000   1.0197537      17.654134      59.003216    
    880000   0.97979205     17.209451      59.004594    
    881000   0.97476344     17.955694      58.885606    
    882000   0.99871323     17.666533      58.814581    
    883000   1.0191142      18.079146      58.656859    
    884000   0.97016131     18.070932      58.524053    
    885000   1.0357024      17.572373      58.419197    
    886000   0.99293346     17.79595       58.186321    
    887000   0.99697098     17.788708      57.993587    
    888000   1.0139721      18.015244      57.790692    
    889000   1.0254585      18.456512      57.845828    
    890000   0.97989122     17.750534      57.788136    
    891000   0.9994709      18.081113      57.741826    
    892000   0.95923554     18.570944      57.686503    
    893000   1.0481258      18.02459       57.416826    
    894000   0.97980765     18.065052      57.392639    
    895000   1.0121924      17.803997      57.373857    
    896000   0.97104652     18.243009      57.421595    
    897000   0.98182704     17.778937      57.339558    
    898000   1.0069167      18.626888      57.221286    
    899000   1.0115803      17.747535      57.297343    
    900000   1.0648261      17.747356      57.060142    
    901000   1.0514231      17.909562      57.254986    
    902000   1.0019671      18.068014      57.249262    
    903000   1.0276306      18.192045      57.103508    
    904000   1.0021637      17.749753      57.034341    
    905000   1.0249482      18.047557      57.007425    
    906000   1.0379762      17.803429      56.788921    
    907000   0.99492342     18.460171      56.852407    
    908000   0.97620561     17.619688      56.734776    
    909000   0.95526579     18.010316      56.421268    
    910000   1.0254322      17.77361       56.325798    
    911000   0.97571437     17.646395      56.157444    
    912000   0.99626082     17.840711      55.896471    
    913000   1.0069943      17.978823      55.767749    
    914000   0.99511984     17.750182      55.650407    
    915000   1.0516624      18.134997      55.940633    
    916000   1.0176748      17.639675      55.675214    
    917000   1.0006806      17.848592      55.60315     
    918000   0.97999829     18.361215      55.367396    
    919000   0.98826027     17.842474      55.117742    
    920000   0.97648169     17.881468      55.026743    
    921000   1.0261297      17.120291      54.833409    
    922000   1.0233075      18.310845      54.685157    
    923000   0.98849846     17.307532      54.582866    
    924000   0.9891885      17.53754       54.371902    
    925000   0.98956594     18.381577      54.3628      
    926000   1.0190779      18.240129      54.264763    
    927000   0.97048406     18.197185      54.026555    
    928000   0.99357082     17.651793      53.760567    
    929000   1.03491        17.708366      53.500713    
    930000   1.0274984      18.445946      53.376871    
    931000   0.97233495     17.945869      53.437161    
    932000   0.98215147     17.777697      53.45415     
    933000   1.0063259      18.069028      53.356885    
    934000   1.0092328      18.156764      53.228472    
    935000   1.0014338      17.386607      53.097938    
    936000   0.98994616     17.853734      53.049501    
    937000   1.0185611      17.985303      53.171694    
    938000   0.99074437     18.571801      52.9549      
    939000   0.93639468     18.213318      52.727808    
    940000   1.0005135      18.025277      52.549759    
    941000   1.0092721      18.243921      52.631356    
    942000   0.9721719      17.407221      52.675867    
    943000   1.0032221      17.623967      52.648293    
    944000   0.96703407     17.79601       52.616027    
    945000   1.0110227      17.962027      52.727308    
    946000   0.97870983     17.74636       52.763731    
    947000   1.0327106      18.127672      52.76468     
    948000   1.0022329      17.497532      52.552585    
    949000   0.99860401     17.956488      52.468133    
    950000   1.0445574      17.805553      52.459305    
    951000   1.0156067      17.330209      52.376738    
    952000   1.0112824      17.668374      52.136375    
    953000   0.96859494     16.829221      51.830298    
    954000   1.0118825      17.773169      51.756633    
    955000   1.0396835      18.4495        51.64648     
    956000   0.99706798     17.439687      51.367714    
    957000   0.99275745     18.036028      51.308486    
    958000   1.0267605      18.027962      51.141589    
    959000   1.000591       17.324664      51.005611    
    960000   0.99600044     17.576918      50.873274    
    961000   0.98862248     17.776622      50.843159    
    962000   0.99444264     18.094102      50.595033    
    963000   0.98526852     18.002634      50.540211    
    964000   0.99421202     17.99155       50.432296    
    965000   0.98787753     18.155607      50.363586    
    966000   0.98579657     17.690855      50.206914    
    967000   1.0020872      17.195626      50.103643    
    968000   0.99962016     17.216812      49.99885     
    969000   1.0344191      18.239118      50.135208    
    970000   0.95873761     17.716191      50.24262     
    971000   1.0348105      18.040076      50.124216    
    972000   1.0570057      18.115752      49.90483     
    973000   0.97613763     18.058567      49.59764     
    974000   0.9669482      17.875682      49.492889    
    975000   0.9941309      17.55457       49.349708    
    976000   1.0187382      17.646467      49.163114    
    977000   0.94267471     17.977893      49.295209    
    978000   1.0221692      18.328085      49.20895     
    979000   1.0271297      17.423535      49.120162    
    980000   0.996069       17.481968      48.95014     
    981000   1.0232655      17.755704      48.617044    
    982000   0.99127848     18.267806      48.347144    
    983000   1.0018772      17.899767      47.938445    
    984000   1.0594226      17.91376       47.800887    
    985000   1.0029872      17.855425      47.717834    
    986000   0.95560658     17.633011      47.436771    
    987000   0.99308621     18.333247      47.331381    
    988000   0.97702572     18.064798      47.476892    
    989000   1.0466668      17.805574      47.396634    
    990000   0.95870815     17.905415      47.324542    
    991000   1.0054858      18.267803      47.039722    
    992000   0.97679839     17.870982      47.083136    
    993000   1.0079229      17.366656      47.066033    
    994000   1.0348768      17.584472      47.032011    
    995000   1.0259914      17.82432       46.852135    
    996000   0.9998954      18.003905      46.860345    
    997000   1.0127412      18.016147      46.732581    
    998000   1.0560287      18.442361      46.72374     
    999000   1.0286393      18.158855      46.747068    
   1000000   1.0104637      18.192825      46.662595    
   1001000   0.9983687      17.529836      46.657471    
   1002000   0.98454339     17.579317      46.527323    
   1003000   0.97099144     17.753937      46.413873    
   1004000   0.98262164     17.633681      46.277954    
   1005000   1.0050184      18.023378      46.188954    
   1006000   0.98294856     17.597165      46.16897     
   1007000   0.98566361     17.698801      45.995619    
   1008000   1.0179315      17.598395      45.804661    
   1009000   1.0334262      17.628291      45.705298    
   1010000   1.0085007      18.178075      45.382765    
   1011000   0.94018098     17.662502      45.417741    
   1012000   0.99798076     17.226646      45.096035    
   1013000   1.0096525      18.093016      44.924089    
   1014000   0.98862753     17.726584      44.82318     
   1015000   0.99556818     18.399801      44.769107    
   1016000   0.97962873     17.785494      44.88925     
   1017000   1.0079825      17.752812      44.859397    
   1018000   0.95697289     17.902432      45.000264    
   1019000   1.0099291      16.986794      44.82058     
   1020000   0.95580523     17.97291       44.857201    
   1021000   1.0155554      17.967373      44.728047    
   1022000   0.96768719     17.677527      44.566832    
   1023000   0.98368946     18.090192      44.4063      
   1024000   0.99475939     17.320834      44.190616    
   1025000   1.0091489      17.518639      44.1617      
   1026000   1.0297954      18.076519      43.965666    
   1027000   0.9953132      17.800489      43.850695    
   1028000   0.95345233     17.546839      43.663521    
   1029000   0.98593037     18.183822      43.867236    
   1030000   1.0069212      17.441912      43.814299    
   1031000   1.0250572      18.037495      43.783466    
   1032000   1.024352       17.577291      43.61571     
   1033000   1.0189035      17.65578       43.710297    
   1034000   0.99813292     17.278099      43.699357    
   1035000   1.011445       17.43698       43.733801    
   1036000   1.0006704      17.931049      43.759351    
   1037000   0.9849716      17.571665      43.931595    
   1038000   0.98292483     17.60018       43.591592    
   1039000   1.0524134      17.614218      43.64539     
   1040000   1.0444517      17.499136      43.557966    
   1041000   0.98278527     17.173394      43.305287    
   1042000   0.99330782     18.033937      43.02169     
   1043000   1.0291175      17.175053      42.844828    
   1044000   1.029546       17.823517      42.829676    
   1045000   0.98912604     17.6278        42.755129    
   1046000   1.0235989      17.916815      42.647294    
   1047000   1.0481092      18.153585      42.533454    
   1048000   1.0872586      18.195086      42.518778    
   1049000   1.0056497      17.677902      42.465035    
   1050000   0.97964809     17.53475       42.4211      
   1051000   1.029353       17.709287      42.248771    
   1052000   0.99630949     18.184523      42.223907    
   1053000   0.98771935     17.938054      42.10072     
   1054000   0.97768962     17.729046      42.035658    
   1055000   1.0359916      17.855532      42.06559     
   1056000   1.009383       17.317145      41.985953    
   1057000   0.99773237     17.370424      42.167005    
   1058000   0.9953886      17.379038      42.044583    
   1059000   0.99351284     17.845022      42.169965    
   1060000   1.02087        17.789461      42.101529    
   1061000   0.9638162      17.713215      41.927568    
   1062000   0.98219593     17.69658       41.604087    
   1063000   1.000338       17.303203      41.79507     
   1064000   0.99818027     17.821576      41.747462    
   1065000   0.9885397      17.901132      41.504621    
   1066000   1.0285911      17.191581      41.345529    
   1067000   0.9859114      17.83126       41.277314    
   1068000   1.0272449      17.298195      41.322731    
   1069000   1.0021713      17.23294       41.239015    
   1070000   0.98142101     17.964366      40.948902    
   1071000   0.97167737     17.66958       40.668854    
   1072000   0.98642147     17.781018      40.586114    
   1073000   0.97424812     17.742914      40.564404    
   1074000   0.97114424     17.38269       40.563031    
   1075000   1.0266065      17.810969      40.432009    
   1076000   0.98181263     18.23155       40.399602    
   1077000   1.0104911      18.019637      40.41783     
   1078000   1.0095795      17.836205      40.315426    
   1079000   1.0015923      17.281288      40.128532    
   1080000   1.0334652      17.77208       40.121843    
   1081000   0.98734741     17.701279      40.036961    
   1082000   1.0395858      17.365934      40.013981    
   1083000   0.97616557     17.68867       39.951644    
   1084000   1.0050893      18.004772      39.788024    
   1085000   0.98655771     18.240242      39.708716    
   1086000   1.0246168      17.558284      39.701447    
   1087000   1.0088738      18.105143      39.582251    
   1088000   1.0279015      17.369781      39.748849    
   1089000   1.0234914      18.032115      39.467081    
   1090000   1.0327649      17.488177      39.458124    
   1091000   1.0109184      18.114435      39.316228    
   1092000   1.0028043      17.278558      39.245768    
   1093000   1.0080341      17.620562      39.180328    
   1094000   1.0044623      17.600599      39.304248    
   1095000   0.97876774     17.445589      39.402156    
   1096000   0.96001931     17.476896      39.118636    
   1097000   1.042853       17.521925      39.14507     
   1098000   0.98062528     17.439597      39.313764    
   1099000   1.0057153      17.580637      39.12594     
   1100000   0.98065783     17.942846      38.902659    
   1101000   1.0017608      17.386865      38.749231    
   1102000   0.95931792     16.994654      38.474343    
   1103000   0.99728474     18.454081      38.329634    
   1104000   0.97668382     18.018587      38.06188     
   1105000   1.0165399      17.722495      38.239932    
   1106000   0.95947973     17.507811      38.367575    
   1107000   0.985712       17.01981       38.410542    
   1108000   0.96310117     17.165479      38.256923    
   1109000   0.97842016     17.614748      38.254172    
   1110000   1.0042474      17.517069      38.032189    
   1111000   0.996892       17.508163      37.914533    
   1112000   1.0031839      17.380221      37.737486    
   1113000   0.99213747     18.177666      37.514715    
   1114000   0.9992601      17.282925      37.43287     
   1115000   0.97631185     17.20425       37.440112    
   1116000   0.98795024     17.059393      37.398817    
   1117000   1.0098716      17.410513      37.269993    
   1118000   0.96439485     17.946061      37.07455     
   1119000   0.98542059     17.406567      36.941336    
   1120000   1.0223788      17.768402      37.094201    
   1121000   1.0641368      17.310725      36.953279    
   1122000   0.99415172     17.445958      36.874311    
   1123000   1.0328527      17.905134      36.779991    
   1124000   0.93466121     17.810496      36.706338    
   1125000   0.97474741     17.195455      36.659961    
   1126000   1.009612       17.352643      36.579559    
   1127000   1.0000427      17.857107      36.383306    
   1128000   1.0333608      17.976247      36.121056    
   1129000   0.9909817      18.158147      35.929585    
   1130000   0.96212535     17.886163      35.989521    
   1131000   0.99512108     17.786303      36.150568    
   1132000   1.0256537      17.653675      36.039201    
   1133000   0.97758904     17.998475      35.943871    
   1134000   1.0071463      17.232501      35.881623    
   1135000   1.0682154      16.883175      35.89508     
   1136000   1.0141436      17.143825      35.84127     
   1137000   0.98077982     16.828681      35.717325    
   1138000   0.98187679     17.092127      35.615307    
   1139000   0.95158494     17.887841      35.506963    
   1140000   0.9609415      17.060576      35.837876    
   1141000   0.99057217     18.082657      35.782451    
   1142000   0.99892185     17.437212      35.711959    
   1143000   0.99950813     17.786598      35.589621    
   1144000   0.9606867      17.303184      35.681029    
   1145000   0.98774237     18.34889       35.437958    
   1146000   1.0103135      17.668377      35.313796    
   1147000   0.97477255     17.658197      35.202487    
   1148000   1.0073775      18.080002      35.189657    
   1149000   1.0198991      17.235804      34.898312    
   1150000   1.0549543      17.658793      34.708809    
   1151000   0.9537163      17.467644      34.883342    
   1152000   1.0070588      17.374387      34.614485    
   1153000   0.99338633     16.949967      34.951585    
   1154000   1.0140001      18.563115      34.904339    
   1155000   1.0059411      17.017748      34.668189    
   1156000   1.0537557      17.668978      34.600174    
   1157000   1.0048406      17.670287      34.581703    
   1158000   0.97982101     17.514675      34.354004    
   1159000   0.98572247     17.655009      34.16011     
   1160000   0.97143336     17.08858       34.345841    
   1161000   1.0257242      18.419641      34.35662     
   1162000   1.0176926      17.604145      34.467504    
   1163000   1.0341093      17.664947      34.528852    
   1164000   0.96510384     17.531661      34.353084    
   1165000   1.0491956      17.743809      34.043642    
   1166000   0.97942338     17.307869      33.805973    
   1167000   1.0060131      18.119373      33.885822    
   1168000   1.0095049      17.536057      33.732661    
   1169000   1.0320996      17.791214      33.570542    
   1170000   0.97310221     17.677902      33.363235    
   1171000   1.0295515      18.338762      33.198678    
   1172000   0.99590499     17.849845      33.011689    
   1173000   1.0179124      17.578928      32.889374    
   1174000   1.0585212      18.38039       32.499907    
   1175000   1.0208787      17.690166      32.37598     
   1176000   0.9946963      17.655939      32.378087    
   1177000   1.0184026      17.873864      32.380476    
   1178000   1.0012406      17.41913       32.396372    
   1179000   0.99303054     17.682271      31.983081    
   1180000   0.96897493     17.51439       32.129366    
   1181000   1.0496582      18.093843      32.054245    
   1182000   1.0274923      17.498002      31.982251    
   1183000   1.0394015      17.848044      32.104075    
   1184000   0.95095431     16.878277      31.956798    
   1185000   1.0014563      17.572434      31.826127    
   1186000   0.99234018     17.826128      31.660537    
   1187000   1.0027694      17.13417       31.656248    
   1188000   1.0451506      17.655504      31.510062    
   1189000   1.0068372      17.529492      31.285791    
   1190000   0.99886503     17.56131       31.102436    
   1191000   1.0165164      17.521364      31.032865    
   1192000   0.99532787     17.833743      30.829959    
   1193000   1.0148783      17.807615      30.668107    
   1194000   0.99052345     17.98636       30.562853    
   1195000   0.97280055     17.696922      30.463861    
   1196000   1.0094192      17.948523      30.477457    
   1197000   1.0174741      17.125339      30.275409    
   1198000   0.99063547     17.154034      30.450625    
   1199000   0.96446963     17.781614      30.355902    
   1200000   0.97406676     17.779637      30.173415    
   1201000   1.0341129      17.51198       30.23114     
   1202000   0.98279356     17.16861       30.225171    
   1203000   0.97197621     17.441115      30.277348    
   1204000   0.96771301     17.367647      30.253202    
   1205000   1.0167599      17.159908      30.260169    
   1206000   1.0076235      17.593171      30.15018     
   1207000   0.98667089     17.381633      30.051881    
   1208000   0.97687246     17.550635      30.109531    
   1209000   0.992241       17.038256      29.965208    
   1210000   0.97459721     17.835495      30.006239    
   1211000   1.0102187      17.507747      30.020133    
   1212000   0.99020933     17.390808      29.876982    
   1213000   0.96213473     17.396807      29.822422    
   1214000   1.0357196      17.494143      29.815667    
   1215000   0.99916136     17.507927      29.837823    
   1216000   1.0129136      17.313934      29.779366    
   1217000   0.99417713     16.848434      29.476564    
   1218000   1.0232073      17.701762      29.469355    
   1219000   1.0076784      17.937523      29.351229    
   1220000   0.94546829     17.125068      29.331674    
   1221000   0.97861379     17.240617      29.107871    
   1222000   0.99298515     17.113372      29.206271    
   1223000   1.0337873      17.889139      29.057583    
   1224000   1.0095168      17.756705      29.133756    
   1225000   0.98835006     17.494683      28.868299    
   1226000   1.0105089      17.746283      28.636311    
   1227000   1.0060203      17.716854      28.479076    
   1228000   0.99450285     17.897486      28.367251    
   1229000   1.0186111      17.609751      28.370734    
   1230000   1.0405581      17.470938      28.30311     
   1231000   0.97870898     17.877358      28.116325    
   1232000   0.99717056     17.884786      27.902856    
   1233000   1.0098354      17.267255      27.68157     
   1234000   0.99381905     16.849275      27.547189    
   1235000   0.98549646     17.359833      27.630632    
   1236000   0.9941842      17.807541      27.691037    
   1237000   1.0336166      17.901066      27.68183     
   1238000   0.97253618     18.127843      27.761382    
   1239000   0.96987347     17.620985      27.593273    
   1240000   0.98887332     17.986516      27.5022      
   1241000   1.0361527      17.45357       27.128731    
   1242000   0.99426106     17.674111      27.028055    
   1243000   1.0303256      17.136369      27.024642    
   1244000   0.9843273      17.429848      27.148447    
   1245000   1.0233147      17.665747      27.227409    
   1246000   0.97304969     17.11737       27.416749    
   1247000   1.0572946      17.286088      27.510307    
   1248000   1.0157105      17.334099      27.508294    
   1249000   1.0226231      17.4221        27.698549    
   1250000   0.95246103     16.980579      27.618932    
   1251000   1.0196028      16.937109      27.619787    
   1252000   0.97861108     17.962452      27.778938    
   1253000   0.97419436     17.337347      27.557335    
   1254000   0.99347267     17.262127      27.33333     
   1255000   0.9687886      17.144443      27.18536     
   1256000   1.0098709      17.490251      27.201909    
   1257000   0.98780126     17.081101      27.095524    
   1258000   0.96364406     17.821059      27.020503    
   1259000   1.028174       17.89718       26.985065    
   1260000   1.020847       17.690063      26.908673    
   1261000   1.0649491      17.342491      26.785002    
   1262000   0.9621213      17.153263      26.61897     
   1263000   1.0124368      17.039273      26.531274    
   1264000   1.017675       17.300355      26.165746    
   1265000   0.97010039     17.539915      25.963587    
   1266000   1.0618525      17.357727      25.874914    
   1267000   1.0155939      17.937174      25.927425    
   1268000   0.9954913      18.100194      25.579319    
   1269000   0.99184837     17.78223       25.509739    
   1270000   0.97046128     17.502852      25.589697    
   1271000   1.0082257      17.896469      25.494528    
   1272000   1.0186703      18.114607      25.497355    
   1273000   1.0444581      16.93778       25.509451    
   1274000   0.98781155     17.721924      25.326458    
   1275000   1.0402661      17.529361      25.217576    
   1276000   0.98656485     17.243538      25.313422    
   1277000   0.97562431     17.236411      25.476458    
   1278000   0.97020959     17.859292      25.311054    
   1279000   1.0203912      17.658786      25.407423    
   1280000   0.98600427     17.370105      25.219074    
   1281000   1.0613835      18.16828       25.042003    
   1282000   1.0254585      17.239234      25.216265    
   1283000   1.0196425      17.235859      25.203374    
   1284000   0.99004799     17.163075      25.124841    
   1285000   1.0033232      17.515168      24.947718    
   1286000   0.97198361     17.585225      24.79087     
   1287000   1.0534936      18.155061      24.668677    
   1288000   0.99134934     17.354177      24.401881    
   1289000   0.98616006     17.265512      24.572516    
   1290000   1.0410663      17.458811      24.527279    
   1291000   1.0063338      17.209216      24.202965    
   1292000   1.0376121      17.410029      23.96005     
   1293000   1.0000353      17.120873      23.994593    
   1294000   0.95423994     17.673046      23.93529     
   1295000   1.0238444      17.62769       23.927046    
   1296000   0.99774466     17.642181      23.75036     
   1297000   0.99200289     17.057468      23.533923    
   1298000   1.0098027      17.755833      23.415683    
   1299000   0.96788063     16.938728      23.509059    
   1300000   1.0067227      16.885294      23.499359    
   1301000   0.98115568     16.931716      23.222927    
   1302000   1.0383665      17.397593      22.952087    
   1303000   0.96906116     17.360049      22.819908    
   1304000   0.9909025      17.349841      22.841781    
   1305000   0.95022161     16.729338      22.644726    
   1306000   1.0256216      16.999647      22.637465    
   1307000   0.98815808     17.787174      22.700336    
   1308000   0.98647347     16.918259      22.623865    
   1309000   0.9970662      17.282203      22.565576    
   1310000   0.99403414     17.3711        22.374529    
   1311000   0.98362627     17.095318      22.46968     
   1312000   0.97755833     17.572956      22.295235    
   1313000   1.0116018      17.293265      22.219501    
   1314000   0.99018415     17.352768      21.988914    
   1315000   0.99303443     18.148811      21.966403    
   1316000   1.0397995      17.364269      22.031107    
   1317000   1.0107097      17.393077      21.930048    
   1318000   1.0027972      17.887354      21.815729    
   1319000   0.98026319     16.782205      21.807477    
   1320000   0.98674909     16.93625       21.779104    
   1321000   1.0061603      17.475103      21.465418    
   1322000   0.99308815     17.507296      21.230968    
   1323000   0.96556499     17.493283      21.082454    
   1324000   1.0099028      17.292464      20.883386    
   1325000   1.0131048      16.531677      20.657966    
   1326000   1.0217075      17.540612      20.560313    
   1327000   0.96485278     17.280662      20.559323    
   1328000   0.98109341     17.196368      20.345836    
   1329000   1.0300505      17.181496      20.393167    
   1330000   0.97468282     17.035744      20.300043    
   1331000   0.96678109     17.340703      20.179901    
   1332000   0.98052764     17.566341      19.990308    
   1333000   0.99461707     17.773262      19.93865     
   1334000   1.0249402      17.123129      19.787439    
   1335000   1.0552129      18.026345      19.544587    
   1336000   1.0228361      17.126185      19.545255    
   1337000   0.99027692     18.391952      19.566842    
   1338000   1.0242022      17.858337      19.530068    
   1339000   1.0193795      17.710579      19.386034    
   1340000   1.0081911      17.269152      19.406894    
   1341000   0.97443003     17.287262      19.53053     
   1342000   1.0090849      17.926445      19.386863    
   1343000   0.98788307     16.512797      19.245117    
   1344000   0.99608028     17.534746      19.043841    
   1345000   1.0018669      17.146867      18.973726    
   1346000   0.96371311     16.548591      18.857508    
   1347000   0.98962288     17.605801      18.44117     
   1348000   0.97054265     17.230662      18.291467    
   1349000   0.99358022     16.837566      18.312275    
   1350000   1.0086855      17.768486      18.128828    
   1351000   0.97741445     17.222418      18.095742    
   1352000   0.94633855     16.677474      18.010634    
   1353000   0.99509315     17.602893      17.882717    
   1354000   1.0298728      17.036837      17.576832    
   1355000   0.99965594     17.126218      17.552848    
   1356000   1.0210083      16.589619      17.445567    
   1357000   1.0285681      17.33945       17.395411    
   1358000   0.98497184     16.371142      17.4509      
   1359000   0.98766359     17.302557      17.437603    
   1360000   0.9631363      17.119033      17.2128      
   1361000   1.01723        16.989629      17.036618    
   1362000   0.95603599     17.475091      17.072422    
   1363000   1.010308       17.33509       17.028635    
   1364000   1.007607       17.38104       17.010571    
   1365000   1.0486746      17.460456      16.713106    
   1366000   0.99408799     17.24713       16.58472     
   1367000   0.95627341     16.97413       16.395702    
   1368000   1.0422478      17.377986      16.30379     
   1369000   1.0016723      16.975839      16.080368    
   1370000   1.0281898      17.69576       15.774782    
   1371000   1.0428691      17.291966      15.784031    
   1372000   1.0083733      16.715708      15.832766    
   1373000   1.0073745      17.538716      15.944499    
   1374000   0.98837712     17.020263      15.705292    
   1375000   0.9814192      17.282911      15.790022    
   1376000   0.99715754     17.025876      15.520944    
   1377000   1.003625       17.185409      15.407616    
   1378000   0.98357789     17.157955      15.274579    
   1379000   1.0103968      17.286445      15.210957    
   1380000   0.97556352     17.863152      15.028924    
   1381000   1.0028895      16.84663       14.935693    
   1382000   0.96384291     17.161638      15.10027     
   1383000   1.0126548      16.918696      14.851348    
   1384000   1.0036871      17.427352      14.558368    
   1385000   0.9854904      16.979827      14.416298    
   1386000   0.95463974     17.181897      14.419666    
   1387000   1.0028534      17.14818       14.437313    
   1388000   0.98765831     17.248636      14.355942    
   1389000   0.97070366     17.356008      14.088565    
   1390000   1.0016408      17.241333      14.028964    
   1391000   0.98356804     17.193784      14.097777    
   1392000   1.0264219      16.975894      13.677754    
   1393000   1.0174819      17.018344      13.566537    
   1394000   0.96836884     16.957928      13.310248    
   1395000   1.0245774      17.272071      13.402864    
   1396000   0.99459222     16.767323      13.538985    
   1397000   0.9860468      16.926482      13.437448    
   1398000   0.98730297     16.66487       13.310753    
   1399000   0.98240108     16.861746      13.160817    
   1400000   0.98295411     17.122791      12.872832    
   1401000   1.0117383      17.285308      12.752913    
   1402000   0.98854185     17.278337      12.595555    
   1403000   0.98151287     17.009396      12.459276    
   1404000   1.0170149      16.849084      12.408989    
   1405000   0.99802205     17.147845      12.042214    
   1406000   0.97332087     17.973682      11.892345    
   1407000   0.99325128     17.067168      11.798751    
   1408000   1.0128729      17.449192      11.507258    
   1409000   0.97819955     17.016118      11.472015    
   1410000   0.99922922     17.599711      11.323377    
   1411000   0.98578927     17.688495      11.137475    
   1412000   1.0071518      16.607578      11.232497    
   1413000   1.0048784      17.109883      11.235695    
   1414000   1.0487122      16.395698      11.382534    
   1415000   0.99009599     17.350691      11.355181    
   1416000   0.97903284     17.558271      11.055239    
   1417000   0.97670701     17.313204      10.84239     
   1418000   0.97145418     17.064536      10.943096    
   1419000   0.99744201     17.023592      10.774165    
   1420000   1.0086117      17.302846      10.70266     
   1421000   1.061322       16.904908      10.464864    
   1422000   0.96047907     17.205987      10.390895    
   1423000   0.98721053     17.312848      10.15673     
   1424000   0.99963949     17.329007      9.8975292    
   1425000   0.97716661     17.032336      9.8615114    
   1426000   0.97390969     16.898374      9.5055785    
   1427000   1.0247278      17.105819      9.4179642    
   1428000   0.96258834     16.672645      9.3734154    
   1429000   1.0190254      16.59306       9.2070504    
   1430000   0.99456543     16.828592      8.9124365    
   1431000   1.0418285      17.635071      8.5934034    
   1432000   0.97605768     17.273636      8.6087109    
   1433000   1.0158896      17.380612      8.6786804    
   1434000   0.98761961     16.22648       8.6689497    
   1435000   0.97166494     17.685671      8.5329463    
   1436000   1.0044433      16.714579      8.4803137    
   1437000   1.0278629      17.096632      8.3472114    
   1438000   1.0356105      17.032867      8.3792918    
   1439000   1.018923       17.121661      8.2768344    
   1440000   0.99260365     16.664971      8.1603521    
   1441000   1.0091279      17.202987      8.1196385    
   1442000   0.99334822     17.012586      8.0824734    
   1443000   0.98606816     16.884821      8.1037169    
   1444000   0.95109142     16.910676      8.0220642    
   1445000   1.0078885      17.701576      7.9927903    
   1446000   0.97452503     17.129128      7.9443215    
   1447000   0.95568161     16.734472      7.8510202    
   1448000   1.0010129      16.090859      7.7407902    
   1449000   1.0377993      17.267497      7.8378126    
   1450000   1.0092911      17.047665      7.8845137    
   1451000   0.98957048     16.999882      7.8263773    
   1452000   1.0116908      17.412276      7.632368     
   1453000   1.0285127      16.847841      7.4761634    
   1454000   1.0058491      17.080726      7.3856603    
   1455000   1.0062637      16.92082       7.4292982    
   1456000   0.9714829      17.890198      7.3569711    
   1457000   0.99379276     17.256603      7.2759049    
   1458000   0.98562972     17.256439      7.0494323    
   1459000   1.012824       17.533836      7.0000135    
Fix halt condition for fix-id 3 met on step 1460000 with value 6.772673523526679 (src/fix_halt.cpp:237)
   1460000   0.96733963     17.231807      6.7726735    
Loop time of 1718.16 on 2 procs for 1360000 steps with 1000 atoms

Performance: 683895.680 tau/day, 791.546 timesteps/s
129.8% CPU use with 1 MPI tasks x 2 OpenMP threads

MPI task timing breakdown:
Section |  min time  |  avg time  |  max time  |%varavg| %total
---------------------------------------------------------------
Pair    | 369.49     | 369.49     | 369.49     |   0.0 | 21.50
Bond    | 33.895     | 33.895     | 33.895     |   0.0 |  1.97
Neigh   | 1227.8     | 1227.8     | 1227.8     |   0.0 | 71.46
Comm    | 0.4852     | 0.4852     | 0.4852     |   0.0 |  0.03
Output  | 3.9812     | 3.9812     | 3.9812     |   0.0 |  0.23
Modify  | 77.389     | 77.389     | 77.389     |   0.0 |  4.50
Other   |            | 5.146      |            |       |  0.30

Nlocal:           1000 ave        1000 max        1000 min
Histogram: 1 0 0 0 0 0 0 0 0 0
Nghost:              0 ave           0 max           0 min
Histogram: 1 0 0 0 0 0 0 0 0 0
Neighs:         214285 ave      214285 max      214285 min
Histogram: 1 0 0 0 0 0 0 0 0 0

Total # of neighbors = 214285
Ave neighs/atom = 214.285
Ave special neighs/atom = 1.998
Neighbor list builds = 13201
Dangerous builds = 0

# This simulation is done
# Move onto the next one
clear
  using 2 OpenMP thread(s) per MPI task
package omp 0
using multi-threaded neighbor list subroutines
next f
jump SELF

###
# Reference paper:
# K. Kremer and G. S. Grest
# Dynamics of entangled linear polymer melts: A molecular-dynamics simulation
# J Chem Phys 92, 5057 (1990)

##################################
# MIHIR: for branched polymers
# LJ minimum first to expand and explore, then collapse
###

###
# Looping through the various tshaped polymers to simulate,
# define variables to switch through
# variable f index bb66nuc1bl33bn3d30tot100 bb133nuc1bl66bn3d30tot200 bb200nuc1bl100bn3d30tot300 bb266nuc1bl133bn3d30tot400 bb333nuc1bl166bn3d30tot500 bb400nuc1bl200bn3d30tot600 bb466nuc1bl233bn3d30tot700 bb533nuc1bl266bn3d30tot800 bb600nuc1bl300bn3d30tot900 bb666nuc1bl333bn3d30tot1000 bb733nuc1bl366bn3d30tot1100 bb800nuc1bl400bn3d30tot1200
variable f index bb666nuc1bl333bn3d30tot1000 bb733nuc1bl366bn3d30tot1100 bb800nuc1bl400bn3d30tot1200
###


###
# Box and units  (use LJ units and periodic boundaries)
###

units lj
log tshaped/logs3/$f.log
log tshaped/logs3/bb733nuc1bl366bn3d30tot1100.log
