#atom_style bond #no stiffness
atom_style angle #with stiffness

boundary        p p p
###
# Pair interactions require lists of neighbours to be calculated
###

#neighbor 0.3 bin
neighbor 4 bin

neigh_modify every 1 delay 1 check yes
atom_modify sort 0 0
### Generate RESTART file, SPECIAL format, not a .txt file ###
### Useful if simulation crashes ###

restart 1000000 tshaped/restarts3/$f.restart
restart 1000000 tshaped/restarts3/bb733nuc1bl366bn3d30tot1100.restart
#############################



### READ "start" data file ###

read_data tshaped/$f.dat
read_data tshaped/bb733nuc1bl366bn3d30tot1100.dat
Reading data file ...
  orthogonal box = (-1000 -1000 -1000) to (1000 1000 1000)
  1 by 1 by 1 MPI processor grid
  reading atoms ...
  1099 atoms
  scanning bonds ...
  2 = max bonds/atom
  scanning angles ...
  3 = max angles/atom
  reading bonds ...
  1098 bonds
  reading angles ...
  1098 angles
Finding 1-2 1-3 1-4 neighbors ...
  special bond factors lj:    0        0        0       
  special bond factors coul:  0        0        0       
     3 = max # of 1-2 neighbors
     3 = max # of 1-3 neighbors
     6 = max # of 1-4 neighbors
     9 = max # of special neighbors
  special bonds CPU = 0.001 seconds
  read_data CPU = 0.125 seconds

######################

### READ "REstart" data file ###

######################



###
# Define groups (atom type 1 is group 'all')
###
group all type 1
1099 atoms in group all


###
# Dump configs - "simple dumpings"
###

###
# Dump configs + box coords
###

dump   1   all   custom   1000  tshaped/trjs3/$f.lammpstrj  id  x y z  ix iy iz
dump   1   all   custom   1000  tshaped/trjs3/bb733nuc1bl366bn3d30tot1100.lammpstrj  id  x y z  ix iy iz
dump_modify   1   format line "%d %.5f %.5f %.5f %d %d %d"

########################################################################


###################################################################
# Stiffness term
#
# E = K * (1+cos(theta)), K>0
#
angle_style   cosine
#change this coefficient to change stiffness (e.g. 1,5,10)
angle_coeff   1 1.0
###################################################################

###################################################################
# Pair interaction between non-bonded atoms
#
#  Lennard-Jones 12-6 potential with cutoff:
#  potential E=4epsilon[ (sigma/r)^12 - (sigma/r)^6]  for r<r_cut
#
#  1.12246 = 2^(1/6) is the minimum of the potential


pair_style      lj/cut 1.12246152962189
#pair_style      lj/cut 3

#
#  pair_modify shift yes adds a constant to the potential such

#  that E(r_cut)=0. Forces remains unchanged.
#

pair_modify     shift yes

#
#  pair_coeff for lj/cut, specify 4:
#    * atom type interacting with
#    * atom type
#    * epsilon (energy units)
#    * sigma (distance units)
#

pair_coeff      1 1 1.0 1.0
###################################################################

###################################################################
# Pair interaction between non-bonded atoms
#
#  soft potential, for PUSHING apart overlapping atoms
#  potential E=A*(1 + cos(pi*r/r_c))
#
#  1.12246 = 2^(1/6) is the cut-off r_c

#pair_style     soft 1.12246152962189

#
#  pair_coeff for soft, specify 3:
#    * atom type interacting with
#    * atom type
#    * A
#
#

#pair_coeff      1 1 100.0
###################################################################

###################################################################
# Pair interaction between bonded atoms
#
# Fene potential + Lennard Jones 12-6:

#
#  E= - 0.5 K R0^2 ln[ 1- (r/R0)^2]
#     + 4epsilon[ (sigma/r)^12 - (sigma/r)^6] + epsilon
#

bond_style   fene


#
# For style fene, specify:
#   * bond type
#   * K (energy/distance^2)
#   * R0 (distance)
#   * epsilon (energy)  (LJ component)
#   * sigma (distance)  (LJ component)
#


special_bonds fene #<=== I M P O R T A N T (new command)
Finding 1-2 1-3 1-4 neighbors ...
  special bond factors lj:    0        1        1       
  special bond factors coul:  0        1        1       
     3 = max # of 1-2 neighbors
     9 = max # of special neighbors
  special bonds CPU = 0.000 seconds

bond_coeff   1   30   2   1.0   1.0


###################################################

###################################################################
# Pair interaction between bonded atoms
#
# Harmonic potential:
#
#  E= K * (R-R0)^2
#

#bond_style   harmonic

#
# For style harmonic, specify:
#   * bond type
#   * K (energy/distance^2)
#   * R0 (distance)
#

#bond_coeff   1   60.0   1.0
#bond_coeff   2   harmonic 0.1   1.0

###################################################
compute 1 all gyration
variable rog equal c_1
#compute 2 all coord/atom cutoff 1.1

#dump 2 all custom 10000 contact_number.dump id c_2


###
# Set up fixes
###
thermo_style   custom   step  temp enthalpy c_1
fix 1 all nve   ###NVE ensemble

fix 2 all   langevin   1.0 1.0 1.0  158102   ###Langevin integrator Tstart Tstop 1/friction rndseed


##### Sample thermodynamic info  (temperature, energy, pressure, etc.) #####
thermo 1000









############################################################################

###
# set timestep of integrator

timestep 0.01

###
# run integration for a number of steps
###
#run 0
#variable r equal c_1
#if "$r < 63.1" then "quit 1"

# lj potential minimum, cause molecule to explore
run 100000
Generated 0 of 0 mixed pair_coeff terms from geometric mixing rule
Last active /omp style is angle_style cosine/omp
Neighbor list info ...
  update: every = 1 steps, delay = 1 steps, check = yes
  max neighbors/atom: 2000, page size: 100000
  master list distance cutoff = 5.1224615
  ghost atom cutoff = 5.1224615
  binsize = 2.5612308, bins = 781 781 781
  1 neighbor lists, perpetual/occasional/extra = 1 0 0
  (1) pair lj/cut/omp, perpetual
      attributes: half, newton on, omp
      pair build: half/bin/newton/omp
      stencil: half/bin/3d
      bin: standard
WARNING: Communication cutoff 5.12246152962189 is shorter than a bond length based estimate of 5.455. This may lead to errors. (src/comm.cpp:723)
Per MPI rank memory allocation (min/avg/max) = 1860 | 1860 | 1860 Mbytes
   Step          Temp         Enthalpy         c_1      
         0   0              13.357265      184.8098     
      1000   1.0147914      18.403954      184.75023    
      2000   0.99136782     18.473124      184.40413    
      3000   1.0136914      18.984389      184.08639    
      4000   0.97152603     18.332436      183.71083    
      5000   1.0176732      18.872344      183.29786    
      6000   0.98573566     18.355027      183.26091    
      7000   1.0204547      18.95583       183.02326    
      8000   1.0304267      18.34558       182.73179    
      9000   0.99503484     19.329237      182.44735    
     10000   1.0099575      18.670546      182.23326    
     11000   0.98704183     19.11716       181.91665    
     12000   0.99367137     18.62266       181.59147    
     13000   0.99461969     18.855548      181.39048    
     14000   1.0060193      18.913318      181.00751    
     15000   1.0120574      18.913383      180.59112    
     16000   0.99525161     18.453006      180.19345    
     17000   1.0195568      18.574141      180.11268    
     18000   1.0066285      19.09801       179.90073    
     19000   0.98466565     18.74193       179.76339    
     20000   1.0508581      18.841987      179.60344    
     21000   1.0165663      19.030306      179.53744    
     22000   1.0404499      19.462798      179.31526    
     23000   1.0500468      19.056114      178.90494    
     24000   0.98569884     18.953783      178.63119    
     25000   0.96570488     19.026625      178.18948    
     26000   0.96554348     18.857994      178.00067    
     27000   1.0315928      19.283462      177.68785    
     28000   0.99645314     18.974647      177.66761    
     29000   1.0003213      19.143165      177.19896    
     30000   0.95985997     19.067816      176.91299    
     31000   1.0581191      19.309963      176.66833    
     32000   0.98757574     19.125386      176.39521    
     33000   0.99972441     19.121551      176.01537    
     34000   1.0168089      19.350819      175.90772    
     35000   0.99059282     19.207924      175.62268    
     36000   1.0073041      19.322174      175.4489     
     37000   1.0240261      18.852153      175.15625    
     38000   0.99045894     18.707208      174.81877    
     39000   1.0145265      19.514148      174.48422    
     40000   1.0139909      18.84608       174.03255    
     41000   0.97079645     19.740429      173.70506    
     42000   0.96141565     19.573387      173.38848    
     43000   1.0066706      19.457299      173.34113    
     44000   0.9945677      19.59691       173.29771    
     45000   1.0050671      19.241606      173.16946    
     46000   1.001103       19.363766      173.10235    
     47000   1.0091284      19.560046      173.17382    
     48000   1.0035645      19.204114      172.98693    
     49000   1.0412799      19.055589      173.1871     
     50000   0.99360024     19.270022      173.10553    
     51000   1.0326267      19.25307       172.81963    
     52000   1.004922       19.354607      172.44168    
     53000   0.96258418     19.189256      172.39151    
     54000   0.97168825     19.22687       172.21156    
     55000   1.0071985      19.406282      172.31475    
     56000   0.98820871     19.175715      172.11121    
     57000   0.9906522      19.539964      172.016      
     58000   0.96479392     18.997615      171.76727    
     59000   1.0044073      19.222317      171.757      
     60000   0.99663661     19.51343       171.46273    
     61000   0.9663268      19.111014      171.10668    
     62000   1.0245223      19.544069      170.83203    
     63000   0.95454684     19.48629       170.61354    
     64000   0.99891511     19.056422      170.56703    
     65000   1.0204919      19.108981      170.12498    
     66000   1.0438216      19.606683      170.10667    
     67000   1.0052289      19.86245       169.88103    
     68000   1.004993       19.99169       169.61611    
     69000   1.0000392      19.772471      169.33227    
     70000   0.98449154     19.239062      169.38744    
     71000   0.98676212     19.858316      169.31908    
     72000   1.0531898      19.676267      169.41097    
     73000   1.0272146      19.294303      169.03313    
     74000   1.0279513      19.280236      169.00691    
     75000   1.0143087      20.035546      168.93259    
     76000   1.0254066      19.507178      168.70898    
     77000   0.99205803     19.62024       168.4745     
     78000   0.93141349     19.45398       168.2595     
     79000   0.99531564     19.308256      167.96082    
     80000   0.98006954     19.67401       167.71798    
     81000   1.0099819      19.527563      167.57642    
     82000   1.0218383      19.509433      167.43434    
     83000   0.99928325     19.568979      167.31956    
     84000   0.98341815     19.35792       167.21322    
     85000   1.0341502      19.779815      167.22324    
     86000   1.0132055      19.601763      167.07233    
     87000   1.0029942      19.50656       166.81788    
     88000   1.0213316      19.427996      166.65108    
     89000   0.98242104     19.844152      166.73752    
     90000   1.0036257      19.626614      166.45644    
     91000   0.98593914     19.486481      166.33055    
     92000   0.99967168     19.467794      166.17448    
     93000   1.0143904      19.635226      166.09153    
     94000   0.99865694     19.736178      165.81882    
     95000   0.96397724     19.779137      165.67855    
     96000   1.0439626      20.049736      165.62524    
     97000   1.0310436      19.236177      165.53977    
     98000   0.99611944     19.14314       165.2086     
     99000   1.0043344      19.740927      164.91749    
    100000   1.0009006      19.86223       164.5412     
Loop time of 271.558 on 2 procs for 100000 steps with 1099 atoms

Performance: 318163.544 tau/day, 368.245 timesteps/s
104.6% CPU use with 1 MPI tasks x 2 OpenMP threads

MPI task timing breakdown:
Section |  min time  |  avg time  |  max time  |%varavg| %total
---------------------------------------------------------------
Pair    | 1.1925     | 1.1925     | 1.1925     |   0.0 |  0.44
Bond    | 2.6515     | 2.6515     | 2.6515     |   0.0 |  0.98
Neigh   | 260.67     | 260.67     | 260.67     |   0.0 | 95.99
Comm    | 0.036628   | 0.036628   | 0.036628   |   0.0 |  0.01
Output  | 0.31303    | 0.31303    | 0.31303    |   0.0 |  0.12
Modify  | 6.298      | 6.298      | 6.298      |   0.0 |  2.32
Other   |            | 0.3969     |            |       |  0.15

Nlocal:           1099 ave        1099 max        1099 min
Histogram: 1 0 0 0 0 0 0 0 0 0
Nghost:              0 ave           0 max           0 min
Histogram: 1 0 0 0 0 0 0 0 0 0
Neighs:           5519 ave        5519 max        5519 min
Histogram: 1 0 0 0 0 0 0 0 0 0

Total # of neighbors = 5519
Ave neighs/atom = 5.021838
Ave special neighs/atom = 1.9981802
Neighbor list builds = 1071
Dangerous builds = 0

# Replace lj potential, now collapse
pair_style      lj/cut 3

# Cutoff simul when gyration under 5
# Variable created with equal requires v_ + 'name'
fix 3 all halt 1000 v_rog < 7

run 5000000
Generated 0 of 0 mixed pair_coeff terms from geometric mixing rule
Last active /omp style is angle_style cosine/omp
Per MPI rank memory allocation (min/avg/max) = 1860 | 1860 | 1860 Mbytes
   Step          Temp         Enthalpy         c_1      
    100000   1.0009006      19.384075      164.5412     
    101000   1.0029514      19.358092      164.1262     
    102000   1.0174612      19.130245      164.08503    
    103000   1.0011225      19.118269      163.84622    
    104000   0.98413438     19.223352      163.65151    
    105000   0.99254412     19.027463      163.6115     
    106000   1.0345646      19.615346      163.515      
    107000   0.97985075     19.258589      163.37702    
    108000   1.0021498      19.183163      163.13099    
    109000   1.0206624      19.29955       162.79032    
    110000   1.0078544      19.375628      162.43415    
    111000   0.97428401     19.296484      162.36326    
    112000   0.95857583     19.382257      162.39383    
    113000   0.99186624     19.011605      162.36792    
    114000   1.0472975      18.889016      162.25639    
    115000   0.99909978     19.47162       162.19709    
    116000   0.99204803     18.836815      161.66486    
    117000   0.94222757     18.928277      161.58017    
    118000   1.0135108      19.402181      161.60686    
    119000   1.0169744      19.22436       161.23306    
    120000   0.98229351     18.987991      160.64714    
    121000   0.97931007     19.424688      160.40752    
    122000   0.99220672     19.165166      160.19862    
    123000   0.99487841     19.189272      160.25038    
    124000   1.0093836      19.063409      159.94409    
    125000   0.98805643     19.167225      159.9385     
    126000   0.97919371     19.24381       159.6846     
    127000   0.99709909     19.031463      159.66215    
    128000   1.00485        18.94206       159.61901    
    129000   0.97103935     19.002367      159.58903    
    130000   1.0060371      19.691435      159.5935     
    131000   1.0263908      18.720742      159.32609    
    132000   1.0305196      19.534543      158.98543    
    133000   0.98145565     19.151014      158.47792    
    134000   0.9882315      19.434527      158.17793    
    135000   1.0232937      19.608682      157.88149    
    136000   0.98526889     19.372982      157.72966    
    137000   0.98078381     19.280276      157.76821    
    138000   1.0200052      19.34835       157.82013    
    139000   1.0412648      19.41059       157.65416    
    140000   1.0222497      18.890987      157.40986    
    141000   1.0146392      19.462868      157.22132    
    142000   0.97925068     18.93257       157.17516    
    143000   1.0323793      19.244494      156.99328    
    144000   0.97644123     19.124388      156.854      
    145000   1.0249954      19.382645      156.69358    
    146000   0.97616731     19.115265      156.3249     
    147000   0.9964923      19.054221      156.01628    
    148000   1.0245754      19.015621      155.94113    
    149000   1.0115442      19.273329      155.75792    
    150000   1.0015641      18.780425      155.45535    
    151000   0.98168419     19.344507      155.14601    
    152000   0.96093061     19.146188      155.02629    
    153000   0.97659509     18.817314      154.73652    
    154000   0.98125448     18.715534      154.7989     
    155000   0.97028933     18.776132      154.68497    
    156000   1.0051837      18.620414      154.44366    
    157000   0.97243684     19.255075      154.03461    
    158000   0.99594084     18.882893      153.91479    
    159000   0.98801764     19.52874       153.91166    
    160000   0.9785419      18.887905      153.77175    
    161000   0.97392667     18.881893      153.65389    
    162000   1.0075557      18.808807      153.70724    
    163000   1.036587       18.979549      153.64456    
    164000   0.96181266     18.828786      153.22679    
    165000   0.97635726     19.396942      153.16345    
    166000   1.014227       19.323016      152.85636    
    167000   1.0241559      19.224395      152.58701    
    168000   0.99838326     18.822378      152.45312    
    169000   0.99383757     19.20705       152.34725    
    170000   1.0184294      18.971025      152.08148    
    171000   1.0190661      19.219041      151.77095    
    172000   0.99843914     19.058466      151.80189    
    173000   0.99965441     19.069762      151.56695    
    174000   1.0050346      19.141091      151.45968    
    175000   0.95879328     18.937206      151.34204    
    176000   0.97071913     19.194584      151.09735    
    177000   1.003022       19.120571      151.07615    
    178000   0.98575127     19.555598      150.83985    
    179000   0.97758207     18.868731      150.73438    
    180000   1.0094407      19.006796      150.47796    
    181000   0.91896714     19.111982      150.32608    
    182000   0.96745554     19.316629      150.34899    
    183000   0.99431223     18.929254      150.11589    
    184000   1.0273005      18.89909       150.10779    
    185000   1.0083105      18.759495      150.17009    
    186000   1.0115912      18.881268      149.89297    
    187000   1.0063198      19.033798      149.74068    
    188000   1.0131765      19.334346      149.61079    
    189000   0.97057686     19.148359      149.39853    
    190000   1.0217836      18.914487      149.25421    
    191000   1.0103558      19.153982      149.16523    
    192000   1.0338777      19.211545      148.96402    
    193000   1.0221409      18.624144      148.74212    
    194000   1.0278513      18.812282      148.56678    
    195000   1.0098456      19.063031      148.54815    
    196000   1.0428216      19.226997      148.4139     
    197000   0.99578328     18.780423      148.28715    
    198000   0.96743671     18.829124      148.18302    
    199000   1.010296       18.844743      148.1351     
    200000   0.96059913     19.534417      148.1066     
    201000   1.0245684      19.407371      147.94605    
    202000   1.006398       19.304325      147.67007    
    203000   1.0013772      19.002602      147.4464     
    204000   0.98812506     18.744207      147.38869    
    205000   1.0171111      19.116615      147.27735    
    206000   1.0058231      19.497086      147.31885    
    207000   0.98226673     18.962998      147.1379     
    208000   1.0047334      19.405877      147.03129    
    209000   1.042296       18.92835       146.92767    
    210000   1.0206906      19.311107      146.75588    
    211000   0.96087223     19.279456      146.55163    
    212000   1.001067       18.793718      146.34907    
    213000   0.98732488     19.035857      146.0952     
    214000   1.0041071      19.291232      145.91389    
    215000   1.001016       19.112492      146.03753    
    216000   0.99507717     19.257149      145.97783    
    217000   0.96963375     19.245624      145.97628    
    218000   0.99708075     18.483958      145.75617    
    219000   1.0072817      18.845003      145.59277    
    220000   0.97079081     19.115253      145.45539    
    221000   1.0083946      18.746494      145.35347    
    222000   1.0092875      18.826845      145.39883    
    223000   1.0208563      18.724579      145.30178    
    224000   0.98047894     18.982089      145.01653    
    225000   0.99353698     19.151325      144.94594    
    226000   1.0137891      19.085906      144.63154    
    227000   0.97466088     19.233804      144.328      
    228000   0.98663369     19.103025      144.11307    
    229000   1.0076397      19.103057      144.09758    
    230000   1.0191375      19.211805      144.03249    
    231000   0.97120763     18.868412      143.73309    
    232000   1.020409       18.83643       143.53334    
    233000   1.0450078      18.892556      143.35198    
    234000   0.96559121     18.943519      143.18732    
    235000   0.94409854     18.855466      143.16061    
    236000   1.0185214      19.170416      143.07257    
    237000   1.0321071      19.558386      143.01721    
    238000   0.91593262     19.133329      142.92701    
    239000   0.9975595      19.036288      142.74299    
    240000   0.93216021     18.900979      142.65018    
    241000   1.0146364      18.757164      142.34418    
    242000   1.0207911      18.994541      142.19218    
    243000   0.98882676     19.396132      142.19706    
    244000   1.0240823      18.636762      142.18069    
    245000   1.0204101      18.984977      142.10782    
    246000   0.99074884     19.140988      142.15506    
    247000   1.0039505      19.040006      141.88256    
    248000   0.99942043     18.578259      141.88578    
    249000   0.96311366     18.809211      141.84787    
    250000   0.99222388     18.998624      142.00124    
    251000   1.0018226      18.84133       141.72598    
    252000   0.97951918     18.742743      141.52252    
    253000   1.0001824      19.065641      141.48468    
    254000   1.0309253      19.113319      141.54121    
    255000   1.0190487      18.699113      141.22009    
    256000   1.0032789      19.011477      141.04705    
    257000   0.97888278     18.560443      141.15994    
    258000   1.0223789      18.928483      141.10116    
    259000   1.0254159      18.96019       141.08903    
    260000   1.037196       18.954059      140.72264    
    261000   1.0126233      19.139419      140.5931     
    262000   0.9886312      18.876515      140.4104     
    263000   1.0124932      18.657131      140.24894    
    264000   1.0169084      18.960511      140.33364    
    265000   0.9877612      19.018835      140.2048     
    266000   1.0289231      19.399812      140.02418    
    267000   0.99701621     19.194997      139.81161    
    268000   0.98880329     18.674834      139.51958    
    269000   0.99558537     19.030304      139.38114    
    270000   1.0386413      18.99569       139.65022    
    271000   1.0348454      19.249303      139.56683    
    272000   1.0176703      19.468513      139.44391    
    273000   1.0132564      18.591522      139.26734    
    274000   1.0000435      18.59879       139.13262    
    275000   0.99407843     19.004397      138.88573    
    276000   0.99538533     18.583387      138.64       
    277000   0.92841077     19.398084      138.43873    
    278000   0.98637613     18.76538       138.39895    
    279000   0.99696889     18.83831       138.24651    
    280000   0.9997173      19.047906      137.96953    
    281000   1.0074597      18.925776      137.68176    
    282000   0.98308831     19.284444      137.59493    
    283000   1.0296075      19.058964      137.59509    
    284000   1.0052405      19.084447      137.42804    
    285000   1.0236029      18.917198      137.2466     
    286000   0.97622102     18.964721      136.94852    
    287000   0.99786869     19.14063       136.70374    
    288000   1.031434       19.352731      136.54066    
    289000   0.95588393     18.778951      136.3606     
    290000   1.0561685      19.042252      136.07074    
    291000   1.018549       18.694852      135.98367    
    292000   0.96203502     18.625147      136.02419    
    293000   0.99887336     18.783036      135.85837    
    294000   1.0084137      19.713139      135.6467     
    295000   1.0177761      18.692462      135.41167    
    296000   1.020603       18.464888      135.31242    
    297000   1.0320965      19.054189      135.09433    
    298000   1.0089973      18.903408      134.83674    
    299000   1.0147776      18.805579      134.73331    
    300000   1.0335584      19.381238      134.67121    
    301000   0.99515961     18.246846      134.38483    
    302000   0.99198162     19.06607       134.2218     
    303000   0.97199105     18.352637      134.01191    
    304000   1.0339861      18.929425      133.86665    
    305000   1.0118535      18.909153      133.86154    
    306000   1.0366202      19.243732      134.10541    
    307000   1.0322813      18.880982      133.9954     
    308000   1.0244087      19.414539      133.8229     
    309000   1.0070145      18.6317        133.59345    
    310000   0.99557875     18.728959      133.19266    
    311000   1.0009467      19.074086      133.13051    
    312000   1.0290389      19.152971      133.05578    
    313000   0.97582243     19.190274      132.82967    
    314000   1.0194066      18.803618      132.83257    
    315000   1.0521133      19.689018      132.59303    
    316000   0.9802068      18.387884      132.30956    
    317000   0.95665977     18.67474       132.02489    
    318000   1.0150224      19.224764      131.98831    
    319000   1.0023885      19.207276      131.84724    
    320000   0.98878238     18.834897      131.77892    
    321000   0.94930125     18.519309      131.53782    
    322000   0.97573502     19.115494      131.51801    
    323000   1.0265168      18.991372      131.56534    
    324000   0.9634542      18.760237      131.47535    
    325000   0.9925711      18.828037      131.30813    
    326000   1.0252478      18.900258      131.25506    
    327000   1.0156091      18.763924      131.35136    
    328000   0.99827344     18.955917      131.22103    
    329000   0.96844964     18.594454      130.99733    
    330000   1.0418152      18.622408      130.95831    
    331000   1.009183       18.73085       130.98314    
    332000   1.0111825      18.790239      130.88394    
    333000   1.0586628      18.946094      130.83203    
    334000   0.96909634     18.770693      130.81557    
    335000   0.98883032     18.745802      130.73585    
    336000   1.0639849      18.971446      130.79047    
    337000   1.0300898      18.693998      130.54249    
    338000   1.0206514      19.395803      130.44961    
    339000   1.0265643      19.050193      130.37985    
    340000   0.996317       18.45059       130.21694    
    341000   1.030807       19.195542      129.98243    
    342000   1.0745349      19.324212      130.09596    
    343000   0.98988375     18.894937      129.69889    
    344000   1.0044504      18.741469      129.46848    
    345000   1.0291126      18.651607      129.25634    
    346000   1.0501564      19.144606      128.97574    
    347000   0.99199285     18.259808      128.934      
    348000   1.0163103      18.578695      129.02387    
    349000   1.0211843      18.760908      128.93781    
    350000   1.0073532      18.736657      128.81298    
    351000   1.0150547      19.115815      128.71561    
    352000   0.98086405     18.659402      128.69893    
    353000   0.99665945     18.742854      128.58118    
    354000   1.0209939      19.329271      128.28731    
    355000   0.99889544     18.804543      128.34849    
    356000   0.98402672     18.652412      128.17504    
    357000   1.0331853      18.9582        128.04024    
    358000   1.0425775      19.067136      127.87601    
    359000   1.0265886      18.90022       127.77477    
    360000   1.0147267      18.528981      127.73533    
    361000   1.000571       18.19499       127.74511    
    362000   1.021846       19.089381      127.82887    
    363000   1.0504959      18.715051      127.77867    
    364000   0.98202909     18.618429      127.84841    
    365000   0.95847152     18.73101       127.83388    
    366000   1.0220721      18.770876      127.58233    
    367000   1.0136291      18.463013      127.3336     
    368000   1.050453       19.03194       127.4513     
    369000   1.0116611      19.047545      127.18792    
    370000   0.99219239     18.782097      126.91815    
    371000   0.98431566     18.410423      126.82357    
    372000   1.0702221      18.535351      126.69642    
    373000   0.98297594     18.816575      126.56029    
    374000   0.97475515     18.843865      126.41489    
    375000   0.98934072     19.216745      126.51239    
    376000   1.0190385      18.771411      126.3041     
    377000   0.99976469     18.757002      126.1576     
    378000   0.98801268     19.19158       125.85993    
    379000   1.0056157      18.573255      125.63303    
    380000   1.0024728      18.895729      125.48978    
    381000   0.97859706     18.547534      125.20573    
    382000   0.98116201     18.879654      125.09074    
    383000   1.0211235      18.849436      124.8914     
    384000   0.99969325     19.111735      125.00193    
    385000   1.0277829      19.22251       125.02702    
    386000   1.0178923      19.27538       124.93094    
    387000   1.0145553      18.843949      124.85465    
    388000   1.0079672      19.083358      124.78275    
    389000   1.0217166      18.752532      124.53776    
    390000   1.0333261      18.897508      124.27634    
    391000   0.99070873     18.757052      124.16248    
    392000   0.95671496     18.80576       123.94205    
    393000   0.94751166     18.417226      123.93588    
    394000   1.0308363      18.600229      123.77024    
    395000   0.99089639     18.4687        123.60463    
    396000   0.95490392     18.265884      123.50088    
    397000   0.99927176     19.150376      123.58857    
    398000   0.99573607     19.167026      123.35149    
    399000   0.97077014     18.740892      123.29523    
    400000   1.0066373      19.002938      123.26928    
    401000   0.96982011     18.314078      123.20293    
    402000   1.0417381      18.801922      122.94792    
    403000   1.030057       18.992848      122.75208    
    404000   1.0185938      18.931196      122.55412    
    405000   1.0199677      18.783622      122.25953    
    406000   0.95258137     18.521367      122.138      
    407000   1.0216573      18.979218      121.99715    
    408000   0.9946685      18.790282      121.95047    
    409000   1.0719147      18.714032      121.87799    
    410000   0.9883542      18.87648       121.68945    
    411000   1.0157921      18.773734      121.60465    
    412000   1.0064302      19.20443       121.50529    
    413000   0.99016438     18.977984      121.36742    
    414000   1.029138       18.583518      121.28607    
    415000   1.0097318      19.170591      121.29687    
    416000   0.96048089     18.970954      121.03223    
    417000   0.95894404     18.816867      120.79372    
    418000   0.99554297     18.39218       120.65482    
    419000   1.0085343      18.725209      120.42703    
    420000   1.0336459      18.422032      120.12638    
    421000   0.96689179     18.662323      119.7871     
    422000   1.0398205      18.811675      119.52944    
    423000   1.0151233      18.764494      119.59154    
    424000   0.99820831     18.611382      119.39942    
    425000   0.98260801     18.427208      119.30647    
    426000   1.0113588      18.722858      119.39812    
    427000   1.0259553      18.962012      119.25594    
    428000   0.94899922     19.031469      118.94938    
    429000   1.048834       19.009836      118.8569     
    430000   0.99975833     18.527152      118.43493    
    431000   1.0172591      18.684362      118.31909    
    432000   1.0377964      18.570487      118.11911    
    433000   1.0405231      18.899704      118.41439    
    434000   0.98345772     18.668738      118.40357    
    435000   0.97198663     18.875298      118.53573    
    436000   1.0082365      18.100253      118.53542    
    437000   1.0352624      18.853633      118.52981    
    438000   1.0001774      18.547285      118.44785    
    439000   0.99889085     18.563243      118.17833    
    440000   0.95720638     18.497527      118.07499    
    441000   0.9985466      18.722651      118.06463    
    442000   1.0031576      18.619879      117.84904    
    443000   0.98943832     18.479609      117.52159    
    444000   1.0267583      18.669479      117.48856    
    445000   1.0196515      18.916505      117.61037    
    446000   0.98493253     18.733637      117.50713    
    447000   1.0333517      19.079368      117.27841    
    448000   0.98957151     18.565499      117.20559    
    449000   1.0265583      19.006524      117.04989    
    450000   0.98412059     19.134302      116.82121    
    451000   1.0016021      18.653134      116.70614    
    452000   1.0239329      18.938381      116.73144    
    453000   1.0215169      19.201946      116.58641    
    454000   1.0204978      18.441731      116.55962    
    455000   0.98899164     18.803284      116.49312    
    456000   1.0042489      18.355833      116.61793    
    457000   1.0298842      18.764769      116.48638    
    458000   1.0367114      18.854727      116.19843    
    459000   0.96713115     18.33411       116.33996    
    460000   1.0471504      18.82534       116.15959    
    461000   0.99982981     18.643801      115.98595    
    462000   0.99457962     18.825417      115.82908    
    463000   0.99753025     18.622446      115.55599    
    464000   0.98375787     18.55572       115.44615    
    465000   1.0216216      18.935529      115.45697    
    466000   1.0468682      19.108599      115.32498    
    467000   0.99194803     18.423615      115.05399    
    468000   0.95027154     18.88158       115.05504    
    469000   1.005609       18.661131      115.02669    
    470000   0.99605489     18.321719      114.86468    
    471000   0.99834794     18.589758      114.82981    
    472000   1.0103379      18.920253      114.71638    
    473000   1.0134425      18.459246      114.56314    
    474000   1.0011913      18.77794       114.45154    
    475000   1.0027746      19.275948      114.38038    
    476000   1.0409922      19.032422      114.39552    
    477000   1.0056584      18.672476      114.30459    
    478000   0.99466323     18.375801      114.15853    
    479000   0.98489672     18.93373       113.92621    
    480000   0.99414306     18.745717      113.83426    
    481000   1.0135538      18.865477      113.70588    
    482000   1.0274172      18.307218      113.5468     
    483000   0.94102316     18.581056      113.36346    
    484000   0.98738422     18.93041       113.04506    
    485000   0.99245368     18.262284      112.85337    
    486000   1.0029088      18.878785      112.85002    
    487000   1.0171012      19.219789      112.78565    
    488000   1.0098306      18.683861      112.74482    
    489000   0.96939491     18.044371      112.64856    
    490000   1.0082462      18.834147      112.60087    
    491000   1.0227804      18.408942      112.47597    
    492000   1.0178079      19.014506      112.42407    
    493000   0.99352998     18.507975      112.35615    
    494000   1.0163737      18.472339      112.21928    
    495000   1.0200066      18.831973      112.09562    
    496000   1.0309858      18.851903      111.67281    
    497000   1.00639        18.608191      111.43794    
    498000   1.0120017      18.792825      111.07371    
    499000   1.0209504      18.918554      110.76982    
    500000   0.98157968     19.068548      110.43582    
    501000   0.96959111     18.509579      110.30645    
    502000   0.96826151     18.44299       110.12846    
    503000   1.0002342      18.45074       109.99133    
    504000   0.99477969     18.43699       109.70693    
    505000   1.0171536      18.684445      109.58304    
    506000   1.0053558      18.480625      109.57692    
    507000   0.99264933     18.380048      109.49771    
    508000   0.95350628     18.384475      109.46709    
    509000   1.014495       18.94587       109.7768     
    510000   1.00133        18.731272      109.5789     
    511000   1.0127422      18.347371      109.41488    
    512000   1.0137642      18.98057       109.53184    
    513000   0.99527537     18.394825      109.48261    
    514000   1.0149951      18.6637        109.69781    
    515000   0.98687453     18.522839      109.35841    
    516000   1.0535359      18.974185      109.062      
    517000   0.97774334     18.955373      108.85038    
    518000   0.96683442     18.509568      108.82921    
    519000   1.0374368      19.001519      108.7019     
    520000   0.97265083     18.82441       108.67974    
    521000   0.98262952     18.678408      108.57551    
    522000   1.0189302      18.653682      108.3043     
    523000   1.0230068      19.120321      108.07483    
    524000   0.97632267     18.542214      108.0016     
    525000   1.0181935      18.240761      107.73704    
    526000   1.0380776      18.89233       107.60989    
    527000   1.0120942      18.413449      107.46583    
    528000   1.0001532      18.164834      107.48826    
    529000   1.0457101      18.908229      107.46716    
    530000   1.0038169      18.41623       107.34994    
    531000   1.0485033      18.495165      107.06577    
    532000   1.0074803      18.725147      106.99279    
    533000   0.9962644      18.246894      106.8934     
    534000   0.97275673     18.52669       106.70541    
    535000   0.98937691     18.739979      106.69018    
    536000   1.027448       18.690623      106.6878     
    537000   0.97522217     17.974924      106.49362    
    538000   0.99845824     17.885645      106.2965     
    539000   1.0292679      18.400068      106.21242    
    540000   1.0002401      18.320836      106.04315    
    541000   1.0013106      18.66967       105.98489    
    542000   1.0065649      18.290312      105.85745    
    543000   1.0253161      17.730086      105.75352    
    544000   0.98399524     18.642563      105.50526    
    545000   1.0195492      18.301499      105.47816    
    546000   0.95549733     17.581335      105.39342    
    547000   1.029967       18.811346      105.24661    
    548000   1.0359217      18.476574      105.16505    
    549000   1.0213348      18.466607      105.02983    
    550000   0.9891952      18.660624      104.83218    
    551000   1.0368431      18.529469      104.59753    
    552000   0.99289404     18.400456      104.4486     
    553000   0.95342635     18.096461      104.24981    
    554000   0.96644576     18.586856      104.22173    
    555000   1.0258589      18.109093      104.15029    
    556000   0.98748876     18.587857      104.23315    
    557000   0.98270329     18.578556      104.11009    
    558000   1.0089059      18.377382      103.92064    
    559000   1.0736365      18.593211      103.89739    
    560000   0.97928895     18.71541       103.95675    
    561000   1.0156031      19.083585      103.8123     
    562000   1.0271701      18.43546       103.73877    
    563000   0.95433264     18.464678      103.42654    
    564000   1.0139978      18.236951      103.29643    
    565000   1.0190335      18.807451      103.20804    
    566000   1.0066909      18.561687      103.10852    
    567000   1.0575321      18.50905       103.03601    
    568000   0.99080193     18.403667      102.96266    
    569000   0.96970724     18.186496      103.09766    
    570000   1.0004309      18.439373      103.21403    
    571000   0.98426047     18.330115      103.11788    
    572000   1.0031753      18.272318      102.86971    
    573000   1.0080313      18.694644      103.28133    
    574000   0.98585717     18.684666      103.18578    
    575000   0.97137751     18.532724      102.96326    
    576000   1.0038675      18.717217      102.92697    
    577000   0.99194134     18.993965      102.97841    
    578000   1.0319226      18.429116      102.84107    
    579000   0.99711583     18.134099      102.72468    
    580000   1.018058       18.467424      102.63759    
    581000   1.0253145      18.254486      102.5208     
    582000   0.9908645      19.023185      102.58871    
    583000   0.99638502     18.273545      102.3524     
    584000   1.0220629      18.498542      102.0201     
    585000   1.0054689      18.62654       101.96383    
    586000   1.0054034      18.932758      101.85123    
    587000   1.0063296      18.316011      101.80096    
    588000   1.0112418      18.753141      102.14639    
    589000   1.0360786      18.780078      102.09223    
    590000   0.97723175     17.678545      102.17223    
    591000   0.955655       18.48551       102.05371    
    592000   0.97539498     18.401732      101.99896    
    593000   1.0025394      18.289655      101.94994    
    594000   1.0116678      18.248744      101.9307     
    595000   0.9573265      18.551593      101.84872    
    596000   1.0038201      18.718926      101.64819    
    597000   0.97899012     18.303365      101.67985    
    598000   1.0300305      18.112573      101.78039    
    599000   0.98067795     18.207336      101.6401     
    600000   1.0083012      18.393331      101.61832    
    601000   1.0016369      17.930339      101.70017    
    602000   1.0010123      18.461052      101.6076     
    603000   0.93972403     18.258521      101.54623    
    604000   1.0295729      18.541473      101.5189     
    605000   0.99771603     18.344969      101.50687    
    606000   1.0246178      18.665817      101.33458    
    607000   1.012043       18.685233      101.27842    
    608000   1.0174878      18.723233      100.96521    
    609000   0.98948489     18.853916      100.7412     
    610000   0.97768054     17.859172      100.51981    
    611000   1.0057408      18.429746      100.45556    
    612000   0.97127979     17.899091      100.30506    
    613000   0.97677612     18.166873      100.13764    
    614000   1.0191932      18.543075      100.17058    
    615000   0.99946928     18.351923      100.00573    
    616000   1.0160042      18.285275      100.06538    
    617000   0.96150599     18.053653      100.1945     
    618000   1.0331527      18.831698      100.20255    
    619000   0.99584666     18.258095      100.2931     
    620000   1.0054904      18.210083      100.2406     
    621000   0.97959923     18.432706      100.18746    
    622000   1.0023525      18.263924      100.15336    
    623000   1.0193729      18.453102      99.995577    
    624000   1.0119393      18.100752      99.852584    
    625000   0.99340803     18.33226       99.92196     
    626000   1.0337299      18.790729      100.07227    
    627000   1.0004138      18.753735      100.06532    
    628000   1.0328544      18.235579      99.865247    
    629000   1.0102268      18.356233      99.749908    
    630000   1.0088403      18.644268      99.675776    
    631000   1.045157       18.699537      99.549507    
    632000   0.98640745     18.106544      99.678823    
    633000   1.016473       18.443055      99.60497     
    634000   1.0026649      18.069687      99.497976    
    635000   1.0355264      18.590656      99.424817    
    636000   1.0133321      18.404731      99.450636    
    637000   0.97607309     18.436395      99.31707     
    638000   1.0526396      17.941106      99.170034    
    639000   1.0495667      18.754925      99.082849    
    640000   1.0018764      18.629531      98.899613    
    641000   1.029912       18.737269      98.981174    
    642000   0.9815411      18.774788      98.889099    
    643000   1.016643       18.473028      98.925286    
    644000   1.0029894      18.623137      98.822899    
    645000   1.0171954      18.443647      98.693009    
    646000   0.98228763     18.615756      98.52538     
    647000   1.0203453      18.264822      98.466595    
    648000   0.98264829     18.085122      98.1894      
    649000   1.0032316      18.418425      98.261116    
    650000   1.0303172      18.376974      98.222362    
    651000   1.0175599      18.101995      98.116599    
    652000   0.99091525     18.189394      97.941079    
    653000   1.0373308      18.506663      97.994752    
    654000   0.99199766     18.365122      97.906103    
    655000   1.0242777      18.37069       97.808343    
    656000   1.0025554      18.14779       97.799565    
    657000   1.0844227      18.799625      97.83196     
    658000   1.0019222      18.841515      97.9023      
    659000   0.98767411     18.099257      97.652177    
    660000   1.0483862      18.801857      97.6194      
    661000   0.98030903     17.878157      97.558331    
    662000   1.0097088      18.274066      97.209963    
    663000   1.0239391      18.601807      97.055279    
    664000   0.97508076     18.40653       97.01076     
    665000   0.99175183     18.584574      96.623702    
    666000   1.0149312      18.493637      96.274925    
    667000   0.97595057     18.216264      96.215244    
    668000   0.96262026     17.826687      96.042415    
    669000   1.0231881      18.087075      96.065807    
    670000   0.9668607      18.419633      96.050156    
    671000   1.0123185      18.137525      95.903244    
    672000   0.98387664     18.432921      95.792634    
    673000   1.0091179      18.395948      95.902766    
    674000   1.0134979      18.454675      95.810809    
    675000   0.992078       18.557423      95.654043    
    676000   1.007423       18.21713       95.497033    
    677000   0.97122178     18.077623      95.425956    
    678000   1.0127433      18.681732      95.276443    
    679000   1.005168       18.407902      95.093849    
    680000   0.96903692     18.375196      95.013798    
    681000   1.0127421      18.363735      94.968501    
    682000   0.97118294     18.920039      94.900349    
    683000   1.0029562      18.186614      94.793612    
    684000   1.0059774      17.960805      94.659512    
    685000   1.0077171      18.182886      94.653263    
    686000   1.0393793      18.517746      94.670437    
    687000   0.97200594     18.257474      94.530902    
    688000   0.97524843     18.272916      94.164354    
    689000   1.0343235      17.96477       94.207296    
    690000   0.96721551     17.784448      94.367245    
    691000   0.96618585     18.269516      94.212096    
    692000   1.0307732      18.05518       94.071715    
    693000   0.95656949     18.703321      93.828806    
    694000   0.99491013     18.10618       93.685825    
    695000   0.95364655     18.211777      93.445908    
    696000   1.0214275      17.986821      93.319561    
    697000   0.98175664     18.383918      93.150906    
    698000   1.0156806      18.120016      93.162626    
    699000   1.0472462      18.78037       93.084278    
    700000   1.0013292      18.630447      92.934028    
    701000   1.0357021      18.278063      92.952629    
    702000   1.0371273      18.284151      93.091124    
    703000   0.99122054     18.42472       93.223546    
    704000   1.0373935      18.535795      93.236368    
    705000   0.99176361     18.420313      92.955951    
    706000   0.97862878     18.561394      92.732737    
    707000   0.98428235     18.531759      92.730139    
    708000   1.0483189      19.058261      92.69002     
    709000   1.0098526      18.715561      92.713164    
    710000   1.0329275      18.458435      92.674687    
    711000   0.9999288      18.637001      92.56095     
    712000   0.97269422     18.465041      92.459523    
    713000   1.0063944      18.175891      92.214407    
    714000   1.0047087      18.02639       91.902199    
    715000   1.0317991      18.512998      91.883838    
    716000   1.0329077      18.64915       91.897789    
    717000   1.0004723      18.663066      91.930393    
    718000   1.0400335      18.549165      91.805099    
    719000   1.0334267      18.370751      91.61995     
    720000   1.0228448      18.713172      91.267208    
    721000   0.97202405     18.060033      91.09042     
    722000   0.98802393     18.243012      90.915542    
    723000   0.95837875     18.561317      90.606698    
    724000   0.96616375     18.038786      90.324562    
    725000   0.97683633     17.828108      90.194214    
    726000   1.0178014      18.621946      90.293283    
    727000   1.0210825      18.358079      90.271349    
    728000   1.0554732      18.875591      90.205579    
    729000   1.0301755      18.642942      90.167651    
    730000   0.97110267     18.527666      90.130634    
    731000   1.0187664      17.751194      89.797062    
    732000   1.0150152      18.368414      89.67116     
    733000   0.98630607     18.456178      89.536013    
    734000   1.0180922      18.600051      89.203114    
    735000   1.0062459      18.197873      89.205459    
    736000   1.0182845      17.977985      88.854493    
    737000   1.050116       18.981265      88.677477    
    738000   1.035535       18.331566      88.78468     
    739000   1.0210165      18.468403      88.602288    
    740000   1.0050698      18.424468      88.356521    
    741000   1.001747       19.194116      88.518059    
    742000   1.0104896      18.371981      88.419816    
    743000   0.99185437     18.33285       88.630945    
    744000   0.99087552     18.407074      88.728588    
    745000   1.0061761      17.821101      88.60796     
    746000   0.94546681     17.357512      88.530725    
    747000   1.0124365      18.430405      88.18455     
    748000   0.94958171     18.146393      88.148295    
    749000   0.99052527     18.194617      87.940164    
    750000   0.96418062     18.088499      88.057414    
    751000   1.0014219      18.203054      87.936899    
    752000   0.99923133     18.163561      87.854905    
    753000   0.98262812     18.15087       87.633996    
    754000   0.9841178      18.448554      87.570762    
    755000   0.96204176     18.634061      87.588429    
    756000   1.00841        18.173555      87.551268    
    757000   0.96909981     18.648732      87.434713    
    758000   1.0153536      18.477515      87.149771    
    759000   0.99935823     18.224919      86.954806    
    760000   1.043997       18.390946      86.766893    
    761000   1.0326063      18.017201      86.893513    
    762000   0.94313371     17.796244      86.79159     
    763000   1.0437208      18.751957      86.553153    
    764000   1.0042924      17.836464      86.247773    
    765000   0.98300051     18.303353      86.101368    
    766000   1.0429838      18.348086      85.816412    
    767000   1.013477       18.025645      85.903068    
    768000   1.0109716      18.427321      85.858427    
    769000   0.98224595     18.095805      85.826007    
    770000   1.0357913      18.104144      85.715104    
    771000   0.999129       18.206752      85.421254    
    772000   0.99937591     18.282457      85.29669     
    773000   1.0157043      18.229947      85.13264     
    774000   1.0023493      17.876058      84.875489    
    775000   0.99379275     18.331233      84.998526    
    776000   1.0089794      17.698839      84.941909    
    777000   1.0084948      18.705858      84.50294     
    778000   0.98587741     18.248865      84.346868    
    779000   0.97547459     18.083197      84.378381    
    780000   1.0099631      18.260218      84.32323     
    781000   0.98238466     18.26864       84.302746    
    782000   0.97726503     18.442127      84.366011    
    783000   0.97657579     18.251176      84.23576     
    784000   1.0334913      18.495416      83.943014    
    785000   1.0043768      18.37044       83.933362    
    786000   1.0317777      18.172472      83.880326    
    787000   0.95275932     18.246906      83.697867    
    788000   1.0170703      18.420854      83.38097     
    789000   0.99215653     18.130582      83.357687    
    790000   1.0088282      17.806142      83.112259    
    791000   0.98824537     18.489074      82.97165     
    792000   1.0323928      17.785747      82.989437    
    793000   0.98345177     17.690003      83.036847    
    794000   1.0088355      18.160943      82.927516    
    795000   1.0044236      17.904751      82.766292    
    796000   0.98115395     18.047428      82.780278    
    797000   1.0136083      18.169093      82.448812    
    798000   1.0187953      18.67921       82.440971    
    799000   0.98376407     18.127237      82.258054    
    800000   0.99289077     18.243529      82.367956    
    801000   1.0103132      18.310292      82.319216    
    802000   0.96783571     17.711444      82.213508    
    803000   1.0010211      18.21845       82.147702    
    804000   0.9982174      18.223685      82.021108    
    805000   1.0374067      18.180721      81.910556    
    806000   1.0139924      18.160881      81.794252    
    807000   0.98545321     17.94255       81.573624    
    808000   1.0120959      18.423021      81.527079    
    809000   0.99675659     18.246203      81.420644    
    810000   1.0206137      18.369446      81.373049    
    811000   0.95381912     18.137196      81.386556    
    812000   1.0042143      17.972229      81.2783      
    813000   0.96518445     17.607915      81.099055    
    814000   1.0461952      18.148693      80.987546    
    815000   0.98783308     18.074221      80.719989    
    816000   0.98716933     18.144282      80.690802    
    817000   0.9629796      17.616518      80.751025    
    818000   1.0076649      17.902068      80.685283    
    819000   1.0127004      18.236889      80.501682    
    820000   0.97134686     17.820021      80.346301    
    821000   0.99327071     17.5782        80.111284    
    822000   0.99159379     18.159932      79.826671    
    823000   0.97344669     18.25233       79.626866    
    824000   1.0451098      18.154985      79.642802    
    825000   1.0199784      18.23264       79.690248    
    826000   1.0135105      18.342888      79.788571    
    827000   0.98513799     18.260288      79.777764    
    828000   0.96904712     17.904599      79.393557    
    829000   0.99025323     17.891479      79.301165    
    830000   1.0096011      18.32779       79.269622    
    831000   0.97463965     17.802103      79.304297    
    832000   0.97635876     17.848596      79.36988     
    833000   1.0181605      18.294783      79.009311    
    834000   1.0036877      18.611799      78.870677    
    835000   1.0006403      18.44082       78.882193    
    836000   0.97566472     18.238949      78.950955    
    837000   1.0114877      17.969999      78.91111     
    838000   1.0059562      18.041547      78.931318    
    839000   0.96897024     18.116873      78.998447    
    840000   0.96781631     18.398762      79.034397    
    841000   0.98023208     18.025238      78.956408    
    842000   0.98165439     18.41175       78.755338    
    843000   0.95544816     17.854874      78.748582    
    844000   0.97907791     17.852593      78.619553    
    845000   1.0146663      18.007289      78.591414    
    846000   0.96561535     17.977084      78.558263    
    847000   1.0142838      17.849964      78.239552    
    848000   0.99366804     17.96136       77.979996    
    849000   1.039591       18.427934      77.794307    
    850000   1.0045735      17.729401      77.666796    
    851000   1.0044301      17.839734      77.589581    
    852000   0.97631085     17.673307      77.414964    
    853000   0.98075813     17.905272      77.325895    
    854000   0.96110051     17.939812      77.16034     
    855000   1.0172517      18.087616      77.260788    
    856000   0.95014331     17.953665      77.37552     
    857000   0.99802083     17.898725      77.156165    
    858000   1.0511495      18.802299      76.943722    
    859000   1.0185449      18.331745      77.028178    
    860000   1.0067006      18.273574      77.04526     
    861000   0.96809345     18.242145      76.762287    
    862000   0.99146498     18.01766       76.710986    
    863000   0.97585599     17.719598      76.616174    
    864000   1.0254395      18.375278      76.555798    
    865000   0.98530495     17.600894      76.387319    
    866000   1.001466       17.916029      75.989536    
    867000   1.0057677      18.74663       75.88831     
    868000   1.0111635      17.869306      75.798965    
    869000   1.0553298      17.795669      75.642694    
    870000   0.99593193     18.272481      75.378893    
    871000   0.99420267     17.800823      75.496496    
    872000   1.0035468      18.36285       75.52039     
    873000   1.0090622      17.99277       75.535635    
    874000   1.0059483      18.308437      75.464007    
    875000   1.0172874      17.787027      75.436608    
    876000   0.98762715     18.037243      75.455062    
    877000   1.0068965      18.070597      75.383521    
    878000   0.99398057     17.927458      75.386243    
    879000   0.9996421      18.271627      75.165242    
    880000   1.0258645      18.449557      75.328809    
    881000   0.99474706     18.192478      75.132564    
    882000   0.98334512     18.560159      74.722345    
    883000   1.0372049      18.431912      74.78004     
    884000   0.99665446     18.09461       74.690172    
    885000   0.99583196     17.881765      74.494209    
    886000   1.0083351      17.927923      74.358006    
    887000   1.0353224      17.930567      74.306385    
    888000   1.012152       17.872455      74.261443    
    889000   1.0293018      18.427639      73.937532    
    890000   1.0013063      18.038432      73.915381    
    891000   1.0047992      18.056969      73.741349    
    892000   0.9753156      18.226257      73.534797    
    893000   1.0227302      17.981913      73.427791    
    894000   1.040221       18.140236      73.257656    
    895000   0.97004471     18.51444       73.009437    
    896000   1.0543681      18.742715      73.005034    
    897000   0.99340437     18.063406      72.764511    
    898000   1.0324902      17.818065      72.726374    
    899000   0.99622125     18.237494      72.567238    
    900000   0.99579447     17.707897      72.541308    
    901000   0.9962675      17.907445      72.566548    
    902000   0.99844138     18.620668      72.535878    
    903000   0.99649591     18.364244      72.355404    
    904000   1.0176222      18.222324      72.471887    
    905000   0.95379351     17.757271      72.013357    
    906000   1.0163873      17.743747      72.035803    
    907000   1.0461481      18.497033      71.963622    
    908000   0.97188645     18.018967      71.987418    
    909000   1.0100575      17.760463      71.949534    
    910000   0.97228871     18.148805      72.00475     
    911000   0.99010904     18.201138      72.040349    
    912000   0.97647409     18.026165      72.069491    
    913000   1.0058654      18.500488      71.839556    
    914000   1.0279007      18.342897      71.643695    
    915000   1.0114875      18.156691      71.487536    
    916000   1.0426347      17.578427      71.407663    
    917000   0.97928541     17.420574      71.283515    
    918000   1.0105151      18.043456      71.078347    
    919000   1.0133263      18.389926      71.014573    
    920000   0.97839618     17.84797       70.986386    
    921000   1.0240758      18.367776      70.915658    
    922000   0.98132316     18.342879      70.931753    
    923000   0.9990913      18.489525      70.77182     
    924000   0.96762668     17.896344      70.608341    
    925000   1.0188521      17.999809      70.511161    
    926000   1.0096133      18.016305      70.479325    
    927000   0.99143795     18.331711      70.484327    
    928000   1.0209444      18.147933      70.280521    
    929000   0.96570266     17.640832      70.128839    
    930000   0.97712734     18.309022      70.110122    
    931000   0.98525485     17.393621      70.098853    
    932000   1.0131091      18.014486      70.061988    
    933000   1.0228032      17.969753      69.990001    
    934000   1.0165132      18.43709       69.552189    
    935000   1.0137454      18.106842      69.632691    
    936000   1.0218084      18.218953      69.59734     
    937000   0.98921407     18.228804      69.623048    
    938000   0.9938656      18.273028      69.464126    
    939000   1.0066066      18.192699      69.249728    
    940000   0.97390851     17.84669       69.100239    
    941000   0.99361843     17.726479      69.012052    
    942000   1.0234857      17.847933      68.813957    
    943000   0.96294766     17.995733      68.681739    
    944000   0.97121736     17.812842      68.519719    
    945000   0.98425395     17.492702      68.418285    
    946000   0.99124837     18.50265       68.159835    
    947000   1.0094918      18.030716      67.993509    
    948000   0.98689302     17.81562       67.850989    
    949000   1.008101       17.58137       67.685118    
    950000   0.98983641     17.609159      67.697857    
    951000   0.98927283     17.900008      67.63617     
    952000   0.96184787     17.65085       67.473225    
    953000   0.9807369      18.255289      67.248019    
    954000   0.97523513     17.600117      67.0521      
    955000   0.99426821     18.605441      67.027852    
    956000   1.0278659      18.026739      66.853156    
    957000   1.0161603      17.957293      66.784351    
    958000   1.0220424      18.254174      66.810733    
    959000   0.99274813     18.149349      66.897444    
    960000   1.0076717      17.672837      66.859675    
    961000   1.0028434      18.133124      66.895278    
    962000   0.98732274     18.164902      66.786104    
    963000   1.0116392      18.206319      66.615155    
    964000   0.97277244     18.011324      66.690409    
    965000   1.0136247      17.846168      66.59989     
    966000   1.0262543      17.603898      66.455994    
    967000   1.0291651      18.02289       66.42922     
    968000   1.0217918      18.172919      66.392891    
    969000   0.97725206     18.183538      66.235113    
    970000   1.0041134      17.562515      66.061432    
    971000   1.020654       18.581074      65.892116    
    972000   0.98793031     17.817812      66.1206      
    973000   0.9740765      17.804122      65.877841    
    974000   1.0451544      17.891373      65.785613    
    975000   0.94491322     17.296603      65.850969    
    976000   1.0093157      18.361459      65.862646    
    977000   1.0204207      17.432968      65.940571    
    978000   1.0267903      17.969448      66.069978    
    979000   1.0054302      17.862291      65.75945     
    980000   1.0085033      17.895835      65.68621     
    981000   1.0047841      17.636142      65.628323    
    982000   0.98930709     17.731087      65.674256    
    983000   1.0364843      17.75606       65.6064      
    984000   0.99294453     17.735096      65.538648    
    985000   1.0415557      17.908292      65.416715    
    986000   0.98909887     17.75498       65.332761    
    987000   1.0045221      17.961313      65.394963    
    988000   0.98693632     17.822901      65.283486    
    989000   0.99802229     17.969239      64.931213    
    990000   0.98844141     17.685344      64.473726    
    991000   1.0005211      18.020041      64.62436     
    992000   0.98559164     17.641564      64.586129    
    993000   1.0305901      18.118411      64.516822    
    994000   1.0365081      17.607778      64.613777    
    995000   1.0027754      18.086778      64.798125    
    996000   0.99563459     17.676942      64.778886    
    997000   0.98166522     18.289195      64.517622    
    998000   1.023774       18.142558      64.571734    
    999000   1.0332853      17.929487      64.455975    
   1000000   1.0088032      18.13867       64.510613    
   1001000   0.9824115      17.86572       64.376337    
   1002000   0.98312964     17.709653      64.382415    
   1003000   0.99845775     18.271465      64.378795    
   1004000   0.97788633     18.023325      64.425446    
   1005000   0.99238807     17.949478      64.456372    
   1006000   0.95947216     18.154559      64.312815    
   1007000   0.99495186     17.885693      64.040621    
   1008000   1.0224403      18.144506      64.045884    
   1009000   0.98533857     18.010615      63.873525    
   1010000   1.0236291      17.813263      63.480783    
   1011000   1.0280228      17.627072      63.246637    
   1012000   0.98734581     17.461624      63.069035    
   1013000   1.0397343      18.468614      63.035198    
   1014000   1.0336756      18.089323      62.896902    
   1015000   1.0365202      17.875477      62.787027    
   1016000   1.0119102      18.076758      62.705702    
   1017000   1.0005515      18.126512      62.576204    
   1018000   0.97220414     18.018079      62.690441    
   1019000   0.99968949     18.160869      62.469935    
   1020000   1.0746777      18.145473      62.19787     
   1021000   1.0158491      17.654862      62.130216    
   1022000   0.98321395     17.792876      62.174319    
   1023000   0.96991571     18.205256      62.025782    
   1024000   1.0161064      17.572868      61.897934    
   1025000   0.98712307     17.802235      61.873414    
   1026000   1.0124194      17.916729      61.917086    
   1027000   1.0068508      17.925153      61.798982    
   1028000   0.99566516     18.334701      61.643655    
   1029000   0.97941148     17.604486      61.437658    
   1030000   1.0231474      17.847253      61.528289    
   1031000   1.0177999      17.528427      61.520599    
   1032000   0.98431579     17.743564      61.490186    
   1033000   0.94613051     17.838601      61.397274    
   1034000   0.96377051     18.455483      61.350051    
   1035000   0.9658832      17.549009      61.214639    
   1036000   0.97923288     17.992678      61.181569    
   1037000   1.0237816      17.483366      60.977985    
   1038000   0.92904287     18.557312      60.669842    
   1039000   1.0099881      17.908301      60.635467    
   1040000   0.93451805     17.756719      60.494682    
   1041000   0.97450624     17.951159      60.29609     
   1042000   1.0535297      18.297023      60.24854     
   1043000   1.0487579      17.668859      60.214408    
   1044000   1.0523708      17.924461      60.006999    
   1045000   0.9977476      18.436439      60.094448    
   1046000   1.0271121      18.327911      60.154978    
   1047000   1.0183354      18.155764      59.987046    
   1048000   0.99313926     18.122007      59.911424    
   1049000   0.99846184     18.017024      59.655565    
   1050000   1.0012109      17.803237      59.471963    
   1051000   1.0384818      18.179644      59.356632    
   1052000   0.95665328     17.522381      59.219956    
   1053000   0.96739454     18.039819      59.044969    
   1054000   0.97256865     17.954351      59.007938    
   1055000   1.014492       17.502453      58.776174    
   1056000   0.98604385     17.766763      58.598913    
   1057000   1.020842       17.267946      58.432904    
   1058000   0.99679362     17.73637       58.188659    
   1059000   1.0155778      17.717202      57.90567     
   1060000   1.0111846      18.404523      58.008437    
   1061000   1.0052512      17.476082      58.113359    
   1062000   1.0204199      17.576438      58.068491    
   1063000   0.99655682     18.001423      57.85561     
   1064000   0.97669282     17.596365      57.856106    
   1065000   1.0282082      18.163853      57.902233    
   1066000   1.0028288      18.151467      57.976747    
   1067000   1.0123436      17.64279       57.96649     
   1068000   0.99497974     18.12362       57.781389    
   1069000   1.0345266      17.636679      57.62666     
   1070000   1.0064647      17.996455      57.330979    
   1071000   0.98385951     17.596739      57.300868    
   1072000   0.96707125     17.809405      57.391023    
   1073000   0.9750025      17.343669      57.368151    
   1074000   0.95723341     17.239696      57.375913    
   1075000   0.97180853     17.564397      57.484466    
   1076000   0.99519207     17.643345      57.320858    
   1077000   0.98754979     17.180777      57.043775    
   1078000   0.99392341     18.079106      56.853209    
   1079000   1.03897        17.990977      56.794377    
   1080000   0.99535767     17.894576      56.621495    
   1081000   0.99873275     17.942816      56.464445    
   1082000   0.97425895     17.760729      56.515932    
   1083000   1.013189       18.055717      56.567881    
   1084000   1.0007412      17.539189      56.602358    
   1085000   1.0290664      17.970016      56.477685    
   1086000   0.95970121     17.765329      56.456999    
   1087000   0.99867257     17.344398      56.279279    
   1088000   0.98520144     17.81241       56.159026    
   1089000   0.97278993     17.109799      56.388479    
   1090000   0.99003252     17.895535      56.312878    
   1091000   1.0303893      18.109938      55.960562    
   1092000   0.97667958     17.28696       55.890589    
   1093000   1.0278132      17.478714      55.900859    
   1094000   0.99724011     17.8079        55.788491    
   1095000   1.0274951      18.148018      55.636096    
   1096000   0.97882908     17.613142      55.449825    
   1097000   0.99508316     17.722432      55.161033    
   1098000   0.96873117     17.46007       55.139774    
   1099000   1.0103964      18.057242      55.075074    
   1100000   0.96537093     17.639117      55.061527    
   1101000   0.99133936     17.545601      55.025944    
   1102000   1.0001132      17.420207      54.847921    
   1103000   0.95361924     17.283323      54.60695     
   1104000   0.99008516     17.49518       54.609909    
   1105000   1.0205474      17.689306      54.47589     
   1106000   0.98185525     17.107927      54.183665    
   1107000   1.0249408      17.610738      54.347664    
   1108000   0.99555769     17.97805       54.392088    
   1109000   1.0208911      17.792526      54.380658    
   1110000   0.96483672     17.718438      54.193602    
   1111000   1.0042417      17.700313      54.065077    
   1112000   1.0101799      18.124262      54.035297    
   1113000   0.98109755     17.516731      54.007174    
   1114000   1.0007585      17.920205      53.997875    
   1115000   1.0261035      17.789775      54.004091    
   1116000   1.03309        17.436464      53.848932    
   1117000   0.97657784     17.865107      53.670007    
   1118000   1.0253366      17.751075      53.367514    
   1119000   1.0068843      18.11739       53.259058    
   1120000   1.0229271      17.461432      53.357683    
   1121000   1.0154788      17.649006      53.30588     
   1122000   0.99199345     17.68978       53.007322    
   1123000   0.97316912     17.799058      52.756109    
   1124000   0.99260471     17.487736      52.845335    
   1125000   1.0064393      17.707762      52.886601    
   1126000   1.0066642      17.76909       52.950284    
   1127000   0.98594398     18.113618      52.733497    
   1128000   0.98323844     17.911037      52.601351    
   1129000   1.0224727      17.742518      52.525913    
   1130000   0.97883752     17.709564      52.361346    
   1131000   0.96693085     17.524179      52.232399    
   1132000   0.97646595     18.043972      52.094221    
   1133000   1.0108266      17.453511      52.137526    
   1134000   0.98721192     17.701024      52.055189    
   1135000   1.0283734      17.573056      51.985669    
   1136000   1.0311123      17.794876      51.951966    
   1137000   1.0585954      18.194747      51.926863    
   1138000   0.99087777     17.800469      51.818559    
   1139000   1.0223202      17.783719      51.573724    
   1140000   0.99022664     17.646407      51.399106    
   1141000   0.98267885     17.660763      51.372195    
   1142000   1.0210989      18.264177      51.281138    
   1143000   1.0070006      17.742474      51.38146     
   1144000   0.99751254     18.082638      51.241351    
   1145000   1.0059585      18.242504      51.118649    
   1146000   0.95431601     17.515445      51.167831    
   1147000   1.0150266      17.636486      50.984741    
   1148000   1.0139618      18.37786       50.998072    
   1149000   1.0371466      17.929087      50.727015    
   1150000   0.98362782     17.925192      50.545442    
   1151000   0.98816104     18.062457      50.655168    
   1152000   1.0006291      17.582267      50.679791    
   1153000   1.0358731      17.794555      50.527929    
   1154000   1.0215097      17.782336      50.418334    
   1155000   1.0356592      17.996936      50.33361     
   1156000   0.9813345      17.6203        50.257965    
   1157000   0.98628026     17.02708       50.24983     
   1158000   1.0268797      17.793767      50.263572    
   1159000   1.0353796      18.353989      50.218158    
   1160000   0.98146197     17.123895      50.143159    
   1161000   1.0367995      17.925109      50.089853    
   1162000   1.0078626      17.915353      50.21474     
   1163000   1.0001906      17.567278      50.225709    
   1164000   1.0187341      17.972048      49.942624    
   1165000   0.9953775      17.533552      49.856999    
   1166000   0.98901392     17.208167      49.40384     
   1167000   0.98841216     17.870788      49.45047     
   1168000   0.99801248     17.57957       49.347587    
   1169000   1.0382051      17.859866      49.231046    
   1170000   0.98206696     17.170649      49.084586    
   1171000   0.98623066     17.464463      49.106352    
   1172000   0.97503622     17.26893       49.010376    
   1173000   0.96913945     17.578207      48.870929    
   1174000   0.98720043     17.627867      48.672986    
   1175000   0.96478774     17.015158      48.620202    
   1176000   1.0697455      17.415676      48.316459    
   1177000   1.0115648      17.750082      48.135629    
   1178000   1.0171245      17.730123      47.904588    
   1179000   1.0359726      17.951248      47.734708    
   1180000   1.0069078      17.54316       47.5869      
   1181000   0.95371248     17.633336      47.369131    
   1182000   0.97667973     17.964757      47.188773    
   1183000   1.0181472      18.087825      47.156536    
   1184000   0.99939178     17.995481      46.975357    
   1185000   1.0231219      18.116805      46.961748    
   1186000   1.0223116      17.67526       46.680325    
   1187000   1.0145895      17.366227      46.755353    
   1188000   1.0342815      17.906023      46.553504    
   1189000   1.0168158      18.237052      46.423835    
   1190000   0.99630485     17.84524       46.385586    
   1191000   1.0364431      18.013364      46.533175    
   1192000   1.005259       17.400492      46.63968     
   1193000   0.98266458     17.112924      46.590829    
   1194000   1.0157748      17.617122      46.388453    
   1195000   1.0331004      17.807263      46.489406    
   1196000   0.99531479     17.683381      46.576201    
   1197000   0.98046612     17.072985      46.432673    
   1198000   0.96345356     17.748636      46.43553     
   1199000   0.96310653     17.481358      46.209543    
   1200000   1.029912       17.77311       46.28334     
   1201000   0.97432512     17.765287      46.051307    
   1202000   1.021849       17.952334      46.116653    
   1203000   0.99820357     17.720533      46.31058     
   1204000   1.0002554      17.183827      46.452571    
   1205000   1.0318963      17.445236      46.184324    
   1206000   1.0319103      17.655565      46.133473    
   1207000   0.95940857     17.49423       46.005903    
   1208000   1.052367       18.243558      45.919053    
   1209000   1.0632688      18.17048       45.755194    
   1210000   1.0140358      17.235957      45.444438    
   1211000   0.94392329     17.606958      45.469254    
   1212000   1.0277572      17.787643      45.462915    
   1213000   0.98789274     17.573714      45.407334    
   1214000   1.0033962      17.807493      45.359582    
   1215000   1.0287161      17.333562      45.256467    
   1216000   1.0112799      17.748642      45.187872    
   1217000   0.99707125     17.88423       44.856438    
   1218000   1.0035364      17.729921      44.790277    
   1219000   1.0058534      17.443161      44.695317    
   1220000   1.0132573      17.789445      44.489607    
   1221000   1.0040395      17.669274      44.363757    
   1222000   0.97870307     18.016894      44.187591    
   1223000   1.0435314      17.49274       44.30278     
   1224000   1.0069983      17.455353      44.132785    
   1225000   0.96754145     17.995411      44.010283    
   1226000   0.97618404     17.435952      43.922822    
   1227000   0.99017859     17.928287      43.97892     
   1228000   0.99317796     17.754287      43.980111    
   1229000   1.0110113      18.461054      43.842796    
   1230000   0.98244398     17.805886      43.692045    
   1231000   0.97915285     17.377298      43.476598    
   1232000   0.96679275     17.186196      43.444751    
   1233000   0.95365158     17.608446      43.409645    
   1234000   0.99920001     18.028063      43.204428    
   1235000   0.94636874     17.478551      42.848303    
   1236000   0.98410787     17.269974      42.905703    
   1237000   0.99888484     17.965672      42.777146    
   1238000   0.98179277     18.049491      42.668818    
   1239000   1.0400327      17.570064      42.445061    
   1240000   1.0595505      17.669739      42.257959    
   1241000   0.96108932     17.387798      42.113535    
   1242000   1.0222283      17.359229      42.220246    
   1243000   1.0085731      17.859551      42.23983     
   1244000   0.97461347     17.680435      42.160174    
   1245000   1.0027608      17.717956      41.91383     
   1246000   0.98431203     17.660407      41.870253    
   1247000   0.98820214     17.900265      41.720133    
   1248000   0.98583452     17.904105      41.523276    
   1249000   1.0075137      17.252946      41.439085    
   1250000   1.0079605      17.547528      41.434038    
   1251000   0.99350078     17.474453      41.463248    
   1252000   0.96810666     16.695349      41.551868    
   1253000   0.98628101     17.082848      41.473952    
   1254000   0.96090405     17.69189       41.368911    
   1255000   0.99144493     17.625046      41.07731     
   1256000   0.96936808     17.823581      41.03198     
   1257000   0.98732345     17.420572      41.127731    
   1258000   1.0036214      18.009958      41.077952    
   1259000   1.0117889      17.650798      41.11629     
   1260000   1.0253541      17.520045      40.993071    
   1261000   0.9715296      17.603977      40.95371     
   1262000   0.97992899     17.694189      40.806075    
   1263000   0.99271936     17.720913      40.863047    
   1264000   1.0439217      17.667904      40.76917     
   1265000   0.99950254     17.877074      40.534157    
   1266000   1.0049079      17.101079      40.303038    
   1267000   1.0212005      17.834049      40.235689    
   1268000   1.0205832      17.346411      40.221109    
   1269000   0.98981358     17.116267      40.222626    
   1270000   0.97691216     17.138247      40.10196     
   1271000   0.98305483     17.681427      40.083447    
   1272000   0.96859395     17.663333      40.12614     
   1273000   1.0114761      17.135118      40.192868    
   1274000   0.99697169     17.277069      40.111852    
   1275000   1.0025306      16.795238      40.155089    
   1276000   1.0277677      17.864377      40.117354    
   1277000   1.010923       17.618689      40.151696    
   1278000   0.97840224     17.495581      40.014014    
   1279000   1.0210601      17.67376       39.96623     
   1280000   1.0260673      17.855487      39.974568    
   1281000   0.99690336     17.507951      40.046931    
   1282000   1.0170053      17.926654      40.04722     
   1283000   1.0265339      17.631013      39.812637    
   1284000   0.99236663     17.149264      39.827731    
   1285000   1.0021751      17.626262      39.97739     
   1286000   0.98780838     17.342218      39.794234    
   1287000   1.0347685      18.079078      39.717408    
   1288000   0.96475251     17.162631      39.620447    
   1289000   1.0305717      17.485574      39.441795    
   1290000   0.99695283     17.777681      39.371294    
   1291000   0.96352618     17.261014      39.111903    
   1292000   1.0133076      17.895529      38.959045    
   1293000   1.0096366      17.157466      38.918121    
   1294000   1.0016959      18.025839      38.812376    
   1295000   1.0231867      17.540115      38.681066    
   1296000   1.0025689      17.264179      38.721536    
   1297000   1.0031782      17.791137      38.488723    
   1298000   0.96700436     18.299903      38.360141    
   1299000   1.0301152      17.590677      38.300423    
   1300000   0.98926983     17.507123      38.310705    
   1301000   0.99982573     18.036056      38.232353    
   1302000   1.0276606      17.916446      38.214347    
   1303000   0.97592511     17.827365      38.121535    
   1304000   0.97662079     17.524787      38.060987    
   1305000   1.0162985      17.280011      37.954805    
   1306000   0.98596716     17.682854      37.806702    
   1307000   1.0066036      17.452793      37.482373    
   1308000   1.0237938      17.826976      37.447698    
   1309000   1.0482817      17.370061      37.253107    
   1310000   0.99629857     17.499907      37.193055    
   1311000   0.99720383     17.847002      37.197683    
   1312000   1.0254742      18.113535      37.016713    
   1313000   0.99538715     17.73084       36.986778    
   1314000   1.0020735      16.956946      36.873941    
   1315000   1.0168239      17.623697      36.805392    
   1316000   1.0380987      17.859438      37.124498    
   1317000   1.0287609      17.89115       36.968387    
   1318000   1.0011307      17.428236      36.794577    
   1319000   1.0078128      17.755266      36.516184    
   1320000   0.97550014     17.462477      36.455862    
   1321000   0.99560281     18.002897      36.584495    
   1322000   0.99562757     17.25713       36.701511    
   1323000   0.99119222     18.153917      36.425568    
   1324000   0.97583997     17.418598      36.38333     
   1325000   1.0052454      17.496991      36.154871    
   1326000   1.0335926      17.817605      36.087055    
   1327000   1.0199848      17.142318      36.001275    
   1328000   0.97012874     17.229739      35.82548     
   1329000   1.0269349      17.745047      35.822735    
   1330000   1.0156905      17.71564       36.062847    
   1331000   0.9929688      17.676569      36.106698    
   1332000   1.020957       17.504387      36.029999    
   1333000   1.0230785      17.581797      36.042372    
   1334000   0.99792954     17.541937      35.755676    
   1335000   1.0077496      17.519404      35.476977    
   1336000   1.006588       17.830657      35.177342    
   1337000   1.0265898      17.55053       35.237191    
   1338000   0.97678807     17.866085      35.282835    
   1339000   0.98519234     17.973526      35.468323    
   1340000   1.0361303      17.600269      35.345794    
   1341000   1.0327794      17.806467      35.269303    
   1342000   0.96850365     17.556629      35.256358    
   1343000   1.0212904      17.323415      35.328744    
   1344000   0.98241392     17.731091      35.385105    
   1345000   1.0240928      17.266543      35.024613    
   1346000   1.021734       17.776181      34.843598    
   1347000   1.0441089      17.943232      34.859531    
   1348000   0.99432032     17.596635      34.768739    
   1349000   0.94879281     17.205778      34.527571    
   1350000   0.989552       17.657514      34.426359    
   1351000   1.0012119      17.666011      34.203707    
   1352000   0.99923587     17.198442      33.936386    
   1353000   1.0418032      17.680121      33.802204    
   1354000   1.0432064      17.583707      33.62974     
   1355000   0.99688982     17.473801      33.562644    
   1356000   1.0287807      17.404995      33.534569    
   1357000   1.0051109      17.326752      33.378695    
   1358000   0.9807714      17.750889      33.291139    
   1359000   1.0236264      17.428209      33.206739    
   1360000   1.0421271      17.736147      33.139974    
   1361000   1.0253001      17.486439      33.08882     
   1362000   1.0241241      17.386018      32.887095    
   1363000   1.0019008      17.19226       32.55189     
   1364000   0.9460987      17.591008      32.303166    
   1365000   1.0238527      17.715242      32.173191    
   1366000   0.97531494     17.58666       32.054637    
   1367000   0.97822116     17.056987      31.738593    
   1368000   1.0497405      17.689815      31.671181    
   1369000   0.99242782     17.214624      31.877056    
   1370000   1.0344407      17.508957      31.707856    
   1371000   0.98774488     16.942178      31.333329    
   1372000   0.98215907     16.786913      31.54143     
   1373000   0.98580868     17.469871      31.590081    
   1374000   1.0077249      17.438128      31.42276     
   1375000   0.97509294     18.11681       31.429403    
   1376000   1.0185247      17.693257      31.435387    
   1377000   1.0336255      17.829636      31.323967    
   1378000   1.0518348      17.892926      31.291906    
   1379000   0.97344076     17.297607      31.086439    
   1380000   1.0076022      17.390831      30.924841    
   1381000   0.9938281      17.816416      30.861647    
   1382000   0.99831075     17.164831      30.814354    
   1383000   1.0420225      17.546177      30.824912    
   1384000   1.0211646      18.08184       30.706023    
   1385000   1.0015915      17.571428      30.845021    
   1386000   0.97587307     17.190859      30.651136    
   1387000   1.0054959      17.799593      30.323972    
   1388000   1.0098632      17.488577      30.05717     
   1389000   1.0040795      17.845069      29.832392    
   1390000   0.98039165     17.235582      29.849455    
   1391000   0.97729998     17.469219      29.736471    
   1392000   1.0001859      17.75969       29.655812    
   1393000   0.998546       18.11649       29.500192    
   1394000   0.9327889      17.545534      29.352336    
   1395000   1.0257594      17.918634      29.241456    
   1396000   0.98737304     17.860134      29.337301    
   1397000   0.99809898     17.269597      29.077674    
   1398000   1.041622       17.632657      28.965369    
   1399000   1.0268722      17.49023       28.79135     
   1400000   0.98134        17.690823      28.809183    
   1401000   0.98014243     17.48757       28.810256    
   1402000   1.0106985      18.271148      28.620166    
   1403000   1.0267115      17.691097      28.710078    
   1404000   1.0080749      17.644725      28.542649    
   1405000   1.0076724      17.677205      28.53629     
   1406000   1.019491       17.442041      28.450144    
   1407000   1.0132072      17.418049      28.374458    
   1408000   1.021695       17.539192      28.162034    
   1409000   1.0278251      17.224711      27.898378    
   1410000   0.99872245     17.858111      27.514627    
   1411000   1.0195219      16.58312       27.612787    
   1412000   0.99085026     17.551131      27.658378    
   1413000   1.0343046      17.42193       27.614998    
   1414000   0.95714887     17.694511      27.566425    
   1415000   1.059888       17.450674      27.487191    
   1416000   0.96654524     17.745667      27.298792    
   1417000   1.0316915      17.735913      27.177601    
   1418000   0.9839828      17.232566      26.992673    
   1419000   1.0049452      17.240559      26.786406    
   1420000   0.98371875     17.229037      26.772317    
   1421000   1.0163631      17.745959      26.641387    
   1422000   1.0260976      17.883734      26.395383    
   1423000   0.99935441     17.338539      26.238023    
   1424000   0.96777241     17.212759      26.305803    
   1425000   0.99677757     17.827331      26.299211    
   1426000   1.0529037      17.953705      26.199588    
   1427000   1.0048249      17.094369      25.905247    
   1428000   1.0226669      17.344794      25.837159    
   1429000   1.016453       17.595813      25.855307    
   1430000   1.0165754      18.126496      25.742067    
   1431000   1.0102966      16.963914      25.659634    
   1432000   1.00347        17.557901      25.942708    
   1433000   0.99468241     17.329529      25.792153    
   1434000   1.0061083      17.996944      25.553196    
   1435000   0.990701       17.16872       25.454104    
   1436000   0.969798       17.593793      25.474183    
   1437000   0.9871542      17.340382      25.502742    
   1438000   1.0106079      17.066832      25.433353    
   1439000   0.98849998     17.057895      25.257699    
   1440000   0.97102777     17.665296      25.18124     
   1441000   1.0240705      16.952536      25.166769    
   1442000   1.0153493      17.581171      25.126823    
   1443000   1.0018834      17.266101      25.032234    
   1444000   1.0328843      17.550941      25.057343    
   1445000   1.012221       17.6288        24.963561    
   1446000   1.0072798      17.463645      24.807724    
   1447000   0.98982985     17.878336      24.752341    
   1448000   1.0103331      17.731925      24.731392    
   1449000   0.97073505     17.350043      24.765955    
   1450000   0.99524296     17.596109      24.588333    
   1451000   1.0167518      17.610093      24.493185    
   1452000   1.0041542      17.715018      24.219531    
   1453000   1.0084832      17.391871      23.947474    
   1454000   1.0107006      17.453187      23.877452    
   1455000   1.0265361      17.13595       23.644502    
   1456000   1.0753303      17.884174      23.668919    
   1457000   1.0097203      17.319463      23.585464    
   1458000   1.0122375      17.280301      23.550514    
   1459000   0.97537076     17.656361      23.577039    
   1460000   1.0475454      17.874759      23.543672    
   1461000   0.9711132      17.50051       23.599142    
   1462000   0.97489304     16.828048      23.446548    
   1463000   1.0036952      17.223603      23.484208    
   1464000   1.0005452      17.777823      23.165069    
   1465000   0.91489949     16.771347      23.088264    
   1466000   0.97176008     17.260021      23.024549    
   1467000   0.99404153     17.613672      23.014771    
   1468000   1.0092905      17.527467      22.829839    
   1469000   1.0520388      17.417784      22.818146    
   1470000   0.98895637     17.270768      22.565554    
   1471000   0.99746874     17.278442      22.442028    
   1472000   1.0234811      17.380491      22.456481    
   1473000   1.0074219      17.119148      22.506638    
   1474000   0.98638352     16.950612      22.427863    
   1475000   1.002456       17.210688      22.346566    
   1476000   0.93905399     17.005226      22.231836    
   1477000   0.99486906     17.425658      22.050483    
   1478000   1.0116298      17.049822      21.893006    
   1479000   1.0091262      17.309033      21.931991    
   1480000   0.92265657     16.681457      21.855213    
   1481000   1.0140614      17.064992      21.774482    
   1482000   0.9914536      17.311432      21.715924    
   1483000   1.0507549      17.881343      21.87101     
   1484000   1.022286       16.931896      21.811189    
   1485000   1.0275387      17.446852      21.698582    
   1486000   0.98454978     17.26989       21.690798    
   1487000   1.001122       17.342178      21.450515    
   1488000   0.98107716     16.860507      21.192363    
   1489000   1.0755654      17.801226      21.117053    
   1490000   1.014376       17.210894      21.017189    
   1491000   0.99005218     17.586677      21.072279    
   1492000   0.98297554     17.51152       21.094002    
   1493000   0.99510534     17.056875      20.914366    
   1494000   1.0097075      17.410285      20.944189    
   1495000   1.0342988      17.500976      20.893516    
   1496000   1.011804       17.650642      21.039133    
   1497000   1.0461814      17.954624      20.792761    
   1498000   0.9833869      17.491535      20.942216    
   1499000   1.0257025      17.259507      20.916636    
   1500000   1.0052354      17.313215      20.763205    
   1501000   0.98570112     17.115659      20.522679    
   1502000   1.0089813      17.297134      20.429337    
   1503000   0.98418106     17.677602      20.298488    
   1504000   0.97588154     17.160205      20.107146    
   1505000   1.0207856      17.3814        19.971294    
   1506000   0.98059819     17.153305      19.721852    
   1507000   1.0432677      17.763595      19.627142    
   1508000   1.014814       17.842737      19.459426    
   1509000   1.0559527      17.321284      19.403595    
   1510000   1.0104441      17.595715      19.268225    
   1511000   0.98045942     17.62663       19.159955    
   1512000   0.99580989     17.868945      19.1025      
   1513000   1.0145291      17.371996      19.039595    
   1514000   1.0086163      17.484477      19.028407    
   1515000   0.99644772     17.51964       19.054913    
   1516000   1.0143694      17.28114       19.3565      
   1517000   1.0193829      17.609369      19.13825     
   1518000   0.99939812     17.067618      18.715659    
   1519000   0.97029795     17.108757      18.635998    
   1520000   1.0081406      17.546513      18.516365    
   1521000   0.99212739     17.16965       18.4765      
   1522000   1.0036111      17.136653      18.455607    
   1523000   1.0031775      17.377724      18.44908     
   1524000   0.96679533     17.437355      18.11241     
   1525000   0.984565       16.799735      17.934591    
   1526000   0.96625624     17.166724      17.81082     
   1527000   1.0025152      17.289355      17.889316    
   1528000   1.0099634      16.970395      17.761992    
   1529000   0.93843891     16.601782      17.666214    
   1530000   1.0145204      17.036819      17.865819    
   1531000   1.0106252      17.685007      17.445566    
   1532000   1.0145473      17.035537      17.253818    
   1533000   1.01104        17.375737      17.291363    
   1534000   0.99763864     17.112693      17.178793    
   1535000   0.98307188     17.17379       17.162577    
   1536000   1.0099196      17.061286      16.923803    
   1537000   0.98384289     16.841901      17.062327    
   1538000   1.0314068      17.653965      17.064499    
   1539000   1.0110532      17.297139      17.155243    
   1540000   0.9836312      16.566089      17.043033    
   1541000   1.0039396      16.719735      16.92414     
   1542000   0.98603322     16.728945      16.802206    
   1543000   0.98672056     16.898209      16.738357    
   1544000   0.998122       17.784274      16.764126    
   1545000   1.0260426      17.261099      16.59718     
   1546000   1.0268703      16.976365      16.362575    
   1547000   0.97396058     16.554013      16.102348    
   1548000   1.0401414      17.159343      16.122029    
   1549000   1.0004149      17.347139      16.187377    
   1550000   1.0182311      17.156507      15.931509    
   1551000   0.94549064     16.459936      15.774184    
   1552000   1.0214944      16.991846      15.519248    
   1553000   0.97298571     16.982367      15.397467    
   1554000   0.9944379      17.513546      15.359292    
   1555000   1.0139301      16.826014      15.346225    
   1556000   1.0017623      17.111723      15.278203    
   1557000   0.95813761     16.798005      15.179799    
   1558000   0.97844041     16.752945      15.283441    
   1559000   1.0005711      16.899612      15.277059    
   1560000   1.0089882      17.350451      15.346486    
   1561000   0.95964019     17.479651      15.297516    
   1562000   1.0165882      16.411538      15.021722    
   1563000   1.0024696      17.095247      14.888676    
   1564000   0.98702146     17.386654      14.918883    
   1565000   1.0216547      17.372182      14.828303    
   1566000   1.0359284      17.314723      14.814657    
   1567000   1.0289472      17.508196      14.721679    
   1568000   0.98378564     16.788398      14.73514     
   1569000   0.95119208     16.714346      14.700798    
   1570000   1.0461239      17.273594      14.68238     
   1571000   0.99656946     17.136577      14.605007    
   1572000   0.97532248     17.916611      14.536682    
   1573000   1.0343159      17.226987      14.688921    
   1574000   0.98718952     16.930612      14.760464    
   1575000   0.97093671     16.813416      14.72253     
   1576000   0.99411886     16.957996      14.674071    
   1577000   0.9971949      16.965988      14.630646    
   1578000   1.0402293      16.757415      14.47427     
   1579000   0.99841788     17.037711      14.403846    
   1580000   0.99388395     17.133851      14.337234    
   1581000   0.97651353     17.168803      14.357238    
   1582000   0.98621669     16.280311      14.526788    
   1583000   0.9683744      16.572735      14.457231    
   1584000   1.022891       16.988947      14.348613    
   1585000   1.0172269      17.347957      14.313603    
   1586000   1.0098726      17.341838      14.606848    
   1587000   1.008696       17.342494      14.466688    
   1588000   1.0184393      16.798003      14.392275    
   1589000   0.96342021     17.15169       14.304907    
   1590000   0.95000952     17.276678      14.234322    
   1591000   0.99579438     17.307874      14.379075    
   1592000   1.0112139      17.770895      14.365113    
   1593000   1.0250089      16.82695       14.440907    
   1594000   1.0381129      16.621166      14.438821    
   1595000   1.0116507      16.750457      14.305899    
   1596000   0.98806311     17.103805      14.400663    
   1597000   1.0011966      16.974976      14.133033    
   1598000   0.99990136     17.421244      13.897761    
   1599000   0.97669853     16.811298      13.932589    
   1600000   0.99624563     17.141649      13.886514    
   1601000   1.0230833      17.14291       13.88266     
   1602000   1.0039586      17.587513      13.923447    
   1603000   1.010117       17.06009       13.588042    
   1604000   0.9995668      16.873015      13.488607    
   1605000   1.0118964      16.856854      13.408573    
   1606000   0.99747858     17.09012       13.373722    
   1607000   0.98228949     17.154752      13.188049    
   1608000   0.96910928     17.115415      13.215455    
   1609000   0.97822535     16.9616        13.236652    
   1610000   0.98951798     16.458188      13.206001    
   1611000   0.98916186     17.100688      13.239921    
   1612000   0.97279652     17.762239      13.12796     
   1613000   1.0055579      16.885988      13.223262    
   1614000   0.98020778     17.163693      13.075666    
   1615000   1.00176        17.320611      13.032892    
   1616000   1.0088417      17.351323      12.884322    
   1617000   0.97431839     17.294808      12.937424    
   1618000   1.0093831      17.463737      12.96064     
   1619000   0.9660019      17.436082      13.084826    
   1620000   0.97059851     16.182359      12.834185    
   1621000   0.96777394     17.056574      12.854214    
   1622000   0.99675214     17.501017      12.890797    
   1623000   0.98853142     16.776624      12.872216    
   1624000   0.99127494     17.489624      12.83756     
   1625000   1.011081       17.016164      12.556239    
   1626000   1.0193956      16.470832      12.349862    
   1627000   0.96556678     17.161872      12.250843    
   1628000   0.96727408     16.974997      12.272006    
   1629000   0.96529279     16.872522      12.125671    
   1630000   1.0235165      17.470173      12.251691    
   1631000   0.97545839     16.742315      11.953608    
   1632000   0.9499354      16.685773      11.984424    
   1633000   1.033867       17.417423      11.965831    
   1634000   1.0054536      16.772065      11.933494    
   1635000   1.0047962      16.869737      11.696881    
   1636000   1.0203484      17.488727      11.585989    
   1637000   1.0438206      16.857164      11.71929     
   1638000   0.99686072     16.977049      11.706456    
   1639000   0.9753137      16.963565      11.745998    
   1640000   1.0211212      17.395174      11.743779    
   1641000   1.0496083      17.138176      11.616936    
   1642000   0.95918982     16.764629      11.707686    
   1643000   0.98671542     17.141829      11.537162    
   1644000   1.0145098      17.115146      11.373297    
   1645000   1.0326808      17.452115      11.421201    
   1646000   0.98827654     16.623084      11.349288    
   1647000   1.0032439      16.989733      11.284884    
   1648000   0.99919641     16.964036      11.253224    
   1649000   1.0036493      16.788487      11.124146    
   1650000   0.95738171     17.166243      11.065641    
   1651000   1.012174       17.417762      11.024571    
   1652000   1.0089294      17.726212      11.057725    
   1653000   1.00572        17.490767      11.153941    
   1654000   1.0249721      17.436269      11.070752    
   1655000   1.0000439      16.956263      11.171084    
   1656000   1.0218956      17.06041       10.926588    
   1657000   0.96880829     17.297533      10.761791    
   1658000   0.98091322     16.934518      10.860625    
   1659000   1.0007121      17.104649      10.672614    
   1660000   0.97817872     17.30535       10.592401    
   1661000   1.0181935      17.268986      10.453827    
   1662000   1.0049056      16.836782      10.207104    
   1663000   0.97105448     17.512038      10.165039    
   1664000   0.96932096     17.11294       10.278423    
   1665000   1.0170406      17.255113      10.303823    
   1666000   0.99349598     16.675971      10.296427    
   1667000   0.99840739     17.177613      10.096393    
   1668000   0.98984262     16.760911      10.083371    
   1669000   1.0352878      17.370889      10.131053    
   1670000   1.0067053      16.539881      10.085048    
   1671000   1.0047008      16.760768      9.9297456    
   1672000   1.0230682      16.357075      9.9604925    
   1673000   0.99983795     17.220062      9.9011593    
   1674000   0.99540219     17.404639      9.929473     
   1675000   0.94685173     16.529258      10.107943    
   1676000   1.0203684      17.31096       10.031194    
   1677000   1.0116795      16.978117      9.8313446    
   1678000   1.0220956      17.390196      9.5661863    
   1679000   0.98394234     17.124628      9.5469636    
   1680000   0.98010379     17.441015      9.2553824    
   1681000   0.94785762     16.52945       9.2378643    
   1682000   1.0119458      17.2937        9.3622901    
   1683000   0.98343082     16.743908      9.2140305    
   1684000   0.98940977     17.255839      9.1503761    
   1685000   1.0203634      17.336923      8.9882919    
   1686000   1.0263432      16.800207      9.0494797    
   1687000   1.0208163      17.393087      9.1065559    
   1688000   1.0187867      16.809599      9.1993705    
   1689000   0.98835464     16.97275       9.2716319    
   1690000   1.0229287      17.327468      9.1912631    
   1691000   1.0300991      16.909953      9.0125732    
   1692000   0.99090761     16.960377      8.8560591    
   1693000   0.958343       16.60746       9.0889055    
   1694000   0.98219226     17.230012      9.0998081    
   1695000   1.0184153      16.532369      9.1314984    
   1696000   0.96505363     17.060279      9.0483716    
   1697000   0.96749213     16.878337      8.9369035    
   1698000   1.0141041      17.151297      8.8120469    
   1699000   1.009295       17.006511      8.8454402    
   1700000   0.98300783     17.142708      8.8061167    
   1701000   0.9550764      17.134353      8.6277589    
   1702000   0.98665152     17.035898      8.4275566    
   1703000   0.98853418     17.482166      8.2609326    
   1704000   0.99133219     16.88993       8.2039025    
   1705000   0.95897124     17.01819       8.2928795    
   1706000   1.0227979      16.70248       8.1654439    
   1707000   1.027922       16.480614      8.1195468    
   1708000   0.97363893     17.358547      8.1336164    
   1709000   0.94211214     16.830267      8.1624437    
   1710000   0.98814067     17.228222      8.1096777    
   1711000   0.9936392      16.962416      8.0964058    
   1712000   0.96836465     16.901322      7.9658144    
   1713000   0.99346391     17.462906      8.1190562    
   1714000   0.97425872     16.501117      8.0489905    
   1715000   0.98388656     16.69644       7.9862676    
   1716000   1.0168316      17.594137      7.6754117    
   1717000   1.0327184      16.897654      7.4124912    
   1718000   1.0272442      17.167218      7.08154      
Fix halt condition for fix-id 3 met on step 1719000 with value 6.808791311643627 (src/fix_halt.cpp:237)
   1719000   1.0329852      16.545964      6.8087913    
Loop time of 2245.24 on 2 procs for 1619000 steps with 1099 atoms

Performance: 623013.555 tau/day, 721.081 timesteps/s
128.1% CPU use with 1 MPI tasks x 2 OpenMP threads

MPI task timing breakdown:
Section |  min time  |  avg time  |  max time  |%varavg| %total
---------------------------------------------------------------
Pair    | 463.03     | 463.03     | 463.03     |   0.0 | 20.62
Bond    | 39.867     | 39.867     | 39.867     |   0.0 |  1.78
Neigh   | 1638       | 1638       | 1638       |   0.0 | 72.95
Comm    | 0.63359    | 0.63359    | 0.63359    |   0.0 |  0.03
Output  | 4.8275     | 4.8275     | 4.8275     |   0.0 |  0.22
Modify  | 92.317     | 92.317     | 92.317     |   0.0 |  4.11
Other   |            | 6.584      |            |       |  0.29

Nlocal:           1099 ave        1099 max        1099 min
Histogram: 1 0 0 0 0 0 0 0 0 0
Nghost:              0 ave           0 max           0 min
Histogram: 1 0 0 0 0 0 0 0 0 0
Neighs:         249873 ave      249873 max      249873 min
Histogram: 1 0 0 0 0 0 0 0 0 0

Total # of neighbors = 249873
Ave neighs/atom = 227.36397
Ave special neighs/atom = 1.9981802
Neighbor list builds = 15717
Dangerous builds = 0

# This simulation is done
# Move onto the next one
clear
  using 2 OpenMP thread(s) per MPI task
package omp 0
using multi-threaded neighbor list subroutines
next f
jump SELF

###
# Reference paper:
# K. Kremer and G. S. Grest
# Dynamics of entangled linear polymer melts: A molecular-dynamics simulation
# J Chem Phys 92, 5057 (1990)

##################################
# MIHIR: for branched polymers
# LJ minimum first to expand and explore, then collapse
###

###
# Looping through the various tshaped polymers to simulate,
# define variables to switch through
# variable f index bb66nuc1bl33bn3d30tot100 bb133nuc1bl66bn3d30tot200 bb200nuc1bl100bn3d30tot300 bb266nuc1bl133bn3d30tot400 bb333nuc1bl166bn3d30tot500 bb400nuc1bl200bn3d30tot600 bb466nuc1bl233bn3d30tot700 bb533nuc1bl266bn3d30tot800 bb600nuc1bl300bn3d30tot900 bb666nuc1bl333bn3d30tot1000 bb733nuc1bl366bn3d30tot1100 bb800nuc1bl400bn3d30tot1200
variable f index bb666nuc1bl333bn3d30tot1000 bb733nuc1bl366bn3d30tot1100 bb800nuc1bl400bn3d30tot1200
###


###
# Box and units  (use LJ units and periodic boundaries)
###

units lj
log tshaped/logs3/$f.log
log tshaped/logs3/bb800nuc1bl400bn3d30tot1200.log
