#atom_style bond #no stiffness
atom_style angle #with stiffness

boundary        p p p
###
# Pair interactions require lists of neighbours to be calculated
###

#neighbor 0.3 bin
neighbor 4 bin

neigh_modify every 1 delay 1 check yes
atom_modify sort 0 0
### Generate RESTART file, SPECIAL format, not a .txt file ###
### Useful if simulation crashes ###

restart 1000000 linear/restarts2/$f.restart
restart 1000000 linear/restarts2/bb1200nuc0bl0bn0d30tot1200.restart
#############################



### READ "start" data file ###

read_data linear/$f.dat
read_data linear/bb1200nuc0bl0bn0d30tot1200.dat
Reading data file ...
  orthogonal box = (-1000 -1000 -1000) to (1000 1000 1000)
  1 by 1 by 1 MPI processor grid
  reading atoms ...
  1200 atoms
  scanning bonds ...
  1 = max bonds/atom
  scanning angles ...
  1 = max angles/atom
  reading bonds ...
  1199 bonds
  reading angles ...
  1198 angles
Finding 1-2 1-3 1-4 neighbors ...
  special bond factors lj:    0        0        0       
  special bond factors coul:  0        0        0       
     2 = max # of 1-2 neighbors
     2 = max # of 1-3 neighbors
     4 = max # of 1-4 neighbors
     6 = max # of special neighbors
  special bonds CPU = 0.001 seconds
  read_data CPU = 0.083 seconds

######################

### READ "REstart" data file ###

######################



###
# Define groups (atom type 1 is group 'all')
###
group all type 1
1200 atoms in group all


###
# Dump configs - "simple dumpings"
###

###
# Dump configs + box coords
###

dump   1   all   custom   1000  linear/trjs2/$f.lammpstrj  id  x y z  ix iy iz
dump   1   all   custom   1000  linear/trjs2/bb1200nuc0bl0bn0d30tot1200.lammpstrj  id  x y z  ix iy iz
dump_modify   1   format line "%d %.5f %.5f %.5f %d %d %d"

########################################################################


###################################################################
# Stiffness term
#
# E = K * (1+cos(theta)), K>0
#
angle_style   cosine
#change this coefficient to change stiffness (e.g. 1,5,10)
angle_coeff   1 1.0
###################################################################

###################################################################
# Pair interaction between non-bonded atoms
#
#  Lennard-Jones 12-6 potential with cutoff:
#  potential E=4epsilon[ (sigma/r)^12 - (sigma/r)^6]  for r<r_cut
#
#  1.12246 = 2^(1/6) is the minimum of the potential


pair_style      lj/cut 1.12246152962189
#pair_style      lj/cut 3

#
#  pair_modify shift yes adds a constant to the potential such

#  that E(r_cut)=0. Forces remains unchanged.
#

pair_modify     shift yes

#
#  pair_coeff for lj/cut, specify 4:
#    * atom type interacting with
#    * atom type
#    * epsilon (energy units)
#    * sigma (distance units)
#

pair_coeff      1 1 1.0 1.0
###################################################################

###################################################################
# Pair interaction between non-bonded atoms
#
#  soft potential, for PUSHING apart overlapping atoms
#  potential E=A*(1 + cos(pi*r/r_c))
#
#  1.12246 = 2^(1/6) is the cut-off r_c

#pair_style     soft 1.12246152962189

#
#  pair_coeff for soft, specify 3:
#    * atom type interacting with
#    * atom type
#    * A
#
#

#pair_coeff      1 1 100.0
###################################################################

###################################################################
# Pair interaction between bonded atoms
#
# Fene potential + Lennard Jones 12-6:

#
#  E= - 0.5 K R0^2 ln[ 1- (r/R0)^2]
#     + 4epsilon[ (sigma/r)^12 - (sigma/r)^6] + epsilon
#

bond_style   fene


#
# For style fene, specify:
#   * bond type
#   * K (energy/distance^2)
#   * R0 (distance)
#   * epsilon (energy)  (LJ component)
#   * sigma (distance)  (LJ component)
#


special_bonds fene #<=== I M P O R T A N T (new command)
Finding 1-2 1-3 1-4 neighbors ...
  special bond factors lj:    0        1        1       
  special bond factors coul:  0        1        1       
     2 = max # of 1-2 neighbors
     6 = max # of special neighbors
  special bonds CPU = 0.000 seconds

bond_coeff   1   30   2   1.0   1.0


###################################################

###################################################################
# Pair interaction between bonded atoms
#
# Harmonic potential:
#
#  E= K * (R-R0)^2
#

#bond_style   harmonic

#
# For style harmonic, specify:
#   * bond type
#   * K (energy/distance^2)
#   * R0 (distance)
#

#bond_coeff   1   60.0   1.0
#bond_coeff   2   harmonic 0.1   1.0

###################################################
compute 1 all gyration
variable rog equal c_1
#compute 2 all coord/atom cutoff 1.1

#dump 2 all custom 10000 contact_number.dump id c_2


###
# Set up fixes
###
thermo_style   custom   step  temp enthalpy c_1
fix 1 all nve   ###NVE ensemble

fix 2 all   langevin   1.0 1.0 1.0  778655   ###Langevin integrator Tstart Tstop 1/friction rndseed


##### Sample thermodynamic info  (temperature, energy, pressure, etc.) #####
thermo 1000









############################################################################

###
# set timestep of integrator

timestep 0.01

###
# run integration for a number of steps
###
#run 0
#variable r equal c_1
#if "$r < 63.1" then "quit 1"

# lj potential minimum, cause molecule to explore
run 100000
Generated 0 of 0 mixed pair_coeff terms from geometric mixing rule
Last active /omp style is angle_style cosine/omp
Neighbor list info ...
  update: every = 1 steps, delay = 1 steps, check = yes
  max neighbors/atom: 2000, page size: 100000
  master list distance cutoff = 5.1224615
  ghost atom cutoff = 5.1224615
  binsize = 2.5612308, bins = 781 781 781
  1 neighbor lists, perpetual/occasional/extra = 1 0 0
  (1) pair lj/cut/omp, perpetual
      attributes: half, newton on, omp
      pair build: half/bin/newton/omp
      stencil: half/bin/3d
      bin: standard
WARNING: Communication cutoff 5.12246152962189 is shorter than a bond length based estimate of 5.455. This may lead to errors. (src/comm.cpp:723)
Per MPI rank memory allocation (min/avg/max) = 1860 | 1860 | 1860 Mbytes
   Step          Temp         Enthalpy         c_1      
         0   0              13.41568       300.00019    
      1000   1.0190011      19.049763      300.06668    
      2000   1.0582291      18.897617      299.93581    
      3000   0.96567656     18.636481      299.76276    
      4000   0.93437796     18.699031      299.6582     
      5000   1.0156003      19.084168      299.549      
      6000   0.97602524     18.937341      299.37361    
      7000   0.97344569     18.623498      299.32912    
      8000   1.0547315      18.888866      299.07974    
      9000   1.0131583      19.023383      298.85019    
     10000   1.0224796      18.678079      298.68628    
     11000   0.97348567     18.840819      298.63842    
     12000   0.96065353     18.62029       298.53459    
     13000   0.99950581     19.119896      298.64395    
     14000   0.97915654     18.50738       298.39794    
     15000   0.99173469     18.795367      298.35614    
     16000   0.95815431     18.787641      298.25242    
     17000   1.0232243      19.217605      298.15733    
     18000   1.0097451      19.080668      298.16874    
     19000   0.9466517      18.558622      298.03958    
     20000   0.98447732     18.590882      297.96273    
     21000   1.0036935      18.801457      297.82749    
     22000   0.98111234     19.234728      297.53245    
     23000   0.9710054      19.13157       297.5326     
     24000   0.991525       19.127121      297.34568    
     25000   0.99202378     18.78675       297.03416    
     26000   0.98426272     19.034791      296.80732    
     27000   0.96570609     18.751123      296.59134    
     28000   1.0553033      19.260869      296.29799    
     29000   1.0002355      19.05783       296.03752    
     30000   1.0034988      19.085601      295.91999    
     31000   1.0321624      18.937548      295.72562    
     32000   0.99511464     18.927514      295.61796    
     33000   1.0204318      18.918795      295.30961    
     34000   1.001577       19.524966      295.25711    
     35000   1.0295095      19.098222      295.15375    
     36000   1.0190426      18.976954      295.04688    
     37000   0.98619272     18.703767      294.90495    
     38000   1.0001588      19.101501      294.95269    
     39000   0.99583966     19.131086      294.93012    
     40000   0.995278       18.998572      294.89881    
     41000   0.99889702     19.091879      294.89302    
     42000   0.98854505     19.194885      294.91953    
     43000   1.0103993      19.496479      294.87728    
     44000   0.96841276     19.156287      294.54689    
     45000   0.99724625     18.548121      294.30148    
     46000   0.99257856     18.556365      294.24269    
     47000   0.98840328     19.194199      294.29356    
     48000   0.9757668      18.884513      294.3558     
     49000   0.99484325     18.957722      294.25105    
     50000   1.0196227      19.073404      294.36359    
     51000   1.0205099      18.771997      294.26366    
     52000   0.99832559     19.082593      294.19348    
     53000   0.96186589     18.563488      294.08912    
     54000   0.98018048     19.257642      293.9796     
     55000   0.96997136     18.687117      293.75779    
     56000   0.98536099     19.31565       293.75031    
     57000   0.9763356      19.064294      293.54451    
     58000   0.99195102     19.093542      293.51957    
     59000   1.0379477      19.098904      293.30078    
     60000   0.98427862     19.058185      293.2707     
     61000   1.0255622      19.481544      293.16079    
     62000   1.026502       18.575114      292.91763    
     63000   0.98668629     19.082898      292.77864    
     64000   0.96622314     18.952312      292.74614    
     65000   0.97155496     18.827551      292.82319    
     66000   0.97216167     18.825185      292.64387    
     67000   0.98656897     19.093257      292.59522    
     68000   1.0347165      19.134652      292.58255    
     69000   1.0333621      19.14969       292.34267    
     70000   0.97961301     19.357656      291.90634    
     71000   0.95691758     19.35986       291.57014    
     72000   1.0192782      19.151797      291.32603    
     73000   1.0463166      19.376793      291.11247    
     74000   0.96046852     18.830655      291.08575    
     75000   1.0256199      19.842422      290.886      
     76000   0.99629344     19.520525      290.81329    
     77000   0.99301688     19.309799      290.80196    
     78000   0.98494841     19.139447      290.88107    
     79000   0.99467701     19.141001      290.79053    
     80000   0.97356981     19.051337      290.97646    
     81000   0.99641629     19.250901      291.17164    
     82000   0.97791221     19.14159       291.3183     
     83000   0.99792988     19.422601      291.0535     
     84000   1.0285479      19.174871      290.77692    
     85000   1.0130477      19.187332      290.82037    
     86000   0.95360232     19.112676      290.65261    
     87000   0.9805458      18.770372      290.50619    
     88000   0.97519277     18.861309      290.22       
     89000   1.0098957      18.939296      290.22053    
     90000   0.9802037      19.106261      290.00784    
     91000   0.98470697     19.189782      289.82238    
     92000   1.0036688      19.03044       289.72964    
     93000   1.0110689      19.448279      289.5361     
     94000   0.98425644     19.266681      289.52433    
     95000   1.0169547      19.223739      289.38605    
     96000   0.99500119     19.236899      289.23787    
     97000   1.0114388      19.268195      289.01945    
     98000   0.98529111     18.903176      288.86602    
     99000   1.0233822      19.436256      289.0163     
    100000   1.0118327      19.342929      288.47859    
Loop time of 500.708 on 2 procs for 100000 steps with 1200 atoms

Performance: 172555.786 tau/day, 199.717 timesteps/s
102.1% CPU use with 1 MPI tasks x 2 OpenMP threads

MPI task timing breakdown:
Section |  min time  |  avg time  |  max time  |%varavg| %total
---------------------------------------------------------------
Pair    | 1.0425     | 1.0425     | 1.0425     |   0.0 |  0.21
Bond    | 2.4256     | 2.4256     | 2.4256     |   0.0 |  0.48
Neigh   | 491.39     | 491.39     | 491.39     |   0.0 | 98.14
Comm    | 0.066825   | 0.066825   | 0.066825   |   0.0 |  0.01
Output  | 0.27837    | 0.27837    | 0.27837    |   0.0 |  0.06
Modify  | 5.0634     | 5.0634     | 5.0634     |   0.0 |  1.01
Other   |            | 0.4452     |            |       |  0.09

Nlocal:           1200 ave        1200 max        1200 min
Histogram: 1 0 0 0 0 0 0 0 0 0
Nghost:              0 ave           0 max           0 min
Histogram: 1 0 0 0 0 0 0 0 0 0
Neighs:           5619 ave        5619 max        5619 min
Histogram: 1 0 0 0 0 0 0 0 0 0

Total # of neighbors = 5619
Ave neighs/atom = 4.6825
Ave special neighs/atom = 1.9983333
Neighbor list builds = 1067
Dangerous builds = 0

# Replace lj potential, now collapse
pair_style      lj/cut 3

# Cutoff simul when gyration under 5
# Variable created with equal requires v_ + 'name'
fix 3 all halt 1000 v_rog < 7

run 5000000
Generated 0 of 0 mixed pair_coeff terms from geometric mixing rule
Last active /omp style is angle_style cosine/omp
Per MPI rank memory allocation (min/avg/max) = 1860 | 1860 | 1860 Mbytes
   Step          Temp         Enthalpy         c_1      
    100000   1.0118327      18.920579      288.47859    
    101000   0.95775615     18.702852      288.37452    
    102000   1.0017073      18.373448      288.26173    
    103000   1.024344       18.887263      288.23736    
    104000   1.0212126      19.124216      288.17594    
    105000   1.0336282      19.060764      288.06454    
    106000   0.97896771     18.997465      288.1066     
    107000   1.0109994      19.254816      287.99034    
    108000   0.97267074     18.800835      287.7627     
    109000   0.9516405      18.419528      287.62974    
    110000   1.01228        18.856122      287.41697    
    111000   0.96650506     18.747355      287.33125    
    112000   1.020584       18.908719      287.14413    
    113000   1.0223793      18.72165       287.29153    
    114000   0.98537764     18.967788      287.43024    
    115000   0.97716232     18.806974      287.22855    
    116000   1.0068794      18.784227      287.13805    
    117000   1.0054927      19.289712      286.96925    
    118000   1.0039954      18.939731      286.97732    
    119000   1.01248        19.21288       286.67452    
    120000   0.97577989     18.970316      286.66318    
    121000   1.0155584      18.841964      286.33114    
    122000   1.0434769      19.282627      286.09041    
    123000   0.99000719     19.038279      285.79575    
    124000   0.99821609     18.825073      285.79635    
    125000   0.97180012     18.537283      285.53013    
    126000   0.99728611     18.950643      285.46018    
    127000   0.96462557     18.566885      285.39511    
    128000   1.010627       18.763108      285.27929    
    129000   0.99533816     19.199037      285.17464    
    130000   1.0098975      18.666864      285.0562     
    131000   1.0113687      18.594385      284.87772    
    132000   0.99243771     19.307162      284.5732     
    133000   1.0774322      18.647929      284.65164    
    134000   0.96193825     19.000967      284.46678    
    135000   1.0029785      18.858412      284.3855     
    136000   0.98190079     18.86492       284.07835    
    137000   1.0327964      18.938725      283.92754    
    138000   1.0187885      18.718288      283.91483    
    139000   1.0040939      18.95635       283.60498    
    140000   1.0274922      18.971736      283.26274    
    141000   1.0197531      18.739782      283.06806    
    142000   1.0170145      18.7838        282.75874    
    143000   0.98355127     19.286709      282.52104    
    144000   1.0108835      18.687038      282.54893    
    145000   1.0164519      18.831223      282.42424    
    146000   1.0053358      18.877422      282.39892    
    147000   0.99781805     18.755924      282.02758    
    148000   0.98442567     18.863779      281.85012    
    149000   1.0292223      18.786588      281.67732    
    150000   1.0090511      18.97453       281.35929    
    151000   0.98600497     19.005346      281.04148    
    152000   1.0096361      19.251901      280.96847    
    153000   0.98391455     18.890875      280.77881    
    154000   0.97099759     18.427167      280.73345    
    155000   0.97664021     18.736128      280.63046    
    156000   1.006101       18.625158      280.57405    
    157000   1.0343924      19.147082      280.46634    
    158000   1.0223322      19.151893      280.73891    
    159000   0.9758494      19.014276      280.65106    
    160000   1.0414631      18.729381      280.66049    
    161000   0.99572075     18.683627      280.63377    
    162000   1.0391707      19.044447      280.38562    
    163000   1.0084541      18.503538      280.22959    
    164000   1.0013386      19.101386      280.3405     
    165000   1.0263677      18.479032      280.27653    
    166000   1.0019221      19.271471      280.10344    
    167000   0.99494423     18.919275      279.95565    
    168000   1.0073051      18.992423      279.89236    
    169000   1.0251291      18.7079        279.67965    
    170000   0.990677       18.984375      279.57623    
    171000   0.97781809     18.677496      279.51627    
    172000   1.0188793      19.169747      279.14876    
    173000   1.0300628      18.965562      278.78989    
    174000   0.96639701     18.662386      278.79011    
    175000   0.95850002     18.770251      278.87032    
    176000   0.9964658      19.16337       278.87602    
    177000   1.0078396      18.864506      278.65146    
    178000   0.97362626     19.089171      278.53371    
    179000   1.0426846      18.836169      278.28427    
    180000   1.0203814      18.935299      278.1374     
    181000   1.0009963      18.654658      278.27249    
    182000   0.9670445      18.573073      278.00385    
    183000   1.0463016      18.82112       277.8934     
    184000   1.0098566      19.143923      277.68676    
    185000   0.94870512     19.179522      277.53628    
    186000   1.0072207      19.710419      277.39075    
    187000   0.98830209     18.678746      277.22618    
    188000   0.93954831     18.759014      277.19181    
    189000   1.0108418      18.891284      276.97293    
    190000   1.0223145      18.916196      276.60574    
    191000   0.99261705     18.754421      276.39462    
    192000   0.99557897     19.150147      276.38355    
    193000   1.0340232      19.203444      276.29691    
    194000   0.98925805     19.084217      276.31555    
    195000   1.0098108      18.808842      276.15778    
    196000   0.98884345     19.118665      275.89071    
    197000   1.0092266      19.00722       275.60445    
    198000   0.99389327     19.17066       275.62814    
    199000   1.018825       18.912406      275.55768    
    200000   0.99937155     18.847479      275.41671    
    201000   0.9748412      19.43616       275.52622    
    202000   0.97838887     18.770596      275.42098    
    203000   0.9831198      18.849897      275.39853    
    204000   0.97347343     18.604656      275.39899    
    205000   1.0103426      18.78083       275.45658    
    206000   0.95826158     18.765769      275.26202    
    207000   1.0135315      19.075733      275.13113    
    208000   0.96960632     19.121196      275.00407    
    209000   0.99803479     18.903137      275.03058    
    210000   1.0122154      19.002745      275.15858    
    211000   0.99984476     19.312108      274.86068    
    212000   1.0212187      19.016672      274.68744    
    213000   1.0105457      19.124903      274.64805    
    214000   0.972699       18.758102      274.46837    
    215000   0.9816998      18.759768      274.28905    
    216000   0.98284596     18.830024      274.18234    
    217000   1.0302507      18.755736      274.08491    
    218000   0.98103997     19.041788      273.9769     
    219000   0.99870284     19.244495      273.90816    
    220000   1.0010994      19.293155      273.88939    
    221000   0.99929297     19.205358      273.65583    
    222000   1.0036213      18.742232      273.47382    
    223000   1.0047525      18.74931       273.27217    
    224000   1.0141262      19.361716      273.28391    
    225000   0.96292575     18.931011      273.10432    
    226000   1.003206       18.995593      273.09441    
    227000   0.96886869     18.867201      272.94197    
    228000   0.9949935      19.053033      272.7827     
    229000   1.0167673      18.934696      272.66579    
    230000   1.0353072      19.103845      272.53554    
    231000   1.0597604      19.077299      272.46595    
    232000   0.99613419     19.37619       272.28534    
    233000   0.98713485     18.928954      272.31664    
    234000   1.024517       19.172122      272.35844    
    235000   0.97110152     18.948001      272.40192    
    236000   1.0113464      19.042304      272.1885     
    237000   0.97028834     18.914511      272.07682    
    238000   1.023313       19.058656      272.14421    
    239000   0.95359363     18.673486      272.16927    
    240000   1.0464823      18.959651      271.964      
    241000   0.99900307     18.963155      271.87666    
    242000   0.98348941     19.374459      271.97181    
    243000   0.97972027     18.766139      272.03727    
    244000   0.99666515     19.134217      271.74371    
    245000   0.99933397     18.73665       271.62452    
    246000   1.021496       18.656159      271.56273    
    247000   0.97143402     19.033827      271.48886    
    248000   0.98177651     18.628153      271.30156    
    249000   0.99573045     18.959621      271.34626    
    250000   1.0143679      18.859936      271.15617    
    251000   1.0260037      19.133133      270.95623    
    252000   0.97584925     18.726288      270.67525    
    253000   1.0686954      18.768334      270.62567    
    254000   0.99543092     17.955867      270.37402    
    255000   1.0392404      19.011936      270.15473    
    256000   1.0382517      19.139758      270.30374    
    257000   1.0428745      18.920136      270.32515    
    258000   0.97382367     18.831636      270.1857     
    259000   1.0279844      19.422594      270.08792    
    260000   1.0084572      19.17619       269.94455    
    261000   0.97292716     18.702307      269.72928    
    262000   1.0252109      18.962573      269.88303    
    263000   0.97958447     18.816045      269.81773    
    264000   0.95611807     18.941084      269.77457    
    265000   1.0166133      19.338608      269.50577    
    266000   1.0098202      18.531091      269.60667    
    267000   0.98611237     18.710356      269.5233     
    268000   1.0007913      19.139422      269.51296    
    269000   1.0389366      19.258814      269.40765    
    270000   1.035373       18.676644      269.00021    
    271000   1.0214384      18.946099      268.91753    
    272000   0.99768231     19.346353      268.8355     
    273000   1.0224666      18.741022      268.59496    
    274000   0.95347143     18.864144      268.39612    
    275000   0.98512344     18.985987      268.25373    
    276000   0.98183123     18.80724       268.27205    
    277000   1.0522089      19.295978      267.94928    
    278000   0.99156353     18.489417      267.82626    
    279000   1.0338283      19.431975      267.53074    
    280000   1.0122096      18.902938      267.30085    
    281000   1.0276516      18.955049      267.31564    
    282000   1.0222789      19.224405      267.07725    
    283000   1.0042865      18.683679      266.97847    
    284000   1.0112608      19.125946      266.84343    
    285000   0.99488061     18.244952      266.77294    
    286000   1.0249562      18.628654      266.8791     
    287000   0.9832073      18.709393      266.78819    
    288000   0.9739488      18.729769      266.58363    
    289000   0.99664258     18.626733      266.47151    
    290000   0.99636419     19.23577       266.28973    
    291000   1.0273097      18.795364      266.32577    
    292000   0.98407168     18.803651      266.24642    
    293000   1.0354887      19.016233      266.17271    
    294000   1.0028073      19.046661      265.69932    
    295000   1.0313759      18.603694      265.58876    
    296000   0.99263894     19.333644      265.33177    
    297000   0.99933204     18.942071      265.23929    
    298000   1.0128583      19.217846      265.30114    
    299000   1.0099664      18.992298      265.17106    
    300000   1.0395298      18.981169      265.01261    
    301000   0.95903435     19.042683      264.88054    
    302000   0.96568209     18.899946      264.54851    
    303000   0.99212984     18.980169      264.30332    
    304000   0.96753175     18.861604      264.06256    
    305000   1.001654       19.140451      263.81682    
    306000   1.0045619      19.429314      263.9657     
    307000   1.0068802      18.966673      263.73106    
    308000   1.0365005      19.497486      263.72688    
    309000   1.0190483      19.120104      263.57309    
    310000   1.022035       19.211389      263.50975    
    311000   1.0115842      18.722367      263.37232    
    312000   1.0002344      19.188066      263.25038    
    313000   0.96454383     19.08721       263.2692     
    314000   1.0077205      19.016331      263.29725    
    315000   1.0320076      19.059452      263.21852    
    316000   0.98712928     18.851073      263.05409    
    317000   0.96353432     18.929168      263.09554    
    318000   0.99021902     18.949092      262.95008    
    319000   1.0017868      18.860799      262.68574    
    320000   0.98986823     18.801541      262.72039    
    321000   0.97409976     18.923337      262.60301    
    322000   0.9792708      18.766688      262.5152     
    323000   0.99377554     19.051254      262.50928    
    324000   1.024672       18.876717      262.35339    
    325000   1.0553288      19.621969      262.38367    
    326000   0.99472392     18.729616      262.29804    
    327000   1.0137549      18.394586      262.42922    
    328000   1.0025104      19.031683      262.35916    
    329000   0.9899787      19.006165      262.15624    
    330000   0.996617       18.828445      262.25227    
    331000   0.96463256     18.42207       262.14013    
    332000   1.0207164      18.950002      261.95366    
    333000   1.0139491      18.942501      261.76325    
    334000   1.0176325      19.155509      261.7309     
    335000   1.0194979      19.139905      261.50499    
    336000   0.99369873     19.101462      261.40386    
    337000   1.0116461      19.314783      261.26367    
    338000   0.97174972     18.829044      260.86759    
    339000   1.0005819      19.255194      260.86218    
    340000   1.064268       19.196134      260.75467    
    341000   1.0295215      18.618848      260.55807    
    342000   1.0070731      19.225847      260.32241    
    343000   0.97170559     19.104336      260.22289    
    344000   1.0134907      18.960284      260.05107    
    345000   1.0076941      19.41034       259.8968     
    346000   1.0314996      18.865195      259.98477    
    347000   1.0070349      18.798361      259.84023    
    348000   1.0126054      18.970033      259.82767    
    349000   0.99510833     18.748336      259.64387    
    350000   0.97888685     18.930899      259.55695    
    351000   1.0246565      19.129688      259.40527    
    352000   0.99534883     19.080667      259.32759    
    353000   1.024186       18.547189      259.26859    
    354000   0.98281078     18.951651      259.20713    
    355000   0.98237896     18.87704       259.11777    
    356000   0.97808988     18.956138      258.98781    
    357000   1.0078567      19.261772      259.00144    
    358000   0.99480582     18.690515      258.77262    
    359000   1.0579411      18.927379      258.48307    
    360000   0.97705052     18.93358       258.36373    
    361000   1.0202682      18.646933      258.34121    
    362000   1.0458127      19.141593      258.31041    
    363000   1.0379839      18.696678      258.33047    
    364000   1.0207816      19.243434      258.06419    
    365000   0.96696482     18.943227      257.64589    
    366000   0.98184865     18.367834      257.35015    
    367000   1.006923       18.805626      257.37042    
    368000   1.0097846      19.404193      257.06133    
    369000   0.97531879     19.085593      256.92598    
    370000   0.99921102     19.433754      256.76662    
    371000   0.96334301     19.303381      256.55983    
    372000   0.99600403     18.777496      256.56477    
    373000   1.0132077      19.419841      256.51543    
    374000   1.0125         18.852238      256.50098    
    375000   0.99373581     18.858149      256.44355    
    376000   1.0403956      18.861958      256.35109    
    377000   0.9656158      19.131468      256.25389    
    378000   0.96201379     18.934459      256.10105    
    379000   1.0079127      19.022504      255.9714     
    380000   0.98190277     19.1664        255.74638    
    381000   1.0024401      18.827948      255.76565    
    382000   1.0280139      19.277662      255.84988    
    383000   1.0172177      19.079063      255.71279    
    384000   0.96156828     19.423017      255.70607    
    385000   0.98883538     18.728758      255.74947    
    386000   0.99192278     18.572529      255.65069    
    387000   0.98894797     18.512517      255.36572    
    388000   0.99203105     18.860066      255.15379    
    389000   0.97054735     18.890997      255.11314    
    390000   1.0064341      18.95513       254.94336    
    391000   1.0149651      19.263523      254.84644    
    392000   0.96190392     18.894755      254.6452     
    393000   0.96031106     18.868421      254.35696    
    394000   1.0292528      18.861394      254.2547     
    395000   0.9908012      19.381001      254.15604    
    396000   0.95887278     19.229399      254.05185    
    397000   0.98962279     18.117553      253.96315    
    398000   1.0423435      19.558147      253.99209    
    399000   0.9890028      18.840401      253.73047    
    400000   0.99515134     18.833713      253.72214    
    401000   1.0525318      18.953849      253.55398    
    402000   1.0252072      18.786034      253.44692    
    403000   1.0046646      19.015021      253.38636    
    404000   1.0152984      18.509981      253.29568    
    405000   1.0338955      19.195539      253.35305    
    406000   1.0089214      18.716719      253.16619    
    407000   1.0215698      19.187612      253.04127    
    408000   1.0286652      19.235881      252.88901    
    409000   1.0337324      19.105034      252.73148    
    410000   0.97269431     18.97042       252.7569     
    411000   1.0087855      19.130123      252.74138    
    412000   0.975395       19.264764      252.77357    
    413000   1.0099208      18.839821      252.80896    
    414000   1.0398954      18.846744      252.82792    
    415000   1.0124519      19.021956      252.64464    
    416000   0.98811429     19.231196      252.65353    
    417000   1.0136985      19.26514       252.75629    
    418000   0.98012168     19.010245      252.67616    
    419000   1.0124857      18.881406      252.55774    
    420000   0.98167547     18.825724      252.46993    
    421000   0.97069783     19.368043      252.4705     
    422000   1.0027354      18.88871       252.3227     
    423000   1.0368671      18.879448      252.10528    
    424000   1.0590446      19.033457      251.90336    
    425000   1.0447902      18.824763      251.79795    
    426000   0.95635397     19.203296      251.62402    
    427000   1.0117602      19.116247      251.67075    
    428000   0.96985189     18.827315      251.74753    
    429000   0.98612305     19.122168      251.71343    
    430000   0.9925182      18.784216      251.48073    
    431000   0.97499218     19.187614      251.43263    
    432000   1.0136646      19.807126      251.47962    
    433000   1.0047003      19.424952      251.29941    
    434000   1.0512074      18.861016      251.26704    
    435000   1.0113778      18.822968      251.0377     
    436000   0.95814362     18.826332      250.97396    
    437000   1.0002254      18.830216      250.77743    
    438000   0.99913299     18.615011      250.78322    
    439000   1.0094905      19.420037      250.61164    
    440000   1.0091782      19.289188      250.66811    
    441000   0.98516732     19.309051      250.54055    
    442000   1.0115467      18.564709      250.47767    
    443000   1.0037625      19.003524      250.35431    
    444000   0.96609712     19.225235      250.2853     
    445000   0.98094368     19.045888      250.10249    
    446000   1.0016431      19.230019      249.97969    
    447000   0.99449071     18.662538      249.93798    
    448000   0.96507008     18.845753      249.60545    
    449000   0.99333216     19.0972        249.53674    
    450000   1.0181522      19.243777      249.5721     
    451000   1.0158198      19.070947      249.7918     
    452000   1.0134696      18.777605      249.61282    
    453000   1.0029395      18.926906      249.48315    
    454000   1.0043946      19.02779       249.48149    
    455000   0.99094284     18.913709      249.18174    
    456000   0.97827055     18.994955      248.87091    
    457000   0.94990498     18.839764      248.71909    
    458000   1.0030737      19.052895      248.35372    
    459000   1.0006603      18.989869      248.17341    
    460000   0.93127744     18.744101      248.13396    
    461000   1.0002495      19.378851      248.11174    
    462000   1.0399889      19.74986       248.12546    
    463000   0.99425594     18.972615      248.05841    
    464000   1.0184801      19.206862      247.98315    
    465000   0.99470448     18.670319      247.8003     
    466000   1.0295184      19.293161      247.65896    
    467000   1.0069036      18.878375      247.41572    
    468000   0.99632321     18.808739      247.13911    
    469000   1.0005189      19.359168      247.31397    
    470000   0.97679274     19.372789      247.20602    
    471000   0.97912091     19.157141      247.43732    
    472000   0.99324056     18.896814      247.53298    
    473000   1.0009652      19.224433      247.4871     
    474000   1.011089       18.516394      247.51374    
    475000   1.0017683      19.140094      247.38767    
    476000   1.004113       19.343703      247.30048    
    477000   0.99228432     18.563138      247.16641    
    478000   0.99515327     18.738426      247.03892    
    479000   0.99794403     18.819455      246.79371    
    480000   0.97741679     19.190263      246.68356    
    481000   0.97522438     18.551258      246.57132    
    482000   0.94972125     18.554199      246.65942    
    483000   1.0214661      19.008738      246.71816    
    484000   0.9784506      18.892777      246.48464    
    485000   1.003839       18.854176      246.44454    
    486000   0.97519504     18.941264      246.24928    
    487000   1.0445602      19.138763      246.28321    
    488000   1.0101982      18.868329      246.31196    
    489000   0.96242525     18.67921       246.14246    
    490000   1.0343372      18.659124      246.06458    
    491000   0.98391736     18.725807      246.07432    
    492000   1.029879       18.723794      245.80801    
    493000   1.0119749      19.277312      245.70136    
    494000   1.027347       18.572244      245.67168    
    495000   0.97330788     18.823556      245.59236    
    496000   1.0170012      19.166768      245.50362    
    497000   1.0054545      18.802842      245.43482    
    498000   1.0121037      18.531393      245.291      
    499000   0.97438049     18.613726      245.18724    
    500000   1.0144646      18.995841      245.06189    
    501000   1.0174395      18.742153      245.04646    
    502000   0.99798635     18.813092      245.03433    
    503000   1.0060282      18.423043      244.89009    
    504000   0.98319711     18.575175      244.79859    
    505000   0.98578875     19.031913      244.57411    
    506000   0.99355874     19.014895      244.43359    
    507000   0.9971227      18.926279      244.16676    
    508000   1.0002718      18.906753      243.9356     
    509000   0.99541264     18.709519      243.76113    
    510000   1.0132978      19.240848      243.68756    
    511000   0.99940455     19.331169      243.48073    
    512000   1.0103676      18.765445      243.63626    
    513000   1.000358       18.806796      243.66784    
    514000   1.0041401      18.966377      243.50695    
    515000   0.99639785     19.201206      243.30597    
    516000   1.0160037      19.030548      243.3545     
    517000   1.0120914      19.068298      243.17838    
    518000   0.96955894     18.516369      243.10173    
    519000   1.0054817      18.851096      242.94953    
    520000   0.97551937     18.957193      242.89356    
    521000   0.98285153     19.342917      242.92143    
    522000   1.0011478      19.028868      243.00859    
    523000   1.0468591      19.642794      242.77542    
    524000   1.0258333      19.146296      242.69414    
    525000   0.97839449     18.63122       242.61459    
    526000   1.0002652      18.942061      242.47741    
    527000   1.0064654      18.965814      242.42035    
    528000   1.001804       18.985343      242.16891    
    529000   1.0353175      18.958186      242.12121    
    530000   1.0152818      19.235413      242.30082    
    531000   0.99802526     19.013219      242.10246    
    532000   0.96370657     18.708787      241.85017    
    533000   0.98190697     18.994393      241.70834    
    534000   1.0129008      18.949148      241.81821    
    535000   0.98966916     18.789451      241.82584    
    536000   0.97773499     18.707323      241.75397    
    537000   1.0072422      18.913539      241.68339    
    538000   1.0199485      18.785109      241.67887    
    539000   0.98874709     18.658538      241.75152    
    540000   1.017318       18.558624      242.10601    
    541000   0.98655014     18.890491      241.99815    
    542000   1.0387517      18.711254      241.87473    
    543000   0.9638616      18.7257        241.53032    
    544000   1.0107902      18.846376      241.46015    
    545000   1.0097617      18.804594      241.16494    
    546000   0.96550853     18.384362      241.09265    
    547000   0.97869107     18.601436      241.00996    
    548000   0.98587919     19.039873      240.83033    
    549000   0.98577651     19.200099      240.77408    
    550000   1.0087587      19.056284      240.84304    
    551000   0.99263537     18.911206      240.69712    
    552000   0.95398097     18.267179      240.79786    
    553000   1.0302669      19.071847      240.46954    
    554000   0.93187903     18.850896      240.44329    
    555000   0.97858649     18.903879      240.36575    
    556000   0.98859248     18.449551      240.45552    
    557000   1.0327966      18.988699      240.279      
    558000   1.0139602      18.934634      240.23544    
    559000   1.0052293      19.255991      240.04982    
    560000   0.97443492     18.801845      240.06575    
    561000   1.022902       19.286593      239.81831    
    562000   1.0007042      19.231713      239.80062    
    563000   1.0007934      19.312224      239.69093    
    564000   0.97913605     18.839501      239.67138    
    565000   0.99120955     19.100619      239.35554    
    566000   0.97691508     18.898872      239.31048    
    567000   0.98702063     18.811752      239.17713    
    568000   1.059939       19.087596      239.22247    
    569000   1.0205642      19.307853      239.23308    
    570000   0.99570881     18.498821      239.15405    
    571000   0.99587492     18.750342      238.94263    
    572000   1.0079246      18.476258      239.03077    
    573000   1.0180252      19.675726      238.92059    
    574000   1.0185225      19.004074      238.81823    
    575000   0.98994869     18.465938      238.49844    
    576000   1.0320671      19.314727      238.6133     
    577000   0.98912118     18.788923      238.425      
    578000   1.0145318      18.392408      238.40784    
    579000   0.96561416     18.594788      238.39033    
    580000   1.0052269      19.178611      238.14288    
    581000   1.0047726      18.883939      238.00134    
    582000   1.0186386      19.235782      237.8573     
    583000   1.0161935      18.904946      237.78895    
    584000   0.96378007     18.70918       237.72625    
    585000   0.96002575     18.990703      237.70568    
    586000   1.0152557      19.371791      237.3743     
    587000   0.98233331     19.162764      237.15208    
    588000   0.9938942      18.624087      237.07738    
    589000   0.977181       19.053487      237.14859    
    590000   1.0319886      19.276901      237.12509    
    591000   1.0111494      19.38623       237.19782    
    592000   1.0083138      19.158298      237.13342    
    593000   0.95259817     18.889998      237.14091    
    594000   0.9918616      18.856422      237.01013    
    595000   1.0152738      18.507801      236.80218    
    596000   0.99549547     18.964538      236.8387     
    597000   1.0001359      18.873941      236.55183    
    598000   0.99695393     18.725938      236.61266    
    599000   1.0241955      19.223223      236.72584    
    600000   0.96517174     19.178291      236.62622    
    601000   0.96579099     18.580965      236.70036    
    602000   1.0449856      18.958145      236.57344    
    603000   1.0079212      19.479816      236.35467    
    604000   1.0137035      18.507685      236.24456    
    605000   0.98427442     18.746479      236.25088    
    606000   0.99753296     18.734186      236.21386    
    607000   1.0099652      18.556809      236.14282    
    608000   1.0053741      19.279847      236.13549    
    609000   1.0029267      19.24873       236.01283    
    610000   0.99612059     18.890633      235.82516    
    611000   0.97937289     18.888363      235.78263    
    612000   0.96573831     18.651453      235.57604    
    613000   0.99881164     18.714234      235.34386    
    614000   0.95798236     18.650809      235.3075     
    615000   1.0131385      18.771887      235.17619    
    616000   1.002184       18.353982      235.27297    
    617000   0.98789928     19.429575      235.393      
    618000   0.97711085     19.144689      235.45757    
    619000   0.991075       18.624665      235.29423    
    620000   1.012277       18.873904      235.07134    
    621000   0.96837246     18.67986       234.98353    
    622000   1.0091226      18.550532      234.83179    
    623000   1.0340502      19.095019      234.8252     
    624000   1.0278766      19.501857      234.72748    
    625000   0.97687515     19.02059       234.78687    
    626000   1.0064359      18.736736      234.6482     
    627000   0.96665124     18.671549      234.72602    
    628000   1.0152116      18.869077      234.46967    
    629000   1.0056663      18.884018      234.73444    
    630000   1.0241244      18.797887      234.4919     
    631000   0.98651173     18.401322      234.47236    
    632000   1.0010836      18.689504      234.49601    
    633000   0.97311918     18.536843      234.47446    
    634000   0.9894523      18.958449      234.40668    
    635000   0.98761925     19.227293      234.37444    
    636000   0.98298514     18.762582      234.3628     
    637000   1.0092665      18.874071      234.26098    
    638000   0.9909953      19.113225      234.35885    
    639000   1.0230246      19.291247      234.22501    
    640000   0.98333773     19.135386      234.03406    
    641000   1.0343956      19.559421      233.90107    
    642000   0.97435871     18.746541      233.87383    
    643000   1.0180379      18.715128      233.68626    
    644000   1.0135407      18.842142      233.79061    
    645000   1.0252996      19.211139      233.70821    
    646000   0.96958535     19.025441      233.6135     
    647000   0.99775072     18.965135      233.46273    
    648000   1.008828       18.628155      233.35884    
    649000   0.986709       18.617705      233.0677     
    650000   0.99071695     18.69226       232.90634    
    651000   0.99878498     18.762498      232.84908    
    652000   0.97781472     18.86608       232.71843    
    653000   1.0032549      19.193464      232.42392    
    654000   0.97381448     18.929954      232.43516    
    655000   1.0065075      19.048972      232.29212    
    656000   0.98802795     18.871152      232.33822    
    657000   0.98884325     18.950632      232.32215    
    658000   0.95877696     18.976436      232.35484    
    659000   1.0295166      18.506569      232.31093    
    660000   0.9865477      19.084504      232.38844    
    661000   1.0064705      19.114286      232.52478    
    662000   1.0301167      18.501984      232.35255    
    663000   1.0113384      19.152748      232.25364    
    664000   1.0028005      18.368579      232.20327    
    665000   1.0121198      18.802111      232.25026    
    666000   1.0224957      18.87123       232.19365    
    667000   0.99275759     18.55699       232.03942    
    668000   1.0223352      19.042921      231.76453    
    669000   1.031121       18.838302      231.72054    
    670000   1.0432148      19.431621      231.77262    
    671000   0.98054685     18.916171      231.74993    
    672000   1.0294772      18.79053       231.80152    
    673000   0.99545183     18.822541      231.67447    
    674000   1.0089715      18.875522      231.69401    
    675000   0.99280155     18.821307      231.59068    
    676000   1.0420459      18.711231      231.47877    
    677000   0.98373364     18.919588      231.23163    
    678000   0.9148571      18.385443      231.11947    
    679000   1.006673       18.923948      231.02694    
    680000   1.0323354      18.855142      231.00054    
    681000   1.0222872      18.78297       230.87159    
    682000   0.99932795     18.915451      230.83305    
    683000   1.0030566      18.87092       230.62962    
    684000   0.97917211     18.52547       230.5246     
    685000   0.9901883      18.676728      230.60029    
    686000   0.9914931      18.964038      230.386      
    687000   0.99363298     18.677039      230.23782    
    688000   0.98560108     18.515732      230.19605    
    689000   0.99917826     18.626276      230.10174    
    690000   1.0131209      19.066248      230.26612    
    691000   1.0074098      18.82945       230.03178    
    692000   0.95612502     18.922164      230.18538    
    693000   0.99667949     18.565953      230.37097    
    694000   0.98994944     18.472397      230.42219    
    695000   0.99348438     19.003655      230.39906    
    696000   1.0044924      18.908905      230.40936    
    697000   1.0186145      18.611032      230.3334     
    698000   1.0077316      19.048226      230.16271    
    699000   1.0161331      18.392032      230.15207    
    700000   1.0090743      18.880654      230.39174    
    701000   0.96991836     18.799045      230.28011    
    702000   1.0109582      18.748242      230.22376    
    703000   0.99674421     18.989566      230.2652     
    704000   1.0095422      18.834875      230.28423    
    705000   0.96197987     18.910172      230.25109    
    706000   1.0216043      19.160321      230.03677    
    707000   1.016734       19.185361      230.0524     
    708000   0.9672086      19.054619      230.01949    
    709000   1.0158741      19.073669      230.08705    
    710000   1.001368       18.555699      229.80593    
    711000   1.0098474      18.925492      229.6099     
    712000   1.0208164      18.724108      229.51915    
    713000   1.0017684      19.380425      229.44552    
    714000   0.96482167     18.868501      229.57863    
    715000   1.029658       18.691285      229.57106    
    716000   1.0307541      18.684459      229.63228    
    717000   1.022994       18.965238      229.51491    
    718000   0.98714679     18.690402      229.26226    
    719000   1.0596712      18.734862      229.26215    
    720000   0.99752626     19.124223      229.37768    
    721000   1.0081226      18.686906      229.34712    
    722000   1.0146552      19.019709      229.26754    
    723000   0.97597821     17.734534      229.15665    
    724000   1.002905       18.627196      228.92979    
    725000   0.96341144     18.900697      228.80975    
    726000   0.98873166     18.490904      228.68658    
    727000   0.99207808     18.942826      228.47469    
    728000   1.0114883      18.806608      228.41116    
    729000   0.97933631     18.577312      228.14666    
    730000   1.0174102      18.64607       228.0943     
    731000   0.98381255     18.646465      228.11816    
    732000   1.016513       18.703734      227.97934    
    733000   1.0291379      19.056043      227.79376    
    734000   1.0086943      18.894572      227.60912    
    735000   0.9499236      18.766149      227.49014    
    736000   0.98399155     18.655364      227.53391    
    737000   1.0148485      18.748627      227.51517    
    738000   1.0036635      18.650372      227.27829    
    739000   1.0117879      18.643615      227.04932    
    740000   0.99962382     18.818706      226.99825    
    741000   1.0021238      18.796279      226.56359    
    742000   1.0121231      18.866871      226.5228     
    743000   0.99274738     19.232183      226.22664    
    744000   0.97350877     18.361814      226.22903    
    745000   0.97414477     18.718463      226.09193    
    746000   1.0032511      19.097454      226.24773    
    747000   1.0041724      18.720083      226.01854    
    748000   1.0004411      18.535565      225.89956    
    749000   1.0112895      18.871389      225.86441    
    750000   1.0280302      19.032387      225.66809    
    751000   0.99496611     18.550588      225.55842    
    752000   1.0307432      19.034226      225.48074    
    753000   0.99810535     18.665632      225.27001    
    754000   1.0131899      18.827355      225.09933    
    755000   1.0151374      18.359221      224.90616    
    756000   0.99149327     18.902059      224.69672    
    757000   1.0251111      19.079218      224.20986    
    758000   0.97227797     18.601011      224.11551    
    759000   1.0347369      19.03081       224.12809    
    760000   0.99375775     18.809168      224.0076     
    761000   0.98238864     18.70351       223.9611     
    762000   1.0325799      19.077639      223.7551     
    763000   0.97662088     18.756834      223.71403    
    764000   0.99976573     18.246851      223.42858    
    765000   0.96543414     18.677985      223.48723    
    766000   1.0139905      19.167418      223.39508    
    767000   1.0268789      18.644158      223.14133    
    768000   0.97896953     18.700359      222.96236    
    769000   0.986073       18.763701      222.93788    
    770000   1.0047195      18.913936      222.90482    
    771000   0.98428663     18.505538      222.67896    
    772000   1.0211257      18.987671      222.56504    
    773000   1.0608719      18.957066      222.39565    
    774000   1.0118382      18.704938      222.35922    
    775000   1.0659404      18.575338      222.15442    
    776000   1.0425151      18.7316        222.0257     
    777000   1.0169251      18.320546      221.92099    
    778000   1.0292706      18.918286      222.04512    
    779000   1.0201989      18.495192      221.91516    
    780000   1.0071911      19.012004      221.60313    
    781000   0.96659275     18.758258      221.5054     
    782000   0.99017949     18.547724      221.56394    
    783000   0.98198074     18.524045      221.69149    
    784000   0.97060319     18.642201      221.60182    
    785000   0.99175896     18.713408      221.67648    
    786000   1.0020644      18.681002      221.85445    
    787000   1.0228981      18.694397      221.75495    
    788000   1.014548       18.637399      221.69734    
    789000   0.98118378     18.383479      221.48713    
    790000   1.0032618      18.737716      221.40759    
    791000   0.9919941      18.631021      221.29308    
    792000   0.96412969     18.490838      220.87259    
    793000   1.0728454      19.527996      220.81357    
    794000   1.0158986      18.892657      220.78043    
    795000   0.97105377     18.744956      220.66849    
    796000   1.0123497      18.901796      220.57437    
    797000   1.0031488      19.184771      220.6617     
    798000   1.0082645      19.144473      220.79768    
    799000   1.0108553      18.957412      220.57523    
    800000   0.98327124     18.350531      220.59233    
    801000   0.99374404     18.893707      220.62302    
    802000   0.9890535      18.751779      220.78061    
    803000   0.97318321     19.040431      220.83242    
    804000   0.98501907     18.922769      220.68833    
    805000   0.99711207     19.433935      220.6673     
    806000   0.97477999     18.624445      220.70856    
    807000   1.0324501      18.367347      220.31466    
    808000   1.0169845      18.682385      220.25001    
    809000   0.98084686     19.204501      220.2985     
    810000   0.99767226     19.16121       220.22006    
    811000   1.0059593      18.715173      220.24248    
    812000   0.98330946     18.558822      220.22386    
    813000   0.98538787     18.603805      220.06574    
    814000   1.0055836      19.231339      220.04716    
    815000   1.0069858      19.051647      219.99385    
    816000   0.99905125     18.692814      219.76532    
    817000   0.97511991     18.597098      219.59151    
    818000   0.96267434     18.100145      219.54184    
    819000   0.95040772     18.861374      219.52727    
    820000   1.0268042      18.470992      219.23611    
    821000   0.97683197     18.575195      219.07656    
    822000   0.96913453     18.629584      219.16102    
    823000   1.0338173      19.061809      219.09171    
    824000   1.00545        18.823998      218.80898    
    825000   0.99842394     19.052083      218.63994    
    826000   1.0304816      19.051574      218.53797    
    827000   1.0283946      18.830654      218.38711    
    828000   0.98600395     18.747902      218.42666    
    829000   1.0309889      19.582452      218.31522    
    830000   1.0378021      18.822373      218.07017    
    831000   1.0164523      19.326188      217.90107    
    832000   1.0342341      19.211864      217.91643    
    833000   0.98661329     18.707429      217.66562    
    834000   0.96796342     18.97464       217.59732    
    835000   0.97212056     19.033582      217.53703    
    836000   0.99463692     19.201153      217.44426    
    837000   1.0113891      18.707158      217.477      
    838000   0.99283589     18.685517      217.50716    
    839000   0.98903466     18.585405      217.34487    
    840000   1.0179862      18.631397      217.12139    
    841000   0.98589722     18.621115      216.98736    
    842000   1.0494816      19.037093      216.87397    
    843000   1.0243971      19.211649      216.72795    
    844000   1.0043711      18.61552       216.56709    
    845000   0.97420573     18.597035      216.55968    
    846000   1.0267199      18.646555      216.45957    
    847000   1.0027624      18.324051      216.34564    
    848000   1.0094401      19.285639      216.40957    
    849000   0.99420339     18.593312      216.32484    
    850000   0.97547878     18.403354      216.33503    
    851000   1.0175891      18.681942      216.31785    
    852000   1.0389749      18.769045      216.18768    
    853000   1.0438588      18.374379      215.99161    
    854000   0.95347719     18.814411      216.01613    
    855000   0.98885234     18.879054      216.04945    
    856000   1.01925        18.971799      216.11831    
    857000   0.97050362     18.61312       215.78623    
    858000   0.99623454     19.079184      215.49498    
    859000   0.98924472     18.783816      215.2451     
    860000   0.98458156     18.584503      215.03197    
    861000   0.98518139     18.973367      215.0242     
    862000   1.0242729      18.910232      215.01411    
    863000   1.0144828      18.70179       215.04207    
    864000   1.0130319      18.700203      215.06228    
    865000   0.97946087     19.144086      214.92425    
    866000   1.0131206      18.617251      214.91488    
    867000   0.98387962     18.571287      214.87284    
    868000   0.97297197     18.906653      214.74912    
    869000   1.0168546      18.803041      214.58503    
    870000   0.97512336     18.719224      214.35811    
    871000   0.99318814     18.653366      214.23837    
    872000   1.0107296      18.758869      213.97769    
    873000   1.0100888      19.063292      213.94573    
    874000   1.0015929      18.909235      213.97468    
    875000   1.0308422      18.883881      214.17377    
    876000   1.0281148      18.431457      214.17247    
    877000   0.98732186     19.00868       214.19832    
    878000   1.0038473      18.116833      214.00258    
    879000   1.0380142      19.177253      213.92956    
    880000   1.050914       18.891771      213.99147    
    881000   1.0013083      18.800712      213.99061    
    882000   0.99758697     18.731577      213.73193    
    883000   0.99314168     18.773188      213.66356    
    884000   0.99451427     18.465174      213.74851    
    885000   0.98878795     19.142557      213.54067    
    886000   0.97633639     18.369435      213.46396    
    887000   1.0206494      18.7945        213.53171    
    888000   1.0105345      18.462815      213.59598    
    889000   0.99767803     19.018577      213.70406    
    890000   1.0154328      18.720463      213.71861    
    891000   0.99303564     18.684293      213.78929    
    892000   1.0352218      19.19234       213.60926    
    893000   0.9844299      18.924534      213.72126    
    894000   1.0295785      18.93304       213.83466    
    895000   1.0340367      18.965291      213.66092    
    896000   0.98754647     18.715504      213.39215    
    897000   1.0099625      19.228216      213.38362    
    898000   0.99535269     18.818184      213.36247    
    899000   1.0155411      18.530519      213.37225    
    900000   1.0166742      18.915353      213.19211    
    901000   1.0140451      18.550739      213.14069    
    902000   1.0472923      18.935544      213.09085    
    903000   1.0359395      19.320582      212.93379    
    904000   1.0093573      18.805482      212.92834    
    905000   1.021727       19.214035      212.77022    
    906000   1.0251241      18.571688      212.8393     
    907000   1.0284642      18.639638      212.83071    
    908000   1.0164912      18.832699      212.85486    
    909000   0.93432386     18.373365      212.72346    
    910000   1.0158351      19.122095      212.84421    
    911000   1.0155318      19.49008       212.81988    
    912000   0.99259184     18.941784      212.9475     
    913000   1.0191712      18.814859      212.8644     
    914000   0.98368323     18.460215      212.68246    
    915000   1.0048339      18.585958      212.78561    
    916000   1.0237829      18.518892      212.95334    
    917000   1.0226539      18.808692      212.78664    
    918000   1.0182181      18.796601      212.85163    
    919000   1.0100876      19.159737      212.74935    
    920000   1.0107506      18.573531      212.73812    
    921000   1.0153172      18.743986      212.8037     
    922000   0.99788866     19.119005      212.89147    
    923000   0.99986658     18.827291      212.79076    
    924000   1.0237218      18.936609      212.49941    
    925000   0.98969934     18.547814      212.41449    
    926000   0.97220328     18.955527      212.51814    
    927000   1.0117115      18.265969      212.494      
    928000   1.0074433      18.763376      212.67824    
    929000   0.9788914      18.795691      212.75632    
    930000   0.97895504     18.649375      212.64394    
    931000   1.0064151      18.965642      212.72506    
    932000   1.0223294      19.020888      212.57904    
    933000   0.96695444     18.21032       212.69002    
    934000   0.99502513     18.367361      212.73564    
    935000   0.99092362     18.940575      212.59151    
    936000   0.96377388     18.587879      212.69125    
    937000   0.96135198     19.028541      212.49426    
    938000   1.0550843      18.960223      212.55907    
    939000   0.98253076     19.456721      212.58573    
    940000   0.998008       18.872292      212.63966    
    941000   0.99764704     18.396937      212.86449    
    942000   0.98681951     19.0599        213.16212    
    943000   0.99234736     18.871115      213.13382    
    944000   1.0117266      18.85243       212.85602    
    945000   0.99730235     18.649742      212.7782     
    946000   1.0062263      18.502304      212.849      
    947000   0.98724755     18.865667      212.56428    
    948000   0.9815612      18.502687      212.34448    
    949000   1.0251575      18.827541      212.16514    
    950000   1.0000469      18.413353      212.21108    
    951000   1.0013278      19.063868      212.33407    
    952000   0.99855906     18.83887       212.18179    
    953000   1.0168811      18.927828      212.11467    
    954000   1.0005547      18.628153      211.91498    
    955000   0.99581932     18.618494      212.12228    
    956000   0.97166434     18.946082      212.20136    
    957000   0.97574243     18.059039      212.23594    
    958000   0.97137747     18.498548      212.1601     
    959000   1.0014898      18.906158      212.31363    
    960000   0.99536206     19.0461        212.28954    
    961000   0.99244584     18.626589      212.10781    
    962000   1.005811       18.325601      212.00838    
    963000   1.006315       18.484629      211.95447    
    964000   1.0405774      19.30079       211.7471     
    965000   0.98691804     18.35984       211.48142    
    966000   0.99229592     18.831452      211.70596    
    967000   1.0156082      19.167426      211.47568    
    968000   1.0333256      18.888199      211.50327    
    969000   0.98517522     18.882278      211.44071    
    970000   1.0099853      18.449897      211.48649    
    971000   0.98969719     18.710929      211.63734    
    972000   1.0315717      18.62623       211.54854    
    973000   0.99734536     18.484036      211.58692    
    974000   1.0499583      18.823375      211.56266    
    975000   0.95036954     18.770833      211.46833    
    976000   0.99392188     19.204671      211.34872    
    977000   0.99306094     18.315219      210.98143    
    978000   0.98100098     18.483542      210.87528    
    979000   0.99626929     18.349488      210.86752    
    980000   0.98464223     18.552458      210.93225    
    981000   1.0004132      18.186228      210.70832    
    982000   0.98477915     18.51702       210.57899    
    983000   0.98569139     18.847089      210.57571    
    984000   0.98658094     19.052634      210.50321    
    985000   1.0240581      18.893647      210.37092    
    986000   1.0245096      19.081701      210.52477    
    987000   1.0237235      18.860917      210.4856     
    988000   1.0001048      18.657137      210.36383    
    989000   0.97558123     18.59738       210.4109     
    990000   0.94609461     18.898326      210.29548    
    991000   0.99188814     18.770338      210.28178    
    992000   0.95301168     18.750102      210.2025     
    993000   1.0521995      18.663657      210.00164    
    994000   1.0550781      18.56971       209.90083    
    995000   0.97635759     18.14805       209.8527     
    996000   1.0121582      18.814         209.81076    
    997000   0.98678009     18.858262      209.91844    
    998000   0.98500616     18.421121      209.88455    
    999000   0.98437166     18.861942      209.95051    
   1000000   0.96758444     18.587671      209.94549    
   1001000   0.97635125     18.201788      209.86059    
   1002000   0.9919647      18.873905      209.76483    
   1003000   1.0067645      18.768605      209.61744    
   1004000   0.98571637     18.550637      209.56846    
   1005000   0.9975063      18.839759      209.51316    
   1006000   1.0098931      18.284036      209.69129    
   1007000   0.97883287     18.809132      209.61611    
   1008000   0.95767186     18.596455      209.76636    
   1009000   0.97724509     18.590288      209.61915    
   1010000   1.0178007      18.854345      209.36233    
   1011000   0.99797485     18.47692       209.33018    
   1012000   0.99525038     19.062417      209.28128    
   1013000   0.97797859     18.950699      208.90673    
   1014000   0.98600195     18.67572       208.65312    
   1015000   0.99944532     18.716353      208.6694     
   1016000   0.98977749     18.990791      208.61956    
   1017000   0.99677965     18.895396      208.33973    
   1018000   0.96718545     18.687225      208.25792    
   1019000   1.0187518      18.663849      207.94917    
   1020000   0.98634672     18.757738      207.63441    
   1021000   0.99594455     19.571015      207.59409    
   1022000   0.98817933     18.671719      207.48033    
   1023000   0.99387849     18.513045      207.23888    
   1024000   1.0089729      18.512563      207.19314    
   1025000   0.99461718     18.872929      207.09491    
   1026000   1.0159294      18.967326      207.12605    
   1027000   0.98558532     18.543061      207.08944    
   1028000   1.0112335      18.390798      206.84866    
   1029000   0.99416909     18.242446      206.82724    
   1030000   0.98942685     19.089992      206.66358    
   1031000   1.0123748      18.923202      206.62962    
   1032000   1.007547       18.519435      206.66646    
   1033000   0.99311247     18.968683      206.61418    
   1034000   0.98016683     18.842772      206.62299    
   1035000   0.98760391     18.234134      206.42323    
   1036000   1.0244264      18.655136      206.35383    
   1037000   0.99773083     18.649369      206.21046    
   1038000   1.0045679      18.500526      206.18332    
   1039000   1.0316685      19.312541      206.35537    
   1040000   1.0180825      18.591022      206.16697    
   1041000   1.00394        18.524871      206.00755    
   1042000   0.97539244     18.885701      205.87723    
   1043000   0.98078505     18.223178      205.57929    
   1044000   1.0042107      18.363242      205.46873    
   1045000   0.96201563     18.557968      205.25008    
   1046000   0.99499107     18.485607      205.15742    
   1047000   1.0313359      18.346852      204.96819    
   1048000   1.0000128      18.612782      204.93897    
   1049000   0.99307606     18.52853       204.89784    
   1050000   0.99774598     18.233614      204.60965    
   1051000   1.0115328      19.028815      204.46039    
   1052000   1.0235136      18.623718      204.17934    
   1053000   0.99841279     18.379984      204.1008     
   1054000   0.98622227     18.554477      204.23265    
   1055000   0.98837417     18.828659      203.88868    
   1056000   1.0119603      18.540044      203.94115    
   1057000   0.97126852     19.061097      203.81431    
   1058000   0.97321637     18.339532      203.60484    
   1059000   1.0354634      19.175985      203.58762    
   1060000   0.98580923     18.870016      203.39519    
   1061000   0.99908751     19.247235      203.30843    
   1062000   1.0068486      18.614712      203.09972    
   1063000   0.97290932     19.114776      203.15143    
   1064000   1.0076161      18.566179      202.89428    
   1065000   1.0151673      18.208439      202.7741     
   1066000   0.95275229     18.765044      202.68574    
   1067000   1.0039581      18.932307      202.4254     
   1068000   0.97599278     18.84628       202.30119    
   1069000   1.0010995      18.878416      202.28982    
   1070000   0.95903806     18.694073      202.39312    
   1071000   1.0205621      18.764541      202.36673    
   1072000   0.95965791     18.655135      202.32307    
   1073000   1.0048682      18.762441      202.40425    
   1074000   0.9348706      18.606709      202.26615    
   1075000   1.0169894      18.20393       202.16228    
   1076000   1.0024116      18.581043      202.01297    
   1077000   1.0286786      19.015668      202.10931    
   1078000   1.0104848      18.145895      201.91217    
   1079000   0.99392559     19.208216      201.85151    
   1080000   0.97112098     18.88075       201.73127    
   1081000   1.0210504      18.891543      201.34118    
   1082000   0.99864807     18.72419       201.2211     
   1083000   1.0233788      19.005911      201.36891    
   1084000   0.98876579     18.382448      201.15858    
   1085000   0.99857879     19.043688      201.3339     
   1086000   1.0089435      18.781539      201.21852    
   1087000   1.0272933      18.75596       200.95697    
   1088000   0.99863755     18.717209      200.85631    
   1089000   0.98315836     19.009345      200.72697    
   1090000   1.0755965      18.428928      200.80398    
   1091000   0.97031605     18.673582      200.94592    
   1092000   0.95738749     18.406944      200.78821    
   1093000   0.98301283     18.660926      200.72394    
   1094000   0.99246535     18.255382      200.89217    
   1095000   1.0341667      18.57195       200.58624    
   1096000   1.0090632      18.604979      200.45385    
   1097000   1.0240351      18.642887      200.43298    
   1098000   0.97059514     18.083203      200.3287     
   1099000   1.0413434      18.978133      200.27165    
   1100000   1.0388157      19.175261      200.10282    
   1101000   1.0259823      18.577723      199.71718    
   1102000   1.0217413      18.630758      199.58732    
   1103000   0.99751828     18.371744      199.57825    
   1104000   1.0070957      18.488754      199.47854    
   1105000   0.97990707     18.931584      199.47831    
   1106000   0.9906899      18.656627      199.41486    
   1107000   0.99041517     18.654639      199.33267    
   1108000   1.0425133      19.021139      199.19133    
   1109000   0.99385265     18.581144      198.93004    
   1110000   1.0136063      18.50809       198.89165    
   1111000   0.96863793     18.537921      198.9351     
   1112000   1.0158995      18.342603      198.80989    
   1113000   1.0213039      18.586085      198.83636    
   1114000   1.0299867      18.63552       198.91431    
   1115000   1.0297612      18.359229      198.97184    
   1116000   1.0204267      19.136861      199.12615    
   1117000   1.004974       18.906555      199.28344    
   1118000   1.0157608      18.603618      199.40548    
   1119000   0.9889247      18.095422      199.38373    
   1120000   0.97284618     18.876964      199.32643    
   1121000   1.0161995      18.549         199.17692    
   1122000   1.0378545      18.215652      199.07718    
   1123000   1.0390711      18.702211      199.03287    
   1124000   0.99222794     18.404172      198.92529    
   1125000   1.0191592      18.579537      198.7788     
   1126000   1.0561654      18.8764        198.49026    
   1127000   1.0151812      18.690571      198.21971    
   1128000   1.0228588      18.712601      198.14987    
   1129000   0.986795       18.595206      197.94034    
   1130000   1.0041365      18.432437      197.83228    
   1131000   0.99457106     18.196173      197.89165    
   1132000   0.98499802     18.513589      197.85337    
   1133000   1.0046126      18.806676      197.78904    
   1134000   0.98877302     18.846698      197.82635    
   1135000   1.0066671      18.518255      197.73845    
   1136000   0.97309246     18.614173      197.69891    
   1137000   0.97885138     18.330153      197.492      
   1138000   0.95687668     18.719897      197.57854    
   1139000   0.9815744      18.652549      197.24777    
   1140000   1.0500413      18.581335      197.31706    
   1141000   0.97610289     18.53405       197.21658    
   1142000   0.95326712     18.733544      197.35936    
   1143000   0.99070122     18.5415        197.25274    
   1144000   0.9953691      18.80794       197.0815     
   1145000   1.007405       18.62281       196.99229    
   1146000   0.9917246      18.817453      197.09309    
   1147000   0.99262321     18.386127      197.05197    
   1148000   1.0394007      18.655887      197.09359    
   1149000   1.0086612      18.169755      197.03099    
   1150000   0.97504244     18.670506      196.98468    
   1151000   1.0012127      18.374946      196.90873    
   1152000   0.99514159     18.365285      196.87118    
   1153000   0.98205775     18.662116      196.90976    
   1154000   0.98732343     18.819165      196.89838    
   1155000   1.0260736      18.786271      196.8803     
   1156000   0.98614231     18.505936      196.81769    
   1157000   0.96436169     18.45308       196.72187    
   1158000   0.99998443     18.75122       196.8189     
   1159000   0.99352932     18.660727      196.89269    
   1160000   1.0052183      18.771372      196.99228    
   1161000   1.045955       18.659172      197.16541    
   1162000   1.0094399      18.358634      197.04971    
   1163000   1.021483       18.586096      196.93557    
   1164000   1.032338       19.070573      196.92532    
   1165000   1.0164305      18.372428      196.69274    
   1166000   0.9770804      18.572636      196.29037    
   1167000   1.0236802      18.775855      196.39034    
   1168000   1.0036254      18.453374      196.30445    
   1169000   0.98260686     18.462785      196.01901    
   1170000   0.99148835     18.774317      195.96276    
   1171000   0.98296784     18.612316      195.82965    
   1172000   1.0105778      18.47259       195.75523    
   1173000   0.95521033     18.263319      195.85569    
   1174000   1.0155206      18.715776      195.70026    
   1175000   0.98129108     18.224581      195.77212    
   1176000   0.95164737     18.970633      195.78887    
   1177000   1.0037504      18.38359       195.95183    
   1178000   0.99872367     18.773934      195.65821    
   1179000   1.054717       18.934336      195.80113    
   1180000   0.99879106     18.831315      195.76359    
   1181000   1.0134536      18.652686      195.74592    
   1182000   0.99671889     18.624823      195.53975    
   1183000   0.97499406     18.087864      195.3263     
   1184000   1.042719       18.709384      195.27678    
   1185000   1.0205349      18.286537      195.05639    
   1186000   1.0121056      18.364066      194.66608    
   1187000   1.01095        18.951036      194.49806    
   1188000   0.99773896     18.627741      194.24127    
   1189000   0.97732532     18.832059      194.10616    
   1190000   1.001345       18.477037      194.0329     
   1191000   1.0160204      18.897566      193.89219    
   1192000   1.0089756      18.439364      193.82131    
   1193000   1.0059373      18.799891      193.84095    
   1194000   0.98032096     18.376054      193.72432    
   1195000   1.0225595      18.736218      193.68348    
   1196000   1.0146119      18.892929      193.58259    
   1197000   1.0139264      18.604207      193.38369    
   1198000   0.99803338     18.821376      193.57458    
   1199000   0.96848202     18.391912      193.48452    
   1200000   0.99410533     18.143244      193.39094    
   1201000   1.0253963      18.762127      193.4615     
   1202000   0.99220297     18.545439      193.25441    
   1203000   0.9824764      19.117541      193.14698    
   1204000   1.0341146      18.897206      193.28041    
   1205000   1.0318905      18.903567      193.20998    
   1206000   1.0030635      18.204742      193.32012    
   1207000   0.97054172     18.798191      193.02333    
   1208000   0.99510652     18.57076       192.84735    
   1209000   1.0166044      18.390611      192.88855    
   1210000   0.96713853     18.908007      192.9314     
   1211000   0.9820394      18.455957      192.91594    
   1212000   0.9838564      18.53549       193.08193    
   1213000   1.0170486      18.652217      193.01358    
   1214000   1.0246825      18.041283      192.99564    
   1215000   0.99172057     18.348365      193.01914    
   1216000   1.0005079      18.838359      193.15846    
   1217000   1.009101       18.353918      193.07459    
   1218000   1.0494857      18.766477      192.95454    
   1219000   0.96032495     18.455469      192.89336    
   1220000   0.99867695     18.349765      192.82363    
   1221000   0.99112914     18.524941      192.71748    
   1222000   1.0122768      18.844247      192.64811    
   1223000   0.9788303      18.745895      192.53331    
   1224000   1.0022082      18.276654      192.43482    
   1225000   0.97341088     18.530538      192.57204    
   1226000   0.98434779     18.194346      192.41062    
   1227000   0.99764805     18.520345      192.45193    
   1228000   1.0197827      18.718227      192.27648    
   1229000   1.0125782      18.577555      192.2598     
   1230000   1.016557       18.323884      192.40036    
   1231000   0.9733707      18.162072      192.4784     
   1232000   1.0263825      18.330582      192.65082    
   1233000   0.97429225     18.68765       192.55478    
   1234000   1.0365648      19.107225      192.35306    
   1235000   1.0136364      18.822855      192.35449    
   1236000   1.049655       18.613276      192.30015    
   1237000   1.0023483      18.452787      192.09903    
   1238000   1.0175383      18.836501      191.94707    
   1239000   0.99529765     18.635541      191.83479    
   1240000   1.036871       18.93348       191.74585    
   1241000   1.0184657      18.412349      191.6047     
   1242000   0.97362297     18.492883      191.62349    
   1243000   1.0441798      18.664888      191.55599    
   1244000   0.96369592     18.527911      191.53993    
   1245000   0.9922753      18.363014      191.63318    
   1246000   0.99899996     18.403909      191.52775    
   1247000   0.99766411     18.664028      191.46463    
   1248000   1.0400158      18.473427      191.39662    
   1249000   0.99692812     18.541993      191.50581    
   1250000   0.99620497     18.681782      191.4335     
   1251000   0.97751388     18.333499      191.49619    
   1252000   1.0148293      18.161026      191.47009    
   1253000   1.010338       18.387519      191.31437    
   1254000   1.0219719      18.491442      191.01987    
   1255000   1.0192491      18.914512      190.80292    
   1256000   0.96763804     18.152261      190.80227    
   1257000   1.0135504      18.95736       190.7292     
   1258000   1.0328571      18.844259      190.66997    
   1259000   0.98995128     18.674665      190.42329    
   1260000   0.99718801     18.618544      190.22743    
   1261000   0.97078673     18.080949      190.15433    
   1262000   1.0030194      18.873183      189.91157    
   1263000   1.0512986      18.366621      189.78322    
   1264000   1.0170831      18.394308      189.73184    
   1265000   0.98817565     18.623019      189.66728    
   1266000   0.97444034     18.756569      189.50784    
   1267000   1.0247537      17.810188      189.56544    
   1268000   0.97585602     18.147598      189.42952    
   1269000   1.0124037      19.128756      189.33108    
   1270000   1.0213781      18.756456      189.15556    
   1271000   0.98421464     18.451629      189.26219    
   1272000   0.98287933     18.270675      189.3002     
   1273000   1.0059731      18.230563      189.187      
   1274000   0.95443302     18.144727      189.24439    
   1275000   1.0416066      18.232351      188.95522    
   1276000   1.0023745      18.432701      188.96272    
   1277000   1.012175       18.218696      188.78586    
   1278000   1.0543507      18.823872      188.68581    
   1279000   1.0098397      18.407282      188.68398    
   1280000   0.98293545     18.43123       188.54711    
   1281000   0.99742525     19.032061      188.40584    
   1282000   1.0186794      18.63562       188.30647    
   1283000   0.99086581     18.60577       188.24635    
   1284000   1.0154217      18.615534      188.2577     
   1285000   1.0074312      18.421265      188.30227    
   1286000   1.0620276      18.541867      188.31976    
   1287000   1.0329622      18.766015      188.38484    
   1288000   1.0046369      18.588012      188.40355    
   1289000   0.98148514     18.819591      188.3359     
   1290000   0.96808713     18.363405      188.25341    
   1291000   0.99958984     18.066794      188.14348    
   1292000   1.0019171      18.585687      188.15637    
   1293000   0.95293353     18.579771      188.2147     
   1294000   1.052485       18.414536      188.12668    
   1295000   0.9765709      18.580853      188.07636    
   1296000   0.98542362     18.923751      187.88724    
   1297000   1.0325293      18.724103      187.58676    
   1298000   0.98424652     18.505281      187.61485    
   1299000   1.03572        18.410533      187.80204    
   1300000   1.0059371      18.928509      188.04996    
   1301000   0.99637037     18.359043      187.87425    
   1302000   0.98059058     18.320979      187.95907    
   1303000   1.0169129      18.430452      187.97079    
   1304000   0.9927993      18.190492      187.98627    
   1305000   0.95314729     18.44872       188.13778    
   1306000   1.01369        18.363703      188.07431    
   1307000   1.0168151      18.427935      188.09948    
   1308000   1.0202181      18.757049      187.84615    
   1309000   1.0148492      18.823886      187.66654    
   1310000   0.97526575     18.328524      187.82312    
   1311000   1.0094607      19.243594      187.90893    
   1312000   0.97593781     18.757254      188.18965    
   1313000   1.0018546      18.31775       188.11484    
   1314000   0.99158291     18.529116      187.85033    
   1315000   0.99548391     18.246586      187.92997    
   1316000   0.97370127     18.850651      188.00479    
   1317000   1.0018651      18.371363      187.90343    
   1318000   0.97217735     18.168864      187.78727    
   1319000   0.98479681     18.531695      187.64728    
   1320000   0.97985466     18.145719      187.38776    
   1321000   1.0217673      18.250788      187.24099    
   1322000   1.0228933      19.246517      187.28704    
   1323000   1.0013457      18.1885        187.21951    
   1324000   0.98443822     18.997862      187.05352    
   1325000   0.99953441     18.515778      187.13462    
   1326000   1.0227181      19.116716      186.91996    
   1327000   1.017718       18.794857      186.69433    
   1328000   1.0057252      18.041144      186.85675    
   1329000   1.0513641      18.514221      186.83582    
   1330000   0.96401476     17.979712      186.90838    
   1331000   1.0480033      18.553271      186.87696    
   1332000   1.0295527      19.234926      186.96416    
   1333000   0.99669643     18.298767      186.8011     
   1334000   1.0007346      18.763928      186.60697    
   1335000   1.0322008      18.679586      186.35477    
   1336000   1.0317792      18.820519      186.3787     
   1337000   1.0375805      18.520252      186.38764    
   1338000   1.0036146      17.850086      186.36631    
   1339000   1.0237146      18.287408      186.35653    
   1340000   1.0168306      19.119323      186.35476    
   1341000   0.96785768     18.698672      186.25182    
   1342000   1.0190934      18.575602      186.04409    
   1343000   1.0105059      18.758837      185.90016    
   1344000   1.0249206      18.72639       185.9595     
   1345000   1.0168182      18.293079      185.81109    
   1346000   0.9982093      18.522093      185.85166    
   1347000   0.99490161     18.59366       185.83195    
   1348000   0.94485173     18.47346       185.69576    
   1349000   0.99390085     18.610563      185.55929    
   1350000   1.0368154      18.597896      185.62165    
   1351000   1.0156582      18.830649      185.52929    
   1352000   1.0295225      18.33544       185.53184    
   1353000   0.9699115      18.470893      185.34838    
   1354000   0.98240604     18.014731      184.98143    
   1355000   0.99666966     18.203065      184.74304    
   1356000   0.98789814     18.484746      184.89251    
   1357000   0.97594912     18.492279      184.76916    
   1358000   0.97795696     18.646804      184.70813    
   1359000   0.9768094      17.93253       184.57269    
   1360000   0.95694698     18.476197      184.49606    
   1361000   0.98002202     18.87904       184.4207     
   1362000   0.99487318     18.556179      184.14149    
   1363000   0.9958193      18.23449       184.07929    
   1364000   1.0061196      18.522115      183.99161    
   1365000   1.0315227      18.724496      183.90118    
   1366000   1.0138407      18.807507      183.80923    
   1367000   0.98722957     17.846415      183.67164    
   1368000   1.0019582      18.935147      183.53299    
   1369000   1.0283617      18.896627      183.57202    
   1370000   1.0089169      18.541647      183.53492    
   1371000   0.96933144     17.876292      183.47355    
   1372000   1.0178159      18.509614      183.52494    
   1373000   0.99061694     18.222989      183.58011    
   1374000   1.0584833      18.188512      183.69113    
   1375000   1.0269925      18.79783       183.5879     
   1376000   1.0069208      18.664534      183.69623    
   1377000   0.99834545     18.256288      183.48102    
   1378000   1.0273845      18.442355      183.39284    
   1379000   1.0417872      18.178705      183.23207    
   1380000   0.95887641     18.406236      183.15586    
   1381000   1.0304666      18.567014      183.15774    
   1382000   0.97591106     18.636179      183.08518    
   1383000   1.0310926      18.331736      183.0973     
   1384000   0.99562886     18.264202      183.15364    
   1385000   0.97893774     19.060652      183.23392    
   1386000   0.99380475     18.478357      183.28312    
   1387000   0.95983114     18.450281      183.01264    
   1388000   1.0063425      17.951918      182.94429    
   1389000   0.94739671     17.948563      182.838      
   1390000   1.0128874      19.112689      182.87806    
   1391000   1.0176923      18.200912      182.62871    
   1392000   1.0015351      18.728474      182.70033    
   1393000   0.92891294     18.226258      182.73724    
   1394000   1.0202482      18.602372      182.67558    
   1395000   0.98225947     18.003197      182.51861    
   1396000   0.9588513      18.393408      182.26743    
   1397000   1.0142054      18.088802      182.31465    
   1398000   0.96079293     17.896214      182.27204    
   1399000   0.98642919     18.835526      182.03172    
   1400000   0.98214983     18.84721       181.80634    
   1401000   1.0099973      18.909428      181.80586    
   1402000   0.98569604     17.846154      181.56555    
   1403000   1.0579967      18.354969      181.32287    
   1404000   0.97246695     18.035101      181.1652     
   1405000   0.9964617      18.324024      181.09018    
   1406000   1.0005459      18.00666       181.31396    
   1407000   1.0428736      18.207954      181.2502     
   1408000   0.97869222     18.481311      181.19144    
   1409000   1.0387942      18.399397      181.25977    
   1410000   1.0048095      18.55888       181.09143    
   1411000   1.0083822      18.501646      180.77381    
   1412000   0.95961243     18.453025      180.71384    
   1413000   0.97475651     17.955518      180.5637     
   1414000   0.97749694     18.400088      180.5331     
   1415000   1.0402313      18.290004      180.36664    
   1416000   1.0299803      18.908138      180.31226    
   1417000   1.0084125      18.451733      180.22447    
   1418000   0.99903251     17.679883      180.27006    
   1419000   1.0063954      18.072663      180.17976    
   1420000   0.96052848     18.338972      180.05094    
   1421000   0.99251311     17.996335      180.07536    
   1422000   0.99724483     18.237154      180.00338    
   1423000   0.99612551     18.330146      179.89227    
   1424000   1.0453908      19.083631      179.97337    
   1425000   0.9895403      18.125599      179.83134    
   1426000   1.0270595      18.310433      179.9289     
   1427000   1.0034009      18.15055       180.02363    
   1428000   0.98342209     18.425932      179.83417    
   1429000   0.97497466     18.675949      179.81227    
   1430000   0.99505787     18.234836      179.68781    
   1431000   1.0234618      18.325723      179.67228    
   1432000   1.0305851      18.508765      179.73896    
   1433000   1.0105217      18.088397      179.68063    
   1434000   0.99344377     18.655247      179.6538     
   1435000   0.98026723     18.33653       179.55986    
   1436000   1.0090882      18.424887      179.35086    
   1437000   1.004314       18.99285       179.3045     
   1438000   1.0147829      18.154746      179.33084    
   1439000   1.0250645      18.287098      179.37478    
   1440000   1.0134301      17.987185      179.22837    
   1441000   0.95345064     17.902456      179.0981     
   1442000   1.0199002      18.364716      179.09765    
   1443000   1.0277094      18.360667      179.24736    
   1444000   1.0577062      18.314704      179.16732    
   1445000   1.0182599      18.364853      179.12347    
   1446000   0.96901404     18.156641      179.09124    
   1447000   1.0017913      18.249959      179.14724    
   1448000   1.0032167      18.44248       178.98881    
   1449000   0.99065064     18.20964       178.87952    
   1450000   1.0292101      17.900357      178.74256    
   1451000   0.9390521      18.375753      178.883      
   1452000   0.97398017     17.672689      178.74871    
   1453000   0.98736241     18.384204      178.52321    
   1454000   1.017363       18.383909      178.57492    
   1455000   1.0173108      18.324207      178.45553    
   1456000   0.96855738     18.15546       178.41169    
   1457000   1.0215431      18.508363      178.20746    
   1458000   1.0070224      18.189875      178.19548    
   1459000   0.99316893     17.990169      178.12111    
   1460000   0.99577062     18.720646      178.02121    
   1461000   0.9863331      18.108645      177.82509    
   1462000   1.0212885      18.80338       177.73906    
   1463000   0.9997548      18.636068      177.57561    
   1464000   0.99840574     18.448275      177.5927     
   1465000   0.96679021     17.98833       177.26781    
   1466000   1.0030615      18.289565      177.14736    
   1467000   0.99303883     18.246328      176.97983    
   1468000   1.012049       18.531492      176.94399    
   1469000   1.0230802      18.233995      176.75173    
   1470000   1.0416261      18.329598      176.80812    
   1471000   1.0080489      18.237135      176.89123    
   1472000   1.0386069      17.944414      176.60891    
   1473000   0.94917284     17.858784      176.49528    
   1474000   0.9834291      18.418237      176.54775    
   1475000   1.0420521      18.569893      176.59952    
   1476000   1.0023243      18.670496      176.46538    
   1477000   0.99386818     18.381408      176.37379    
   1478000   0.97936877     18.256497      176.26832    
   1479000   1.0726022      18.33591       176.24494    
   1480000   0.9745293      18.742931      176.40342    
   1481000   0.97184848     18.592089      176.41047    
   1482000   0.98567636     17.953453      176.41691    
   1483000   0.99332878     18.01509       176.42209    
   1484000   0.985102       19.057374      176.45559    
   1485000   0.97946308     18.351841      176.51946    
   1486000   0.96985203     18.211601      176.57929    
   1487000   0.99956575     17.709261      176.73678    
   1488000   1.0592413      18.133906      176.71935    
   1489000   1.0234195      18.022763      176.68443    
   1490000   0.99693737     18.587929      176.69239    
   1491000   1.0214405      18.706578      176.40767    
   1492000   0.98813822     18.178502      176.4515     
   1493000   1.0155207      18.062341      176.59173    
   1494000   0.96707856     18.27702       176.37747    
   1495000   1.023471       18.328699      176.42693    
   1496000   1.0075692      18.111716      176.44231    
   1497000   0.9782895      18.425958      176.2798     
   1498000   0.9934867      17.979905      176.39806    
   1499000   1.0170971      18.389648      176.28994    
   1500000   1.010666       18.204053      176.25326    
   1501000   1.0119154      18.357129      176.23484    
   1502000   0.98505544     18.071305      176.15064    
   1503000   0.97455011     17.766873      175.85276    
   1504000   0.96252019     18.224117      175.86388    
   1505000   1.0157261      18.047096      175.73597    
   1506000   0.99810995     18.113457      176.11528    
   1507000   0.9804685      18.29169       176.10579    
   1508000   0.99729357     18.496718      176.15816    
   1509000   1.0193275      18.033624      176.2077     
   1510000   0.98332947     18.108709      176.25938    
   1511000   1.0146317      18.166231      176.12799    
   1512000   1.0036971      18.409591      176.17686    
   1513000   1.0018979      18.53535       176.07267    
   1514000   1.0286563      19.03643       175.80501    
   1515000   1.0335167      17.840412      175.97172    
   1516000   1.0045376      18.122641      175.93693    
   1517000   0.99353898     18.650789      175.81322    
   1518000   0.96927534     18.299584      175.55105    
   1519000   0.99991594     18.036802      175.39611    
   1520000   0.99032523     18.172839      175.37495    
   1521000   1.0003893      18.533226      175.46304    
   1522000   1.0245743      18.687752      175.10325    
   1523000   1.0255871      18.573508      175.07178    
   1524000   1.006595       17.525775      174.77407    
   1525000   0.97152073     18.296972      174.9192     
   1526000   1.0048521      17.903987      174.74588    
   1527000   1.0036079      18.627753      174.61395    
   1528000   0.97786135     17.865829      174.3084     
   1529000   0.9912243      18.036694      174.18665    
   1530000   1.0249022      18.503683      174.11085    
   1531000   1.0355287      18.384194      174.20178    
   1532000   1.0074851      18.332734      174.37833    
   1533000   1.0277652      18.370909      174.27709    
   1534000   0.99772148     18.103264      174.11589    
   1535000   0.99637574     18.350687      174.00672    
   1536000   0.99992326     18.471547      173.98697    
   1537000   1.0246416      18.624347      174.02584    
   1538000   1.0156845      18.147989      173.94541    
   1539000   0.9393485      18.071551      173.72586    
   1540000   0.98425186     18.48767       173.71038    
   1541000   1.0097943      18.820177      173.5023     
   1542000   0.96630114     18.329283      173.39066    
   1543000   0.98986844     18.241474      173.52579    
   1544000   0.958019       18.762637      173.55336    
   1545000   1.0212558      18.624903      173.57976    
   1546000   1.0656601      17.746507      173.50309    
   1547000   1.0306289      18.018501      173.54568    
   1548000   1.0142004      18.361581      173.43562    
   1549000   0.99112434     18.432428      173.46045    
   1550000   0.95121623     18.651849      173.44075    
   1551000   1.0360599      18.231799      173.40956    
   1552000   1.0027587      18.037964      173.11729    
   1553000   0.99678483     19.122418      173.03793    
   1554000   0.99667077     18.078909      172.78101    
   1555000   1.0473871      18.637592      172.68582    
   1556000   0.99883188     18.319064      172.56743    
   1557000   1.0213893      18.91056       172.34405    
   1558000   1.0074639      18.596193      172.41168    
   1559000   0.99711251     18.076484      172.50341    
   1560000   1.0108048      18.236495      172.47279    
   1561000   0.99498802     18.319279      172.48302    
   1562000   0.96993536     18.225595      172.36027    
   1563000   0.95124059     18.306175      172.2477     
   1564000   0.96126331     18.425805      172.15043    
   1565000   0.99936387     18.390709      172.30529    
   1566000   0.97786467     18.459747      172.14013    
   1567000   0.99739191     18.189638      171.846      
   1568000   1.0181443      18.139574      171.70479    
   1569000   1.0180199      18.293206      171.49501    
   1570000   1.0180534      18.412117      171.42019    
   1571000   0.97792225     18.390944      171.26513    
   1572000   0.99835251     18.17625       171.21632    
   1573000   1.0045294      18.481821      171.17676    
   1574000   0.97824495     18.391746      171.1472     
   1575000   1.0163366      18.336929      170.99683    
   1576000   1.0006682      18.618334      171.03966    
   1577000   0.99183756     18.307433      170.96036    
   1578000   1.0464038      18.269529      170.79952    
   1579000   0.99892817     18.216681      170.78236    
   1580000   0.99430724     18.430504      170.42156    
   1581000   0.95998716     17.917178      170.52958    
   1582000   0.98060147     18.242302      170.29427    
   1583000   0.96756488     18.251762      170.36845    
   1584000   1.0022636      18.050671      170.40698    
   1585000   1.0015647      18.626418      170.30864    
   1586000   0.98321757     17.862943      170.26682    
   1587000   1.004829       18.200739      170.10222    
   1588000   1.0053989      18.016697      169.97399    
   1589000   1.041526       18.175899      169.82731    
   1590000   1.0130625      17.865369      170.05533    
   1591000   1.0322843      18.899518      170.14797    
   1592000   0.98607551     18.471229      170.3479     
   1593000   0.96787612     18.294784      170.30591    
   1594000   1.0289937      18.771062      170.3908     
   1595000   0.97569574     18.621207      170.4073     
   1596000   1.0178465      18.958549      170.55938    
   1597000   1.007562       18.404392      170.7394     
   1598000   1.0138736      18.27346       170.68528    
   1599000   1.0160684      18.355965      170.41602    
   1600000   1.0072487      18.130909      170.17176    
   1601000   0.96976416     18.05877       169.93092    
   1602000   0.99501292     18.015349      169.6335     
   1603000   0.99666109     18.114981      169.77757    
   1604000   1.049479       18.661521      169.80582    
   1605000   1.0133275      18.209953      169.66774    
   1606000   0.97053339     18.076378      169.5663     
   1607000   0.99555584     17.820437      169.58739    
   1608000   1.0570634      18.785875      169.71533    
   1609000   0.96359311     17.824815      169.58354    
   1610000   1.012661       18.44959       169.46623    
   1611000   1.0033664      18.35557       169.34615    
   1612000   1.0132749      18.117374      169.61436    
   1613000   0.98886076     18.594384      169.58879    
   1614000   0.99424409     18.073073      169.55464    
   1615000   1.0095         18.891826      169.53787    
   1616000   0.98952699     17.970799      169.33986    
   1617000   0.99922827     18.157825      169.3677     
   1618000   0.98136906     18.257098      169.18274    
   1619000   1.0240427      18.717153      169.22798    
   1620000   1.0137091      18.286093      169.09004    
   1621000   0.97406509     17.97153       169.1116     
   1622000   0.99447599     17.74347       169.02958    
   1623000   1.0474107      18.517456      169.04406    
   1624000   0.98801002     18.330915      168.7631     
   1625000   1.0160262      18.431381      168.77048    
   1626000   0.9811831      17.766708      168.62531    
   1627000   1.031528       18.158878      168.35619    
   1628000   1.0053735      18.09906       168.38184    
   1629000   1.0055329      18.20005       168.42416    
   1630000   1.0141529      18.353491      168.3399     
   1631000   0.98779696     17.967652      168.09798    
   1632000   0.99097737     18.49882       168.16675    
   1633000   0.96705095     18.326479      168.11858    
   1634000   1.0106931      18.241458      168.35937    
   1635000   0.99619819     17.910402      168.31141    
   1636000   0.97402859     18.33059       168.22158    
   1637000   1.0118386      18.342205      168.02761    
   1638000   1.0196086      18.911618      167.88169    
   1639000   1.005199       18.423889      167.94133    
   1640000   0.97561741     17.77596       167.84701    
   1641000   0.99802944     18.311514      167.62606    
   1642000   0.97776338     18.558863      167.42801    
   1643000   1.0155625      18.050704      167.28842    
   1644000   0.99084978     18.994327      167.18919    
   1645000   1.0191723      17.938392      167.07079    
   1646000   1.0122161      18.319569      167.07571    
   1647000   1.02256        18.277057      167.19249    
   1648000   0.97883947     17.644438      167.14784    
   1649000   1.0155811      18.582656      166.72643    
   1650000   1.0088618      18.118706      166.53323    
   1651000   0.97672627     18.3504        166.4485     
   1652000   1.0161991      17.990141      166.30131    
   1653000   0.99474597     19.032001      166.34656    
   1654000   0.97957166     18.200168      166.34236    
   1655000   1.0170141      18.530675      166.30019    
   1656000   0.98587823     18.383539      166.07965    
   1657000   0.96275074     18.186533      166.1917     
   1658000   1.0162203      18.202617      166.12177    
   1659000   0.99526817     18.496837      166.09729    
   1660000   1.0274706      18.349929      166.02631    
   1661000   0.97766687     18.088817      165.83693    
   1662000   0.96617915     17.673218      165.61108    
   1663000   1.0125795      18.139279      165.42464    
   1664000   0.99532614     17.858059      165.42748    
   1665000   0.96917371     18.309731      165.11957    
   1666000   0.98496825     18.018104      165.05917    
   1667000   0.99742755     18.692118      164.85393    
   1668000   0.97840263     17.915475      164.61463    
   1669000   1.0030972      18.285186      164.44045    
   1670000   0.98274646     18.039911      164.12872    
   1671000   1.0047714      17.937072      164.12407    
   1672000   0.95432499     18.362779      164.1633     
   1673000   1.0007964      18.391791      164.24598    
   1674000   0.99108919     17.777213      164.27399    
   1675000   0.99212555     18.059625      164.06166    
   1676000   1.0030618      17.968653      164.01921    
   1677000   1.0503007      18.643519      164.03125    
   1678000   1.0084509      18.31898       163.87315    
   1679000   0.9887041      18.594238      163.85732    
   1680000   0.99869618     18.170357      163.69229    
   1681000   0.98335565     18.755002      163.58848    
   1682000   0.96647922     18.52336       163.51569    
   1683000   1.0259858      18.126646      163.55016    
   1684000   1.0656226      17.949328      163.48714    
   1685000   1.016419       18.20722       163.59178    
   1686000   0.98277993     18.220007      163.51813    
   1687000   0.97581978     18.533595      163.34842    
   1688000   1.0535688      18.352587      163.31448    
   1689000   0.99586367     18.671074      163.07658    
   1690000   1.0157666      18.266687      162.92247    
   1691000   1.0016314      18.642578      162.7145     
   1692000   0.9997409      18.243154      162.61217    
   1693000   0.99689129     17.66484       162.43954    
   1694000   0.99956475     17.792183      162.29394    
   1695000   0.99700459     18.520784      162.38229    
   1696000   0.98418757     18.32331       162.46221    
   1697000   0.98823711     18.913571      162.32607    
   1698000   1.03195        18.626407      162.19599    
   1699000   0.99251021     18.362251      162.18977    
   1700000   1.0293179      18.273175      162.0563     
   1701000   0.98343836     18.294491      161.90271    
   1702000   1.0345201      18.789844      161.82246    
   1703000   0.99000225     18.242761      161.7664     
   1704000   1.0062717      18.189517      161.8772     
   1705000   0.98971749     18.300725      162.01094    
   1706000   1.0223525      17.718963      161.93102    
   1707000   1.0153039      18.337454      161.89733    
   1708000   1.0203429      18.407551      161.8956     
   1709000   0.96329628     17.989322      161.84046    
   1710000   0.95016555     17.769554      161.77329    
   1711000   0.96796721     18.421114      161.65787    
   1712000   0.99733685     17.991086      161.59063    
   1713000   0.98395744     18.171606      161.5271     
   1714000   1.0166095      18.609839      161.50311    
   1715000   1.0209842      18.029701      161.33852    
   1716000   1.0286123      18.227984      161.21889    
   1717000   1.0212464      18.464078      161.29853    
   1718000   1.0369249      18.440219      161.33109    
   1719000   0.98930958     18.030721      161.48501    
   1720000   0.97210983     17.881248      161.41814    
   1721000   1.0037778      17.849457      161.31314    
   1722000   1.0332376      18.593337      161.22473    
   1723000   1.0073138      18.356037      161.21449    
   1724000   1.0402105      18.528631      161.10163    
   1725000   1.0161994      18.287765      161.04404    
   1726000   1.0139796      18.446691      160.83016    
   1727000   0.99971656     18.045112      160.49987    
   1728000   0.98535678     18.32785       160.38193    
   1729000   1.0061725      18.374338      160.37037    
   1730000   1.0326991      18.440999      160.31799    
   1731000   0.99533213     18.288713      160.11213    
   1732000   1.0141793      18.292966      159.89836    
   1733000   0.97988921     18.519392      159.71584    
   1734000   0.97166827     18.012986      159.75868    
   1735000   0.96471533     17.743339      159.68611    
   1736000   1.0205806      18.00706       159.74352    
   1737000   1.007267       17.897018      159.57245    
   1738000   0.97578638     18.009308      159.49965    
   1739000   1.0145417      18.485498      159.36163    
   1740000   0.98888511     18.216203      159.1344     
   1741000   0.99941348     18.20496       158.93279    
   1742000   0.97892168     17.587734      158.78054    
   1743000   0.9658284      18.390712      158.90313    
   1744000   0.98043863     18.044245      158.88468    
   1745000   1.0310147      18.471895      158.66104    
   1746000   0.9640855      18.078418      158.60383    
   1747000   1.0028915      18.073854      158.63305    
   1748000   0.99493537     18.074961      158.58287    
   1749000   1.0376853      18.319858      158.58124    
   1750000   0.99406053     18.025949      158.43983    
   1751000   1.0382784      17.944609      158.60169    
   1752000   0.9966562      18.094999      158.60593    
   1753000   1.0303713      18.245307      158.25704    
   1754000   0.95961811     17.948183      158.29058    
   1755000   1.0112708      18.778937      158.217      
   1756000   0.98215114     18.062039      158.04841    
   1757000   0.99169625     17.937329      157.96819    
   1758000   1.0329404      18.037358      157.83173    
   1759000   1.0190841      18.2187        157.90889    
   1760000   0.99836446     18.074513      157.73978    
   1761000   0.97624157     18.188566      157.79535    
   1762000   1.0018401      18.085181      157.56701    
   1763000   0.98363725     18.201237      157.50338    
   1764000   1.0184063      17.909472      157.38602    
   1765000   1.02377        18.123904      157.50535    
   1766000   0.98447343     17.984481      157.3421     
   1767000   0.97702492     18.37209       157.14483    
   1768000   1.0300707      18.567151      157.04944    
   1769000   0.97829694     18.090111      156.99504    
   1770000   1.0003296      18.120221      156.86478    
   1771000   1.0067039      18.497697      156.85587    
   1772000   1.0515054      17.934698      156.90392    
   1773000   0.99915298     18.194908      156.9435     
   1774000   0.99481526     18.722445      156.87555    
   1775000   0.95391822     18.056113      156.71172    
   1776000   1.0020116      18.327783      156.4743     
   1777000   1.0275338      18.573452      156.50711    
   1778000   1.0134174      18.27767       156.45588    
   1779000   1.0239704      17.879401      156.38747    
   1780000   1.0217139      18.437863      156.26175    
   1781000   0.99278236     18.331383      156.32701    
   1782000   0.96981704     18.234849      156.12701    
   1783000   0.98329122     18.047616      156.13403    
   1784000   1.0073504      18.476027      156.2617     
   1785000   1.0286218      18.461484      156.41877    
   1786000   1.0616954      18.127858      156.21355    
   1787000   1.0055181      18.239338      156.14306    
   1788000   1.0079901      18.063496      156.05711    
   1789000   1.017432       18.125954      155.97239    
   1790000   0.96398637     18.146086      155.97263    
   1791000   1.0498584      18.323312      156.0002     
   1792000   1.0058374      18.185478      155.88425    
   1793000   1.0634101      18.242103      155.60812    
   1794000   0.97993834     18.271942      155.45508    
   1795000   0.9982279      17.743814      155.18968    
   1796000   0.99119892     17.959002      155.07773    
   1797000   1.0248211      18.505225      155.13286    
   1798000   1.0227441      18.037835      154.94457    
   1799000   1.0011279      18.035078      154.83904    
   1800000   1.028626       18.451127      154.87122    
   1801000   0.96400542     17.932728      154.77785    
   1802000   0.98452654     18.253309      154.5132     
   1803000   0.98433565     17.920476      154.82886    
   1804000   0.99399112     17.67012       154.8045     
   1805000   0.99814686     18.343503      154.65857    
   1806000   1.0215872      17.604728      154.71064    
   1807000   1.0023999      17.757959      154.86239    
   1808000   1.0191891      17.852174      154.7766     
   1809000   1.0191681      18.080483      154.36677    
   1810000   0.98975317     17.950341      154.03658    
   1811000   1.0156537      18.472877      153.86804    
   1812000   1.0204821      17.892143      153.68972    
   1813000   0.9559395      17.86159       153.57546    
   1814000   0.98793374     17.64048       153.68406    
   1815000   1.0066721      17.972661      153.68682    
   1816000   1.0345262      18.094034      153.63191    
   1817000   1.0195032      18.255633      153.68793    
   1818000   1.0215         18.540476      153.72872    
   1819000   1.0116677      18.585307      153.77416    
   1820000   0.9987896      17.886653      153.61243    
   1821000   0.97229573     18.246227      153.54203    
   1822000   1.0342275      18.284263      153.46058    
   1823000   1.0228595      18.195153      153.61529    
   1824000   0.99148316     18.227755      153.4604     
   1825000   0.96574451     17.655754      153.57739    
   1826000   0.96553191     18.062292      153.53133    
   1827000   0.98426879     18.055686      153.57142    
   1828000   0.96682709     18.27918       153.51662    
   1829000   1.0186527      18.093122      153.49085    
   1830000   1.0019222      18.385292      153.39851    
   1831000   1.011345       18.278453      153.28123    
   1832000   1.0052423      18.013237      153.33973    
   1833000   1.0100493      18.216355      153.25376    
   1834000   0.99219547     18.071949      153.1545     
   1835000   0.98681681     17.845271      153.09142    
   1836000   1.0026178      18.081092      153.06603    
   1837000   1.0098889      18.776164      152.97505    
   1838000   0.98332987     18.087263      152.87419    
   1839000   0.99548484     18.323702      152.68052    
   1840000   1.0416635      17.823095      152.54818    
   1841000   1.0010566      17.983282      152.72746    
   1842000   1.0000424      18.220582      152.72803    
   1843000   0.96907471     17.676371      152.67028    
   1844000   1.0283583      18.243078      152.5366     
   1845000   1.0242045      18.278014      152.41642    
   1846000   1.0334709      18.0892        152.49503    
   1847000   1.0177816      17.985661      152.54164    
   1848000   0.99870686     18.186917      152.56738    
   1849000   0.97462783     17.719216      152.35845    
   1850000   1.0207817      18.36351       152.05297    
   1851000   1.0155002      17.842719      152.10794    
   1852000   1.0308262      17.519183      152.19327    
   1853000   1.0011127      17.915961      152.19741    
   1854000   0.99377906     18.174092      152.2775     
   1855000   1.0243612      18.33483       152.21613    
   1856000   1.0007475      18.492659      152.23442    
   1857000   0.9731395      17.946784      152.16292    
   1858000   1.0189248      18.322149      152.04264    
   1859000   1.015705       17.77462       152.0381     
   1860000   1.0079026      17.855578      152.23882    
   1861000   0.98785989     17.697997      152.07442    
   1862000   1.0135533      17.900712      152.13662    
   1863000   1.0168628      17.919577      152.18605    
   1864000   1.0077649      17.583722      152.07416    
   1865000   1.0120259      18.456444      152.00325    
   1866000   1.0303366      18.251365      152.17173    
   1867000   1.03312        18.040645      152.15804    
   1868000   1.0187482      18.00989       152.0478     
   1869000   0.95631741     17.993962      151.83441    
   1870000   1.0008967      18.004578      151.71269    
   1871000   0.99025738     18.479253      151.82814    
   1872000   1.0154377      18.005371      151.91633    
   1873000   0.97136515     17.781615      151.84514    
   1874000   1.0253837      18.487881      151.59025    
   1875000   1.063289       18.123671      151.50388    
   1876000   0.99704216     18.225242      151.34382    
   1877000   1.0036864      17.48998       151.32131    
   1878000   0.98833777     17.995901      150.94851    
   1879000   0.98805825     17.884757      150.82217    
   1880000   1.0458965      18.249137      150.85289    
   1881000   0.99044035     17.780059      150.69742    
   1882000   1.0306572      17.570876      150.68945    
   1883000   0.9615014      17.831516      150.72565    
   1884000   0.99292286     18.238859      150.83384    
   1885000   0.98236821     17.968856      150.81869    
   1886000   0.99497582     18.71423       150.6632     
   1887000   1.018398       17.969626      150.70334    
   1888000   0.9943916      18.191501      150.6177     
   1889000   0.98700258     18.112115      150.46998    
   1890000   0.96872385     18.361351      150.35514    
   1891000   1.0202925      17.989421      150.21755    
   1892000   0.99015322     18.006756      150.1688     
   1893000   0.96003536     18.601291      149.94573    
   1894000   1.0078492      18.536777      149.79479    
   1895000   1.0170962      18.014979      149.82715    
   1896000   0.96194645     17.743368      149.74545    
   1897000   0.99317731     18.568638      149.49206    
   1898000   1.0303319      18.110935      149.2688     
   1899000   1.0089282      17.917261      149.35507    
   1900000   0.95165836     17.877191      149.70881    
   1901000   1.0423886      18.290867      149.80289    
   1902000   0.96990143     17.898491      149.87178    
   1903000   1.0199931      18.462952      149.78445    
   1904000   1.0304245      18.233835      149.63783    
   1905000   1.014808       18.436019      149.46914    
   1906000   1.0164551      18.112454      149.23573    
   1907000   0.9854211      17.983956      149.09069    
   1908000   0.95685918     18.079296      148.88047    
   1909000   0.99076664     17.860192      148.55078    
   1910000   0.97669847     18.469593      148.30117    
   1911000   1.0089186      18.333575      148.19252    
   1912000   1.0020904      17.960137      147.97641    
   1913000   1.0512576      18.06952       147.9053     
   1914000   1.0026786      17.94121       147.93031    
   1915000   1.006182       17.957506      147.82169    
   1916000   1.0327068      17.675         147.73005    
   1917000   0.96890775     17.86767       147.77912    
   1918000   0.9831139      17.885758      147.37193    
   1919000   1.0296424      18.091968      147.32559    
   1920000   1.0276184      18.511478      147.1935     
   1921000   1.0212663      18.043231      146.97268    
   1922000   0.98734021     17.748491      146.90756    
   1923000   1.0115886      18.213562      146.83961    
   1924000   0.98327986     17.508682      146.44261    
   1925000   0.98652098     17.768654      146.31867    
   1926000   0.96818108     18.096307      146.243      
   1927000   0.95151855     17.408113      145.98665    
   1928000   1.012733       17.93741       145.89144    
   1929000   1.0421856      18.232842      145.7673     
   1930000   1.0127223      18.360417      145.59588    
   1931000   0.98926399     17.805379      145.57844    
   1932000   0.96344935     17.648348      145.45657    
   1933000   1.0081452      18.132655      145.29327    
   1934000   1.0322078      17.929942      145.37647    
   1935000   0.97089823     17.764764      145.3433     
   1936000   1.0175372      18.104003      145.20795    
   1937000   1.0146789      17.748303      145.22847    
   1938000   0.99652793     18.151117      145.10126    
   1939000   1.0177982      18.098657      145.04832    
   1940000   0.99571208     18.144107      144.86411    
   1941000   1.0038649      17.813045      144.8549     
   1942000   0.95968987     17.477141      144.84621    
   1943000   0.97831495     18.181112      144.69431    
   1944000   0.98224432     17.869741      144.8138     
   1945000   0.97865464     17.714433      144.75833    
   1946000   0.99709721     17.938957      144.57137    
   1947000   1.0135077      17.805228      144.61316    
   1948000   1.0119385      18.537856      144.36707    
   1949000   0.96555536     18.242006      144.17269    
   1950000   0.97981025     18.207386      144.12641    
   1951000   0.96701808     17.545463      143.95296    
   1952000   0.98847126     18.320047      143.90959    
   1953000   1.0160786      17.944027      143.87057    
   1954000   0.99577748     18.636335      143.62929    
   1955000   1.0495975      18.449214      143.54639    
   1956000   1.0140129      17.822099      143.53143    
   1957000   0.97121058     17.861402      143.56195    
   1958000   1.0190562      17.980463      143.59677    
   1959000   0.98785918     18.054368      143.54889    
   1960000   0.99708676     18.415431      143.54689    
   1961000   1.0153183      17.908238      143.34221    
   1962000   0.99267351     17.548769      143.37661    
   1963000   0.97060604     17.630767      143.21049    
   1964000   0.96283629     18.117694      143.13412    
   1965000   1.0270036      18.154992      142.87221    
   1966000   0.98075722     18.136342      142.72578    
   1967000   1.0420239      18.391426      142.66148    
   1968000   0.99175545     18.257414      142.59111    
   1969000   0.98601465     17.910625      142.568      
   1970000   1.0071594      17.929789      142.53231    
   1971000   0.97715312     18.314183      142.45637    
   1972000   0.99986774     17.915654      142.58376    
   1973000   0.94307515     18.113973      142.40921    
   1974000   1.0335036      18.060371      142.39943    
   1975000   0.9821418      17.376624      142.14419    
   1976000   0.99698033     17.908308      142.07624    
   1977000   1.0265152      17.885075      142.13056    
   1978000   0.99104524     18.22186       141.96845    
   1979000   0.99945845     18.174377      141.84357    
   1980000   0.98559868     18.129245      141.98497    
   1981000   1.0028415      17.678333      141.75494    
   1982000   1.0083224      18.407637      141.91876    
   1983000   1.038053       18.160477      141.95884    
   1984000   0.98645609     17.940471      141.85533    
   1985000   1.003163       18.089064      142.04407    
   1986000   0.97158813     17.826716      142.13569    
   1987000   1.0157134      17.899893      142.0673     
   1988000   1.0334267      18.372404      141.85797    
   1989000   1.0245351      17.630884      141.86652    
   1990000   1.0013874      18.200582      142.08046    
   1991000   0.99268001     17.808873      142.30249    
   1992000   1.0129501      17.88884       142.20475    
   1993000   1.0249183      18.422439      142.12956    
   1994000   0.9850051      17.81996       142.28197    
   1995000   0.96147406     18.294034      142.23199    
   1996000   1.005167       17.569817      142.11717    
   1997000   0.98424792     18.027322      141.95051    
   1998000   1.0179813      18.491799      141.78589    
   1999000   1.0271433      17.938816      141.61185    
   2000000   1.0159304      17.711828      141.24797    
   2001000   1.0216749      17.792937      141.1895     
   2002000   1.0022662      17.808108      141.1276     
   2003000   0.95033091     17.726727      141.11464    
   2004000   1.0078729      17.597207      140.91673    
   2005000   1.0127611      18.184972      140.71204    
   2006000   1.0024553      17.914935      140.70884    
   2007000   1.0117285      17.880567      140.70431    
   2008000   0.97722018     17.029804      140.65942    
   2009000   0.98027758     17.619553      140.50865    
   2010000   1.00717        18.16756       140.27367    
   2011000   1.0351602      18.647473      140.35165    
   2012000   0.97955569     17.993507      140.18538    
   2013000   1.0211608      18.489315      140.23443    
   2014000   1.0014636      18.227913      140.27665    
   2015000   0.99514617     17.937448      140.14974    
   2016000   1.0513015      17.538999      140.07699    
   2017000   0.97603099     17.50523       140.00428    
   2018000   0.97382238     17.882067      139.9968     
   2019000   1.01882        17.832103      139.99183    
   2020000   1.035762       18.061378      139.76667    
   2021000   1.030794       17.972238      139.51571    
   2022000   1.0027903      18.360145      139.51214    
   2023000   0.96849107     17.540558      139.36488    
   2024000   1.0131178      17.689453      139.39643    
   2025000   0.97841256     18.066029      139.31478    
   2026000   1.0000821      18.042517      139.3902     
   2027000   1.0195027      17.97191       139.06861    
   2028000   1.0211938      17.774628      139.05871    
   2029000   0.99118995     17.773455      138.76324    
   2030000   1.001287       18.100803      138.58985    
   2031000   1.0205576      17.844879      138.31946    
   2032000   1.0157576      18.261026      138.10635    
   2033000   1.0462048      17.778271      138.0631     
   2034000   0.99848321     17.975464      137.98521    
   2035000   0.98288728     18.020168      137.98122    
   2036000   0.99906301     17.666153      137.84184    
   2037000   0.98421029     18.259992      137.88427    
   2038000   0.99892281     17.56659       137.66773    
   2039000   0.96700766     18.030207      137.58409    
   2040000   0.96844553     17.916496      137.43382    
   2041000   0.97602183     17.892531      137.30344    
   2042000   0.95795678     17.798547      137.35548    
   2043000   1.0193771      17.803098      137.1819     
   2044000   1.0003723      17.730218      137.08868    
   2045000   1.0085674      18.279522      137.01933    
   2046000   0.97989302     17.685697      136.84437    
   2047000   1.0042818      17.997158      136.65631    
   2048000   0.97873523     17.642629      136.62874    
   2049000   0.96522813     18.187389      136.5778     
   2050000   0.99774749     18.06          136.45837    
   2051000   0.98118106     17.998131      136.34215    
   2052000   1.0091285      18.175027      136.06774    
   2053000   1.0095262      17.515017      136.0386     
   2054000   1.0328406      18.630105      135.98707    
   2055000   1.0090904      18.118325      135.85277    
   2056000   0.97380312     18.034352      135.69015    
   2057000   1.0014785      17.967071      135.47629    
   2058000   0.98709314     17.684968      135.2599     
   2059000   1.0157835      17.609917      135.53154    
   2060000   1.0024861      18.297391      135.6962     
   2061000   0.99426895     17.786152      135.47873    
   2062000   1.0228801      18.340112      135.3991     
   2063000   0.96438354     17.70847       135.12227    
   2064000   0.99940218     18.089989      135.1717     
   2065000   1.004357       17.551333      134.94567    
   2066000   1.0066415      17.911318      135.01617    
   2067000   0.99493104     18.025712      134.89166    
   2068000   1.0441997      18.403301      134.89853    
   2069000   1.0164258      18.100125      134.8893     
   2070000   1.0047301      18.158504      134.84965    
   2071000   0.97914308     17.917635      134.86276    
   2072000   0.98156633     18.243836      134.79002    
   2073000   0.99138841     17.930434      134.68951    
   2074000   0.97230126     18.294678      134.80975    
   2075000   0.97908811     18.183461      134.80448    
   2076000   1.0424781      18.185801      134.51986    
   2077000   0.98980454     18.255016      134.23021    
   2078000   1.0380524      18.285225      134.01923    
   2079000   0.97939951     17.500452      134.0329     
   2080000   0.99623397     18.080638      134.27083    
   2081000   0.98423007     18.157689      134.14376    
   2082000   1.0110411      17.735226      134.09842    
   2083000   1.0135947      17.775524      133.83122    
   2084000   0.96973933     17.300884      133.89703    
   2085000   0.97538414     17.852519      133.66639    
   2086000   1.0099229      17.956653      133.46179    
   2087000   1.038368       18.117483      133.35922    
   2088000   1.012945       17.775554      133.15759    
   2089000   0.99658086     17.745728      133.12702    
   2090000   0.97412115     17.960353      133.02045    
   2091000   1.0256274      17.845847      132.92497    
   2092000   0.96133187     18.234119      132.95423    
   2093000   0.98680853     17.587401      132.98258    
   2094000   1.0004623      17.853008      133.07899    
   2095000   0.98370706     17.780655      132.98097    
   2096000   1.0459534      17.857335      132.87571    
   2097000   1.0366464      18.12652       132.78902    
   2098000   1.0251781      18.104937      132.8285     
   2099000   1.0168145      17.646506      132.73661    
   2100000   1.0139923      18.225558      132.72204    
   2101000   0.98696306     17.944278      132.69261    
   2102000   0.99459056     18.108682      132.61338    
   2103000   1.022936       17.810633      132.42298    
   2104000   0.9600534      17.766127      132.23069    
   2105000   1.0250737      18.306722      132.29228    
   2106000   0.97151178     17.725899      132.07661    
   2107000   0.99475388     18.133577      132.00069    
   2108000   0.96858688     17.855328      132.10759    
   2109000   1.0307291      18.226964      132.05872    
   2110000   1.004216       17.695497      132.04545    
   2111000   0.98479185     17.56799       132.00924    
   2112000   1.0240258      18.937079      131.91756    
   2113000   1.002232       18.071641      131.79924    
   2114000   0.96649108     17.745449      131.93817    
   2115000   1.0322825      18.078891      131.81274    
   2116000   0.97335791     18.115051      131.61182    
   2117000   0.99003739     17.705652      131.70935    
   2118000   1.0078294      18.002701      131.80385    
   2119000   0.97551573     17.694105      131.8609     
   2120000   1.006583       17.759561      131.53907    
   2121000   0.99162945     17.929197      131.54693    
   2122000   0.98863279     18.066251      131.33784    
   2123000   1.0100346      17.809299      131.24698    
   2124000   1.0445334      18.344033      131.24937    
   2125000   0.99140044     17.47337       131.02768    
   2126000   0.98735271     17.394664      130.74446    
   2127000   0.96305334     17.821953      130.88694    
   2128000   0.97681278     18.260071      130.95976    
   2129000   0.98293441     17.869744      130.84784    
   2130000   0.99114439     17.74296       130.78829    
   2131000   0.99049105     17.997036      130.80548    
   2132000   0.97179013     17.828272      130.6957     
   2133000   0.98214736     17.827962      130.85513    
   2134000   0.95356994     17.680454      130.92664    
   2135000   0.96706773     18.285985      130.8467     
   2136000   0.95872479     17.821034      130.98564    
   2137000   0.96711756     17.73975       130.89817    
   2138000   1.0022853      18.390041      130.80925    
   2139000   0.99752332     18.171469      130.58177    
   2140000   1.0022072      18.044744      130.48786    
   2141000   1.0489333      18.901016      130.47266    
   2142000   0.99782525     17.772305      130.45602    
   2143000   0.99251828     17.906121      130.29393    
   2144000   1.0123331      17.967582      130.3195     
   2145000   0.99116897     17.817092      130.38935    
   2146000   0.98500064     18.375882      130.19782    
   2147000   0.95398783     17.627297      129.92862    
   2148000   0.97848658     17.769074      129.68186    
   2149000   1.0226442      17.977708      129.64922    
   2150000   0.98469317     18.079422      129.32101    
   2151000   1.0062545      18.053264      128.94411    
   2152000   0.99993084     17.728357      128.78433    
   2153000   1.0335307      17.422063      128.76446    
   2154000   1.0272224      18.637196      128.61499    
   2155000   1.0207747      18.067123      128.66263    
   2156000   1.0157656      17.809676      128.49502    
   2157000   1.028039       18.414675      128.34011    
   2158000   1.008205       18.008203      128.38328    
   2159000   0.98690353     18.236944      128.2845     
   2160000   0.99613913     18.45781       128.12596    
   2161000   1.0198337      17.782354      128.19687    
   2162000   1.0024315      17.630883      128.17522    
   2163000   0.98133253     18.059629      128.18661    
   2164000   1.0105876      17.477545      128.03832    
   2165000   1.0174492      17.886728      127.92072    
   2166000   0.96087083     17.411952      127.74539    
   2167000   0.97527307     18.237528      127.81764    
   2168000   0.97855168     18.06646       127.61807    
   2169000   0.98495142     18.050848      127.68649    
   2170000   1.0040325      17.955934      127.46378    
   2171000   0.98392918     17.793893      127.27006    
   2172000   0.9926487      17.647808      127.47147    
   2173000   0.99120709     17.454878      127.42335    
   2174000   1.0038558      17.514468      127.48039    
   2175000   0.97819049     17.52811       127.41894    
   2176000   1.0331318      17.275431      127.31647    
   2177000   1.028918       18.260594      127.41827    
   2178000   0.99169003     18.383482      127.51515    
   2179000   0.98283547     17.823938      127.37258    
   2180000   1.0337411      17.851574      127.2149     
   2181000   0.98261446     18.394643      126.95342    
   2182000   1.0246395      18.476246      126.87122    
   2183000   0.98336314     17.948863      126.82854    
   2184000   1.0103467      18.065515      126.94569    
   2185000   0.95646013     18.076195      126.51271    
   2186000   0.9909036      17.897222      126.45408    
   2187000   1.0175545      17.653184      126.58608    
   2188000   0.95442333     17.758008      126.56194    
   2189000   0.97483501     18.197857      126.28213    
   2190000   0.99017588     17.407534      126.2612     
   2191000   1.0031892      18.091103      126.28476    
   2192000   1.0168441      18.048392      126.23378    
   2193000   1.0006575      17.861711      125.93046    
   2194000   1.0277315      17.795981      126.02271    
   2195000   1.0084545      18.012794      126.01304    
   2196000   1.0085835      18.37984       125.90193    
   2197000   0.98653222     17.527358      125.86613    
   2198000   0.97014829     17.923455      125.95855    
   2199000   1.0060202      18.075097      125.74574    
   2200000   1.0008384      17.614188      125.87304    
   2201000   1.0121371      17.853341      125.81551    
   2202000   1.013733       17.838166      125.92067    
   2203000   1.0465516      18.095302      125.87643    
   2204000   0.98273388     17.564272      126.03316    
   2205000   1.0410614      18.193854      125.91796    
   2206000   0.97021309     18.138416      125.87558    
   2207000   1.0073545      18.321105      125.85375    
   2208000   1.0218942      18.034242      125.68244    
   2209000   1.0374162      17.840983      125.53057    
   2210000   0.98661478     18.103537      125.3863     
   2211000   1.0438484      17.522675      125.34419    
   2212000   1.0080899      18.259976      125.31745    
   2213000   0.95460872     18.022961      125.21069    
   2214000   0.99787574     18.054945      125.11119    
   2215000   1.0192456      17.95181       125.03375    
   2216000   0.9892841      17.838256      124.9942     
   2217000   0.9504936      17.645744      125.0696     
   2218000   0.97916109     17.805151      125.01558    
   2219000   0.98496468     17.808354      124.97287    
   2220000   0.99095696     18.149285      124.92448    
   2221000   0.97230944     18.158417      124.76895    
   2222000   1.000041       17.960238      124.74132    
   2223000   1.0013279      17.904919      124.83176    
   2224000   1.039232       18.003768      125.03013    
   2225000   1.0007824      17.933097      125.01575    
   2226000   0.97880162     18.282518      124.92112    
   2227000   1.000921       17.599005      124.72996    
   2228000   0.99384869     17.807741      124.8738     
   2229000   0.97626192     18.015457      125.13331    
   2230000   0.98403048     17.822386      125.31791    
   2231000   0.98428823     17.737949      125.06721    
   2232000   1.0077676      17.471334      125.06865    
   2233000   0.96253646     17.872818      125.03344    
   2234000   1.0273664      17.944301      124.82651    
   2235000   1.0293408      17.857643      124.88295    
   2236000   0.96307181     17.736591      124.8175     
   2237000   0.99930445     17.850162      124.85042    
   2238000   0.98769978     17.825455      124.91499    
   2239000   1.0517836      18.34939       124.94996    
   2240000   0.98358844     17.980707      124.90878    
   2241000   1.0028418      17.692049      124.86154    
   2242000   0.97880959     17.555787      124.56003    
   2243000   1.0383475      18.298147      124.69027    
   2244000   0.96139226     17.83698       124.64653    
   2245000   1.0080302      17.608105      124.41307    
   2246000   1.0301789      17.247981      124.30863    
   2247000   1.000262       17.464926      124.19498    
   2248000   0.99513691     17.512237      124.08426    
   2249000   1.0057608      18.029133      124.09099    
   2250000   0.9900618      17.859202      123.88353    
   2251000   1.0224487      18.022672      124.11284    
   2252000   0.98244014     18.293515      123.98543    
   2253000   1.0424809      18.082091      124.00238    
   2254000   1.0137423      18.007994      123.90145    
   2255000   1.010596       18.50891       123.93073    
   2256000   0.95403925     17.987515      123.95022    
   2257000   1.0366415      18.23003       123.83394    
   2258000   1.004446       18.027887      123.79261    
   2259000   0.97932373     17.911554      123.72786    
   2260000   0.99651384     17.795481      123.71782    
   2261000   1.0074297      18.480478      123.71308    
   2262000   1.0028586      17.517675      123.53702    
   2263000   1.0083423      18.025944      123.37407    
   2264000   0.99450982     18.241966      123.14924    
   2265000   1.0460307      18.303958      123.01655    
   2266000   0.94223949     18.032503      123.06818    
   2267000   1.0052625      17.880569      123.12876    
   2268000   1.0098161      17.768783      123.12241    
   2269000   0.99924076     17.950108      123.06813    
   2270000   1.0157923      17.586959      123.03959    
   2271000   0.98192164     17.368274      123.03371    
   2272000   0.96951202     17.532203      122.74069    
   2273000   1.0330684      17.75143       122.75755    
   2274000   1.0210938      17.976541      122.6745     
   2275000   1.0018033      18.408492      122.56662    
   2276000   1.0059592      18.05045       122.35929    
   2277000   1.0171357      17.624521      122.39311    
   2278000   0.98763767     17.618686      122.31404    
   2279000   0.98406681     17.903133      121.9395     
   2280000   0.98263562     17.783835      121.72606    
   2281000   1.0004924      18.224191      121.63637    
   2282000   1.0084796      18.009075      121.279      
   2283000   1.008997       17.963464      121.07181    
   2284000   0.99439551     18.076967      120.9823     
   2285000   1.0572299      18.116423      120.90379    
   2286000   1.0041871      17.826013      120.81094    
   2287000   0.96573803     17.707426      120.56462    
   2288000   0.98861143     18.138149      120.37358    
   2289000   0.97669647     17.580945      120.26155    
   2290000   1.0041239      18.300334      120.0645     
   2291000   0.94138036     17.836315      120.26181    
   2292000   0.98797369     17.526294      120.11343    
   2293000   0.98954276     18.131611      120.10786    
   2294000   1.0130271      17.846342      120.21881    
   2295000   0.99791813     17.368131      120.17659    
   2296000   0.99381122     17.53661       119.9679     
   2297000   1.0342352      17.873074      119.88042    
   2298000   1.0385305      17.984823      119.81812    
   2299000   1.0081517      18.001409      119.78338    
   2300000   0.9924552      17.724924      119.64791    
   2301000   0.95627965     17.554438      119.73053    
   2302000   1.0157843      18.023684      119.59693    
   2303000   0.94588952     17.791426      119.62764    
   2304000   1.015642       17.930902      119.79984    
   2305000   1.0216118      17.805264      119.7668     
   2306000   1.0126335      18.186362      119.67699    
   2307000   1.0331515      17.661337      119.77232    
   2308000   1.0594358      17.984841      119.66917    
   2309000   0.96452727     18.2384        119.81166    
   2310000   1.004033       18.183888      119.8093     
   2311000   1.0232823      18.390557      119.77569    
   2312000   0.99891867     17.759797      119.42345    
   2313000   1.0108822      18.147156      119.53278    
   2314000   0.96081795     17.648579      119.40468    
   2315000   0.99824624     17.794705      119.20829    
   2316000   1.0284394      17.942782      119.13454    
   2317000   0.95772869     17.851433      119.03456    
   2318000   1.0523862      17.943095      119.06343    
   2319000   0.98882969     17.785186      118.77765    
   2320000   0.99045849     18.034712      118.80884    
   2321000   1.0054184      17.693566      118.80395    
   2322000   0.99516555     17.951851      118.68244    
   2323000   1.021665       18.613698      118.66118    
   2324000   0.98621325     17.925266      118.60837    
   2325000   1.0078434      17.785701      118.61025    
   2326000   0.9598035      17.965475      118.7515     
   2327000   1.0378511      17.84588       118.64468    
   2328000   1.0077972      17.831548      118.50778    
   2329000   0.93724994     17.509171      118.4244     
   2330000   0.95500958     17.97662       118.55235    
   2331000   1.0002638      18.29953       118.52081    
   2332000   0.99830623     17.808849      118.28863    
   2333000   1.0220849      17.683019      118.22089    
   2334000   0.98015751     17.771734      118.00069    
   2335000   0.98282001     18.187174      117.83305    
   2336000   0.98220781     17.278805      117.75902    
   2337000   1.0115524      18.404256      117.57661    
   2338000   0.96976505     17.369569      117.47459    
   2339000   1.0309246      17.902763      117.37092    
   2340000   0.9857865      17.633461      117.25267    
   2341000   0.99840907     18.096956      117.27117    
   2342000   1.0068037      18.558726      117.39329    
   2343000   0.99541919     17.884608      117.37473    
   2344000   1.0290771      18.219584      117.23565    
   2345000   1.0487292      18.337032      117.22041    
   2346000   0.97948891     17.65415       117.05223    
   2347000   0.97878115     18.105624      117.04549    
   2348000   0.97445451     17.806628      117.14277    
   2349000   0.98589665     17.955677      117.17456    
   2350000   0.97296501     18.21608       117.2295     
   2351000   1.0287166      18.127791      117.17257    
   2352000   1.0515151      17.899521      116.95828    
   2353000   1.0147348      17.984128      116.81492    
   2354000   1.0015072      17.638149      116.94799    
   2355000   1.0067542      17.722391      116.86184    
   2356000   1.0363875      17.736901      116.74601    
   2357000   1.0006535      17.670327      116.6967     
   2358000   1.0240851      17.695088      116.66756    
   2359000   0.98949037     17.909302      116.43302    
   2360000   0.95261238     18.024341      116.37099    
   2361000   1.030669       17.821996      116.40275    
   2362000   0.96661786     17.963538      116.36781    
   2363000   0.98479029     17.946751      116.2671     
   2364000   1.0211984      18.406659      116.08703    
   2365000   0.98344428     17.297383      115.84431    
   2366000   1.0191253      18.085322      115.68929    
   2367000   0.99238439     17.615787      115.69902    
   2368000   0.99680587     18.09369       115.69474    
   2369000   1.0454571      17.788253      115.58785    
   2370000   1.0119161      17.795182      115.41005    
   2371000   1.0094251      17.605086      115.3905     
   2372000   1.0268193      17.734019      115.3938     
   2373000   1.0081619      17.753217      115.62313    
   2374000   1.0131347      18.235639      115.58128    
   2375000   1.0538662      17.50434       115.73823    
   2376000   1.0145532      17.998753      115.70603    
   2377000   1.020004       17.716668      115.71299    
   2378000   1.0388921      17.734257      115.73255    
   2379000   1.0057308      18.060069      115.64726    
   2380000   0.98215336     18.02174       115.38493    
   2381000   1.0081542      18.043781      115.26012    
   2382000   0.99471179     18.514355      115.26672    
   2383000   1.013084       17.571361      115.07415    
   2384000   0.98840302     17.974837      115.15675    
   2385000   1.0283369      17.992601      115.11062    
   2386000   0.97863544     18.006423      115.09964    
   2387000   1.0006447      17.64782       114.84183    
   2388000   1.0053706      18.448443      114.76309    
   2389000   0.99375903     17.892876      114.77678    
   2390000   0.98186148     17.82105       114.63386    
   2391000   1.0384579      17.562954      114.54468    
   2392000   0.99868554     17.272787      114.41146    
   2393000   0.99299275     17.874669      114.30746    
   2394000   1.0224382      17.531722      114.05923    
   2395000   0.9919012      17.65066       114.10192    
   2396000   0.9924898      17.957838      113.88229    
   2397000   0.98577484     17.630209      113.95605    
   2398000   1.009848       17.453082      113.89343    
   2399000   0.97910459     17.949387      113.90147    
   2400000   0.98711539     17.909799      113.6615     
   2401000   1.0063496      18.201282      113.63708    
   2402000   1.0082731      18.121938      113.43917    
   2403000   0.95419206     17.887236      113.22082    
   2404000   0.97150107     17.915537      113.25635    
   2405000   1.0055267      17.807274      113.07557    
   2406000   0.98418069     17.915272      112.88847    
   2407000   1.0475189      17.76152       112.53476    
   2408000   1.0277866      17.865518      112.32942    
   2409000   1.0421832      17.936948      112.33601    
   2410000   0.94843718     18.133215      112.37646    
   2411000   0.99263718     18.254322      112.36789    
   2412000   1.0023332      17.230309      112.19441    
   2413000   1.0218879      18.350674      112.19581    
   2414000   0.98355344     17.998021      112.21004    
   2415000   1.0198768      17.885662      112.10968    
   2416000   1.0242948      18.346125      112.04306    
   2417000   0.97225281     17.721433      111.90174    
   2418000   0.98331568     17.434081      111.81109    
   2419000   0.98489579     18.034308      111.63863    
   2420000   1.0348066      18.055617      111.53523    
   2421000   1.0025794      18.464308      111.42932    
   2422000   0.98828229     18.064471      111.35446    
   2423000   1.0001488      17.056196      111.30592    
   2424000   0.95550671     17.718937      111.07318    
   2425000   0.98910796     17.775662      111.14667    
   2426000   0.99312235     17.90615       111.18257    
   2427000   0.97307563     17.664009      111.12988    
   2428000   1.0183664      17.850005      111.06723    
   2429000   1.043188       17.982867      110.91317    
   2430000   0.96269301     17.533926      110.65053    
   2431000   1.0356558      17.782233      110.65728    
   2432000   1.0050247      17.775367      110.4939     
   2433000   1.0297246      17.480708      110.66139    
   2434000   0.99099912     18.098694      110.72788    
   2435000   0.99308775     17.838229      110.7176     
   2436000   1.0263045      17.817392      110.52207    
   2437000   1.009148       18.354076      110.3387     
   2438000   1.0083129      17.684231      110.23467    
   2439000   0.99544117     17.907704      110.2176     
   2440000   1.0022076      17.559775      110.39776    
   2441000   1.015084       17.372172      110.25868    
   2442000   1.028957       17.846507      110.2693     
   2443000   0.97928118     18.045798      110.12428    
   2444000   1.020963       17.655348      110.05922    
   2445000   0.98023384     17.932579      110.19962    
   2446000   1.0035654      17.620749      110.27731    
   2447000   1.0219533      17.954845      110.17885    
   2448000   0.98685122     17.957938      109.95592    
   2449000   0.99841917     17.753251      109.83577    
   2450000   1.0009216      18.318582      109.9223     
   2451000   0.96933336     17.615321      109.76487    
   2452000   1.0188706      17.782854      109.67728    
   2453000   1.000603       18.236621      109.65042    
   2454000   1.020917       17.864432      109.38289    
   2455000   1.010046       18.461446      109.43031    
   2456000   0.99634043     17.820282      109.38493    
   2457000   1.0304142      17.88504       109.15154    
   2458000   1.0304922      17.654259      109.04326    
   2459000   0.98912029     18.171027      109.03893    
   2460000   1.0158504      17.959081      109.04067    
   2461000   1.0460517      18.230159      109.09992    
   2462000   1.0000249      17.528372      109.20507    
   2463000   1.0104479      18.478716      108.95923    
   2464000   1.0081428      18.193968      108.86924    
   2465000   0.98278158     17.762564      108.78453    
   2466000   1.0100544      17.460663      108.71732    
   2467000   1.0071685      18.201297      108.4758     
   2468000   0.95756328     17.676223      108.4917     
   2469000   0.9728241      17.643179      108.26259    
   2470000   0.95757693     17.262234      108.12818    
   2471000   0.99664167     18.039985      107.99369    
   2472000   1.011241       17.407888      108.02696    
   2473000   1.0342341      17.712461      107.99569    
   2474000   1.0136729      18.224379      107.94368    
   2475000   1.0123476      18.095609      107.74879    
   2476000   1.0182535      17.837023      107.58552    
   2477000   1.0042173      18.688504      107.40923    
   2478000   1.0105004      17.527844      107.36043    
   2479000   0.99200525     18.116966      107.44032    
   2480000   1.0104773      18.06574       107.28637    
   2481000   1.0003636      17.786389      107.30352    
   2482000   1.0137821      17.52154       107.21728    
   2483000   0.99848422     17.829568      106.96343    
   2484000   0.99521121     17.823449      107.07782    
   2485000   1.0110342      17.669511      106.91878    
   2486000   0.99831126     17.681315      106.8572     
   2487000   1.0398134      18.088244      106.8238     
   2488000   1.0029137      17.850425      106.7497     
   2489000   1.0321667      17.930976      106.64429    
   2490000   1.0155597      18.425664      106.54473    
   2491000   0.97811403     18.043677      106.47344    
   2492000   0.99469152     17.312379      106.38702    
   2493000   0.95908059     17.886641      106.42082    
   2494000   1.0005798      17.64764       106.50298    
   2495000   0.98903658     17.405919      106.58683    
   2496000   0.97260664     17.859461      106.58314    
   2497000   1.0171974      17.585863      106.66042    
   2498000   1.0169062      17.948197      106.58724    
   2499000   0.99934635     17.903851      106.65005    
   2500000   1.0290469      17.61232       106.65566    
   2501000   0.99425779     17.859143      106.61244    
   2502000   0.98912906     18.355488      106.54351    
   2503000   0.98294713     17.626187      106.59873    
   2504000   0.98464994     17.763773      106.51811    
   2505000   1.0274816      17.89362       106.44       
   2506000   0.9436664      18.07926       106.30469    
   2507000   1.0300401      17.420652      106.2366     
   2508000   0.98244951     18.053406      105.9571     
   2509000   0.97539762     17.870598      105.81269    
   2510000   0.9867303      17.721211      105.69122    
   2511000   1.0357203      17.288062      105.80022    
   2512000   0.98665762     17.74298       105.70409    
   2513000   1.035425       18.012165      105.63784    
   2514000   1.0716335      17.89894       105.37224    
   2515000   1.0006328      17.864926      105.25391    
   2516000   1.0285463      17.757016      105.25866    
   2517000   0.9975973      17.544172      105.28295    
   2518000   1.0103347      17.70846       105.06303    
   2519000   0.97332341     17.410844      104.83648    
   2520000   0.99906659     17.446447      104.81725    
   2521000   1.0115689      17.455537      104.74357    
   2522000   0.98140241     17.709261      104.68439    
   2523000   1.0173248      18.160097      104.54405    
   2524000   0.96925022     17.5108        104.41339    
   2525000   0.99132644     17.606911      104.4864     
   2526000   1.0044086      17.483952      104.51231    
   2527000   1.0024434      17.632683      104.4881     
   2528000   1.0353936      18.168953      104.41577    
   2529000   0.97399482     17.963225      104.4778     
   2530000   0.95991034     18.208686      104.41396    
   2531000   0.96533149     17.677115      104.42092    
   2532000   1.0014329      17.449573      104.18763    
   2533000   1.0200558      17.659124      104.07342    
   2534000   0.98911933     17.079852      104.05526    
   2535000   0.97727401     17.703525      104.08783    
   2536000   1.0154878      18.125356      104.18069    
   2537000   1.0153196      17.51766       104.02749    
   2538000   0.98882485     18.003128      103.91558    
   2539000   1.0021307      18.028497      103.80774    
   2540000   0.96746815     17.713956      103.73873    
   2541000   1.0256662      18.221515      103.79455    
   2542000   0.98661332     17.783551      103.56057    
   2543000   0.96963707     17.735786      103.66653    
   2544000   0.98329724     18.084023      103.659      
   2545000   1.0078379      18.390704      103.57926    
   2546000   0.98664982     17.926264      103.48476    
   2547000   1.0122441      17.706252      103.3693     
   2548000   1.0116323      18.657534      103.55523    
   2549000   1.0284721      18.199122      103.57009    
   2550000   1.0298589      18.400136      103.35231    
   2551000   0.98959128     17.813722      103.2227     
   2552000   0.9969352      17.743479      103.08529    
   2553000   0.98539475     18.048933      102.96316    
   2554000   1.0429515      17.82399       103.0999     
   2555000   0.98296571     18.059847      103.0649     
   2556000   1.0053389      18.100634      102.9685     
   2557000   1.0156269      18.099501      102.87622    
   2558000   0.99380077     17.360466      102.85266    
   2559000   1.0315925      17.558993      102.72034    
   2560000   1.0320751      18.273778      102.72311    
   2561000   1.001449       18.014797      102.5803     
   2562000   0.98835504     17.216843      102.58461    
   2563000   1.0013486      17.527645      102.65945    
   2564000   0.9629547      17.831333      102.53072    
   2565000   0.96549134     17.325465      102.30764    
   2566000   0.96680095     17.533864      102.14947    
   2567000   1.011023       18.316853      102.29518    
   2568000   1.0004867      17.861984      102.36625    
   2569000   0.98377229     17.856325      102.52498    
   2570000   0.99581381     17.652182      102.5        
   2571000   0.96931514     17.333876      102.48138    
   2572000   0.96829947     17.676305      102.49528    
   2573000   1.0294887      17.738767      102.50882    
   2574000   1.0202985      18.316618      102.32798    
   2575000   1.0169199      17.597418      102.21116    
   2576000   0.99909036     17.257928      102.15576    
   2577000   0.97985024     17.526385      101.92436    
   2578000   1.0057833      17.789028      101.94774    
   2579000   0.99259891     18.173867      102.20526    
   2580000   1.0253599      17.821684      102.24989    
   2581000   0.97677508     17.283558      102.22096    
   2582000   0.98693313     17.584119      102.24062    
   2583000   0.99320556     17.63557       102.1341     
   2584000   1.0154815      18.330524      102.10656    
   2585000   1.0077984      17.716481      101.89517    
   2586000   1.0274683      17.984714      101.91085    
   2587000   0.97984937     17.38937       101.91215    
   2588000   0.99351474     17.286066      101.83631    
   2589000   0.98601417     18.089251      101.79546    
   2590000   0.95070099     17.435474      101.78162    
   2591000   0.9852747      18.323853      101.70243    
   2592000   0.98436773     17.57217       101.47481    
   2593000   1.0354565      17.488934      101.36491    
   2594000   1.015595       17.456425      101.18442    
   2595000   0.97281909     18.20543       101.15103    
   2596000   0.94848292     17.948241      100.98924    
   2597000   1.0417593      17.516572      100.7875     
   2598000   0.99592886     17.572881      100.70568    
   2599000   0.99438617     17.641214      100.60549    
   2600000   0.95249822     17.497479      100.90194    
   2601000   1.003627       17.594848      101.04331    
   2602000   0.97451652     17.7551        101.2588     
   2603000   1.0250727      18.159685      101.24534    
   2604000   1.0331822      17.507511      101.3264     
   2605000   1.0081966      18.174365      101.30365    
   2606000   1.0369728      18.078921      101.18211    
   2607000   0.99823382     17.996848      101.26386    
   2608000   1.0152296      17.252754      101.18344    
   2609000   1.0027587      17.6308        101.12597    
   2610000   1.0083649      17.833994      101.18313    
   2611000   1.0170551      17.994162      100.99482    
   2612000   0.98052991     17.372304      101.09028    
   2613000   1.0049087      17.492218      101.08739    
   2614000   1.0201279      17.984012      100.98079    
   2615000   0.9706474      18.061365      101.07442    
   2616000   0.97766675     17.216991      100.89612    
   2617000   0.99990902     18.02489       101.03165    
   2618000   0.96100501     18.021325      101.09977    
   2619000   1.016457       17.847905      100.9641     
   2620000   0.99749687     17.280425      101.01483    
   2621000   0.98800272     17.024896      100.7458     
   2622000   1.0080784      17.936027      100.9484     
   2623000   0.98548863     18.647536      100.63032    
   2624000   1.0062912      17.559833      100.40256    
   2625000   1.0324704      18.17269       100.29926    
   2626000   1.0307941      18.192792      100.24763    
   2627000   0.97377577     17.631733      100.13763    
   2628000   1.0265807      17.540542      99.892846    
   2629000   1.029992       17.797435      99.938378    
   2630000   0.98261141     17.998528      100.06391    
   2631000   0.96164292     18.208268      99.755044    
   2632000   1.0044968      17.543062      99.77116     
   2633000   0.9818638      17.544063      99.6957      
   2634000   0.99764751     17.728067      99.572892    
   2635000   1.010357       17.705182      99.671451    
   2636000   0.96526873     17.693191      99.779129    
   2637000   1.0202409      17.567119      99.798153    
   2638000   1.0255157      17.638929      99.811016    
   2639000   0.98709769     18.013075      99.755248    
   2640000   1.0375833      17.650192      99.797522    
   2641000   1.0334541      17.408581      99.575874    
   2642000   0.94033078     17.757293      99.418337    
   2643000   0.97952272     17.796542      99.452162    
   2644000   0.99337941     17.36968       99.527753    
   2645000   1.0102147      17.728014      99.613113    
   2646000   1.0053306      17.766643      99.392399    
   2647000   1.0034465      17.845026      99.238096    
   2648000   0.96946334     17.347988      99.276425    
   2649000   1.0014088      17.49669       99.183117    
   2650000   0.97496977     17.53527       99.240201    
   2651000   1.0304294      17.984384      99.208187    
   2652000   0.99762859     17.616129      99.094991    
   2653000   0.9727621      17.670947      99.215773    
   2654000   0.99057195     17.562038      99.287181    
   2655000   1.0635532      17.89786       99.240182    
   2656000   0.96516198     17.484684      99.132627    
   2657000   0.96892232     17.482519      98.963391    
   2658000   1.0101339      17.661847      98.986288    
   2659000   1.0171515      18.269053      98.999638    
   2660000   1.0215111      18.117126      98.910198    
   2661000   1.0175061      17.744772      98.853671    
   2662000   0.99389887     17.492947      98.664815    
   2663000   1.0376241      17.936315      98.556215    
   2664000   0.99998335     17.821583      98.35908     
   2665000   0.97963181     17.68859       98.344406    
   2666000   1.0324996      18.275135      98.253635    
   2667000   1.0440922      17.749385      98.151946    
   2668000   1.0141837      17.566857      98.093227    
   2669000   1.0362816      17.302166      97.947609    
   2670000   0.96412338     17.381859      97.979149    
   2671000   0.9853579      17.7483        97.987524    
   2672000   0.99210368     17.905159      97.899867    
   2673000   0.9883885      18.126899      98.096868    
   2674000   1.003247       17.926958      97.980379    
   2675000   1.0003662      17.582121      97.802754    
   2676000   1.0100819      17.272912      98.110461    
   2677000   0.99512058     18.14955       98.066926    
   2678000   1.0445963      17.2079        97.923932    
   2679000   0.99640588     18.229763      97.734844    
   2680000   0.99284337     17.771603      97.538972    
   2681000   1.0424126      17.684936      97.46047     
   2682000   0.97867088     17.484921      97.415568    
   2683000   0.99999425     17.87399       97.360574    
   2684000   0.98594246     17.212048      97.185015    
   2685000   0.9806188      18.629192      97.126748    
   2686000   1.0139802      18.114835      96.818266    
   2687000   1.0247054      18.239971      96.646386    
   2688000   0.99188474     17.837265      96.314463    
   2689000   1.030578       18.096777      96.169862    
   2690000   1.0417175      17.491696      96.233726    
   2691000   0.97932974     17.825387      96.070327    
   2692000   1.0020315      17.917709      95.80147     
   2693000   0.99845786     18.099095      95.875917    
   2694000   0.98168194     18.016704      95.922602    
   2695000   0.99597839     17.636222      95.952532    
   2696000   1.017315       17.433785      95.881642    
   2697000   1.0095427      17.950719      95.702334    
   2698000   0.96541085     17.73333       95.588468    
   2699000   0.97766012     17.752701      95.477783    
   2700000   0.99463385     17.569887      95.293734    
   2701000   1.01438        17.490758      94.938092    
   2702000   1.0155283      17.736211      94.695294    
   2703000   0.99143201     17.802339      94.813115    
   2704000   0.99657227     17.646687      94.779228    
   2705000   1.0278615      17.676848      94.982796    
   2706000   0.959421       17.99903       94.984497    
   2707000   1.0172879      17.867794      94.873795    
   2708000   1.0400073      17.682992      94.891875    
   2709000   0.97254563     17.69588       95.093815    
   2710000   0.99690103     17.087863      94.943374    
   2711000   1.0283554      17.536825      94.822925    
   2712000   1.0161395      18.050456      94.703103    
   2713000   0.98455416     17.419613      94.536948    
   2714000   0.99804952     17.514236      94.347843    
   2715000   1.012952       18.058407      94.330414    
   2716000   1.0014102      16.977797      94.351526    
   2717000   1.0188049      17.925057      94.333254    
   2718000   0.99170614     17.639032      94.231719    
   2719000   1.0349912      17.753398      94.069744    
   2720000   1.0037754      17.573729      93.954262    
   2721000   0.98407097     17.862359      93.835756    
   2722000   1.0181208      18.182789      93.825618    
   2723000   1.0528039      18.048493      93.913401    
   2724000   1.0171084      17.780546      93.943333    
   2725000   1.0146336      17.063819      94.026259    
   2726000   1.0100193      18.128076      94.164149    
   2727000   0.99267627     17.607576      94.102209    
   2728000   0.97205682     17.877043      94.011888    
   2729000   0.98254524     17.668679      93.923976    
   2730000   0.97206116     17.352164      93.959425    
   2731000   1.0166697      17.105193      93.903929    
   2732000   1.0554543      17.734108      93.866432    
   2733000   0.98206693     17.63179       93.838286    
   2734000   0.99919153     17.286688      93.85566     
   2735000   1.046092       17.834433      93.88771     
   2736000   1.0219534      17.553574      93.747547    
   2737000   1.039195       17.304528      93.69031     
   2738000   1.0051889      17.702472      93.652725    
   2739000   0.98729911     18.000826      93.65068     
   2740000   1.0127351      17.934869      93.558381    
   2741000   1.0185612      17.842307      93.625396    
   2742000   0.99265352     17.554586      93.479905    
   2743000   1.0114947      17.74632       93.417368    
   2744000   1.0027816      17.720511      93.213995    
   2745000   0.98463554     17.793509      93.06583     
   2746000   1.0086586      17.767119      93.142552    
   2747000   0.9998687      17.313659      93.097502    
   2748000   1.0344045      17.91398       92.837028    
   2749000   1.0133578      17.766555      92.671531    
   2750000   0.98986244     17.806778      92.788304    
   2751000   1.0006373      17.828028      92.802259    
   2752000   0.97353564     17.560105      92.697467    
   2753000   0.99154344     17.830952      92.563213    
   2754000   0.98182663     17.793998      92.450428    
   2755000   0.97066316     17.772886      92.33717     
   2756000   1.0371221      17.67854       92.193033    
   2757000   0.99463034     17.461805      92.205388    
   2758000   1.0045535      17.620977      92.265099    
   2759000   1.019653       17.273944      92.143678    
   2760000   0.97576844     17.009307      92.162818    
   2761000   0.98355531     17.50488       92.12031     
   2762000   0.99290649     17.582472      91.945603    
   2763000   0.99768398     18.003692      91.98038     
   2764000   0.9761864      18.210775      91.948449    
   2765000   1.0104423      17.796973      91.619769    
   2766000   0.99852363     17.636438      91.617538    
   2767000   0.99260139     17.598163      91.534105    
   2768000   0.9777616      17.594593      91.390877    
   2769000   0.99907433     18.026426      91.368149    
   2770000   1.0221761      17.602268      91.301379    
   2771000   1.0108304      17.986666      91.570897    
   2772000   0.96341166     18.002078      91.51198     
   2773000   1.0362923      17.248037      91.500211    
   2774000   0.99824765     17.727218      91.284492    
   2775000   0.97778067     17.339523      91.298086    
   2776000   1.0191435      17.330189      91.40606     
   2777000   0.98444632     17.708759      91.373628    
   2778000   1.0466473      18.5219        91.161666    
   2779000   0.96782535     17.615022      90.857731    
   2780000   1.044011       17.482049      90.889891    
   2781000   0.98782927     17.792311      90.888371    
   2782000   0.94945816     17.678621      90.93692     
   2783000   0.98251949     17.649634      90.7553      
   2784000   1.0038197      17.665835      90.655975    
   2785000   0.95915857     17.218427      90.587779    
   2786000   0.97712076     17.393433      90.669951    
   2787000   1.0604998      17.776072      90.673698    
   2788000   1.0135347      17.972057      90.648662    
   2789000   0.990901       18.143411      90.563089    
   2790000   1.0191079      17.035968      90.361178    
   2791000   1.0334499      17.568391      90.479235    
   2792000   0.98988872     16.908413      90.099876    
   2793000   1.030063       17.500704      90.248964    
   2794000   0.97947729     17.280538      90.267148    
   2795000   0.98687601     17.918215      89.992684    
   2796000   1.0154398      17.784048      89.926096    
   2797000   1.0076631      17.483929      89.812845    
   2798000   1.0501218      17.31859       89.637633    
   2799000   0.96695522     17.593824      89.518333    
   2800000   1.0183344      17.651674      89.53276     
   2801000   0.97286238     17.468031      89.619284    
   2802000   1.0090387      17.713794      89.494286    
   2803000   1.0267623      17.93346       89.431566    
   2804000   1.0310767      17.369105      89.461553    
   2805000   0.98334396     17.684735      89.346826    
   2806000   0.96632349     17.108648      89.529967    
   2807000   1.0183091      17.629871      89.849546    
   2808000   0.98214979     17.363873      90.036786    
   2809000   1.0440709      17.288711      89.940194    
   2810000   0.97745362     18.084332      89.793951    
   2811000   1.0043017      17.401423      89.61546     
   2812000   1.020325       17.283742      89.521482    
   2813000   1.0416925      17.885411      89.321649    
   2814000   1.0398469      17.615313      89.275166    
   2815000   1.0307968      18.17101       89.330117    
   2816000   1.0297277      17.571592      89.275242    
   2817000   0.9896075      17.104476      89.124217    
   2818000   0.98517544     17.403222      88.825738    
   2819000   1.0017374      17.654617      88.804626    
   2820000   0.99315941     17.084969      88.970991    
   2821000   0.98072451     17.619509      88.833792    
   2822000   0.99091625     18.006373      89.011846    
   2823000   1.0259813      17.843336      89.095653    
   2824000   0.97467114     17.381512      89.156768    
   2825000   0.99913718     17.687939      89.019462    
   2826000   0.9854037      18.34363       88.846271    
   2827000   0.98031018     17.55172       88.743021    
   2828000   0.98709048     17.710611      88.606089    
   2829000   1.0052677      17.365632      88.76165     
   2830000   1.0165236      17.841146      88.816238    
   2831000   0.98416374     18.404135      88.721682    
   2832000   1.0001455      17.95457       88.580052    
   2833000   1.0197668      17.559336      88.45747     
   2834000   1.0237659      18.014392      88.488996    
   2835000   0.9771259      17.429821      88.524827    
   2836000   1.0056616      17.659497      88.396986    
   2837000   1.025389       17.993672      88.202786    
   2838000   1.0236177      17.532507      88.075444    
   2839000   0.95063392     17.085875      87.934496    
   2840000   0.99063969     17.58891       87.82816     
   2841000   1.0406028      17.449181      87.650673    
   2842000   0.97037783     17.298718      87.517535    
   2843000   0.99604626     17.580382      87.345803    
   2844000   0.98413943     17.49624       87.261419    
   2845000   1.0171141      17.569725      87.240479    
   2846000   1.0470525      17.173743      87.074509    
   2847000   0.99250951     17.762642      87.127049    
   2848000   0.96947866     17.914184      87.203693    
   2849000   0.95607259     17.748629      87.285854    
   2850000   0.95554519     17.792153      87.004225    
   2851000   0.96866538     17.464084      86.899192    
   2852000   1.0153497      18.169047      86.662103    
   2853000   0.98478135     17.630268      86.779491    
   2854000   0.97350279     17.857589      86.972988    
   2855000   0.99202702     17.843056      87.142495    
   2856000   1.0039309      17.943189      87.134921    
   2857000   0.99081756     17.644542      86.841878    
   2858000   0.98433233     17.482527      86.62113     
   2859000   1.0158768      17.627678      86.540201    
   2860000   1.0195922      17.74313       86.473337    
   2861000   0.99635457     17.242002      86.408384    
   2862000   0.99177308     17.603874      86.546411    
   2863000   0.99713676     17.650702      86.26964     
   2864000   1.0038804      17.357404      86.420535    
   2865000   1.0556848      17.428622      86.306356    
   2866000   0.99960665     17.2991        86.249378    
   2867000   0.99028312     17.417743      86.083061    
   2868000   1.0247427      18.157416      86.116108    
   2869000   0.99761583     17.6819        86.074308    
   2870000   0.97500209     18.097788      85.866326    
   2871000   0.99237677     17.809575      85.855315    
   2872000   0.99535271     17.238338      85.641167    
   2873000   1.0071617      17.766604      85.413134    
   2874000   0.9830173      18.285419      85.349337    
   2875000   1.0310805      17.91683       85.148455    
   2876000   0.99825237     16.633642      85.040951    
   2877000   1.0125621      17.471654      85.109523    
   2878000   0.99798358     18.065739      84.947868    
   2879000   0.9977745      16.835932      84.684071    
   2880000   0.98032121     17.799603      84.510444    
   2881000   0.97653651     17.675379      84.448555    
   2882000   0.97288471     17.481686      84.310514    
   2883000   0.98710774     17.465473      84.222249    
   2884000   1.0121867      17.716365      84.394642    
   2885000   1.0012697      17.650049      84.550125    
   2886000   0.99190353     17.851894      84.641212    
   2887000   0.96051227     17.51156       84.578499    
   2888000   1.0173573      17.648155      84.695185    
   2889000   1.012637       17.266659      84.592254    
   2890000   1.0128452      18.325264      84.465283    
   2891000   1.0275853      17.733706      84.682145    
   2892000   1.0428897      17.788183      84.66542     
   2893000   0.98654425     17.539971      84.557566    
   2894000   0.94884092     16.988382      84.752903    
   2895000   1.0096409      17.272503      84.705993    
   2896000   0.99873914     17.438281      84.508771    
   2897000   1.01119        17.794855      84.626554    
   2898000   1.0153575      18.164409      84.689795    
   2899000   0.97344589     17.929962      84.320494    
   2900000   1.0117538      17.747918      84.217726    
   2901000   0.99300151     17.777787      84.293452    
   2902000   0.9636026      17.616272      84.224104    
   2903000   0.96448492     18.094927      83.966584    
   2904000   0.97265384     17.849632      83.942457    
   2905000   0.96528562     17.652864      83.873301    
   2906000   1.0319236      18.053465      83.762405    
   2907000   0.96718838     17.291791      83.77197     
   2908000   1.0183488      17.73046       83.507939    
   2909000   1.0112855      18.021058      83.399513    
   2910000   0.97284637     17.585269      83.155435    
   2911000   1.0129993      17.539685      82.874732    
   2912000   0.97474817     17.612408      82.808478    
   2913000   0.98405811     17.743456      82.666087    
   2914000   0.95151753     17.87055       82.756078    
   2915000   1.0384814      17.953938      82.521326    
   2916000   0.94517602     17.762391      81.993545    
   2917000   0.96115533     16.969052      82.016808    
   2918000   0.95531258     17.6175        82.255675    
   2919000   0.97987747     17.705721      82.093151    
   2920000   0.97462122     18.041817      81.973326    
   2921000   1.0062798      17.752472      82.291331    
   2922000   0.97378316     17.452379      82.480378    
   2923000   0.98140832     17.286654      82.376496    
   2924000   1.0481659      17.546651      82.471711    
   2925000   1.0163584      17.942182      82.250261    
   2926000   1.0042489      17.075389      82.46588     
   2927000   0.99773315     17.389929      82.35015     
   2928000   1.0192036      17.236114      82.128004    
   2929000   1.0053767      17.431877      82.227154    
   2930000   1.0342621      17.832227      82.224643    
   2931000   1.0099463      17.836582      81.909877    
   2932000   0.99775652     17.619811      81.91539     
   2933000   1.0383965      17.587679      81.673539    
   2934000   0.98350949     17.999236      81.561591    
   2935000   0.98406122     17.432494      81.57433     
   2936000   0.97785401     17.464707      81.4977      
   2937000   0.98911606     17.43791       81.545082    
   2938000   1.0151189      17.955055      81.349       
   2939000   1.0184454      17.415127      81.041004    
   2940000   0.9585016      17.632304      80.984846    
   2941000   1.0068195      17.790127      80.818328    
   2942000   1.0022044      17.725643      80.887106    
   2943000   0.98913394     17.608568      80.786095    
   2944000   1.020663       17.252711      80.737423    
   2945000   0.99207172     17.714852      80.835719    
   2946000   0.96900493     17.66001       80.70908     
   2947000   1.0028096      16.85787       80.504991    
   2948000   1.0180421      17.457048      80.318816    
   2949000   1.0029404      17.471313      80.31617     
   2950000   0.9791979      17.717275      80.370303    
   2951000   0.97818411     18.145235      80.293865    
   2952000   0.98818886     17.961942      80.519148    
   2953000   1.0018563      17.708443      80.282709    
   2954000   0.98238776     17.329246      80.175984    
   2955000   1.0240102      17.425328      80.130167    
   2956000   1.0003186      17.066228      80.1448      
   2957000   0.98380871     17.941926      80.15885     
   2958000   0.99740938     17.590403      80.194314    
   2959000   1.0259096      18.023123      80.067774    
   2960000   0.98199381     17.902489      79.89094     
   2961000   1.01338        17.154993      79.858668    
   2962000   0.98246083     16.947249      79.930223    
   2963000   0.98033769     17.352376      79.877968    
   2964000   1.020302       17.779022      79.797224    
   2965000   1.037065       17.684039      79.599987    
   2966000   0.99716675     17.105588      79.572099    
   2967000   1.0010629      17.166781      79.543005    
   2968000   0.97796727     17.560677      79.472304    
   2969000   1.0563623      17.673079      79.603652    
   2970000   0.99689472     17.561461      79.439295    
   2971000   1.0398773      17.562173      79.352731    
   2972000   0.98401979     17.43567       79.502354    
   2973000   0.98808265     17.141378      79.575295    
   2974000   1.0292255      17.432774      79.47281     
   2975000   1.0046663      17.530975      79.477636    
   2976000   0.96173857     17.796635      79.348797    
   2977000   0.99561745     17.71309       79.191045    
   2978000   1.035978       18.527637      78.928314    
   2979000   1.0586281      17.475517      78.99027     
   2980000   0.96389576     17.401152      78.941588    
   2981000   0.97362538     16.789336      78.747626    
   2982000   1.0210322      17.714744      78.469382    
   2983000   1.0199403      17.740283      78.136334    
   2984000   1.0230624      17.68568       78.010282    
   2985000   0.97237616     17.146778      77.835965    
   2986000   0.99799943     18.123969      77.656925    
   2987000   0.99930007     17.149054      77.797319    
   2988000   1.0114036      18.182441      77.878243    
   2989000   0.97228148     17.819449      77.83375     
   2990000   1.0651601      17.466531      77.893203    
   2991000   1.0106524      17.699484      77.916337    
   2992000   0.97406051     17.233284      77.753439    
   2993000   1.0202771      17.329822      77.702373    
   2994000   0.97642609     17.673686      77.560258    
   2995000   1.0048492      17.569947      77.209386    
   2996000   0.97702568     16.984344      77.16718     
   2997000   0.99560548     17.377334      77.286705    
   2998000   0.97060175     17.433625      77.404633    
   2999000   0.97016208     17.170241      77.542756    
   3000000   0.99979711     17.753864      77.771261    
   3001000   0.98703081     17.503885      77.798802    
   3002000   0.9746091      17.87824       77.81745     
   3003000   0.95423405     17.02142       77.759753    
   3004000   0.97879157     17.287635      77.777182    
   3005000   0.99985441     18.303707      77.727377    
   3006000   0.99931675     17.460935      77.544573    
   3007000   0.99405645     17.509163      77.388743    
   3008000   1.0269964      17.306803      77.102635    
   3009000   0.98931677     17.287693      76.883392    
   3010000   0.99387928     17.91018       76.497216    
   3011000   0.99505773     17.311275      76.344411    
   3012000   0.98001407     17.479338      76.256053    
   3013000   1.0160602      18.094153      76.090014    
   3014000   1.0109908      17.599411      75.711723    
   3015000   1.0007756      17.507237      75.446714    
   3016000   1.0192565      17.941779      75.459979    
   3017000   1.0030237      17.45784       75.509086    
   3018000   1.0232616      17.859824      75.346693    
   3019000   1.0156576      17.267724      75.103445    
   3020000   1.0165539      17.424382      75.135489    
   3021000   1.0081106      17.993661      75.094387    
   3022000   0.99472933     17.360401      75.059105    
   3023000   0.99031587     17.236374      75.110089    
   3024000   1.0095986      17.375879      74.875689    
   3025000   1.028678       18.053222      74.799288    
   3026000   1.0086956      17.757167      75.063975    
   3027000   0.98513131     17.650263      74.919144    
   3028000   0.98282609     17.336253      74.829858    
   3029000   1.0049285      17.173987      74.766941    
   3030000   0.9671175      17.113626      74.807994    
   3031000   1.015516       17.488836      74.483171    
   3032000   0.99478173     17.866869      74.115745    
   3033000   0.99253665     18.008232      73.949455    
   3034000   0.95546588     17.668291      74.033191    
   3035000   1.0013256      17.459175      74.033251    
   3036000   1.0088484      17.428771      74.008927    
   3037000   0.95085655     17.216166      74.098407    
   3038000   0.9906541      17.185297      74.325563    
   3039000   1.0050203      17.749254      74.283218    
   3040000   0.96369618     17.37157       74.263469    
   3041000   1.0364583      17.586302      74.43619     
   3042000   1.0051094      17.867075      74.633007    
   3043000   0.99305961     16.990152      74.481491    
   3044000   1.0016308      17.62734       74.412145    
   3045000   1.0270971      18.131916      74.224336    
   3046000   1.0023685      17.045815      74.03295     
   3047000   0.99441023     17.093007      73.831178    
   3048000   1.0108793      17.277835      73.941883    
   3049000   0.99365032     17.381891      73.796952    
   3050000   1.0136826      17.884081      73.858978    
   3051000   1.0166982      17.841513      73.8921      
   3052000   0.99962709     17.550562      73.742385    
   3053000   1.0237136      17.52456       73.568066    
   3054000   0.99466841     17.452334      73.51926     
   3055000   1.0054646      17.306219      73.360458    
   3056000   1.0066218      17.30968       73.510247    
   3057000   0.98429085     17.370574      73.324696    
   3058000   0.98190693     17.434906      73.092158    
   3059000   1.014553       17.028882      72.994741    
   3060000   1.0320785      17.407058      72.875299    
   3061000   1.0071555      17.432454      72.829781    
   3062000   1.0022022      17.59189       72.958092    
   3063000   1.0184022      17.716543      72.821042    
   3064000   0.9959594      17.793499      72.70687     
   3065000   0.9851665      17.196746      72.575584    
   3066000   0.99632893     17.077421      72.617402    
   3067000   1.0224425      17.542654      72.322248    
   3068000   0.98186602     17.328016      72.293314    
   3069000   1.0474227      17.089389      72.020322    
   3070000   0.98043649     17.526044      71.55437     
   3071000   0.97883095     17.305551      71.436619    
   3072000   0.98851021     17.255784      71.448886    
   3073000   0.97656465     17.34117       71.291646    
   3074000   0.98297671     17.317923      71.384139    
   3075000   0.99955223     17.110663      71.333119    
   3076000   0.9939559      17.295893      71.344409    
   3077000   1.02087        17.663193      71.431964    
   3078000   0.98254725     17.617947      71.485708    
   3079000   1.029372       18.453329      71.327036    
   3080000   1.0268506      17.151919      71.215195    
   3081000   0.98279783     17.825464      71.245314    
   3082000   1.0493975      17.519555      71.385344    
   3083000   1.0116233      17.366603      71.473055    
   3084000   1.0028997      17.118525      71.485681    
   3085000   1.0042151      17.533839      71.262485    
   3086000   1.0337671      17.0469        71.290676    
   3087000   1.0106355      17.726512      70.981826    
   3088000   1.0011547      17.403052      71.210952    
   3089000   0.99145321     17.069353      71.257694    
   3090000   1.001239       17.505931      71.38479     
   3091000   1.0263869      17.320343      71.614514    
   3092000   1.0022136      17.780442      71.589002    
   3093000   0.98722457     17.372573      71.426314    
   3094000   1.0021657      17.420553      71.548875    
   3095000   0.99736877     17.733895      71.571188    
   3096000   0.99512395     17.032133      71.618859    
   3097000   0.99913821     17.466867      71.441457    
   3098000   0.98716325     18.039436      71.537651    
   3099000   0.98312039     17.955191      71.844403    
   3100000   1.0132034      17.254125      71.831411    
   3101000   1.0122081      17.352362      71.77835     
   3102000   1.0391177      17.544346      71.662935    
   3103000   0.96589826     17.303942      71.573843    
   3104000   0.96417022     17.444111      71.641327    
   3105000   0.97384381     17.997344      71.666269    
   3106000   1.0019176      17.584442      71.510774    
   3107000   1.0316029      17.912621      71.280123    
   3108000   0.99913291     17.578314      71.364081    
   3109000   1.0229663      18.182224      71.148816    
   3110000   0.99415291     17.519571      71.491285    
   3111000   0.9606629      17.788151      71.308374    
   3112000   1.0196649      17.187809      71.221381    
   3113000   0.98548883     17.675458      71.106659    
   3114000   1.0092823      17.912576      71.222548    
   3115000   1.0037174      17.920539      71.109015    
   3116000   1.0002759      17.78721       71.010227    
   3117000   0.99406238     17.574414      71.025139    
   3118000   1.0342162      17.945265      71.005763    
   3119000   0.96064632     17.230816      70.773595    
   3120000   1.0157824      17.285398      70.825303    
   3121000   0.97680972     17.728563      70.934543    
   3122000   1.0161684      17.826739      70.866353    
   3123000   0.99415805     17.06859       70.711828    
   3124000   1.0145282      17.40426       70.769284    
   3125000   1.0085905      17.122665      70.612628    
   3126000   0.9839844      17.59662       70.547023    
   3127000   0.96121477     17.686334      70.403882    
   3128000   0.97130823     17.699077      70.170982    
   3129000   1.0025627      17.63272       70.315509    
   3130000   1.0134984      17.16723       70.23693     
   3131000   1.0444443      17.836908      70.311701    
   3132000   1.0360849      17.468086      70.389251    
   3133000   1.0307073      16.975217      70.378584    
   3134000   1.0245903      17.121464      70.218361    
   3135000   1.0095641      17.312033      70.301528    
   3136000   0.98548377     17.723404      70.326161    
   3137000   0.98632187     17.212093      70.365043    
   3138000   1.0117636      17.227602      70.39437     
   3139000   0.95165371     17.534336      70.184831    
   3140000   0.99895292     17.50796       70.094772    
   3141000   1.0342962      17.250728      70.219125    
   3142000   1.0447315      17.38897       70.103331    
   3143000   0.98223598     17.349989      69.944389    
   3144000   1.0062672      17.41355       69.847168    
   3145000   0.93582363     17.612409      69.682588    
   3146000   0.97422492     17.631253      69.758917    
   3147000   0.99349998     17.903293      69.611062    
   3148000   1.0538066      17.840263      69.602799    
   3149000   0.96897481     18.157783      69.28595     
   3150000   0.98713413     17.348098      69.218837    
   3151000   0.98283925     17.469381      69.083859    
   3152000   0.95938518     17.628624      69.043177    
   3153000   1.0115143      17.428902      69.032444    
   3154000   1.0173833      17.628147      68.962359    
   3155000   1.0065717      17.593503      69.035656    
   3156000   1.0225582      17.92862       69.180335    
   3157000   1.0063064      17.991401      69.217886    
   3158000   1.0062841      17.703958      69.279789    
   3159000   1.0026151      17.636032      69.326738    
   3160000   0.97707254     17.341153      69.21491     
   3161000   1.0093292      17.656477      69.191696    
   3162000   0.98726149     17.273178      69.213113    
   3163000   0.99480878     17.327307      69.265748    
   3164000   0.98301592     17.200976      69.227076    
   3165000   0.97696298     17.32651       69.100194    
   3166000   1.0372168      17.667897      69.01948     
   3167000   0.97873158     17.203081      69.155647    
   3168000   0.98425521     17.573272      69.087879    
   3169000   0.99029638     17.252405      68.835204    
   3170000   0.97409931     16.995058      68.740904    
   3171000   0.98934318     17.625019      68.615997    
   3172000   1.0004649      18.257416      68.547307    
   3173000   0.98425247     17.236754      68.865574    
   3174000   0.98344313     17.142586      68.718426    
   3175000   0.97053376     17.66279       68.80287     
   3176000   1.0041118      16.961368      68.694056    
   3177000   0.99506445     17.443341      68.546351    
   3178000   1.0166418      17.56112       68.400015    
   3179000   1.0012567      17.727681      68.334665    
   3180000   1.0114374      17.25162       68.307054    
   3181000   0.99117583     17.418761      68.168725    
   3182000   0.97578986     17.145463      67.877486    
   3183000   1.0060374      17.392527      67.875959    
   3184000   0.98351133     17.360028      67.714533    
   3185000   0.99852705     17.693997      67.771399    
   3186000   1.0232987      17.597411      67.686753    
   3187000   0.98331454     18.081637      67.512381    
   3188000   0.99837197     17.204287      67.104735    
   3189000   1.0005968      17.550984      66.991837    
   3190000   1.0092254      17.442696      66.874816    
   3191000   1.0249877      17.602467      66.92144     
   3192000   0.94464981     17.409137      66.609258    
   3193000   0.99808756     17.134642      66.623076    
   3194000   0.99037867     17.647715      66.468187    
   3195000   0.9863157      17.492499      66.309131    
   3196000   1.0032569      17.254519      66.244915    
   3197000   0.98039919     17.469125      66.342578    
   3198000   1.0128203      17.172703      66.249388    
   3199000   1.0153273      17.671399      66.034577    
   3200000   1.0372805      17.672037      65.862935    
   3201000   1.0132403      16.996446      65.838831    
   3202000   0.99645505     17.406814      65.871071    
   3203000   0.99770255     17.337974      65.73193     
   3204000   0.97277651     16.643681      65.800428    
   3205000   1.0398245      17.715252      65.729133    
   3206000   1.0255392      17.397861      65.906079    
   3207000   0.95117866     16.872531      66.006084    
   3208000   0.97196596     17.28549       66.065192    
   3209000   0.99376599     17.263597      65.997667    
   3210000   1.0369296      17.322978      66.009497    
   3211000   1.0201103      17.334891      65.940793    
   3212000   0.97051752     17.228748      66.065088    
   3213000   1.0263557      17.242401      66.141737    
   3214000   1.0176804      17.480392      66.155264    
   3215000   1.0283658      17.679259      66.059696    
   3216000   1.0148898      17.758261      66.252786    
   3217000   1.0034354      17.046079      66.284152    
   3218000   0.97420857     17.314946      66.109718    
   3219000   1.0054518      17.373706      66.033176    
   3220000   1.0344252      17.519768      65.829019    
   3221000   1.0192845      17.621019      66.010348    
   3222000   0.99958907     17.214071      65.919391    
   3223000   1.0158791      17.907816      65.844728    
   3224000   0.99045388     17.491319      65.500186    
   3225000   1.0104533      17.511466      65.286185    
   3226000   1.0317202      17.710621      65.344811    
   3227000   1.0376173      18.152208      65.335232    
   3228000   0.97801337     16.970721      65.494327    
   3229000   1.0206957      17.11441       65.555994    
   3230000   1.0109599      17.112709      65.471458    
   3231000   0.99698374     17.722043      65.457142    
   3232000   1.0382304      17.584427      65.270778    
   3233000   1.0339589      17.843506      65.239527    
   3234000   1.0523097      17.942516      65.083198    
   3235000   0.99895523     17.678071      64.856754    
   3236000   0.97733644     17.451753      64.953814    
   3237000   0.98946287     17.412255      64.927455    
   3238000   0.99979504     17.337444      65.027266    
   3239000   1.0246484      17.516115      64.895413    
   3240000   0.99518064     16.71325       64.775839    
   3241000   0.96362328     17.263791      64.968514    
   3242000   0.98002363     17.534935      64.943857    
   3243000   0.98898856     17.345904      64.979851    
   3244000   1.0063702      17.386634      64.808243    
   3245000   1.001887       17.670594      64.732091    
   3246000   1.0228266      17.019105      64.671566    
   3247000   0.95052093     16.768885      64.669402    
   3248000   1.0404621      17.817922      64.680577    
   3249000   0.9881951      17.326436      64.620384    
   3250000   1.0411355      17.307317      64.595703    
   3251000   1.0403259      17.242132      64.639153    
   3252000   1.0178801      17.565315      64.258405    
   3253000   0.94882486     17.625487      64.350535    
   3254000   0.97226308     17.231167      64.077379    
   3255000   1.0033242      17.046407      64.100974    
   3256000   0.97606605     17.556681      64.035028    
   3257000   0.95821364     17.159528      64.227718    
   3258000   1.0218891      17.503067      64.306209    
   3259000   0.99384342     17.367569      64.386217    
   3260000   0.9769374      17.524559      64.492765    
   3261000   0.98000698     17.647308      64.413732    
   3262000   1.0109186      17.412382      64.496937    
   3263000   0.99765495     17.41993       64.577422    
   3264000   1.0118919      17.418414      64.438712    
   3265000   0.98634118     17.059654      64.300759    
   3266000   1.0245072      17.980891      64.376924    
   3267000   1.0161572      17.37232       64.174369    
   3268000   0.95858668     17.421155      64.238404    
   3269000   0.96878724     17.340262      64.375306    
   3270000   1.0192143      17.662864      64.226482    
   3271000   1.0084298      17.29946       64.101289    
   3272000   1.018209       17.005267      64.185548    
   3273000   1.0019092      17.501984      64.051124    
   3274000   1.0127039      17.473551      64.011132    
   3275000   0.97155081     17.178114      63.94073     
   3276000   0.96919174     17.528746      63.881352    
   3277000   1.0126866      17.324629      63.69699     
   3278000   1.0200388      17.287065      63.725365    
   3279000   1.0484505      17.424361      63.572033    
   3280000   1.03073        17.33188       63.467103    
   3281000   1.0243652      17.391419      63.368374    
   3282000   0.96937706     17.082556      63.297999    
   3283000   0.96568609     17.525954      63.303938    
   3284000   1.0401544      16.621776      63.096606    
   3285000   0.99604115     17.109829      63.095124    
   3286000   0.99720869     17.600445      63.014516    
   3287000   0.97285523     16.916568      63.002463    
   3288000   0.95107662     17.624668      62.867193    
   3289000   1.0310401      17.268245      62.77219     
   3290000   0.9935589      16.951321      62.663574    
   3291000   0.9717646      17.388025      62.470829    
   3292000   1.0075577      17.071029      62.298694    
   3293000   0.98087825     17.365689      62.608858    
   3294000   1.0601653      17.948025      62.575414    
   3295000   0.99818809     17.353113      62.46073     
   3296000   1.0158334      17.317447      62.152543    
   3297000   0.98940943     17.197806      62.155767    
   3298000   0.99733361     17.16534       62.128071    
   3299000   1.017249       17.225578      61.996398    
   3300000   1.0231428      17.230879      61.832681    
   3301000   0.99271788     17.210849      61.921829    
   3302000   1.0124895      17.219411      62.037928    
   3303000   1.0036336      17.124019      61.788655    
   3304000   0.9795974      18.074717      61.804466    
   3305000   1.0122267      17.433159      61.892848    
   3306000   1.0163666      17.536053      61.770631    
   3307000   0.9865827      17.49475       61.756835    
   3308000   1.019648       17.694634      61.749891    
   3309000   0.99757643     17.524059      61.592898    
   3310000   1.01538        17.982099      61.566954    
   3311000   1.0049694      17.373643      61.589423    
   3312000   1.0366296      17.498947      61.586414    
   3313000   0.99040907     16.848223      61.441491    
   3314000   1.0124764      17.753768      61.361075    
   3315000   1.0373875      17.878675      61.531751    
   3316000   1.0035656      18.138065      61.388407    
   3317000   1.0122406      17.751292      61.307942    
   3318000   1.0142366      16.720018      61.183169    
   3319000   1.0171107      17.594797      61.155364    
   3320000   0.95344947     17.674045      61.403696    
   3321000   0.97386797     17.133955      61.18157     
   3322000   1.0275762      17.243257      61.035698    
   3323000   1.0213142      17.60656       60.994676    
   3324000   0.97524044     17.438869      60.954608    
   3325000   0.98074865     17.39828       60.75909     
   3326000   1.0122823      17.578662      60.756459    
   3327000   0.99798186     17.246254      60.645808    
   3328000   1.0382312      17.816152      60.542561    
   3329000   0.99701101     17.232168      60.581969    
   3330000   1.0095276      17.759208      60.669459    
   3331000   1.0156187      17.141099      60.631188    
   3332000   1.0261098      17.531128      60.400584    
   3333000   0.9884506      17.549906      60.406728    
   3334000   0.99424667     17.248196      60.170104    
   3335000   1.0327384      17.375448      60.03438     
   3336000   0.99157572     17.21685       60.01031     
   3337000   0.94971333     16.933229      59.946708    
   3338000   1.0086625      17.527584      59.932807    
   3339000   1.0315039      17.095587      60.038782    
   3340000   1.0087419      17.59709       60.073858    
   3341000   1.0285764      17.142516      60.028944    
   3342000   0.99275505     17.686344      60.142486    
   3343000   1.0203293      17.720194      60.170728    
   3344000   1.0489729      17.604144      59.825885    
   3345000   1.0067646      17.684582      59.707983    
   3346000   0.96731912     16.871176      59.518944    
   3347000   0.9998376      17.146317      59.605072    
   3348000   0.99254555     17.158986      59.535673    
   3349000   1.0260893      17.722849      59.584497    
   3350000   1.0081951      17.326523      59.661013    
   3351000   1.0152604      17.041849      59.595244    
   3352000   1.0005798      17.57866       59.647203    
   3353000   1.0125644      17.82525       59.60223     
   3354000   0.98396551     16.807112      59.683436    
   3355000   1.0117835      16.976021      59.443119    
   3356000   1.0020173      17.098947      59.416196    
   3357000   1.0083932      17.749755      59.331975    
   3358000   1.017529       16.977874      59.101917    
   3359000   0.98744401     17.019519      59.132239    
   3360000   0.98184601     17.378618      59.085217    
   3361000   1.0382532      17.512796      59.060608    
   3362000   1.017303       17.191119      58.808928    
   3363000   1.0038266      17.412354      58.639366    
   3364000   1.0061673      17.584444      58.564423    
   3365000   0.99929584     17.471717      58.307089    
   3366000   0.99251303     17.389317      58.136557    
   3367000   1.0050237      17.162043      58.130635    
   3368000   1.0452026      17.948591      58.194248    
   3369000   0.99869008     17.892805      58.135574    
   3370000   1.0421767      17.760035      58.202997    
   3371000   1.0431887      17.778742      58.334825    
   3372000   0.98871459     17.275265      58.384557    
   3373000   0.9913846      17.126536      58.399894    
   3374000   1.0357821      17.529757      58.353109    
   3375000   0.97548445     17.503547      58.173562    
   3376000   0.99915833     17.502143      57.991255    
   3377000   1.0551885      17.250773      57.980619    
   3378000   1.0302302      17.76183       57.824885    
   3379000   0.98506537     17.66233       57.781405    
   3380000   0.98882746     17.487926      57.72017     
   3381000   0.98671011     17.024259      57.831164    
   3382000   0.96530213     17.106395      57.727657    
   3383000   0.99527026     17.225662      57.780885    
   3384000   1.0013656      17.906377      57.834083    
   3385000   1.0006515      17.407582      57.763137    
   3386000   1.0362739      17.408997      57.635541    
   3387000   0.99701039     17.434331      57.692847    
   3388000   1.0198023      17.889107      57.639869    
   3389000   1.029574       17.129241      57.771923    
   3390000   1.0155387      17.511232      57.732117    
   3391000   1.0299416      17.510453      57.543898    
   3392000   0.9743188      17.602419      57.225038    
   3393000   1.0354585      16.98109       57.24852     
   3394000   0.9888551      17.112353      57.349594    
   3395000   0.97042871     17.367136      57.166731    
   3396000   0.99618083     17.041944      57.0941      
   3397000   1.0247566      17.602206      57.09899     
   3398000   1.0089126      17.38282       57.090965    
   3399000   0.9958649      17.080314      57.019857    
   3400000   0.96314417     17.295589      56.815821    
   3401000   0.96060935     17.051365      56.812996    
   3402000   1.0250928      17.817721      56.844806    
   3403000   0.99820143     17.255742      56.964452    
   3404000   1.0321811      17.403827      57.29214     
   3405000   0.99689383     17.282539      57.09673     
   3406000   1.016649       17.201014      57.095882    
   3407000   1.0308242      17.255054      57.024431    
   3408000   1.0013414      16.807477      56.918824    
   3409000   0.9758629      17.317443      56.845843    
   3410000   0.99183431     17.0188        56.735352    
   3411000   0.9923403      17.519589      56.504308    
   3412000   1.0049495      17.596669      56.363612    
   3413000   0.96230438     17.35394       56.340609    
   3414000   1.0246401      17.436821      56.246432    
   3415000   1.0246087      16.652741      56.156502    
   3416000   0.99057496     16.889213      55.966735    
   3417000   0.99682827     17.837325      55.994432    
   3418000   1.0203715      17.32911       55.875562    
   3419000   1.0179929      17.741738      55.755877    
   3420000   1.0467677      17.571287      55.683697    
   3421000   0.99901501     17.256697      55.944338    
   3422000   0.99551597     17.081197      55.852413    
   3423000   0.97867477     17.061189      55.715432    
   3424000   0.95913714     17.052014      55.735766    
   3425000   0.99980584     17.816096      55.690845    
   3426000   1.0025077      17.570745      55.783873    
   3427000   0.99824035     17.603609      55.755482    
   3428000   1.0137497      17.746163      55.518379    
   3429000   1.0138512      17.301421      55.382453    
   3430000   0.95911749     17.175048      55.377341    
   3431000   1.0211375      17.451072      55.342654    
   3432000   0.99397263     17.551084      55.356562    
   3433000   1.0503117      17.467128      55.267091    
   3434000   1.0170636      17.402496      55.207596    
   3435000   0.98771164     17.383805      54.990367    
   3436000   0.97145673     17.331094      54.781031    
   3437000   0.99688241     16.811831      54.595524    
   3438000   0.98127744     17.25301       54.429067    
   3439000   0.97520885     16.979398      54.337901    
   3440000   0.99671812     17.20129       54.235734    
   3441000   0.97248821     17.224131      54.06075     
   3442000   0.98355715     16.821042      53.980201    
   3443000   1.0039924      17.019897      53.968182    
   3444000   1.0041867      17.259479      53.800113    
   3445000   0.99344138     17.047581      53.72833     
   3446000   1.0418189      18.100577      53.691351    
   3447000   0.99375844     17.268374      53.813747    
   3448000   0.97179238     17.462808      53.565732    
   3449000   1.0216669      17.591395      53.476331    
   3450000   1.0507441      17.824842      53.314052    
   3451000   0.97747048     16.957963      53.152509    
   3452000   0.95050369     16.917833      53.095152    
   3453000   1.0120469      17.272348      52.823017    
   3454000   1.0055693      17.117625      52.551556    
   3455000   1.0037617      17.173954      52.711411    
   3456000   1.0097373      17.341907      52.583421    
   3457000   1.0031009      17.566117      52.771424    
   3458000   1.000899       18.15707       52.579914    
   3459000   1.0143932      17.503345      52.837954    
   3460000   0.98957781     16.836275      52.783482    
   3461000   0.98517757     17.274889      52.938382    
   3462000   0.99394259     17.692577      52.841341    
   3463000   0.9867377      17.587388      52.705279    
   3464000   1.0323338      17.613913      52.460964    
   3465000   1.0235319      17.452236      52.450253    
   3466000   1.009869       17.436442      52.202772    
   3467000   0.9684381      17.281348      51.915114    
   3468000   0.97325855     17.232966      51.704511    
   3469000   1.0012967      17.199233      51.601431    
   3470000   1.0190309      16.725311      51.710221    
   3471000   0.9860749      17.477856      51.961514    
   3472000   0.98188998     17.478657      51.935141    
   3473000   0.95445614     17.265658      51.907246    
   3474000   0.97724894     17.299753      51.928354    
   3475000   1.0492631      17.09455       51.854217    
   3476000   0.99312106     17.023545      51.734501    
   3477000   0.97889564     17.184984      51.590906    
   3478000   0.98427739     16.874625      51.388513    
   3479000   1.0287032      17.814795      51.278967    
   3480000   0.97846948     17.463372      51.350046    
   3481000   1.0009193      17.264054      51.257508    
   3482000   1.0011634      17.543872      50.992977    
   3483000   1.0429273      17.230001      50.82444     
   3484000   0.9781242      17.284705      50.608505    
   3485000   0.99460632     17.136376      50.671964    
   3486000   0.97345044     16.887493      50.426623    
   3487000   1.0073616      17.180191      50.431674    
   3488000   0.99677605     17.568418      50.239521    
   3489000   1.0243053      17.563219      50.26042     
   3490000   1.0044009      17.549766      50.262051    
   3491000   0.99301427     17.3804        50.281499    
   3492000   0.97128416     17.54559       50.330412    
   3493000   1.0010774      18.274893      50.067224    
   3494000   0.97626402     17.400239      50.213669    
   3495000   1.0350612      17.092825      50.108693    
   3496000   1.0016687      17.175714      49.96093     
   3497000   0.99511734     17.362395      49.796905    
   3498000   0.98150044     17.359805      49.656151    
   3499000   1.0020726      17.118727      49.495812    
   3500000   1.0320454      17.423313      49.069487    
   3501000   0.95829034     17.114223      48.888207    
   3502000   0.96659854     17.781666      48.749729    
   3503000   0.99389232     17.42999       48.966227    
   3504000   1.0070429      16.97256       49.018816    
   3505000   1.0000912      17.455668      48.772042    
   3506000   1.0101021      17.334224      48.874316    
   3507000   1.0012306      17.277879      48.703253    
   3508000   1.0290737      17.455464      48.632847    
   3509000   0.99381333     17.450932      48.663535    
   3510000   0.98833862     16.903725      48.524499    
   3511000   1.009512       17.660247      48.341617    
   3512000   0.95894907     17.757202      48.384374    
   3513000   1.0000455      17.399926      48.389821    
   3514000   1.0015133      17.090181      48.450294    
   3515000   0.99159332     17.456648      48.487367    
   3516000   1.0061297      17.441715      48.448041    
   3517000   1.002315       17.477491      48.404647    
   3518000   1.0220227      17.433326      48.216855    
   3519000   1.0371429      17.041876      48.000391    
   3520000   1.0116212      17.290056      48.165754    
   3521000   1.0068323      17.817521      48.161503    
   3522000   0.98142736     17.425103      48.205304    
   3523000   0.98709706     17.507983      48.056864    
   3524000   1.0177461      17.297323      47.925522    
   3525000   0.9646194      17.40597       47.958716    
   3526000   0.9942281      17.756619      47.919012    
   3527000   1.0524322      17.627478      47.805211    
   3528000   1.0539077      17.508864      47.686147    
   3529000   0.97133981     16.599248      47.464809    
   3530000   0.99772515     17.655047      47.503914    
   3531000   1.0253089      17.250488      47.375087    
   3532000   0.95318276     17.175003      47.321423    
   3533000   0.98016248     16.813636      47.399189    
   3534000   0.97097573     16.730971      47.358834    
   3535000   1.0404991      17.794629      47.331667    
   3536000   1.0345278      17.699865      47.315814    
   3537000   1.0436158      17.629907      47.1022      
   3538000   1.014944       17.339708      47.120044    
   3539000   0.97564527     16.729363      47.104774    
   3540000   1.0094714      17.222014      46.908677    
   3541000   1.0149535      16.989142      46.770176    
   3542000   1.029447       17.275005      46.589605    
   3543000   0.9974197      17.776512      46.589118    
   3544000   0.99534382     16.920106      46.382687    
   3545000   0.96930846     17.596975      46.41878     
   3546000   1.0263284      17.139659      46.362822    
   3547000   0.99129192     17.313606      46.48591     
   3548000   1.0296832      17.747238      46.394977    
   3549000   1.0011166      17.177693      46.271124    
   3550000   1.0076899      18.028856      46.400246    
   3551000   1.0147993      17.385734      46.350376    
   3552000   0.99219023     17.081496      46.304115    
   3553000   1.007098       17.643292      46.261379    
   3554000   1.002793       17.495927      46.181468    
   3555000   0.98944567     17.12561       45.848783    
   3556000   1.0153469      17.367627      45.55812     
   3557000   1.0110468      17.644703      45.530578    
   3558000   1.0180849      17.424086      45.454661    
   3559000   1.0286307      16.925449      45.725849    
   3560000   0.98608028     17.134135      45.82755     
   3561000   0.94260321     17.176442      45.719618    
   3562000   1.0218176      17.748523      45.636258    
   3563000   1.0140553      17.356618      45.497815    
   3564000   1.0371155      17.471321      45.434078    
   3565000   0.98749583     16.837835      45.347619    
   3566000   0.98952949     16.915202      45.082726    
   3567000   0.99091175     17.245761      45.157907    
   3568000   1.0261607      17.231835      45.072613    
   3569000   0.99649362     17.547103      45.004519    
   3570000   1.0013499      17.172133      44.855256    
   3571000   0.98344482     17.023695      44.980993    
   3572000   0.96985608     17.147951      45.164194    
   3573000   0.96906456     17.632943      45.129558    
   3574000   0.97275992     17.302278      44.907201    
   3575000   0.99053604     16.965789      44.868258    
   3576000   1.0221078      17.643912      44.664023    
   3577000   1.0620144      17.70703       44.634944    
   3578000   0.97042595     17.422663      44.412766    
   3579000   1.0086241      17.635508      44.234894    
   3580000   0.97919853     17.906105      44.303977    
   3581000   1.037309       17.006024      44.368553    
   3582000   1.0333161      17.156659      44.349645    
   3583000   0.99983953     17.166804      44.335449    
   3584000   0.98078004     17.010446      44.261822    
   3585000   1.0103429      17.00989       44.212331    
   3586000   0.97473244     17.140505      44.067373    
   3587000   1.0268513      17.003306      43.907218    
   3588000   0.98831482     17.521618      43.811473    
   3589000   0.9842544      16.845689      43.720859    
   3590000   1.0335633      17.264424      43.696981    
   3591000   1.0128599      17.145935      43.549657    
   3592000   1.0185869      17.216651      43.36054     
   3593000   0.97648965     16.555642      43.485191    
   3594000   0.99644678     16.879496      43.302986    
   3595000   0.97151562     16.51501       43.37644     
   3596000   1.0196873      17.229855      43.174145    
   3597000   0.9489745      17.29144       43.102223    
   3598000   1.0379113      17.545231      43.228793    
   3599000   1.0091898      17.619999      43.288162    
   3600000   1.0085246      17.50699       43.279998    
   3601000   0.99452271     16.976709      43.146741    
   3602000   0.98844991     16.877768      43.185627    
   3603000   0.99476068     17.673506      42.980009    
   3604000   1.0015284      17.365372      42.9193      
   3605000   0.96349898     16.947846      42.58228     
   3606000   1.0106478      17.667608      42.241245    
   3607000   0.97168908     17.228209      42.164754    
   3608000   0.95974722     17.276467      42.092875    
   3609000   0.93914974     17.068233      41.994685    
   3610000   0.9932908      17.515012      42.002561    
   3611000   1.0066383      17.069244      41.781349    
   3612000   1.0183589      17.358596      41.66063     
   3613000   1.0139649      17.33112       41.610323    
   3614000   0.98960079     16.986172      41.440593    
   3615000   1.0380397      17.34908       41.571136    
   3616000   1.0343484      16.993194      41.450741    
   3617000   0.98110722     17.605844      41.359356    
   3618000   0.99304248     17.981139      41.21122     
   3619000   1.0264117      17.480885      41.022002    
   3620000   1.0247307      17.93128       40.8075      
   3621000   0.98066113     16.928068      40.452522    
   3622000   0.95568075     16.93369       40.284981    
   3623000   0.99716571     17.626049      39.868217    
   3624000   0.98090902     17.195139      39.756217    
   3625000   1.0322738      17.614837      39.599947    
   3626000   0.99352172     17.616137      39.498487    
   3627000   1.0100122      17.411691      39.509452    
   3628000   1.000736       17.033116      39.652128    
   3629000   0.99673954     16.982477      39.809709    
   3630000   0.99054284     17.515653      39.620488    
   3631000   0.99541853     17.950286      39.578226    
   3632000   0.9906852      17.025246      39.367378    
   3633000   0.97917264     17.10053       39.289574    
   3634000   1.0110971      17.689044      39.074684    
   3635000   0.98779205     17.054594      38.978       
   3636000   1.0293733      17.194701      38.933789    
   3637000   0.99592019     17.244721      38.871564    
   3638000   0.99605677     17.277832      38.947531    
   3639000   1.0323309      17.406982      38.906118    
   3640000   1.0030709      17.273409      39.038655    
   3641000   1.0097201      17.392715      38.989388    
   3642000   1.006763       16.855663      38.892348    
   3643000   0.986329       17.639634      38.793794    
   3644000   0.98910032     17.126346      38.875343    
   3645000   1.0011946      17.38254       38.754726    
   3646000   1.0085736      16.663723      38.879474    
   3647000   1.0029999      17.62564       38.902028    
   3648000   0.96984845     17.341989      38.968794    
   3649000   0.97571063     16.801661      38.923682    
   3650000   1.0035607      17.608437      39.017182    
   3651000   0.99744539     17.267362      39.05108     
   3652000   0.97381436     17.446575      39.117352    
   3653000   0.9799612      17.035198      38.922072    
   3654000   1.002249       17.426834      38.797682    
   3655000   0.97748853     17.324999      38.886754    
   3656000   1.0526407      17.151089      38.75952     
   3657000   1.0355738      17.33985       38.541451    
   3658000   0.97524993     17.336226      38.445309    
   3659000   0.99613347     17.545046      38.415118    
   3660000   1.0383919      17.453071      38.146069    
   3661000   1.0007764      17.456016      38.188399    
   3662000   1.0246492      17.655098      38.252617    
   3663000   0.98564451     17.592888      37.987207    
   3664000   1.043375       17.157171      37.855043    
   3665000   1.0162086      17.83286       37.826933    
   3666000   0.98259657     17.465586      37.773149    
   3667000   1.0258211      17.225344      37.819265    
   3668000   1.0068317      16.599867      37.7226      
   3669000   1.0307076      17.081287      37.463483    
   3670000   0.99400434     16.70377       37.466023    
   3671000   0.96418174     17.453292      37.536344    
   3672000   1.0480119      17.431789      37.511322    
   3673000   1.0019307      17.778155      37.493564    
   3674000   0.94135383     16.788227      37.519017    
   3675000   1.0052982      16.969266      37.365163    
   3676000   1.0396301      17.969207      37.246159    
   3677000   1.0211901      17.066258      37.219741    
   3678000   0.96951957     17.219806      37.182886    
   3679000   0.9759209      16.965842      37.042441    
   3680000   1.000473       17.256106      36.893639    
   3681000   0.98136992     17.238692      37.126868    
   3682000   0.989733       17.463737      37.172177    
   3683000   0.99231981     17.21179       37.061363    
   3684000   1.0047995      17.414809      37.056921    
   3685000   0.96566155     17.185538      37.050194    
   3686000   0.97353141     17.03707       37.054274    
   3687000   0.97427502     17.29004       36.9106      
   3688000   1.0132052      17.60675       36.812163    
   3689000   0.95874297     16.919879      36.700411    
   3690000   1.020809       17.328534      36.590888    
   3691000   1.030996       16.777581      36.390799    
   3692000   1.0531939      17.340438      36.007712    
   3693000   1.0161702      17.66916       35.843716    
   3694000   1.0147305      17.678268      35.823364    
   3695000   0.96674988     16.870301      35.747412    
   3696000   0.97994241     17.23096       35.840105    
   3697000   0.96954424     16.814107      35.88549     
   3698000   0.99233753     17.143079      36.159924    
   3699000   0.97797895     17.056346      36.060557    
   3700000   1.0262324      17.150977      36.023278    
   3701000   0.93878488     16.781836      36.059907    
   3702000   1.025815       17.21339       36.208504    
   3703000   1.0519082      17.837997      35.750604    
   3704000   1.031161       17.27621       35.796829    
   3705000   1.0026014      16.921133      35.829489    
   3706000   0.98985283     17.258789      35.688716    
   3707000   0.96242283     16.804948      35.723185    
   3708000   1.0088205      17.210431      35.556616    
   3709000   1.0128499      17.769499      35.52318     
   3710000   1.0457243      17.897556      35.493783    
   3711000   0.98873551     17.576721      35.324548    
   3712000   0.99014343     16.840471      35.180632    
   3713000   0.98838055     17.220112      35.119574    
   3714000   1.0372819      17.352033      35.17743     
   3715000   0.98447472     17.442602      34.799934    
   3716000   1.0001401      16.990918      34.754053    
   3717000   0.96919987     17.49886       34.803595    
   3718000   0.98993354     17.328455      34.730407    
   3719000   1.0177399      17.255586      34.668091    
   3720000   1.0160545      17.611402      34.60311     
   3721000   0.98338217     17.899221      34.713204    
   3722000   1.0027801      17.401061      34.645892    
   3723000   1.0239333      17.184426      34.682215    
   3724000   0.96738169     16.937607      34.646878    
   3725000   0.98674813     16.979378      34.627013    
   3726000   0.99163673     17.455477      34.546784    
   3727000   0.98411109     17.121847      34.480782    
   3728000   1.0341608      17.22042       34.390913    
   3729000   1.021016       17.064213      34.238137    
   3730000   0.99752593     17.319064      34.182663    
   3731000   1.0162281      17.543011      34.011259    
   3732000   0.95807693     16.670852      33.679435    
   3733000   0.9767393      16.994695      33.625264    
   3734000   1.0239795      17.355722      33.469954    
   3735000   0.96977578     16.985362      33.497859    
   3736000   1.0411555      16.834486      33.705918    
   3737000   1.0184333      17.137617      33.700049    
   3738000   1.0250235      17.505329      33.330715    
   3739000   0.96701908     16.753125      33.313442    
   3740000   1.0074994      17.582999      33.173409    
   3741000   1.0300724      17.375656      32.98462     
   3742000   0.96654929     17.439203      32.984178    
   3743000   0.99084927     17.274783      32.828915    
   3744000   1.0034129      17.289424      32.962889    
   3745000   0.99613457     17.324368      32.850986    
   3746000   0.96954425     16.472935      32.789541    
   3747000   1.0082915      16.85856       32.616274    
   3748000   1.0164078      17.020397      32.676485    
   3749000   1.0004588      16.734803      32.798253    
   3750000   0.99573093     17.117526      32.814747    
   3751000   1.0093721      16.802809      32.848609    
   3752000   1.0390349      17.260072      32.934031    
   3753000   0.97127534     17.318749      32.862163    
   3754000   1.0589672      18.137982      32.805523    
   3755000   0.96662821     17.306672      32.80734     
   3756000   0.98723574     17.237336      32.836065    
   3757000   0.98546006     17.141731      32.772886    
   3758000   0.98385136     16.907968      32.792016    
   3759000   1.0177542      17.314887      32.780623    
   3760000   0.9650232      16.786537      32.540707    
   3761000   0.98722928     17.605318      32.351616    
   3762000   0.99829045     17.005779      32.235279    
   3763000   0.9592231      16.567854      32.033561    
   3764000   0.99376233     16.671481      32.115413    
   3765000   0.98357974     17.089345      32.204949    
   3766000   1.013551       17.434582      32.16848     
   3767000   1.0053645      16.873039      31.763412    
   3768000   0.99201423     16.780894      31.678607    
   3769000   1.0097794      17.619278      31.643685    
   3770000   1.0141821      16.810954      31.408746    
   3771000   1.0079839      17.413176      31.087528    
   3772000   1.0033829      17.258295      31.057796    
   3773000   0.96661411     17.193655      31.153592    
   3774000   1.0420331      16.727077      31.001633    
   3775000   1.0370164      17.204244      30.922594    
   3776000   1.0173199      17.264739      30.91608     
   3777000   1.0404631      17.092563      30.956898    
   3778000   1.0087574      17.117788      30.988244    
   3779000   1.0088811      16.975811      30.967479    
   3780000   1.0227456      17.497136      30.900518    
   3781000   0.99573715     17.553227      30.900454    
   3782000   1.0171377      17.217954      30.944131    
   3783000   0.96448734     16.991419      31.007968    
   3784000   0.96426071     17.070912      30.828178    
   3785000   0.99358605     17.473585      30.87943     
   3786000   1.0340546      17.400348      30.72106     
   3787000   1.0212508      17.370519      30.442438    
   3788000   1.0248171      17.255839      30.09397     
   3789000   0.98591171     16.525665      30.008397    
   3790000   0.99105685     17.068837      29.818602    
   3791000   1.0198757      17.288378      29.75658     
   3792000   1.0130561      16.918896      29.77969     
   3793000   0.98317935     17.25174       29.940641    
   3794000   1.0139228      17.075719      29.891529    
   3795000   0.99952615     17.349105      29.917524    
   3796000   0.97137489     16.557306      29.909871    
   3797000   1.0128578      16.80518       29.88966     
   3798000   1.0001027      17.185717      29.754948    
   3799000   1.0137434      17.414007      29.668932    
   3800000   1.0228218      17.59688       29.58794     
   3801000   0.9767181      17.311739      29.607917    
   3802000   0.98054179     16.916923      29.45892     
   3803000   0.97915049     17.15888       29.555061    
   3804000   0.99296477     17.09882       29.628034    
   3805000   1.0012404      17.192691      29.562737    
   3806000   1.0151379      16.943613      29.614223    
   3807000   1.0129829      16.722362      29.555341    
   3808000   1.0281185      17.193373      29.430537    
   3809000   1.0129071      17.669472      29.372572    
   3810000   0.99886001     17.179159      29.422714    
   3811000   1.0115703      17.69575       29.533717    
   3812000   1.0217894      17.357631      29.375065    
   3813000   1.0121165      17.339308      29.218189    
   3814000   1.0153823      17.066273      29.209276    
   3815000   1.0236222      17.712845      29.041876    
   3816000   1.0315488      17.745317      29.011374    
   3817000   0.98237386     17.260979      29.081124    
   3818000   0.99046756     17.348274      29.033335    
   3819000   0.98790564     16.950299      29.041407    
   3820000   0.98741584     16.973946      28.80811     
   3821000   1.0212558      17.207296      28.887859    
   3822000   1.0069889      17.009349      28.759118    
   3823000   0.99849486     17.208064      28.647202    
   3824000   1.0349955      17.808411      28.671123    
   3825000   0.98260556     17.621768      28.538602    
   3826000   1.0218618      16.765158      28.621639    
   3827000   0.99574639     17.314675      28.729614    
   3828000   1.0134259      16.976501      28.485435    
   3829000   1.0094621      17.793319      28.4353      
   3830000   0.96205561     16.347141      28.403494    
   3831000   1.0057873      17.223848      28.419909    
   3832000   1.0102323      17.306388      28.409579    
   3833000   1.0030695      17.156617      28.333822    
   3834000   1.004596       17.225571      28.531267    
   3835000   0.9990741      17.17362       28.580522    
   3836000   0.97915511     16.983481      28.546103    
   3837000   1.0124529      16.800934      28.404224    
   3838000   1.006442       17.066556      28.307468    
   3839000   0.99570846     16.981812      28.178395    
   3840000   1.0206705      17.200859      28.150931    
   3841000   1.0215889      16.915457      28.235404    
   3842000   1.0512857      16.895014      28.135619    
   3843000   1.0091806      17.067867      28.122611    
   3844000   1.0247668      17.444932      28.066009    
   3845000   1.0125757      17.186412      27.900569    
   3846000   1.0255843      17.197356      27.995506    
   3847000   1.0034801      16.792399      28.124173    
   3848000   1.0150802      17.130536      27.960425    
   3849000   0.99422453     16.899619      27.764199    
   3850000   1.0287089      16.434758      27.708493    
   3851000   0.95775715     17.013412      27.811071    
   3852000   1.0210957      17.267996      27.619339    
   3853000   0.98901062     17.386854      27.816241    
   3854000   0.99750655     17.796997      28.011817    
   3855000   0.97650076     16.66936       28.015327    
   3856000   0.98442491     16.742274      27.806768    
   3857000   1.0032432      17.658363      27.672987    
   3858000   1.0302371      17.430923      27.502348    
   3859000   0.99054545     17.450045      27.371146    
   3860000   1.014312       17.061213      27.442623    
   3861000   0.97805921     16.939061      27.388778    
   3862000   0.99908541     17.136594      27.152262    
   3863000   1.0186222      17.695804      27.239074    
   3864000   0.99257476     17.061276      27.216987    
   3865000   1.0331874      17.606949      26.933427    
   3866000   0.99354909     17.168815      26.800062    
   3867000   0.99851213     16.907266      26.530359    
   3868000   1.0217967      17.459654      26.651428    
   3869000   0.98377403     17.250338      26.68233     
   3870000   1.0051866      17.536325      26.845415    
   3871000   0.98927069     16.742299      26.848363    
   3872000   0.98198149     16.965437      26.789683    
   3873000   0.9856289      17.589337      26.803423    
   3874000   1.0098798      17.281099      26.749924    
   3875000   1.0332258      17.136233      26.534324    
   3876000   1.030423       17.425489      26.347717    
   3877000   0.96634281     16.882363      26.402547    
   3878000   1.0253542      17.433663      26.45294     
   3879000   1.0053268      16.836631      26.225688    
   3880000   1.0195097      16.967079      26.417456    
   3881000   1.0116111      17.346832      26.402539    
   3882000   0.96705374     17.077243      26.323998    
   3883000   1.0294068      17.124395      26.080481    
   3884000   1.0094302      17.565864      25.873159    
   3885000   1.0243894      17.132636      25.778863    
   3886000   0.95921051     17.246007      25.968053    
   3887000   1.0135453      16.783472      26.036548    
   3888000   1.0276212      16.992516      25.906077    
   3889000   1.013233       16.867877      25.973256    
   3890000   1.0448302      17.659179      25.949911    
   3891000   1.0150288      17.233149      26.222706    
   3892000   0.98287625     16.896184      26.133729    
   3893000   0.99671462     17.375132      26.083986    
   3894000   1.0306553      17.271684      26.11302     
   3895000   1.0340314      17.664144      25.966502    
   3896000   1.0158478      17.074316      26.155072    
   3897000   1.0043499      17.072377      25.875832    
   3898000   1.0188074      17.237735      25.727553    
   3899000   0.97286823     16.557152      25.635978    
   3900000   1.0544208      17.18989       25.673312    
   3901000   0.98945711     17.430174      25.554696    
   3902000   0.98299553     17.117625      25.369727    
   3903000   1.0479323      16.898704      25.367463    
   3904000   0.99100294     17.116096      25.2899      
   3905000   1.0301018      17.215579      25.451738    
   3906000   0.98203775     17.46134       25.428398    
   3907000   1.0453222      17.208385      25.213143    
   3908000   1.0155234      17.403002      24.981236    
   3909000   0.95239733     16.79277       24.821662    
   3910000   1.0086523      17.298162      24.684241    
   3911000   1.0099308      17.304816      24.798479    
   3912000   1.0026818      16.582584      24.75483     
   3913000   1.0091469      17.141285      24.911015    
   3914000   0.98331124     17.115264      24.770562    
   3915000   0.99331242     17.391215      24.713804    
   3916000   1.0213008      17.681662      24.606212    
   3917000   1.0017359      16.92825       24.549557    
   3918000   0.96614202     16.806172      24.517667    
   3919000   1.0016898      17.387899      24.696161    
   3920000   1.0122633      17.956524      24.753633    
   3921000   1.0019145      17.464453      24.597043    
   3922000   1.0422357      17.66574       24.528186    
   3923000   0.99529334     17.338857      24.522615    
   3924000   0.97141968     17.055642      24.426497    
   3925000   0.99001371     16.644857      24.38781     
   3926000   0.98879172     16.695171      24.209791    
   3927000   0.99998506     17.084816      24.231301    
   3928000   0.98461878     17.079899      24.061393    
   3929000   1.02428        16.646241      24.002965    
   3930000   0.93045667     16.8867        23.855955    
   3931000   1.0519577      17.273263      23.946919    
   3932000   1.0250604      17.469589      23.867905    
   3933000   1.0096966      17.006567      23.85394     
   3934000   0.97002192     17.267393      23.828025    
   3935000   1.0432292      17.983703      24.057404    
   3936000   0.97680124     17.490501      23.966432    
   3937000   0.99883082     16.88958       24.09391     
   3938000   1.0439263      17.276788      23.990961    
   3939000   0.99510428     17.428516      23.993792    
   3940000   0.99763733     17.349093      23.956061    
   3941000   1.0051357      17.762174      23.780242    
   3942000   0.97294905     16.980101      23.868191    
   3943000   1.0227467      17.0679        23.796362    
   3944000   1.0606571      17.703854      23.594391    
   3945000   0.99629146     16.825213      23.382895    
   3946000   1.0180288      16.758607      23.476918    
   3947000   0.98129547     17.015298      23.471634    
   3948000   0.9919436      17.109245      23.322281    
   3949000   0.97610285     16.617658      23.400225    
   3950000   1.0358035      17.633587      23.353805    
   3951000   0.97613716     17.110669      23.122344    
   3952000   1.012012       17.095926      22.953942    
   3953000   1.0157639      17.129804      22.829249    
   3954000   0.98814843     16.769573      22.754617    
   3955000   0.9988925      16.789859      22.616072    
   3956000   1.0054349      17.10824       22.566333    
   3957000   1.0102093      17.427587      22.497696    
   3958000   1.0114066      17.363482      22.235653    
   3959000   1.0391694      17.244449      21.961107    
   3960000   0.98122729     16.84275       22.067271    
   3961000   1.0255138      16.916165      21.9608      
   3962000   0.99211857     16.655881      21.722761    
   3963000   0.96027211     17.01757       21.810743    
   3964000   1.0020013      17.221256      21.870744    
   3965000   0.98597744     17.210959      21.916759    
   3966000   0.99989455     17.470069      21.89408     
   3967000   0.99488063     16.558956      22.036493    
   3968000   1.0126337      17.227524      21.895966    
   3969000   1.0241173      17.266552      21.860522    
   3970000   1.018297       17.069716      21.869861    
   3971000   1.0130394      16.987436      21.839906    
   3972000   0.97265865     16.712585      21.838654    
   3973000   1.0050766      17.380131      21.732882    
   3974000   0.96456631     17.036104      21.584909    
   3975000   1.0004824      17.715852      21.649353    
   3976000   1.0271507      17.371949      21.519794    
   3977000   0.99256291     17.648772      21.306135    
   3978000   0.98483288     17.155584      21.28197     
   3979000   1.0002452      17.222415      21.152876    
   3980000   1.0167213      16.561091      21.111225    
   3981000   0.99189794     17.980718      20.759149    
   3982000   0.99722379     16.951867      20.409154    
   3983000   0.97907824     17.100572      20.383928    
   3984000   0.98753984     17.33808       20.167895    
   3985000   0.9895224      16.979428      20.198204    
   3986000   1.0297395      16.900485      20.161322    
   3987000   1.0050037      17.122975      19.978252    
   3988000   0.99954702     16.918427      20.009182    
   3989000   0.97980285     17.097255      19.891782    
   3990000   1.0111978      17.224458      20.051902    
   3991000   0.99333649     16.527714      19.866508    
   3992000   1.0153653      17.4295        19.775427    
   3993000   0.96658148     17.322485      19.768946    
   3994000   1.0433839      17.086431      19.621027    
   3995000   0.99949127     17.009045      19.64203     
   3996000   0.98979295     17.538941      19.678557    
   3997000   1.0161057      17.158331      19.754487    
   3998000   0.9677077      16.691234      19.608153    
   3999000   1.0181813      16.893994      19.545495    
   4000000   1.0205725      17.549339      19.534876    
   4001000   1.0091074      17.04709       19.129589    
   4002000   0.98505175     16.731076      19.263381    
   4003000   1.0248846      17.402468      19.312941    
   4004000   1.0143073      16.854478      19.343488    
   4005000   0.98533384     16.878649      19.216048    
   4006000   1.007091       16.921733      18.978423    
   4007000   0.97255118     17.167873      18.820352    
   4008000   1.0041733      17.203625      18.858342    
   4009000   0.98038461     16.951615      18.920424    
   4010000   1.0234009      17.248201      18.757986    
   4011000   0.99873147     17.345189      18.735017    
   4012000   1.0365618      16.283903      18.506053    
   4013000   1.021337       17.14588       18.357731    
   4014000   0.99831773     17.606408      18.224144    
   4015000   0.96903624     17.234362      18.16071     
   4016000   1.0717188      17.101827      18.156382    
   4017000   1.0089439      17.075579      18.124481    
   4018000   1.017316       17.069251      18.154767    
   4019000   1.0093816      17.025103      18.105968    
   4020000   0.99672263     17.146223      17.909077    
   4021000   1.0349385      16.996777      17.743066    
   4022000   1.0560012      17.410658      17.667535    
   4023000   1.0426369      17.748898      17.500719    
   4024000   0.96868305     17.664839      17.481471    
   4025000   0.97769066     16.682507      17.374218    
   4026000   1.0201385      17.040712      17.397478    
   4027000   1.0099102      17.280595      17.388162    
   4028000   1.0019348      17.06991       17.498846    
   4029000   0.99538332     17.908987      17.394682    
   4030000   1.0289127      17.308624      17.449721    
   4031000   0.99328517     17.498664      17.428339    
   4032000   0.9836048      17.374663      17.259714    
   4033000   1.0305616      17.417268      17.018127    
   4034000   0.99693894     17.242108      17.033283    
   4035000   0.98749608     16.879689      17.067075    
   4036000   1.0142312      17.135396      17.130421    
   4037000   0.98741336     17.123174      17.078167    
   4038000   0.98847826     17.234036      16.940718    
   4039000   0.99810417     17.160121      16.878318    
   4040000   0.99445093     17.043488      16.883622    
   4041000   1.0091574      16.737309      16.635076    
   4042000   1.0261502      17.262472      16.511581    
   4043000   1.0012675      17.533497      16.516094    
   4044000   0.97536502     17.460417      16.563285    
   4045000   1.0136388      16.780936      16.550252    
   4046000   1.0284768      17.234736      16.330379    
   4047000   1.0457225      16.659464      16.323197    
   4048000   0.97947377     17.074267      16.320979    
   4049000   0.9901267      16.730017      16.067907    
   4050000   1.0432181      17.181158      16.08684     
   4051000   1.0357381      17.114199      15.908137    
   4052000   1.0119998      17.606489      15.799698    
   4053000   1.0073438      17.27544       15.769051    
   4054000   1.0091267      16.967092      15.559924    
   4055000   0.99091518     17.2468        15.46972     
   4056000   1.0061237      17.027198      15.411116    
   4057000   0.99609968     16.995964      15.443958    
   4058000   0.99637842     16.917335      15.567876    
   4059000   0.96821011     17.317294      15.497535    
   4060000   0.9886231      16.55934       15.257818    
   4061000   1.0126189      16.928613      15.236594    
   4062000   1.0151601      17.453457      15.255936    
   4063000   0.9988488      16.991901      15.220722    
   4064000   1.0055555      16.668447      15.355364    
   4065000   1.001568       16.738201      15.148087    
   4066000   1.0142076      16.953367      14.968447    
   4067000   1.0233412      17.124305      14.90393     
   4068000   1.009879       17.73881       14.773175    
   4069000   0.98541052     16.722567      14.667325    
   4070000   0.9881534      17.227958      14.649138    
   4071000   1.0193771      17.017502      14.605657    
   4072000   0.98743301     16.905204      14.472471    
   4073000   0.97813108     17.128949      14.401368    
   4074000   1.0082042      17.410674      14.288838    
   4075000   1.0089969      17.440499      14.16716     
   4076000   1.004013       17.366525      14.043308    
   4077000   1.0412643      17.520324      14.014864    
   4078000   1.0134545      16.868346      13.827492    
   4079000   1.0464107      17.231476      13.773077    
   4080000   1.0097966      17.555902      13.689957    
   4081000   0.98323043     16.573106      13.640647    
   4082000   0.98565315     16.877104      13.654687    
   4083000   1.0084288      17.331407      13.764615    
   4084000   1.0514288      16.884111      13.670251    
   4085000   1.0243583      17.132669      13.729035    
   4086000   1.0206329      17.710863      13.565295    
   4087000   1.0067764      17.483994      13.585704    
   4088000   1.0038342      16.689103      13.477613    
   4089000   1.0384213      17.468261      13.334781    
   4090000   0.98530532     16.941287      13.298225    
   4091000   0.99063241     17.346105      13.077763    
   4092000   0.99538947     17.113849      13.025086    
   4093000   1.006906       16.769565      12.823308    
   4094000   1.0202102      17.173856      12.681043    
   4095000   1.0020224      16.690017      12.513185    
   4096000   1.0036557      17.2124        12.228627    
   4097000   1.0071949      16.882505      12.232778    
   4098000   0.99450536     16.765666      12.067652    
   4099000   1.0305577      17.414457      12.04877     
   4100000   1.0168372      17.01586       11.985614    
   4101000   0.98661229     16.839814      11.857172    
   4102000   1.0357089      17.290968      11.649067    
   4103000   0.98031289     16.913353      11.563844    
   4104000   1.0324626      16.953093      11.3912      
   4105000   1.0137876      17.221847      11.328655    
   4106000   0.93618676     16.568096      11.267535    
   4107000   0.97512117     16.75615       11.263217    
   4108000   0.98855395     16.91933       11.360402    
   4109000   1.0146825      17.251427      11.043713    
   4110000   1.0100967      17.017421      10.927361    
   4111000   0.98415719     16.990126      10.741172    
   4112000   1.0128838      17.112246      10.657357    
   4113000   0.93898284     16.774309      10.752726    
   4114000   0.99613633     16.969394      10.775759    
   4115000   0.95882914     17.18401       10.858512    
   4116000   1.0144376      16.477551      10.932414    
   4117000   1.0159911      16.564471      10.660819    
   4118000   1.0449285      17.040468      10.490365    
   4119000   0.98217895     16.854602      10.384162    
   4120000   1.0444616      16.916334      10.382195    
   4121000   0.99027718     17.708801      10.269426    
   4122000   1.0086292      17.044794      10.223625    
   4123000   1.0119312      17.340609      10.255584    
   4124000   0.98634359     16.739841      10.173404    
   4125000   1.0229912      16.709879      10.101765    
   4126000   1.0203765      17.109485      10.173013    
   4127000   0.99359545     16.464751      10.287861    
   4128000   0.99422429     17.228601      10.277507    
   4129000   1.0013603      17.195659      10.254865    
   4130000   0.98885824     16.708568      10.154591    
   4131000   0.97570328     16.794841      10.167382    
   4132000   0.98908299     16.960844      10.057801    
   4133000   1.0024214      17.09918       9.9617689    
   4134000   0.98086479     16.933608      10.012558    
   4135000   1.0345311      17.275986      9.9608258    
   4136000   0.96300176     16.704307      9.8565714    
   4137000   1.0206798      16.64803       9.9198753    
   4138000   1.021577       17.163154      9.9387344    
   4139000   1.0071525      17.070973      9.7435186    
   4140000   0.99357885     17.188099      9.4565494    
   4141000   0.95290686     16.645599      9.36562      
   4142000   1.0285318      17.568155      9.3065258    
   4143000   1.0008495      16.781735      9.1830726    
   4144000   0.98399819     16.941653      9.0388669    
   4145000   1.0009314      16.741953      8.8912407    
   4146000   1.0194847      16.724128      8.6387935    
   4147000   1.023611       17.293373      8.5902866    
   4148000   0.97056657     16.68251       8.5005507    
   4149000   1.0123819      17.17735       8.5820409    
   4150000   0.97222736     16.765574      8.4027764    
   4151000   1.054292       17.573333      8.2521281    
   4152000   0.98615096     16.934924      8.0327885    
   4153000   1.014402       16.877195      7.8524195    
   4154000   0.99026299     16.894288      7.6012779    
   4155000   0.98111864     16.934224      7.5867765    
   4156000   0.99501294     16.956956      7.3050101    
   4157000   1.0059264      17.335419      7.1224591    
Fix halt condition for fix-id 3 met on step 4158000 with value 6.961661865996188 (src/fix_halt.cpp:237)
   4158000   1.0032399      17.055765      6.9616619    
Loop time of 8717.91 on 2 procs for 4058000 steps with 1200 atoms

Performance: 402173.310 tau/day, 465.478 timesteps/s
124.7% CPU use with 1 MPI tasks x 2 OpenMP threads

MPI task timing breakdown:
Section |  min time  |  avg time  |  max time  |%varavg| %total
---------------------------------------------------------------
Pair    | 1657.1     | 1657.1     | 1657.1     |   0.0 | 19.01
Bond    | 127.54     | 127.54     | 127.54     |   0.0 |  1.46
Neigh   | 6638.6     | 6638.6     | 6638.6     |   0.0 | 76.15
Comm    | 2.1946     | 2.1946     | 2.1946     |   0.0 |  0.03
Output  | 12.221     | 12.221     | 12.221     |   0.0 |  0.14
Modify  | 255.79     | 255.79     | 255.79     |   0.0 |  2.93
Other   |            | 24.47      |            |       |  0.28

Nlocal:           1200 ave        1200 max        1200 min
Histogram: 1 0 0 0 0 0 0 0 0 0
Nghost:              0 ave           0 max           0 min
Histogram: 1 0 0 0 0 0 0 0 0 0
Neighs:         289645 ave      289645 max      289645 min
Histogram: 1 0 0 0 0 0 0 0 0 0

Total # of neighbors = 289645
Ave neighs/atom = 241.37083
Ave special neighs/atom = 1.9983333
Neighbor list builds = 40322
Dangerous builds = 0

# This simulation is done
# Move onto the next one
clear
  using 2 OpenMP thread(s) per MPI task
package omp 0
using multi-threaded neighbor list subroutines
next f
jump SELF

Total wall time: 9:07:10
