#atom_style bond #no stiffness
atom_style angle #with stiffness

boundary        p p p
###
# Pair interactions require lists of neighbours to be calculated
###

#neighbor 0.3 bin
neighbor 4 bin

neigh_modify every 1 delay 1 check yes
atom_modify sort 0 0
### Generate RESTART file, SPECIAL format, not a .txt file ###
### Useful if simulation crashes ###

restart 1000000 linear/restarts2/$f.restart
restart 1000000 linear/restarts2/bb400nuc0bl0bn0d30tot400.restart
#############################



### READ "start" data file ###

read_data linear/$f.dat
read_data linear/bb400nuc0bl0bn0d30tot400.dat
Reading data file ...
  orthogonal box = (-1000 -1000 -1000) to (1000 1000 1000)
  1 by 1 by 1 MPI processor grid
  reading atoms ...
  400 atoms
  scanning bonds ...
  1 = max bonds/atom
  scanning angles ...
  1 = max angles/atom
  reading bonds ...
  399 bonds
  reading angles ...
  398 angles
Finding 1-2 1-3 1-4 neighbors ...
  special bond factors lj:    0        0        0       
  special bond factors coul:  0        0        0       
     2 = max # of 1-2 neighbors
     2 = max # of 1-3 neighbors
     4 = max # of 1-4 neighbors
     6 = max # of special neighbors
  special bonds CPU = 0.001 seconds
  read_data CPU = 0.045 seconds

######################

### READ "REstart" data file ###

######################



###
# Define groups (atom type 1 is group 'all')
###
group all type 1
400 atoms in group all


###
# Dump configs - "simple dumpings"
###

###
# Dump configs + box coords
###

dump   1   all   custom   1000  linear/trjs2/$f.lammpstrj  id  x y z  ix iy iz
dump   1   all   custom   1000  linear/trjs2/bb400nuc0bl0bn0d30tot400.lammpstrj  id  x y z  ix iy iz
dump_modify   1   format line "%d %.5f %.5f %.5f %d %d %d"

########################################################################


###################################################################
# Stiffness term
#
# E = K * (1+cos(theta)), K>0
#
angle_style   cosine
#change this coefficient to change stiffness (e.g. 1,5,10)
angle_coeff   1 1.0
###################################################################

###################################################################
# Pair interaction between non-bonded atoms
#
#  Lennard-Jones 12-6 potential with cutoff:
#  potential E=4epsilon[ (sigma/r)^12 - (sigma/r)^6]  for r<r_cut
#
#  1.12246 = 2^(1/6) is the minimum of the potential


pair_style      lj/cut 1.12246152962189
#pair_style      lj/cut 3

#
#  pair_modify shift yes adds a constant to the potential such

#  that E(r_cut)=0. Forces remains unchanged.
#

pair_modify     shift yes

#
#  pair_coeff for lj/cut, specify 4:
#    * atom type interacting with
#    * atom type
#    * epsilon (energy units)
#    * sigma (distance units)
#

pair_coeff      1 1 1.0 1.0
###################################################################

###################################################################
# Pair interaction between non-bonded atoms
#
#  soft potential, for PUSHING apart overlapping atoms
#  potential E=A*(1 + cos(pi*r/r_c))
#
#  1.12246 = 2^(1/6) is the cut-off r_c

#pair_style     soft 1.12246152962189

#
#  pair_coeff for soft, specify 3:
#    * atom type interacting with
#    * atom type
#    * A
#
#

#pair_coeff      1 1 100.0
###################################################################

###################################################################
# Pair interaction between bonded atoms
#
# Fene potential + Lennard Jones 12-6:

#
#  E= - 0.5 K R0^2 ln[ 1- (r/R0)^2]
#     + 4epsilon[ (sigma/r)^12 - (sigma/r)^6] + epsilon
#

bond_style   fene


#
# For style fene, specify:
#   * bond type
#   * K (energy/distance^2)
#   * R0 (distance)
#   * epsilon (energy)  (LJ component)
#   * sigma (distance)  (LJ component)
#


special_bonds fene #<=== I M P O R T A N T (new command)
Finding 1-2 1-3 1-4 neighbors ...
  special bond factors lj:    0        1        1       
  special bond factors coul:  0        1        1       
     2 = max # of 1-2 neighbors
     6 = max # of special neighbors
  special bonds CPU = 0.000 seconds

bond_coeff   1   30   2   1.0   1.0


###################################################

###################################################################
# Pair interaction between bonded atoms
#
# Harmonic potential:
#
#  E= K * (R-R0)^2
#

#bond_style   harmonic

#
# For style harmonic, specify:
#   * bond type
#   * K (energy/distance^2)
#   * R0 (distance)
#

#bond_coeff   1   60.0   1.0
#bond_coeff   2   harmonic 0.1   1.0

###################################################
compute 1 all gyration
variable rog equal c_1
#compute 2 all coord/atom cutoff 1.1

#dump 2 all custom 10000 contact_number.dump id c_2


###
# Set up fixes
###
thermo_style   custom   step  temp enthalpy c_1
fix 1 all nve   ###NVE ensemble

fix 2 all   langevin   1.0 1.0 1.0  778655   ###Langevin integrator Tstart Tstop 1/friction rndseed


##### Sample thermodynamic info  (temperature, energy, pressure, etc.) #####
thermo 1000









############################################################################

###
# set timestep of integrator

timestep 0.01

###
# run integration for a number of steps
###
#run 0
#variable r equal c_1
#if "$r < 63.1" then "quit 1"

# lj potential minimum, cause molecule to explore
run 100000
Generated 0 of 0 mixed pair_coeff terms from geometric mixing rule
Last active /omp style is angle_style cosine/omp
Neighbor list info ...
  update: every = 1 steps, delay = 1 steps, check = yes
  max neighbors/atom: 2000, page size: 100000
  master list distance cutoff = 5.1224615
  ghost atom cutoff = 5.1224615
  binsize = 2.5612308, bins = 781 781 781
  1 neighbor lists, perpetual/occasional/extra = 1 0 0
  (1) pair lj/cut/omp, perpetual
      attributes: half, newton on, omp
      pair build: half/bin/newton/omp
      stencil: half/bin/3d
      bin: standard
WARNING: Communication cutoff 5.12246152962189 is shorter than a bond length based estimate of 5.455. This may lead to errors. (src/comm.cpp:723)
Per MPI rank memory allocation (min/avg/max) = 1860 | 1860 | 1860 Mbytes
   Step          Temp         Enthalpy         c_1      
         0   0              13.391857      100.00058    
      1000   1.0506119      18.543274      99.984551    
      2000   0.94475216     18.594909      99.581979    
      3000   1.0257999      18.732989      99.378945    
      4000   1.0037474      18.939868      98.996074    
      5000   1.0209634      19.101138      98.658099    
      6000   0.95887941     18.42407       98.434794    
      7000   0.98888024     18.545618      97.800371    
      8000   0.99431487     19.280254      97.654588    
      9000   1.0186585      18.618909      97.354181    
     10000   1.0160137      19.051009      97.004657    
     11000   0.97109124     19.651336      96.777523    
     12000   0.99292554     19.998579      96.49113     
     13000   0.99892723     19.271355      96.157986    
     14000   0.94860256     19.163177      95.945187    
     15000   1.0455503      19.731785      95.49275     
     16000   0.94720776     18.940223      95.108249    
     17000   1.0282737      19.455813      94.870309    
     18000   1.0431231      18.936155      94.574754    
     19000   1.0152209      19.81202       94.209405    
     20000   0.93448655     19.146462      94.145188    
     21000   1.0378981      19.875167      94.091778    
     22000   0.98042508     19.050319      93.844228    
     23000   1.0047812      19.78151       93.520849    
     24000   0.9667068      18.712019      93.090955    
     25000   1.0481334      19.887063      92.761871    
     26000   1.0081988      19.827729      92.62644     
     27000   1.0268878      20.682329      92.54384     
     28000   1.0761194      20.485841      92.125137    
     29000   0.98827586     19.558331      91.680574    
     30000   0.93201622     20.075063      91.052387    
     31000   1.0538083      19.767644      90.745179    
     32000   0.96420065     19.696291      90.249845    
     33000   1.0296452      19.833721      90.12199     
     34000   0.97425463     20.152797      89.824219    
     35000   0.95514596     19.791383      89.442992    
     36000   0.91663479     19.548387      89.067681    
     37000   0.96027345     20.021263      88.877272    
     38000   1.0229216      19.404285      89.03242     
     39000   0.95054676     19.17193       88.981415    
     40000   0.98969663     20.078956      88.735062    
     41000   1.0249681      19.619672      88.523745    
     42000   1.0474896      19.60126       88.294388    
     43000   0.99174172     20.16394       87.844001    
     44000   1.0078024      19.741995      87.47754     
     45000   1.0014714      19.264234      87.684717    
     46000   0.9824591      19.921151      87.636761    
     47000   1.0192         20.090192      87.483881    
     48000   0.98211937     19.557487      87.322691    
     49000   0.97790978     20.228079      87.020081    
     50000   1.0394218      19.554362      86.763537    
     51000   1.0868948      20.347428      86.670875    
     52000   0.90947912     19.419402      86.243084    
     53000   0.95874166     19.913152      86.188771    
     54000   0.97552678     20.168228      86.132341    
     55000   1.0671235      20.264341      85.818929    
     56000   1.0365086      19.118878      85.613837    
     57000   1.0047131      19.889186      85.507861    
     58000   1.0109985      19.522889      85.227501    
     59000   0.95986108     19.974301      84.89935     
     60000   1.0180803      19.127531      84.585087    
     61000   1.0032592      19.936405      84.518433    
     62000   0.97059528     19.522271      84.646481    
     63000   1.0169633      20.216029      84.41509     
     64000   0.98959847     19.401371      84.016252    
     65000   1.0514966      19.943361      83.964557    
     66000   1.00013        19.486907      83.735535    
     67000   1.0439158      19.769036      83.627085    
     68000   0.98274304     20.512246      83.118653    
     69000   1.0248032      20.18694       83.181756    
     70000   1.0201879      19.371575      82.985706    
     71000   0.91329216     19.920085      82.578132    
     72000   1.0005817      19.531275      82.583587    
     73000   0.9556328      20.277897      82.178454    
     74000   0.97417672     20.192446      82.280257    
     75000   0.94260527     19.122481      82.229058    
     76000   1.0206915      19.818742      82.404583    
     77000   0.95843192     20.126967      82.378474    
     78000   1.022764       20.356288      82.447358    
     79000   1.07449        20.10197       82.380731    
     80000   1.0873716      20.055122      82.363595    
     81000   0.95771429     20.343524      82.262052    
     82000   1.0664024      19.460629      81.983133    
     83000   1.0297032      20.30079       81.807629    
     84000   0.96899873     19.379658      81.575671    
     85000   1.0232014      20.668805      81.343779    
     86000   0.95185019     19.670732      81.277514    
     87000   1.0257554      20.332686      81.06894     
     88000   0.91710561     19.86159       80.891335    
     89000   1.0255553      19.781154      80.745555    
     90000   0.98890639     20.364596      80.505179    
     91000   1.0144126      20.006837      80.68576     
     92000   1.0476643      19.743458      80.786891    
     93000   0.97153209     20.692324      81.14606     
     94000   1.0107         19.968945      81.326634    
     95000   1.0300562      20.604441      80.781218    
     96000   0.9789603      19.646313      80.372635    
     97000   0.95709679     19.07667       80.110467    
     98000   0.97437449     21.494121      79.893377    
     99000   0.95904583     19.104008      79.746712    
    100000   0.98816371     20.555864      79.594618    
Loop time of 519.214 on 2 procs for 100000 steps with 400 atoms

Performance: 166405.376 tau/day, 192.599 timesteps/s
101.0% CPU use with 1 MPI tasks x 2 OpenMP threads

MPI task timing breakdown:
Section |  min time  |  avg time  |  max time  |%varavg| %total
---------------------------------------------------------------
Pair    | 0.48922    | 0.48922    | 0.48922    |   0.0 |  0.09
Bond    | 1.0424     | 1.0424     | 1.0424     |   0.0 |  0.20
Neigh   | 515.03     | 515.03     | 515.03     |   0.0 | 99.19
Comm    | 0.024976   | 0.024976   | 0.024976   |   0.0 |  0.00
Output  | 0.192      | 0.192      | 0.192      |   0.0 |  0.04
Modify  | 2.2569     | 2.2569     | 2.2569     |   0.0 |  0.43
Other   |            | 0.1828     |            |       |  0.04

Nlocal:            400 ave         400 max         400 min
Histogram: 1 0 0 0 0 0 0 0 0 0
Nghost:              0 ave           0 max           0 min
Histogram: 1 0 0 0 0 0 0 0 0 0
Neighs:           2274 ave        2274 max        2274 min
Histogram: 1 0 0 0 0 0 0 0 0 0

Total # of neighbors = 2274
Ave neighs/atom = 5.685
Ave special neighs/atom = 1.995
Neighbor list builds = 1006
Dangerous builds = 0

# Replace lj potential, now collapse
pair_style      lj/cut 3

# Cutoff simul when gyration under 5
# Variable created with equal requires v_ + 'name'
fix 3 all halt 1000 v_rog < 7

run 5000000
Generated 0 of 0 mixed pair_coeff terms from geometric mixing rule
Last active /omp style is angle_style cosine/omp
Per MPI rank memory allocation (min/avg/max) = 1860 | 1860 | 1860 Mbytes
   Step          Temp         Enthalpy         c_1      
    100000   0.98816371     19.94237       79.594618    
    101000   0.97256409     19.738372      79.576335    
    102000   1.0804909      19.604925      79.537362    
    103000   1.0282864      19.571188      79.441791    
    104000   0.95723162     19.254054      79.388986    
    105000   1.0114276      19.42435       79.396468    
    106000   1.021287       20.263726      79.059959    
    107000   1.0318363      19.297956      78.719273    
    108000   1.0080324      19.219531      78.461838    
    109000   0.90751292     19.271988      78.332031    
    110000   0.9535276      19.40478       78.055278    
    111000   1.0394255      20.26917       78.157557    
    112000   1.0112262      19.024865      78.13002     
    113000   0.95215026     20.096968      77.886042    
    114000   0.92598255     19.044779      77.566014    
    115000   0.89568991     19.624321      77.381597    
    116000   0.98310014     19.98427       77.449755    
    117000   0.9785868      19.465981      77.342029    
    118000   0.91207563     19.153643      76.82603     
    119000   0.98650557     19.656843      76.568931    
    120000   1.0316355      19.048105      76.81755     
    121000   1.0538896      19.857649      76.819471    
    122000   0.98393091     19.347432      77.048546    
    123000   0.96328955     18.335013      77.119831    
    124000   1.0470064      19.861396      76.987078    
    125000   1.0380953      19.57129       76.716341    
    126000   0.95973305     19.398293      76.739225    
    127000   0.96963279     18.683692      76.595633    
    128000   0.97908852     18.909954      76.117731    
    129000   1.0078999      19.404307      76.266485    
    130000   0.98755244     18.870766      75.838209    
    131000   1.0517517      19.887852      75.393542    
    132000   1.0146071      18.743382      75.042892    
    133000   1.0541325      19.387869      74.555043    
    134000   1.0383693      19.363261      74.353076    
    135000   1.0483797      19.966268      73.996588    
    136000   0.99453151     19.091878      74.136822    
    137000   0.95478074     19.196595      73.976135    
    138000   1.0103314      19.015806      73.627549    
    139000   1.0287779      18.839402      73.780713    
    140000   0.99277863     19.469117      73.486903    
    141000   0.99106997     18.931146      73.228438    
    142000   1.0220969      19.909319      73.239834    
    143000   1.0232381      19.495622      72.838053    
    144000   1.0979251      19.330083      72.726898    
    145000   0.9445065      19.039563      72.455836    
    146000   1.0126433      19.349575      72.186983    
    147000   0.9890986      18.942218      72.065995    
    148000   1.0053275      19.217386      71.767189    
    149000   1.0100587      18.958466      71.618125    
    150000   1.0609789      19.129268      71.581329    
    151000   1.0256234      19.347609      71.3633      
    152000   1.0026911      19.509537      70.86805     
    153000   1.0449545      19.073278      70.572337    
    154000   1.0082417      18.476856      70.359469    
    155000   1.0297113      19.801656      70.108759    
    156000   0.97338021     19.107956      70.019627    
    157000   1.0524353      18.863656      69.830879    
    158000   0.94960964     19.405538      69.622926    
    159000   0.94624052     18.82083       69.599836    
    160000   0.98202204     19.222352      69.615034    
    161000   1.0093067      19.139783      69.658819    
    162000   1.0127768      18.778851      69.755518    
    163000   0.98982244     19.287839      69.49136     
    164000   1.1154152      18.878459      69.410827    
    165000   1.0293718      18.861822      69.292151    
    166000   1.005976       19.903586      69.480192    
    167000   0.94797156     18.424369      69.593473    
    168000   1.0159169      19.280167      69.667204    
    169000   1.0148108      19.685303      69.724741    
    170000   1.0084791      19.221985      69.242442    
    171000   1.070692       19.073532      69.198476    
    172000   1.018156       18.989007      69.212722    
    173000   0.95375165     19.050548      68.884038    
    174000   1.0060217      19.73215       68.697684    
    175000   1.0529687      19.864229      69.190091    
    176000   0.95461901     18.765777      68.488729    
    177000   1.0179946      19.023622      68.088377    
    178000   1.0188572      18.313733      68.137844    
    179000   0.98665641     18.116401      67.748612    
    180000   0.97661859     19.541783      67.960513    
    181000   0.97658534     19.2001        68.042929    
    182000   1.071459       18.964127      67.874043    
    183000   1.0213104      18.436869      67.888027    
    184000   0.97779616     19.589377      67.570518    
    185000   1.0695927      18.226771      67.227196    
    186000   0.9640609      17.89966       66.838154    
    187000   0.99443802     19.376277      66.307214    
    188000   0.97835129     18.744728      65.81223     
    189000   1.000358       18.878814      65.540835    
    190000   1.0069826      18.566811      65.664574    
    191000   1.0963364      19.874916      65.389597    
    192000   0.97650127     17.942791      65.283749    
    193000   1.0601569      19.131938      65.12914     
    194000   1.0046026      18.817659      65.003499    
    195000   0.94383493     19.131397      64.611817    
    196000   0.92733143     18.004852      64.628557    
    197000   1.0245381      19.457926      64.551492    
    198000   0.93584312     18.702178      64.086591    
    199000   1.0028868      18.803572      63.808426    
    200000   0.97203992     18.600954      64.146642    
    201000   1.0716342      18.239283      64.027442    
    202000   1.0162727      18.113224      63.883848    
    203000   0.99730646     18.209541      63.518496    
    204000   1.0272178      19.895352      63.10508     
    205000   0.91071576     19.240373      62.971639    
    206000   0.99459145     18.878025      62.654518    
    207000   0.98867688     18.828419      62.539559    
    208000   0.97752019     18.742336      61.857662    
    209000   1.0006303      19.199097      61.186096    
    210000   1.0720106      19.105964      60.843417    
    211000   0.96010705     18.714389      61.070667    
    212000   0.97823804     19.452982      60.928972    
    213000   1.0504764      18.004852      60.600724    
    214000   1.031229       19.32625       60.740119    
    215000   1.0175738      19.217557      60.385555    
    216000   1.0123255      18.102981      60.472898    
    217000   0.97438348     17.840585      60.019754    
    218000   0.99375286     18.548554      59.669264    
    219000   0.95966406     18.522072      59.055205    
    220000   0.96042542     19.268976      58.985516    
    221000   0.98507351     19.150173      58.677856    
    222000   1.03274        18.414177      58.730349    
    223000   0.99989448     18.563479      58.47484     
    224000   1.042499       18.919399      58.089441    
    225000   1.0094877      20.283446      57.312045    
    226000   1.0489196      19.464452      56.989519    
    227000   1.0853865      19.193943      57.153236    
    228000   0.98948992     18.725637      57.02001     
    229000   1.0041845      18.854319      56.660696    
    230000   0.97146415     19.080171      56.309509    
    231000   0.96299364     18.382589      56.444785    
    232000   1.0759592      19.51261       56.305558    
    233000   0.99755365     18.543662      56.097288    
    234000   0.95514164     18.381341      56.047197    
    235000   0.94666019     17.489796      55.527757    
    236000   0.98001033     18.502968      55.278684    
    237000   1.0115453      18.835879      54.904555    
    238000   1.0051634      19.327228      55.076853    
    239000   0.9953365      18.604924      55.241571    
    240000   1.0301929      18.720019      54.976657    
    241000   1.0770391      19.291721      55.381695    
    242000   1.0038669      18.059227      55.088142    
    243000   0.94635598     18.964692      55.159138    
    244000   0.96779357     18.965981      55.263378    
    245000   0.97203331     17.550351      55.045919    
    246000   1.0159424      19.074115      55.398879    
    247000   0.93822102     18.350963      55.429085    
    248000   1.0216659      19.034404      55.312617    
    249000   0.97844144     18.647499      55.186499    
    250000   1.0384977      18.647813      55.042579    
    251000   1.0510024      18.784991      54.647606    
    252000   0.98984719     19.250683      54.2398      
    253000   0.96189826     19.038814      53.847029    
    254000   0.95187642     18.522119      53.593563    
    255000   1.0236995      19.148148      53.242953    
    256000   0.99718498     18.977205      53.328543    
    257000   0.9656935      18.251548      53.16802     
    258000   1.1053736      19.021524      52.595238    
    259000   1.0172941      18.477184      52.179053    
    260000   0.95500701     18.870201      52.035577    
    261000   0.981949       18.313356      51.751735    
    262000   0.96169618     18.312792      51.734832    
    263000   1.0209497      18.09254       51.581425    
    264000   1.0143041      19.185206      51.728217    
    265000   1.0543271      18.646978      51.615422    
    266000   1.0228262      18.528485      51.146704    
    267000   1.0197986      19.23797       51.047068    
    268000   0.98306843     18.691671      50.575313    
    269000   1.0116301      18.58291       50.191013    
    270000   1.0088188      18.528351      49.997355    
    271000   1.0553731      18.650162      49.680649    
    272000   0.95292242     18.70457       49.507555    
    273000   0.98170967     19.043666      49.103891    
    274000   1.0164027      18.920647      48.698947    
    275000   1.0633867      19.126881      48.821026    
    276000   1.0031124      18.262134      48.601441    
    277000   1.0307237      18.748281      48.540316    
    278000   0.95448493     18.107537      48.35385     
    279000   0.91289822     17.874038      48.106167    
    280000   1.0096243      18.286999      47.773706    
    281000   1.0277776      19.215343      47.885856    
    282000   0.99796545     18.608119      47.679087    
    283000   0.93563382     17.514383      47.711605    
    284000   1.0905402      18.478666      47.566698    
    285000   1.0412631      18.951728      47.110684    
    286000   0.98627891     17.886758      47.361111    
    287000   1.0232054      18.757551      47.277422    
    288000   1.0328188      17.948686      47.309313    
    289000   0.98076847     18.318691      46.941342    
    290000   0.96972258     18.041186      46.657242    
    291000   0.98424163     17.687484      46.133927    
    292000   1.0431023      19.140229      46.340962    
    293000   1.072162       18.991518      46.126532    
    294000   0.94321673     18.030469      45.660027    
    295000   0.95938813     19.072578      45.493663    
    296000   1.0394424      17.538406      45.324       
    297000   1.0339636      17.929221      45.282365    
    298000   1.0510828      20.309135      45.228439    
    299000   0.94802613     17.89359       45.028709    
    300000   0.96021589     18.838549      45.058436    
    301000   0.98081536     18.650662      45.096058    
    302000   1.0991203      18.663259      44.982568    
    303000   1.0305899      19.011375      44.900815    
    304000   1.048611       17.411406      44.664633    
    305000   0.96209561     17.777832      44.726534    
    306000   1.1206631      18.271133      44.879173    
    307000   0.93498984     17.39458       44.665808    
    308000   1.0014365      18.367319      44.45369     
    309000   0.98912049     17.968544      44.274299    
    310000   1.0169556      18.191154      43.885425    
    311000   1.0558183      17.789982      43.744628    
    312000   0.94822166     18.166704      43.694861    
    313000   1.005108       19.064322      43.242119    
    314000   1.0038311      18.332468      43.320657    
    315000   0.94001163     18.426664      43.115806    
    316000   0.9492919      17.602726      43.194549    
    317000   0.97849286     19.157095      43.072762    
    318000   0.90043495     17.80131       43.108802    
    319000   1.0958641      18.06688       42.972785    
    320000   1.0041899      18.482354      43.10998     
    321000   1.0227849      18.508182      42.98671     
    322000   1.0560204      18.294294      42.81576     
    323000   1.0752201      18.43813       42.294382    
    324000   1.014627       18.369307      41.793024    
    325000   0.97227833     18.183957      41.609898    
    326000   0.97243611     18.802912      41.567473    
    327000   0.972187       17.661631      41.248884    
    328000   0.9508543      19.146991      40.889015    
    329000   0.97054591     17.907785      40.759664    
    330000   1.002664       18.704618      40.737151    
    331000   0.98468405     18.247456      40.586664    
    332000   0.99226157     18.15635       40.34358     
    333000   1.0105014      18.089025      40.234872    
    334000   0.98883616     17.787235      40.204569    
    335000   0.96618113     17.662348      40.044363    
    336000   1.0291326      18.346654      39.543288    
    337000   1.0002313      17.814427      39.438382    
    338000   1.0131391      18.2827        39.729903    
    339000   0.96725712     18.057413      40.040484    
    340000   1.0163763      19.009456      40.162033    
    341000   1.0016862      17.936133      40.036666    
    342000   0.98592135     17.109163      39.747453    
    343000   0.96415658     18.405857      39.499579    
    344000   1.0265654      18.135427      38.819963    
    345000   1.0342656      17.950633      38.512477    
    346000   0.91698084     17.931157      38.460254    
    347000   0.99193021     18.085561      38.420373    
    348000   0.97651799     18.10328       38.022257    
    349000   1.0304941      18.107527      37.609069    
    350000   1.0256025      17.29809       37.556518    
    351000   0.93996491     18.448366      37.575566    
    352000   0.99353946     17.817787      37.691619    
    353000   1.0217255      18.078676      37.666612    
    354000   1.0269506      18.242359      37.346715    
    355000   0.9949891      18.381259      36.71544     
    356000   1.0066354      17.813828      36.667709    
    357000   0.99756297     18.70007       36.394398    
    358000   1.018011       17.887853      36.042328    
    359000   0.95854185     18.628733      35.596794    
    360000   0.92009246     18.294249      35.319372    
    361000   1.0404967      18.076413      35.02312     
    362000   0.97802155     18.342534      34.75465     
    363000   0.98321539     17.838654      34.300057    
    364000   0.98245665     18.385904      33.951721    
    365000   0.96533922     17.957729      33.061332    
    366000   0.96036435     17.427628      32.957208    
    367000   1.0108621      18.539575      32.740821    
    368000   1.0573604      18.64597       32.648281    
    369000   1.0218482      19.05663       32.652082    
    370000   0.99885368     17.331786      32.726321    
    371000   0.95984556     18.506777      32.60572     
    372000   1.128093       19.115779      32.821819    
    373000   0.89641243     17.783759      32.473398    
    374000   1.0354824      17.24577       32.015474    
    375000   1.0199353      17.731741      32.075879    
    376000   1.0162347      17.426335      31.835582    
    377000   0.95653798     17.98891       31.629136    
    378000   1.0720205      17.974435      31.697096    
    379000   1.030447       18.060134      31.096182    
    380000   1.0278744      18.299999      30.831677    
    381000   0.99152609     18.227903      31.036038    
    382000   0.94427154     17.403164      30.904421    
    383000   1.0409703      18.09235       30.669412    
    384000   0.93856553     17.118845      30.984753    
    385000   0.96102265     18.599196      30.802302    
    386000   0.87272685     17.766447      30.525896    
    387000   1.0395127      18.099783      30.12053     
    388000   0.98012586     18.314128      30.014563    
    389000   0.97521682     18.500755      29.971401    
    390000   0.96910896     18.152614      30.057148    
    391000   1.0163001      17.765231      29.585507    
    392000   0.97733259     17.679563      29.192287    
    393000   1.033831       18.590212      29.143203    
    394000   1.0299358      17.557854      29.108609    
    395000   0.97531436     17.560589      28.867387    
    396000   0.93876717     17.880768      29.098581    
    397000   1.0226043      18.036784      29.257       
    398000   1.0505038      18.269579      29.035212    
    399000   0.99665147     17.198256      28.902519    
    400000   0.98102774     18.161905      28.962469    
    401000   1.0926696      17.882678      28.958707    
    402000   0.88287399     17.297122      28.673451    
    403000   0.9561968      17.497231      28.620829    
    404000   0.96387242     18.006422      28.432999    
    405000   0.99957662     16.672423      28.489409    
    406000   1.0316629      18.002531      28.254448    
    407000   0.9759195      18.098931      28.378658    
    408000   0.95370428     17.099176      28.193943    
    409000   1.1064052      17.912056      28.031539    
    410000   0.87850777     17.436928      27.8827      
    411000   0.97368828     17.85415       27.696594    
    412000   0.97263414     17.73647       27.557076    
    413000   0.96382131     17.371299      27.204135    
    414000   1.002245       18.274444      26.890121    
    415000   1.0115307      17.896226      26.852398    
    416000   0.96970376     17.678543      26.67557     
    417000   0.93869468     17.53948       26.266541    
    418000   1.040319       18.569029      25.89497     
    419000   0.99110073     17.941136      25.414799    
    420000   1.0118334      17.35688       25.741758    
    421000   0.96621045     17.880359      25.175174    
    422000   1.0439032      17.539438      24.69115     
    423000   1.0663282      17.551513      24.473885    
    424000   0.93890682     17.95371       24.230306    
    425000   1.0474216      18.190695      24.156523    
    426000   0.95897319     18.370109      23.662593    
    427000   1.0239487      18.384569      23.853379    
    428000   1.0245403      17.245346      24.021321    
    429000   0.98988008     17.688559      23.598112    
    430000   0.99674425     17.346969      23.394373    
    431000   1.0546403      17.036444      23.31889     
    432000   1.0716982      18.067403      23.053241    
    433000   1.0008698      17.782103      23.201164    
    434000   0.9471434      16.833175      22.886314    
    435000   0.99438491     17.505162      22.554959    
    436000   1.0386617      17.954042      22.533872    
    437000   0.93254693     17.345623      22.308236    
    438000   1.01447        17.600176      22.185554    
    439000   1.0505605      17.480589      21.51389     
    440000   0.95454824     18.604791      21.387696    
    441000   1.003156       18.400369      21.117537    
    442000   0.9478732      18.512864      20.897608    
    443000   1.0118828      17.540961      20.684033    
    444000   1.0253901      18.165977      20.431721    
    445000   0.99717838     17.808319      20.411258    
    446000   1.0098303      19.316016      20.248877    
    447000   1.0194485      18.632413      20.062936    
    448000   0.99565031     17.481187      19.809156    
    449000   0.91669161     16.645276      19.49312     
    450000   1.0155478      17.313046      19.680299    
    451000   1.0056762      17.111122      19.511345    
    452000   1.0452658      17.927904      19.465989    
    453000   0.98684221     17.202357      19.53987     
    454000   1.0463193      18.829171      19.360898    
    455000   1.0161642      18.587555      19.455413    
    456000   1.0200791      18.175337      19.167985    
    457000   1.0720469      17.801424      18.810013    
    458000   0.96713027     17.377578      18.61406     
    459000   0.95167714     17.991365      18.47763     
    460000   1.0556819      17.521367      18.583084    
    461000   0.95293418     16.773626      18.632222    
    462000   0.98776742     17.114938      18.469432    
    463000   0.9947501      17.674972      17.957761    
    464000   0.95787387     17.222447      17.699969    
    465000   0.95670379     17.509193      17.880214    
    466000   1.0496736      18.496602      17.68301     
    467000   0.95928073     17.843927      17.831967    
    468000   1.0244837      18.854237      17.855354    
    469000   0.96865741     18.845613      17.252859    
    470000   0.99270266     17.616523      17.12313     
    471000   1.0154285      17.561666      17.214146    
    472000   1.0486051      17.871971      17.259112    
    473000   0.99864033     18.262376      17.309629    
    474000   1.0201894      18.02754       16.970282    
    475000   1.0498427      16.674303      16.946512    
    476000   1.0047804      17.298024      16.543261    
    477000   0.96741345     17.900861      16.439785    
    478000   0.99902117     18.180499      16.220987    
    479000   1.0248796      18.114817      16.205145    
    480000   1.0615278      18.250962      16.114532    
    481000   0.9818884      17.697498      16.2265      
    482000   1.0051484      17.662911      16.148166    
    483000   0.9619694      17.528617      16.234055    
    484000   1.0142415      16.844755      16.14024     
    485000   1.1061648      18.582315      15.741174    
    486000   1.0472097      18.019222      15.169293    
    487000   0.96396111     17.05405       15.198546    
    488000   1.0086454      17.65281       15.166068    
    489000   1.0745301      18.46799       14.99986     
    490000   0.98534777     16.434579      14.702583    
    491000   1.0029463      17.266896      14.514321    
    492000   1.0009956      17.243324      14.560232    
    493000   0.93772159     17.398878      14.523037    
    494000   1.0548603      17.271694      14.485864    
    495000   0.95592667     18.443804      14.056791    
    496000   1.0097722      17.482158      13.646152    
    497000   0.95192578     18.325282      13.755488    
    498000   0.9384738      17.302389      13.81207     
    499000   1.0046036      17.760938      13.285927    
    500000   1.0661445      18.083116      13.123421    
    501000   0.97922677     17.771601      12.965173    
    502000   1.0217169      17.750027      12.529816    
    503000   1.0625988      17.787729      12.327021    
    504000   1.0042307      17.744992      12.11188     
    505000   1.0257174      18.500957      11.797199    
    506000   1.0180876      17.386261      11.753675    
    507000   0.95523481     16.706504      11.690448    
    508000   0.98198143     17.697051      11.348511    
    509000   0.97410824     18.042417      11.668428    
    510000   1.068645       17.02474       11.242317    
    511000   1.0939682      18.07204       11.100766    
    512000   1.071038       17.905591      10.821526    
    513000   0.99230212     18.335904      10.477309    
    514000   0.97247966     17.329863      10.362883    
    515000   0.98842516     18.22656       10.3279      
    516000   1.0351772      17.570406      10.018698    
    517000   1.0582804      17.629756      9.5418095    
    518000   0.97537644     17.314831      9.4640693    
    519000   1.0226285      18.117765      9.4552445    
    520000   0.989742       17.446348      9.3483054    
    521000   1.0161394      16.925605      9.2550093    
    522000   1.0880132      17.87901       9.0203486    
    523000   0.9374011      16.451637      9.2468092    
    524000   0.99028706     17.061339      9.1248921    
    525000   0.99315366     17.384538      9.2781221    
    526000   1.0900676      17.176521      9.4487805    
    527000   0.99381269     18.323061      9.3868202    
    528000   1.0432291      17.970085      9.2035576    
    529000   0.99144642     18.118864      9.3040368    
    530000   0.98989328     17.536037      9.1687798    
    531000   0.99193123     18.542802      8.8889099    
    532000   1.0053709      17.15397       9.02997      
    533000   1.034129       18.47505       8.6768594    
    534000   0.93467096     17.613837      8.5602633    
    535000   1.0391775      16.900646      8.6619574    
    536000   1.0516835      16.630973      8.5371085    
    537000   1.0621434      17.069638      8.1605014    
    538000   1.0011378      17.409884      7.9032749    
    539000   1.0376421      16.606498      7.7739291    
    540000   1.0049373      17.951669      7.7747348    
    541000   1.0862959      17.850083      8.1181794    
    542000   0.98845588     17.568016      8.540992     
    543000   0.9672635      17.527685      8.2897619    
    544000   1.0383422      17.717751      8.0449887    
    545000   0.99433718     17.870055      7.8744285    
    546000   1.0463475      17.591978      7.7537067    
    547000   1.0672156      17.90526       7.3777646    
Fix halt condition for fix-id 3 met on step 548000 with value 6.4333778969563795 (src/fix_halt.cpp:237)
    548000   1.0612262      17.621199      6.4333779    
Loop time of 777.559 on 2 procs for 448000 steps with 400 atoms

Performance: 497804.286 tau/day, 576.162 timesteps/s
106.8% CPU use with 1 MPI tasks x 2 OpenMP threads

MPI task timing breakdown:
Section |  min time  |  avg time  |  max time  |%varavg| %total
---------------------------------------------------------------
Pair    | 30.829     | 30.829     | 30.829     |   0.0 |  3.96
Bond    | 4.8981     | 4.8981     | 4.8981     |   0.0 |  0.63
Neigh   | 729.43     | 729.43     | 729.43     |   0.0 | 93.81
Comm    | 0.11567    | 0.11567    | 0.11567    |   0.0 |  0.01
Output  | 0.82364    | 0.82364    | 0.82364    |   0.0 |  0.11
Modify  | 10.568     | 10.568     | 10.568     |   0.0 |  1.36
Other   |            | 0.8891     |            |       |  0.11

Nlocal:            400 ave         400 max         400 min
Histogram: 1 0 0 0 0 0 0 0 0 0
Nghost:              0 ave           0 max           0 min
Histogram: 1 0 0 0 0 0 0 0 0 0
Neighs:          40155 ave       40155 max       40155 min
Histogram: 1 0 0 0 0 0 0 0 0 0

Total # of neighbors = 40155
Ave neighs/atom = 100.3875
Ave special neighs/atom = 1.995
Neighbor list builds = 3886
Dangerous builds = 0

# This simulation is done
# Move onto the next one
clear
  using 2 OpenMP thread(s) per MPI task
package omp 0
using multi-threaded neighbor list subroutines
next f
jump SELF

###
# Reference paper:
# K. Kremer and G. S. Grest
# Dynamics of entangled linear polymer melts: A molecular-dynamics simulation
# J Chem Phys 92, 5057 (1990)

##################################
# MIHIR: for branched polymers
# LJ minimum first to expand and explore, then collapse
###

###
# Looping through the various linear polymers to simulate,
# define variables to switch through
variable f index bb100nuc0bl0bn0d30tot100 bb200nuc0bl0bn0d30tot200 bb300nuc0bl0bn0d30tot300 bb400nuc0bl0bn0d30tot400 bb500nuc0bl0bn0d30tot500 bb600nuc0bl0bn0d30tot600 bb700nuc0bl0bn0d30tot700 bb800nuc0bl0bn0d30tot800 bb900nuc0bl0bn0d30tot900 bb1000nuc0bl0bn0d30tot1000 bb1100nuc0bl0bn0d30tot1100 bb1200nuc0bl0bn0d30tot1200
###


###
# Box and units  (use LJ units and periodic boundaries)
###

units lj
log linear/logs2/$f.log
log linear/logs2/bb500nuc0bl0bn0d30tot500.log
