#atom_style bond #no stiffness
atom_style angle #with stiffness

boundary        p p p
###
# Pair interactions require lists of neighbours to be calculated
###

#neighbor 0.3 bin
neighbor 4 bin

neigh_modify every 1 delay 1 check yes
atom_modify sort 0 0
### Generate RESTART file, SPECIAL format, not a .txt file ###
### Useful if simulation crashes ###

restart 1000000 linear/restarts2/$f.restart
restart 1000000 linear/restarts2/bb500nuc0bl0bn0d30tot500.restart
#############################



### READ "start" data file ###

read_data linear/$f.dat
read_data linear/bb500nuc0bl0bn0d30tot500.dat
Reading data file ...
  orthogonal box = (-1000 -1000 -1000) to (1000 1000 1000)
  1 by 1 by 1 MPI processor grid
  reading atoms ...
  500 atoms
  scanning bonds ...
  1 = max bonds/atom
  scanning angles ...
  1 = max angles/atom
  reading bonds ...
  499 bonds
  reading angles ...
  498 angles
Finding 1-2 1-3 1-4 neighbors ...
  special bond factors lj:    0        0        0       
  special bond factors coul:  0        0        0       
     2 = max # of 1-2 neighbors
     2 = max # of 1-3 neighbors
     4 = max # of 1-4 neighbors
     6 = max # of special neighbors
  special bonds CPU = 0.001 seconds
  read_data CPU = 0.036 seconds

######################

### READ "REstart" data file ###

######################



###
# Define groups (atom type 1 is group 'all')
###
group all type 1
500 atoms in group all


###
# Dump configs - "simple dumpings"
###

###
# Dump configs + box coords
###

dump   1   all   custom   1000  linear/trjs2/$f.lammpstrj  id  x y z  ix iy iz
dump   1   all   custom   1000  linear/trjs2/bb500nuc0bl0bn0d30tot500.lammpstrj  id  x y z  ix iy iz
dump_modify   1   format line "%d %.5f %.5f %.5f %d %d %d"

########################################################################


###################################################################
# Stiffness term
#
# E = K * (1+cos(theta)), K>0
#
angle_style   cosine
#change this coefficient to change stiffness (e.g. 1,5,10)
angle_coeff   1 1.0
###################################################################

###################################################################
# Pair interaction between non-bonded atoms
#
#  Lennard-Jones 12-6 potential with cutoff:
#  potential E=4epsilon[ (sigma/r)^12 - (sigma/r)^6]  for r<r_cut
#
#  1.12246 = 2^(1/6) is the minimum of the potential


pair_style      lj/cut 1.12246152962189
#pair_style      lj/cut 3

#
#  pair_modify shift yes adds a constant to the potential such

#  that E(r_cut)=0. Forces remains unchanged.
#

pair_modify     shift yes

#
#  pair_coeff for lj/cut, specify 4:
#    * atom type interacting with
#    * atom type
#    * epsilon (energy units)
#    * sigma (distance units)
#

pair_coeff      1 1 1.0 1.0
###################################################################

###################################################################
# Pair interaction between non-bonded atoms
#
#  soft potential, for PUSHING apart overlapping atoms
#  potential E=A*(1 + cos(pi*r/r_c))
#
#  1.12246 = 2^(1/6) is the cut-off r_c

#pair_style     soft 1.12246152962189

#
#  pair_coeff for soft, specify 3:
#    * atom type interacting with
#    * atom type
#    * A
#
#

#pair_coeff      1 1 100.0
###################################################################

###################################################################
# Pair interaction between bonded atoms
#
# Fene potential + Lennard Jones 12-6:

#
#  E= - 0.5 K R0^2 ln[ 1- (r/R0)^2]
#     + 4epsilon[ (sigma/r)^12 - (sigma/r)^6] + epsilon
#

bond_style   fene


#
# For style fene, specify:
#   * bond type
#   * K (energy/distance^2)
#   * R0 (distance)
#   * epsilon (energy)  (LJ component)
#   * sigma (distance)  (LJ component)
#


special_bonds fene #<=== I M P O R T A N T (new command)
Finding 1-2 1-3 1-4 neighbors ...
  special bond factors lj:    0        1        1       
  special bond factors coul:  0        1        1       
     2 = max # of 1-2 neighbors
     6 = max # of special neighbors
  special bonds CPU = 0.000 seconds

bond_coeff   1   30   2   1.0   1.0


###################################################

###################################################################
# Pair interaction between bonded atoms
#
# Harmonic potential:
#
#  E= K * (R-R0)^2
#

#bond_style   harmonic

#
# For style harmonic, specify:
#   * bond type
#   * K (energy/distance^2)
#   * R0 (distance)
#

#bond_coeff   1   60.0   1.0
#bond_coeff   2   harmonic 0.1   1.0

###################################################
compute 1 all gyration
variable rog equal c_1
#compute 2 all coord/atom cutoff 1.1

#dump 2 all custom 10000 contact_number.dump id c_2


###
# Set up fixes
###
thermo_style   custom   step  temp enthalpy c_1
fix 1 all nve   ###NVE ensemble

fix 2 all   langevin   1.0 1.0 1.0  778655   ###Langevin integrator Tstart Tstop 1/friction rndseed


##### Sample thermodynamic info  (temperature, energy, pressure, etc.) #####
thermo 1000









############################################################################

###
# set timestep of integrator

timestep 0.01

###
# run integration for a number of steps
###
#run 0
#variable r equal c_1
#if "$r < 63.1" then "quit 1"

# lj potential minimum, cause molecule to explore
run 100000
Generated 0 of 0 mixed pair_coeff terms from geometric mixing rule
Last active /omp style is angle_style cosine/omp
Neighbor list info ...
  update: every = 1 steps, delay = 1 steps, check = yes
  max neighbors/atom: 2000, page size: 100000
  master list distance cutoff = 5.1224615
  ghost atom cutoff = 5.1224615
  binsize = 2.5612308, bins = 781 781 781
  1 neighbor lists, perpetual/occasional/extra = 1 0 0
  (1) pair lj/cut/omp, perpetual
      attributes: half, newton on, omp
      pair build: half/bin/newton/omp
      stencil: half/bin/3d
      bin: standard
WARNING: Communication cutoff 5.12246152962189 is shorter than a bond length based estimate of 5.455. This may lead to errors. (src/comm.cpp:723)
Per MPI rank memory allocation (min/avg/max) = 1860 | 1860 | 1860 Mbytes
   Step          Temp         Enthalpy         c_1      
         0   0              13.399004      125.00046    
      1000   1.0224406      18.918191      124.81554    
      2000   0.97010666     18.87077       124.3135     
      3000   0.99137831     18.81238       123.77874    
      4000   1.0687112      19.811317      123.50047    
      5000   0.9816997      19.083763      123.17531    
      6000   0.98526269     18.974817      123.04454    
      7000   1.0471395      19.11047       122.50119    
      8000   1.0084887      19.305025      122.26924    
      9000   1.0101831      19.366477      122.21179    
     10000   0.95435425     19.172172      122.12744    
     11000   0.99572583     19.786692      121.81796    
     12000   1.0333922      19.587637      121.73722    
     13000   0.96150664     18.905857      121.83492    
     14000   0.95915345     19.413552      121.466      
     15000   1.0476608      19.499899      121.12492    
     16000   0.97724226     19.649218      120.97807    
     17000   1.0213992      18.872427      120.61096    
     18000   0.97217264     19.219557      120.19634    
     19000   1.0305816      18.989484      119.80989    
     20000   1.0011458      18.935335      119.53574    
     21000   1.0186736      19.647375      119.23066    
     22000   1.0438542      19.310308      119.3048     
     23000   1.007033       19.457986      119.16957    
     24000   0.95688197     19.358746      119.20647    
     25000   1.0218644      19.146105      118.75552    
     26000   0.95806799     19.111433      118.56808    
     27000   1.0014401      19.313225      118.18462    
     28000   1.0098717      20.076549      117.76019    
     29000   1.0851369      19.684809      117.4762     
     30000   1.0508259      19.960236      117.19183    
     31000   1.0457251      19.516948      117.03669    
     32000   0.93943517     18.592755      116.63324    
     33000   1.0039423      18.944898      116.09495    
     34000   1.0758088      20.052126      115.88777    
     35000   0.96900005     19.87797       115.72167    
     36000   0.91838689     19.439948      115.85073    
     37000   1.0048599      19.488687      115.55498    
     38000   1.0478264      20.329786      115.45991    
     39000   0.99134761     18.993072      115.21316    
     40000   0.99274258     18.842886      114.80193    
     41000   1.0331914      19.562609      114.50797    
     42000   0.98520544     19.234842      114.23458    
     43000   0.96673351     19.360883      113.93474    
     44000   0.98351262     19.779899      113.80671    
     45000   0.96998041     19.820041      113.41017    
     46000   0.99677025     19.546064      113.33617    
     47000   0.95229665     19.73509       113.00457    
     48000   0.98914401     19.433239      112.75503    
     49000   0.94920762     20.104275      112.43816    
     50000   0.97739562     19.690676      112.56592    
     51000   0.98840936     19.079581      112.30164    
     52000   0.94565501     19.617209      111.9631     
     53000   1.050274       20.167183      111.95387    
     54000   0.97418043     18.918187      111.73511    
     55000   1.0281447      19.583738      111.50064    
     56000   0.9878269      19.858765      111.22063    
     57000   1.0523135      19.64553       111.31937    
     58000   0.98680251     20.073725      111.02456    
     59000   0.9431886      19.396239      110.85586    
     60000   0.92586299     20.195809      110.30969    
     61000   0.99413793     19.403847      110.11318    
     62000   1.0544544      19.999588      109.91654    
     63000   1.0501875      20.107013      110.11335    
     64000   0.99350111     19.838408      110.00503    
     65000   0.99756832     19.568668      109.8353     
     66000   1.0295303      19.383978      109.58816    
     67000   1.0163628      19.984183      109.38155    
     68000   0.96998327     19.899604      109.00913    
     69000   1.0174401      19.361225      108.80187    
     70000   0.93538198     19.943224      108.6813     
     71000   0.99732359     19.509654      108.60334    
     72000   0.94559906     20.128786      108.6033     
     73000   0.96543989     19.863363      108.41596    
     74000   1.0642391      19.972856      108.40845    
     75000   0.97953767     20.089079      108.40785    
     76000   1.0150749      19.501931      108.07833    
     77000   0.97914653     19.652891      107.7185     
     78000   0.99323365     19.868368      107.49814    
     79000   1.0691305      20.374699      107.47047    
     80000   0.97741703     19.801643      107.02112    
     81000   0.98599897     19.769425      106.51916    
     82000   0.9683857      19.306428      106.33839    
     83000   1.0386455      20.118092      106.14247    
     84000   0.95703299     20.344423      105.91183    
     85000   0.97033085     19.675824      105.92493    
     86000   1.0317043      20.577991      106.07618    
     87000   1.0094596      20.158954      106.07364    
     88000   0.99132774     20.104524      105.8229     
     89000   0.98979773     20.261529      105.91872    
     90000   0.90704357     19.53105       105.88167    
     91000   1.0224475      19.903972      105.54518    
     92000   0.96516392     20.039376      105.51201    
     93000   1.0054961      19.659827      105.51028    
     94000   0.96587371     19.84218       105.57342    
     95000   1.0473183      19.852823      105.61261    
     96000   1.0527827      20.652549      105.22657    
     97000   1.0689426      20.313219      104.90811    
     98000   1.0500448      20.322101      104.78106    
     99000   1.0241023      20.040293      104.60545    
    100000   1.0437485      20.063498      104.55981    
Loop time of 283.027 on 2 procs for 100000 steps with 500 atoms

Performance: 305271.227 tau/day, 353.323 timesteps/s
101.8% CPU use with 1 MPI tasks x 2 OpenMP threads

MPI task timing breakdown:
Section |  min time  |  avg time  |  max time  |%varavg| %total
---------------------------------------------------------------
Pair    | 0.45754    | 0.45754    | 0.45754    |   0.0 |  0.16
Bond    | 1.027      | 1.027      | 1.027      |   0.0 |  0.36
Neigh   | 279.03     | 279.03     | 279.03     |   0.0 | 98.59
Comm    | 0.019237   | 0.019237   | 0.019237   |   0.0 |  0.01
Output  | 0.16252    | 0.16252    | 0.16252    |   0.0 |  0.06
Modify  | 2.1816     | 2.1816     | 2.1816     |   0.0 |  0.77
Other   |            | 0.1538     |            |       |  0.05

Nlocal:            500 ave         500 max         500 min
Histogram: 1 0 0 0 0 0 0 0 0 0
Nghost:              0 ave           0 max           0 min
Histogram: 1 0 0 0 0 0 0 0 0 0
Neighs:           2795 ave        2795 max        2795 min
Histogram: 1 0 0 0 0 0 0 0 0 0

Total # of neighbors = 2795
Ave neighs/atom = 5.59
Ave special neighs/atom = 1.996
Neighbor list builds = 1008
Dangerous builds = 0

# Replace lj potential, now collapse
pair_style      lj/cut 3

# Cutoff simul when gyration under 5
# Variable created with equal requires v_ + 'name'
fix 3 all halt 1000 v_rog < 7

run 5000000
Generated 0 of 0 mixed pair_coeff terms from geometric mixing rule
Last active /omp style is angle_style cosine/omp
Per MPI rank memory allocation (min/avg/max) = 1860 | 1860 | 1860 Mbytes
   Step          Temp         Enthalpy         c_1      
    100000   1.0437485      19.479114      104.55981    
    101000   0.9708376      18.62332       104.36036    
    102000   1.0000706      19.593607      104.02265    
    103000   0.97013185     19.808229      103.87745    
    104000   0.98829285     19.055046      103.47716    
    105000   0.94743071     19.199586      103.09664    
    106000   1.0477994      19.849968      103.26416    
    107000   1.0254077      19.446954      103.1523     
    108000   0.95845303     19.705014      102.90585    
    109000   0.99230952     19.684072      102.44873    
    110000   0.96767329     18.609894      102.74136    
    111000   0.95384239     19.000742      102.7255     
    112000   1.0372984      18.922166      102.56383    
    113000   1.0218087      19.889528      102.21064    
    114000   1.0656722      18.77414       101.93737    
    115000   1.0110845      19.438995      101.74589    
    116000   1.022584       20.33966       101.54214    
    117000   0.97806357     19.425255      101.17568    
    118000   0.98491921     19.172852      100.56119    
    119000   0.97385902     18.599626      100.21959    
    120000   0.93342324     19.18429       100.40147    
    121000   1.0033937      19.746929      99.972287    
    122000   1.0124371      19.097161      99.905342    
    123000   1.0178418      18.910637      99.856491    
    124000   1.0198807      19.817429      99.540158    
    125000   0.94307324     18.843343      99.198       
    126000   1.0379791      20.025694      98.867729    
    127000   0.99253718     18.956986      98.515081    
    128000   1.0044277      19.278411      98.425485    
    129000   0.98076792     19.611119      98.239209    
    130000   1.0332514      18.893166      97.857245    
    131000   0.97812416     18.587873      97.568097    
    132000   0.99341133     20.086015      97.630197    
    133000   1.0129898      19.081253      97.650805    
    134000   1.0269345      19.945334      97.431334    
    135000   1.0135683      19.342518      97.830703    
    136000   1.0180061      19.379174      98.141361    
    137000   1.0597616      19.595778      98.262256    
    138000   0.99729344     19.659472      98.192911    
    139000   1.0360971      19.232858      98.114765    
    140000   0.98098086     18.663092      97.868917    
    141000   0.99961915     19.392042      97.671185    
    142000   0.98667763     18.599747      97.483026    
    143000   1.0369201      18.297346      96.994868    
    144000   1.0655426      19.762243      96.86737     
    145000   1.016493       18.971305      96.71263     
    146000   0.97992156     18.561025      96.823703    
    147000   1.0468014      18.314187      96.689286    
    148000   1.0081565      19.036447      96.550385    
    149000   1.0162113      18.375518      96.511022    
    150000   1.0257569      19.060297      96.237123    
    151000   0.99035959     19.177019      95.897571    
    152000   0.976306       18.8719        95.548504    
    153000   0.99135717     19.009032      95.224623    
    154000   0.98661885     18.982074      95.026395    
    155000   0.98192152     19.265154      94.878024    
    156000   0.98882288     18.351834      94.850125    
    157000   0.93522029     18.150023      94.818655    
    158000   1.0724076      18.382405      94.600177    
    159000   1.012111       19.167763      94.304411    
    160000   1.0149766      18.746085      93.859671    
    161000   0.93023624     19.629055      93.472419    
    162000   0.95906782     19.843684      93.318103    
    163000   1.0495879      18.750481      93.316737    
    164000   0.98461954     18.65188       93.340338    
    165000   1.0127178      19.431525      93.431272    
    166000   1.0196643      19.270399      93.345335    
    167000   0.99356688     19.134022      92.924809    
    168000   1.003592       19.305234      92.533112    
    169000   1.0156781      18.628833      92.689197    
    170000   0.98502736     19.835596      92.511658    
    171000   1.0286623      20.055917      92.440218    
    172000   0.98128301     18.640039      92.124084    
    173000   0.97006054     18.989858      92.102522    
    174000   1.0209487      19.647372      92.084025    
    175000   1.0852714      19.633964      91.761896    
    176000   1.0130197      18.977182      91.378204    
    177000   1.0062067      18.643117      90.88497     
    178000   0.95689757     18.681573      90.889912    
    179000   0.95817165     18.689463      90.584446    
    180000   1.0022066      19.071682      90.471945    
    181000   0.99844637     19.213648      90.34169     
    182000   0.9541159      18.625665      89.920158    
    183000   0.96412617     19.128567      89.350106    
    184000   0.98848902     20.041873      89.361757    
    185000   0.97983449     18.064185      88.982989    
    186000   1.0074066      18.109151      88.803093    
    187000   0.99765468     19.081423      88.653611    
    188000   0.98092425     18.430512      88.463974    
    189000   1.0322578      18.643072      88.412373    
    190000   0.99142375     18.372797      88.424497    
    191000   1.0330259      19.378983      88.420628    
    192000   0.96534301     19.677278      88.112449    
    193000   1.0346875      18.194495      87.853292    
    194000   0.97740056     18.439687      87.411564    
    195000   0.9708784      19.569956      87.32755     
    196000   0.93374707     18.906744      87.143567    
    197000   0.99086908     19.10838       87.046475    
    198000   1.0442562      18.829424      86.771221    
    199000   1.0138993      20.025987      86.545018    
    200000   0.95901129     19.158134      86.450996    
    201000   0.96364142     19.131261      86.370538    
    202000   0.99171799     19.22594       86.344159    
    203000   0.97476905     19.057941      86.260078    
    204000   0.98952056     18.546145      85.916886    
    205000   1.0065026      18.668629      85.928045    
    206000   1.0257025      19.8581        85.939126    
    207000   1.0095405      18.669176      86.023486    
    208000   0.96857912     18.016168      85.826542    
    209000   0.99961083     18.198048      85.755354    
    210000   0.92680891     18.795078      85.520532    
    211000   0.98273286     18.393122      85.374957    
    212000   1.0782845      19.224265      85.363207    
    213000   1.0315585      18.918418      85.327755    
    214000   1.0466385      18.954769      85.215468    
    215000   1.0416848      19.466214      85.431168    
    216000   0.98341383     19.034772      85.365816    
    217000   1.0432127      18.656433      85.414811    
    218000   0.99117546     18.545103      85.24013     
    219000   1.0583693      19.743211      85.084024    
    220000   1.0051417      19.308232      85.240689    
    221000   1.0709298      19.050301      85.109046    
    222000   0.93775641     18.647558      84.942588    
    223000   1.0628823      19.032077      84.793824    
    224000   0.93740768     18.104127      84.436114    
    225000   1.0290371      18.430201      84.352787    
    226000   0.9156492      18.835044      84.289953    
    227000   0.99662392     19.402869      84.707947    
    228000   1.0098522      18.273146      84.66645     
    229000   0.9839088      18.932864      84.312407    
    230000   1.0660713      18.774483      83.557666    
    231000   0.9995566      18.714928      83.551744    
    232000   0.99132821     18.886727      83.510455    
    233000   1.0410041      19.292475      83.193005    
    234000   1.0117163      18.397344      82.727826    
    235000   0.94669229     19.006119      82.702077    
    236000   0.95833204     18.657704      82.567066    
    237000   1.0175703      19.300862      82.530908    
    238000   1.0067167      18.430179      82.324312    
    239000   0.95237476     18.073864      82.003037    
    240000   1.0284873      19.561549      82.207153    
    241000   0.93235873     18.112225      82.349135    
    242000   0.98662728     18.681175      81.974283    
    243000   0.99771307     18.278203      82.008342    
    244000   1.0705835      18.499804      81.690271    
    245000   0.98226859     18.745964      81.60825     
    246000   0.95050222     18.135709      81.63151     
    247000   1.0165434      19.644429      81.418567    
    248000   0.99472158     19.43723       81.130587    
    249000   1.0355115      19.14405       80.98911     
    250000   1.0306597      19.462402      80.75792     
    251000   0.95787697     18.294887      80.619765    
    252000   0.98679302     18.962702      80.498511    
    253000   0.99544434     18.497124      80.064715    
    254000   0.96050088     19.221645      79.976912    
    255000   1.0083983      19.567927      79.645397    
    256000   1.0007089      18.945002      79.331828    
    257000   1.0599899      19.270951      79.057903    
    258000   0.99140301     18.680617      79.151881    
    259000   1.064545       19.102901      79.157215    
    260000   1.0117722      18.428479      79.089492    
    261000   1.0250575      18.31092       78.886209    
    262000   1.0350251      18.525707      78.924229    
    263000   0.97841095     18.233582      79.030153    
    264000   1.0332436      19.006377      78.84977     
    265000   0.93604039     19.31966       78.629504    
    266000   1.0474335      18.532862      78.296222    
    267000   1.0019482      18.920023      78.200364    
    268000   1.0368312      18.449253      78.121947    
    269000   1.0596868      18.336001      77.969342    
    270000   1.0279872      18.749425      77.668613    
    271000   1.0050828      18.538673      78.082041    
    272000   0.9412166      18.302283      78.404444    
    273000   0.97812467     18.738195      78.050017    
    274000   0.9767715      18.352377      78.229315    
    275000   0.99258637     19.166231      78.158845    
    276000   1.0424474      19.451422      78.333721    
    277000   0.9701294      18.613935      78.249533    
    278000   0.94712808     18.591378      78.019392    
    279000   1.0044228      19.358824      77.919393    
    280000   1.0436595      18.317257      77.901277    
    281000   1.006039       18.757052      77.788747    
    282000   0.93319124     18.153732      77.420571    
    283000   0.99506851     19.339004      77.621547    
    284000   1.0124421      18.58305       77.445602    
    285000   1.0074538      18.525754      77.388446    
    286000   0.9712248      18.1016        77.087106    
    287000   1.0066137      19.056621      76.94805     
    288000   1.0018492      19.115663      77.057716    
    289000   0.95497199     18.458709      77.023408    
    290000   1.0777828      19.065742      76.621404    
    291000   0.97190485     18.247971      76.360889    
    292000   1.0151691      18.359417      76.472887    
    293000   0.99664815     19.691501      76.506409    
    294000   0.9763465      18.714755      76.489622    
    295000   0.98739588     18.791592      76.018508    
    296000   1.0291396      19.659437      76.020429    
    297000   1.0329184      18.767907      75.741009    
    298000   1.048715       19.127583      76.039968    
    299000   1.060478       19.016152      75.846859    
    300000   0.96588225     18.219051      75.430454    
    301000   1.0161024      18.434657      75.431564    
    302000   0.97216705     18.676793      75.288943    
    303000   0.96174618     17.996179      75.224693    
    304000   0.98668651     18.189737      74.822075    
    305000   1.0486858      18.784917      74.5076      
    306000   1.1177337      18.109088      74.107559    
    307000   0.97031756     18.090729      73.971988    
    308000   1.0267063      17.924082      73.797601    
    309000   1.0092252      19.11784       73.693097    
    310000   1.0438485      18.669671      73.63322     
    311000   1.0175587      18.454653      73.166896    
    312000   0.93710434     17.873974      73.044007    
    313000   1.0010668      18.828661      72.917165    
    314000   1.0472015      18.731695      72.798095    
    315000   1.0277519      19.355142      72.779963    
    316000   0.97203129     18.257846      72.597295    
    317000   0.99485168     18.695967      72.189918    
    318000   0.96504114     18.893652      71.92967     
    319000   1.0045059      18.830207      71.914576    
    320000   1.0221555      19.29453       71.715999    
    321000   1.0167329      18.402085      71.682861    
    322000   0.98114886     18.394625      71.486658    
    323000   1.0121399      18.287863      70.896441    
    324000   0.95286258     17.993756      70.375747    
    325000   0.97535028     18.648964      70.444584    
    326000   1.0129408      18.48042       70.232176    
    327000   1.0371119      18.675559      69.959053    
    328000   0.96746401     18.577229      69.809102    
    329000   0.9842162      18.728962      69.778728    
    330000   1.0072872      19.218507      69.534915    
    331000   1.0100116      18.313663      69.654284    
    332000   1.0661303      18.857623      69.403981    
    333000   0.9584898      18.258883      69.157143    
    334000   1.0588745      19.331922      69.047956    
    335000   0.98589003     18.032653      69.102696    
    336000   0.98937336     18.783004      68.967058    
    337000   1.0062614      18.449698      68.746588    
    338000   1.005248       18.913683      68.700939    
    339000   1.0363716      18.333407      68.391117    
    340000   1.0440392      18.588676      68.30612     
    341000   0.95953539     18.342162      67.790902    
    342000   1.0663669      18.643308      67.445815    
    343000   0.96445604     18.517604      67.280959    
    344000   0.98179436     18.436233      67.452644    
    345000   1.0301267      18.138876      67.510971    
    346000   1.0059505      17.696908      67.278188    
    347000   1.0331286      18.041348      67.227163    
    348000   0.93623857     18.2444        67.272555    
    349000   0.9395117      18.464043      67.262138    
    350000   0.89401589     17.936136      66.937708    
    351000   1.0088806      18.06423       66.605296    
    352000   1.0019078      18.011433      66.444944    
    353000   1.0117784      18.777624      66.241014    
    354000   1.0165375      18.727236      66.159916    
    355000   1.0204832      18.809768      66.33709     
    356000   1.0018355      18.056041      66.391526    
    357000   1.0105718      19.41067       66.406608    
    358000   1.0074738      19.520228      66.310536    
    359000   1.013905       18.579752      65.934676    
    360000   1.0472345      18.658362      66.038837    
    361000   1.0089484      18.170236      66.005769    
    362000   1.0219085      18.349971      66.234937    
    363000   0.95126414     18.487711      66.328681    
    364000   0.97397469     18.261794      66.154715    
    365000   1.0209607      18.701784      65.997402    
    366000   0.99790137     18.760638      65.926476    
    367000   1.1087393      18.514866      65.804138    
    368000   1.0091914      18.417522      65.730799    
    369000   1.0675638      18.716696      65.602278    
    370000   0.99196014     18.428731      65.252341    
    371000   0.95656054     18.409828      65.120148    
    372000   1.0336146      18.615621      64.963086    
    373000   0.94210339     17.979813      64.888885    
    374000   0.9895298      18.248282      64.437501    
    375000   1.0033202      19.276993      64.424919    
    376000   0.94452147     17.907358      64.499226    
    377000   1.0381595      18.891608      64.35539     
    378000   0.93691621     18.362737      64.135678    
    379000   1.0316703      18.991105      64.00015     
    380000   1.0048984      18.40072       64.221997    
    381000   0.94099698     18.435653      63.804525    
    382000   1.012909       18.625347      63.871637    
    383000   1.0337379      18.163736      63.770033    
    384000   0.98245866     18.606153      63.727444    
    385000   1.0025173      18.726774      63.956478    
    386000   1.0244642      17.914195      64.070919    
    387000   0.98064554     18.524268      64.261244    
    388000   0.97409428     17.966249      64.347642    
    389000   0.96783781     19.025455      63.985777    
    390000   1.0090327      18.191168      63.901761    
    391000   1.0335874      19.490566      63.666155    
    392000   1.025035       18.220768      63.460299    
    393000   1.0891111      18.697355      62.879916    
    394000   0.92059389     18.269679      62.557574    
    395000   0.99549385     17.928215      62.842739    
    396000   0.97501884     18.209115      62.280816    
    397000   1.0626121      18.7775        62.194764    
    398000   1.0233361      18.136335      62.196151    
    399000   1.0100866      19.122222      61.931125    
    400000   0.98320297     18.12821       61.703799    
    401000   0.97827034     17.920555      61.535959    
    402000   0.9772398      18.098363      61.442208    
    403000   1.0292641      18.436838      61.397092    
    404000   1.0033279      18.411502      61.455726    
    405000   1.0132622      18.260139      61.584369    
    406000   0.98838932     18.496081      61.595217    
    407000   1.059452       18.221063      61.3677      
    408000   0.953789       18.777178      60.785373    
    409000   1.0086713      18.150577      60.692789    
    410000   1.015826       18.838875      60.47035     
    411000   1.0213362      18.00617       60.25671     
    412000   0.95536525     18.266858      60.543502    
    413000   0.98226267     18.601315      60.1526      
    414000   0.97065862     18.260573      60.246759    
    415000   1.04262        17.697906      60.218654    
    416000   0.98431732     19.089897      60.047063    
    417000   1.0042213      18.572249      59.89316     
    418000   1.030493       18.079202      59.761428    
    419000   1.0276145      18.542986      59.328342    
    420000   0.99323103     17.790226      58.673891    
    421000   0.99074704     18.730353      58.425942    
    422000   1.0562227      18.929322      58.033396    
    423000   0.9658667      17.826783      58.014233    
    424000   1.0105303      18.844844      57.536286    
    425000   0.98361649     18.95727       57.600727    
    426000   0.99319588     18.689608      57.596547    
    427000   1.0218903      18.229238      57.578307    
    428000   1.0487925      18.252767      57.544878    
    429000   1.0310292      18.421686      57.560024    
    430000   1.0257286      18.438524      57.660468    
    431000   0.99907507     18.53553       57.740888    
    432000   0.94695515     18.162355      57.766369    
    433000   0.94578227     17.423869      57.768233    
    434000   1.0228496      19.275299      57.534721    
    435000   1.0300538      17.836396      57.270986    
    436000   0.97760802     18.183347      57.035338    
    437000   1.0545447      18.32285       57.032107    
    438000   1.0048229      18.012026      56.580446    
    439000   1.0208362      17.535357      56.60736     
    440000   1.101132       19.513695      56.214316    
    441000   1.0074298      18.924609      56.22813     
    442000   0.97523484     18.255579      56.013351    
    443000   0.96571173     18.363074      55.92799     
    444000   1.0176295      18.157151      55.914766    
    445000   1.0473156      18.127513      55.844057    
    446000   0.98211221     18.257236      55.318893    
    447000   1.0195569      18.43679       55.088233    
    448000   1.0402861      18.360561      54.900565    
    449000   0.9390528      18.251426      54.742196    
    450000   1.0447658      19.03653       54.54052     
    451000   1.0210312      18.492858      54.498594    
    452000   0.99532159     18.601256      54.323454    
    453000   0.99600184     18.642457      53.910983    
    454000   0.98385582     18.781891      53.714028    
    455000   1.0745602      18.249441      54.279485    
    456000   0.94442979     18.006771      54.323505    
    457000   1.0288783      18.189892      54.350391    
    458000   0.97555347     17.836828      54.318203    
    459000   1.0524646      18.387471      54.100957    
    460000   1.0288931      18.439581      53.75185     
    461000   1.0269137      18.57274       53.660597    
    462000   1.0370475      18.55981       53.446765    
    463000   1.0768843      17.94996       53.323342    
    464000   0.97762406     18.874878      53.689506    
    465000   1.0027215      18.860878      53.417524    
    466000   1.0484067      17.904118      53.509533    
    467000   1.032057       18.153554      53.453306    
    468000   0.95308199     18.244552      53.378668    
    469000   1.0277481      18.728846      53.324266    
    470000   0.98223664     18.843337      53.157471    
    471000   1.0146236      18.205088      53.390732    
    472000   0.99963707     18.644169      52.976019    
    473000   1.0558168      17.483952      52.895813    
    474000   1.0512637      17.599926      52.998636    
    475000   0.96105694     17.797802      52.784806    
    476000   0.98601478     18.262176      52.822032    
    477000   1.0230015      18.546919      52.713105    
    478000   1.0180508      18.442193      52.450261    
    479000   1.0118676      17.865211      51.835786    
    480000   1.0516598      19.116569      52.111395    
    481000   1.0135994      17.971691      52.005385    
    482000   1.0163851      18.030927      52.057234    
    483000   0.98124574     16.986366      51.891493    
    484000   1.0077741      18.384401      51.865665    
    485000   1.0297358      18.637901      51.655555    
    486000   1.0229674      18.119954      51.3122      
    487000   0.98686073     17.338947      51.095792    
    488000   0.99187405     18.230159      51.065338    
    489000   0.94949421     17.5566        50.810007    
    490000   0.99901658     18.153269      50.839949    
    491000   1.0371598      18.300036      50.697865    
    492000   1.0212787      18.206524      50.609474    
    493000   1.0195951      18.646375      50.933154    
    494000   0.99493665     17.822134      50.876776    
    495000   0.90726045     17.483575      50.787221    
    496000   1.0297197      17.982046      50.586492    
    497000   1.0169935      18.21308       50.278744    
    498000   0.99098009     17.952773      50.43881     
    499000   1.0416635      18.782111      50.193886    
    500000   0.98094004     18.204558      49.907277    
    501000   1.0474694      17.759106      49.510245    
    502000   0.9962007      18.417596      49.382039    
    503000   0.94912449     18.045229      49.354159    
    504000   0.98992078     18.172402      49.32176     
    505000   0.9968243      18.370162      49.179122    
    506000   0.96816233     18.070449      49.504531    
    507000   0.98706184     18.125615      49.343599    
    508000   1.0277305      18.053873      49.521343    
    509000   1.0280765      17.894408      49.448478    
    510000   0.98403949     18.151601      49.562272    
    511000   1.0144704      17.580877      49.435728    
    512000   0.98461057     17.715605      49.016482    
    513000   1.0056793      18.560118      48.352658    
    514000   1.0575749      18.397465      48.231545    
    515000   0.9846398      18.019699      48.226243    
    516000   0.97470539     18.204681      47.908358    
    517000   1.066357       17.750443      47.834586    
    518000   0.99359478     19.028055      47.506354    
    519000   0.95358041     18.40326       47.513457    
    520000   1.033046       18.250939      47.336137    
    521000   1.0245819      18.365848      47.424635    
    522000   0.9203034      17.707475      47.255891    
    523000   0.96542234     18.04221       46.951909    
    524000   1.0444377      18.679757      47.18312     
    525000   0.99984739     17.908542      47.030183    
    526000   1.0720217      19.074126      47.073246    
    527000   0.96543124     18.216108      47.131931    
    528000   0.99336932     18.272238      46.975576    
    529000   1.01514        18.431016      46.911593    
    530000   1.0155063      18.791447      47.044146    
    531000   1.0513947      18.582608      46.807243    
    532000   0.97006142     16.969801      46.541239    
    533000   1.0501145      17.86463       46.501332    
    534000   0.96778098     18.27329       46.29057     
    535000   1.0019305      17.817351      46.235169    
    536000   0.98268433     18.070403      46.164562    
    537000   1.0541501      18.895218      46.078674    
    538000   1.0157136      18.583599      46.084289    
    539000   1.0685062      17.659619      46.027846    
    540000   0.96145515     17.666541      46.030097    
    541000   0.95753124     17.63365       45.741286    
    542000   1.0175011      18.546321      45.178923    
    543000   0.98623913     18.510704      45.111044    
    544000   0.99225586     17.635035      45.026088    
    545000   0.95620909     18.261054      45.205178    
    546000   0.98518851     18.093459      44.827237    
    547000   1.0187564      18.083884      44.526166    
    548000   1.0244613      18.200316      44.606128    
    549000   0.95635577     18.052654      44.741178    
    550000   1.0208775      18.679182      44.543811    
    551000   0.92967576     17.759252      44.323446    
    552000   0.99084087     17.897722      44.270914    
    553000   1.004911       17.619449      44.307911    
    554000   1.0577992      18.197526      44.03814     
    555000   0.94884284     17.625347      43.834922    
    556000   1.0342784      17.920997      43.77374     
    557000   0.98128138     17.244051      43.758582    
    558000   1.0190197      17.830911      43.540385    
    559000   1.0023477      17.856679      43.351778    
    560000   1.0067005      18.104218      42.976655    
    561000   1.0450557      16.988239      42.662127    
    562000   1.025581       17.990206      42.396214    
    563000   1.0583367      18.454637      42.198655    
    564000   1.0206155      17.976597      42.453696    
    565000   0.97518159     17.491626      42.595109    
    566000   1.0118381      18.089848      42.780007    
    567000   1.0279528      18.279248      42.620496    
    568000   0.95349277     17.585194      42.483957    
    569000   0.96862895     18.128734      42.555005    
    570000   1.023268       17.826796      42.62006     
    571000   0.99580872     18.344709      42.347679    
    572000   0.97122522     18.382173      42.152891    
    573000   1.0080479      18.261309      41.595654    
    574000   1.0856553      17.74937       41.279905    
    575000   1.0466285      18.04755       40.785236    
    576000   0.99565132     18.295851      40.620001    
    577000   1.0222067      18.176627      40.527572    
    578000   1.0341816      18.545946      40.199935    
    579000   1.0139413      18.43931       40.146367    
    580000   0.97970752     17.486386      40.133327    
    581000   0.96121204     17.328203      39.995841    
    582000   1.0132747      17.033307      39.858955    
    583000   0.97986344     17.859517      39.733408    
    584000   1.0483708      19.04269       39.273885    
    585000   0.99982909     17.788617      39.096645    
    586000   1.0236069      18.11654       39.030505    
    587000   0.99445027     17.844155      38.736087    
    588000   1.0590356      17.741155      38.858397    
    589000   1.089          17.477379      38.980989    
    590000   0.97659005     18.238148      38.991037    
    591000   1.0503411      19.325803      38.831122    
    592000   0.97622117     18.039682      38.612375    
    593000   1.0154789      17.809062      38.553386    
    594000   0.96065056     17.577863      38.560423    
    595000   0.98366224     18.052964      38.475377    
    596000   1.032754       17.574857      38.079942    
    597000   1.0885823      18.199347      37.905671    
    598000   1.0041988      17.367588      37.528824    
    599000   1.0277397      17.015621      37.146225    
    600000   0.91264538     17.682624      36.802749    
    601000   0.9984242      17.769017      36.59973     
    602000   0.98715107     18.18309       36.412853    
    603000   1.0234937      17.645739      35.930334    
    604000   0.99303818     18.592137      35.423808    
    605000   1.0149616      17.589918      35.419464    
    606000   1.0426706      17.874123      35.250219    
    607000   0.94980985     16.985715      35.070893    
    608000   0.99454888     17.564955      35.046787    
    609000   1.0058382      17.729986      34.894524    
    610000   1.0327872      18.580119      35.017281    
    611000   0.92925982     18.181644      34.647694    
    612000   1.0435449      18.624855      34.335901    
    613000   1.0622061      18.270242      34.497875    
    614000   0.98179053     17.947795      34.222759    
    615000   0.96686168     17.928703      34.382015    
    616000   0.99548425     18.093777      34.190593    
    617000   1.013335       18.271353      34.080404    
    618000   0.98734274     17.671005      33.719345    
    619000   1.0166994      17.626754      33.433297    
    620000   0.99014583     18.342565      33.232683    
    621000   1.0239482      18.016605      32.680373    
    622000   1.0578835      18.499959      32.264154    
    623000   0.98876825     18.13639       32.289555    
    624000   0.95953424     17.705459      32.146892    
    625000   1.0146967      17.830979      32.187285    
    626000   1.0060946      17.737358      32.08914     
    627000   1.1033601      17.788691      32.095931    
    628000   0.93719019     18.252248      31.860481    
    629000   0.95557826     17.552017      31.840508    
    630000   1.0096878      18.520131      31.856665    
    631000   1.0523641      18.003783      31.893844    
    632000   0.97820014     18.149155      31.797912    
    633000   0.92277358     17.882022      31.672216    
    634000   0.98439253     17.409144      31.612014    
    635000   1.0543227      18.299102      31.673549    
    636000   0.96625359     18.318394      31.277776    
    637000   1.0192913      17.791725      31.228282    
    638000   1.0376849      17.25221       31.315998    
    639000   1.057645       18.305157      31.401373    
    640000   0.97578935     17.93959       31.502732    
    641000   1.0517431      18.297215      31.666395    
    642000   0.97914026     17.923358      31.730953    
    643000   1.0033252      17.853328      31.676762    
    644000   1.0078723      17.291796      31.744599    
    645000   0.92778725     18.179978      31.481376    
    646000   1.0367033      18.296472      31.125746    
    647000   0.96375442     16.832181      31.230246    
    648000   0.96194664     17.887177      31.041165    
    649000   0.97446032     17.801609      31.187888    
    650000   0.97216433     18.03603       31.139892    
    651000   0.94732361     17.967009      30.504801    
    652000   0.95898793     17.232215      30.375835    
    653000   1.0245663      17.92816       30.479919    
    654000   1.0886652      18.200018      30.378301    
    655000   0.98241531     18.391215      30.280826    
    656000   0.98826235     17.143895      29.671775    
    657000   0.98426987     18.156935      29.688164    
    658000   1.0069028      17.612945      29.712975    
    659000   1.0182767      17.583202      29.432913    
    660000   0.92178107     18.282185      29.299948    
    661000   1.0107393      18.296941      29.412446    
    662000   1.0137295      16.969107      29.198414    
    663000   0.94704103     17.540179      28.885222    
    664000   0.95965215     17.056827      28.679703    
    665000   1.0323893      18.213385      28.271817    
    666000   0.96189679     16.942681      28.338206    
    667000   1.0201262      17.793637      28.459221    
    668000   0.98867173     18.482989      28.166342    
    669000   1.0023471      18.578068      28.037751    
    670000   1.0015096      17.656191      27.797878    
    671000   0.94519189     17.021287      27.335176    
    672000   1.026622       17.314302      27.196553    
    673000   1.0002611      18.011412      27.001977    
    674000   0.97427402     17.94913       26.808684    
    675000   0.98443551     17.830966      26.799202    
    676000   0.94328067     17.905723      26.521011    
    677000   0.94121412     17.596728      26.547484    
    678000   0.9266678      17.488537      26.374172    
    679000   1.0322415      17.978865      26.21338     
    680000   1.0885426      17.836792      26.148172    
    681000   0.99844416     17.631132      25.694435    
    682000   0.95128362     18.061451      25.324671    
    683000   0.98341653     17.774515      24.985965    
    684000   0.99351258     17.610467      24.888616    
    685000   1.0560805      18.459439      24.68082     
    686000   1.0771128      17.949105      24.51432     
    687000   0.98417032     16.890037      24.333411    
    688000   1.0040426      18.463769      24.139651    
    689000   0.9994712      17.304424      23.884376    
    690000   0.92848185     17.120293      23.766562    
    691000   1.0564675      18.02844       23.356328    
    692000   1.0201414      18.56174       22.965942    
    693000   1.0837178      17.167991      23.283898    
    694000   1.0577695      18.087573      23.24168     
    695000   1.0386036      16.88129       22.953055    
    696000   0.99818166     16.582099      22.511821    
    697000   0.92517304     17.416239      22.75316     
    698000   0.95896097     17.624025      22.665374    
    699000   1.0014022      17.176144      22.234309    
    700000   1.0236122      18.587584      21.865364    
    701000   1.0318104      18.645832      21.465377    
    702000   0.97001905     17.11762       21.15377     
    703000   0.99604371     17.424504      20.957566    
    704000   0.98826032     17.295095      20.893224    
    705000   1.0085803      17.295522      20.923162    
    706000   0.98371514     17.024421      20.934254    
    707000   0.98751584     17.550487      20.833881    
    708000   1.0545626      18.346229      20.39903     
    709000   1.0598162      18.453856      19.903394    
    710000   1.0023365      16.780272      19.53486     
    711000   0.97543991     17.596489      19.575118    
    712000   1.0095533      17.909763      19.2744      
    713000   0.97555236     17.485514      19.069842    
    714000   0.97124982     17.654667      19.140007    
    715000   0.98160169     17.853283      18.945076    
    716000   0.95366286     17.671317      19.073323    
    717000   1.0065774      17.560983      18.800096    
    718000   1.0492369      17.318561      18.546708    
    719000   0.97484871     17.409715      18.254064    
    720000   0.93604493     17.96169       18.047714    
    721000   0.99016192     16.920275      17.680759    
    722000   0.96720098     17.571567      17.576101    
    723000   1.0329374      18.060793      17.284626    
    724000   1.0129023      17.909621      17.39542     
    725000   0.9817532      17.848664      17.442735    
    726000   0.96275934     17.793671      17.485167    
    727000   0.98658224     17.989888      17.318549    
    728000   0.94208523     17.441874      17.010448    
    729000   1.0308141      18.438962      16.444566    
    730000   1.0399103      17.326467      16.3536      
    731000   0.97287517     17.606641      16.268289    
    732000   1.017333       17.194924      16.615093    
    733000   1.0106517      17.214628      16.780838    
    734000   0.99477273     17.094215      16.535611    
    735000   1.0049274      17.232402      16.345209    
    736000   0.98712225     17.831666      15.969821    
    737000   0.97324367     16.988658      15.698368    
    738000   0.9937388      17.350523      15.421585    
    739000   0.9919233      18.092091      15.351363    
    740000   1.0783558      17.90493       14.854884    
    741000   0.95179249     17.825327      14.376397    
    742000   0.97337048     17.749407      14.149744    
    743000   0.98102855     17.007808      14.417936    
    744000   0.98948279     17.127583      14.042242    
    745000   1.0533191      17.274024      13.973867    
    746000   0.92543349     17.150533      14.268229    
    747000   0.93613797     17.889518      14.010921    
    748000   0.98892915     17.374621      13.875615    
    749000   1.0445103      17.126014      13.544892    
    750000   0.99939147     17.082444      13.235761    
    751000   1.0591193      17.64207       12.978107    
    752000   1.0078343      17.567877      12.937197    
    753000   1.0230669      17.37176       12.844505    
    754000   0.9918412      18.041361      12.813413    
    755000   0.9915075      17.58358       12.625643    
    756000   1.0048561      17.759997      12.19808     
    757000   0.98666951     17.444045      12.482599    
    758000   1.0416411      17.544606      12.186329    
    759000   1.0885722      17.254149      12.108401    
    760000   0.98878973     17.081664      12.172615    
    761000   1.0454816      17.220496      11.427774    
    762000   1.0230706      17.006479      11.20255     
    763000   1.0089846      18.105828      10.879843    
    764000   0.99763108     17.805964      10.548289    
    765000   1.0250477      16.94011       9.9967533    
    766000   1.0170142      17.745474      9.8580405    
    767000   1.0598861      18.673574      9.6059646    
    768000   0.9864767      16.649569      9.6236928    
    769000   0.94406958     17.644348      9.3624012    
    770000   0.99963699     17.065658      9.4462561    
    771000   0.94880647     17.191565      9.453859     
    772000   1.0149744      17.798031      9.4231316    
    773000   0.96548052     17.277267      9.2609644    
    774000   1.0545246      16.736945      9.1989492    
    775000   0.92842865     17.250033      8.9688672    
    776000   1.0247901      17.770379      8.6584042    
    777000   1.0791732      16.818372      8.4566525    
    778000   0.99768671     18.004003      8.5056843    
    779000   1.0363602      17.330293      8.5105926    
    780000   1.0577745      17.60039       8.1883311    
    781000   1.0197827      17.359918      7.9637929    
    782000   0.99833307     16.564613      7.7470118    
    783000   0.99372212     17.400505      7.473696     
    784000   0.95440041     17.33385       7.5081373    
    785000   1.0041365      17.849302      7.4144839    
    786000   1.0170306      17.516011      7.3926526    
    787000   0.98419808     17.378529      7.4512124    
    788000   0.95053769     17.185151      7.3691965    
    789000   0.96138311     17.015573      7.2274487    
    790000   1.0350098      17.486296      7.2175858    
    791000   0.97443512     17.366028      7.1201888    
Fix halt condition for fix-id 3 met on step 792000 with value 6.91033112603784 (src/fix_halt.cpp:237)
    792000   0.9851779      17.643868      6.9103311    
Loop time of 821.183 on 2 procs for 692000 steps with 500 atoms

Performance: 728081.244 tau/day, 842.687 timesteps/s
110.4% CPU use with 1 MPI tasks x 2 OpenMP threads

MPI task timing breakdown:
Section |  min time  |  avg time  |  max time  |%varavg| %total
---------------------------------------------------------------
Pair    | 53.603     | 53.603     | 53.603     |   0.0 |  6.53
Bond    | 7.1558     | 7.1558     | 7.1558     |   0.0 |  0.87
Neigh   | 742.83     | 742.83     | 742.83     |   0.0 | 90.46
Comm    | 0.14342    | 0.14342    | 0.14342    |   0.0 |  0.02
Output  | 1.1632     | 1.1632     | 1.1632     |   0.0 |  0.14
Modify  | 15.152     | 15.152     | 15.152     |   0.0 |  1.85
Other   |            | 1.132      |            |       |  0.14

Nlocal:            500 ave         500 max         500 min
Histogram: 1 0 0 0 0 0 0 0 0 0
Nghost:              0 ave           0 max           0 min
Histogram: 1 0 0 0 0 0 0 0 0 0
Neighs:          58884 ave       58884 max       58884 min
Histogram: 1 0 0 0 0 0 0 0 0 0

Total # of neighbors = 58884
Ave neighs/atom = 117.768
Ave special neighs/atom = 1.996
Neighbor list builds = 6197
Dangerous builds = 0

# This simulation is done
# Move onto the next one
clear
  using 2 OpenMP thread(s) per MPI task
package omp 0
using multi-threaded neighbor list subroutines
next f
jump SELF

###
# Reference paper:
# K. Kremer and G. S. Grest
# Dynamics of entangled linear polymer melts: A molecular-dynamics simulation
# J Chem Phys 92, 5057 (1990)

##################################
# MIHIR: for branched polymers
# LJ minimum first to expand and explore, then collapse
###

###
# Looping through the various linear polymers to simulate,
# define variables to switch through
# variable f index bb100nuc0bl0bn0d30tot100 bb200nuc0bl0bn0d30tot200 bb300nuc0bl0bn0d30tot300 bb400nuc0bl0bn0d30tot400 bb500nuc0bl0bn0d30tot500 bb600nuc0bl0bn0d30tot600 bb700nuc0bl0bn0d30tot700 bb800nuc0bl0bn0d30tot800 bb900nuc0bl0bn0d30tot900 bb1000nuc0bl0bn0d30tot1000 bb1100nuc0bl0bn0d30tot1100 bb1200nuc0bl0bn0d30tot1200
variable f index bb500nuc0bl0bn0d30tot500 bb600nuc0bl0bn0d30tot600 bb700nuc0bl0bn0d30tot700 bb800nuc0bl0bn0d30tot800 bb900nuc0bl0bn0d30tot900 bb1000nuc0bl0bn0d30tot1000 bb1100nuc0bl0bn0d30tot1100 bb1200nuc0bl0bn0d30tot1200
###


###
# Box and units  (use LJ units and periodic boundaries)
###

units lj
log linear/logs2/$f.log
log linear/logs2/bb600nuc0bl0bn0d30tot600.log
