#atom_style bond #no stiffness
atom_style angle #with stiffness

boundary        p p p
###
# Pair interactions require lists of neighbours to be calculated
###

#neighbor 0.3 bin
neighbor 4 bin

neigh_modify every 1 delay 1 check yes
atom_modify sort 0 0
### Generate RESTART file, SPECIAL format, not a .txt file ###
### Useful if simulation crashes ###

restart 1000000 linear/restarts2/$f.restart
restart 1000000 linear/restarts2/bb700nuc0bl0bn0d30tot700.restart
#############################



### READ "start" data file ###

read_data linear/$f.dat
read_data linear/bb700nuc0bl0bn0d30tot700.dat
Reading data file ...
  orthogonal box = (-1000 -1000 -1000) to (1000 1000 1000)
  1 by 1 by 1 MPI processor grid
  reading atoms ...
  700 atoms
  scanning bonds ...
  1 = max bonds/atom
  scanning angles ...
  1 = max angles/atom
  reading bonds ...
  699 bonds
  reading angles ...
  698 angles
Finding 1-2 1-3 1-4 neighbors ...
  special bond factors lj:    0        0        0       
  special bond factors coul:  0        0        0       
     2 = max # of 1-2 neighbors
     2 = max # of 1-3 neighbors
     4 = max # of 1-4 neighbors
     6 = max # of special neighbors
  special bonds CPU = 0.001 seconds
  read_data CPU = 0.073 seconds

######################

### READ "REstart" data file ###

######################



###
# Define groups (atom type 1 is group 'all')
###
group all type 1
700 atoms in group all


###
# Dump configs - "simple dumpings"
###

###
# Dump configs + box coords
###

dump   1   all   custom   1000  linear/trjs2/$f.lammpstrj  id  x y z  ix iy iz
dump   1   all   custom   1000  linear/trjs2/bb700nuc0bl0bn0d30tot700.lammpstrj  id  x y z  ix iy iz
dump_modify   1   format line "%d %.5f %.5f %.5f %d %d %d"

########################################################################


###################################################################
# Stiffness term
#
# E = K * (1+cos(theta)), K>0
#
angle_style   cosine
#change this coefficient to change stiffness (e.g. 1,5,10)
angle_coeff   1 1.0
###################################################################

###################################################################
# Pair interaction between non-bonded atoms
#
#  Lennard-Jones 12-6 potential with cutoff:
#  potential E=4epsilon[ (sigma/r)^12 - (sigma/r)^6]  for r<r_cut
#
#  1.12246 = 2^(1/6) is the minimum of the potential


pair_style      lj/cut 1.12246152962189
#pair_style      lj/cut 3

#
#  pair_modify shift yes adds a constant to the potential such

#  that E(r_cut)=0. Forces remains unchanged.
#

pair_modify     shift yes

#
#  pair_coeff for lj/cut, specify 4:
#    * atom type interacting with
#    * atom type
#    * epsilon (energy units)
#    * sigma (distance units)
#

pair_coeff      1 1 1.0 1.0
###################################################################

###################################################################
# Pair interaction between non-bonded atoms
#
#  soft potential, for PUSHING apart overlapping atoms
#  potential E=A*(1 + cos(pi*r/r_c))
#
#  1.12246 = 2^(1/6) is the cut-off r_c

#pair_style     soft 1.12246152962189

#
#  pair_coeff for soft, specify 3:
#    * atom type interacting with
#    * atom type
#    * A
#
#

#pair_coeff      1 1 100.0
###################################################################

###################################################################
# Pair interaction between bonded atoms
#
# Fene potential + Lennard Jones 12-6:

#
#  E= - 0.5 K R0^2 ln[ 1- (r/R0)^2]
#     + 4epsilon[ (sigma/r)^12 - (sigma/r)^6] + epsilon
#

bond_style   fene


#
# For style fene, specify:
#   * bond type
#   * K (energy/distance^2)
#   * R0 (distance)
#   * epsilon (energy)  (LJ component)
#   * sigma (distance)  (LJ component)
#


special_bonds fene #<=== I M P O R T A N T (new command)
Finding 1-2 1-3 1-4 neighbors ...
  special bond factors lj:    0        1        1       
  special bond factors coul:  0        1        1       
     2 = max # of 1-2 neighbors
     6 = max # of special neighbors
  special bonds CPU = 0.000 seconds

bond_coeff   1   30   2   1.0   1.0


###################################################

###################################################################
# Pair interaction between bonded atoms
#
# Harmonic potential:
#
#  E= K * (R-R0)^2
#

#bond_style   harmonic

#
# For style harmonic, specify:
#   * bond type
#   * K (energy/distance^2)
#   * R0 (distance)
#

#bond_coeff   1   60.0   1.0
#bond_coeff   2   harmonic 0.1   1.0

###################################################
compute 1 all gyration
variable rog equal c_1
#compute 2 all coord/atom cutoff 1.1

#dump 2 all custom 10000 contact_number.dump id c_2


###
# Set up fixes
###
thermo_style   custom   step  temp enthalpy c_1
fix 1 all nve   ###NVE ensemble

fix 2 all   langevin   1.0 1.0 1.0  778655   ###Langevin integrator Tstart Tstop 1/friction rndseed


##### Sample thermodynamic info  (temperature, energy, pressure, etc.) #####
thermo 1000









############################################################################

###
# set timestep of integrator

timestep 0.01

###
# run integration for a number of steps
###
#run 0
#variable r equal c_1
#if "$r < 63.1" then "quit 1"

# lj potential minimum, cause molecule to explore
run 100000
Generated 0 of 0 mixed pair_coeff terms from geometric mixing rule
Last active /omp style is angle_style cosine/omp
Neighbor list info ...
  update: every = 1 steps, delay = 1 steps, check = yes
  max neighbors/atom: 2000, page size: 100000
  master list distance cutoff = 5.1224615
  ghost atom cutoff = 5.1224615
  binsize = 2.5612308, bins = 781 781 781
  1 neighbor lists, perpetual/occasional/extra = 1 0 0
  (1) pair lj/cut/omp, perpetual
      attributes: half, newton on, omp
      pair build: half/bin/newton/omp
      stencil: half/bin/3d
      bin: standard
WARNING: Communication cutoff 5.12246152962189 is shorter than a bond length based estimate of 5.455. This may lead to errors. (src/comm.cpp:723)
Per MPI rank memory allocation (min/avg/max) = 1860 | 1860 | 1860 Mbytes
   Step          Temp         Enthalpy         c_1      
         0   0              13.407172      175.00033    
      1000   1.0222697      18.924004      174.80972    
      2000   1.0168037      18.774193      174.51635    
      3000   0.97743243     18.861315      174.27182    
      4000   0.9662037      18.805915      174.18068    
      5000   1.0377487      19.10778       173.96277    
      6000   0.94816507     18.450114      173.5814     
      7000   0.97565683     18.519968      173.37403    
      8000   1.0195549      19.076426      173.26695    
      9000   1.0156332      18.743286      173.10595    
     10000   1.0244731      19.246427      172.70903    
     11000   1.0713084      19.472624      172.61627    
     12000   0.97064289     19.213264      172.66826    
     13000   1.016264       19.399582      172.42883    
     14000   0.97352833     19.352152      172.32796    
     15000   1.0278233      18.619839      171.91681    
     16000   1.0088217      19.010976      171.70282    
     17000   1.0719009      19.222014      171.36146    
     18000   0.97815375     19.027752      171.04684    
     19000   0.95854655     18.939085      171.03083    
     20000   1.0211077      19.089595      170.65297    
     21000   1.0370677      19.366212      170.40894    
     22000   1.0030812      19.527126      170.24756    
     23000   0.95352896     19.424166      170.00096    
     24000   0.9983758      19.144969      169.9491     
     25000   0.93946596     19.219713      169.68881    
     26000   1.053304       19.213467      169.64567    
     27000   0.96591575     19.010496      169.56866    
     28000   1.0272621      19.752797      169.23871    
     29000   1.0797613      19.477661      168.69446    
     30000   0.97422389     18.980576      168.3536     
     31000   0.95628778     19.241277      168.06768    
     32000   0.95622087     19.12988       167.8397     
     33000   1.0197456      19.426046      167.55583    
     34000   0.99991303     19.645293      167.4733     
     35000   1.0433037      19.67786       167.18519    
     36000   1.0036777      19.255026      166.97654    
     37000   1.0263258      19.670455      166.66615    
     38000   1.0077412      19.292405      166.58777    
     39000   0.97355951     19.364356      166.3366     
     40000   0.96533878     19.343882      165.95788    
     41000   0.96282495     19.513722      165.94325    
     42000   1.0463256      19.248279      165.67787    
     43000   0.98104111     19.268607      165.33639    
     44000   0.9558377      19.148272      165.28883    
     45000   0.99192473     19.177808      165.08896    
     46000   0.98909658     19.309244      164.91987    
     47000   1.0243423      19.631049      164.84285    
     48000   1.0185496      20.032832      164.60178    
     49000   0.96159321     19.650369      164.40154    
     50000   0.99739455     19.675555      164.30896    
     51000   0.97483758     19.151689      164.14791    
     52000   1.0528614      19.70968       163.76363    
     53000   1.0310734      19.675467      163.10929    
     54000   0.9386486      19.470745      163.02759    
     55000   1.0232954      19.431157      162.94097    
     56000   1.0342519      19.688196      162.48281    
     57000   0.96272019     19.731677      162.38917    
     58000   1.0006055      19.11995       162.2029     
     59000   0.99890779     19.534153      161.97363    
     60000   1.0086707      19.43383       161.61733    
     61000   1.0013702      19.72992       161.50787    
     62000   1.0177938      19.81153       160.91976    
     63000   0.96646018     19.329099      160.57973    
     64000   0.96331413     19.362655      160.81186    
     65000   0.98255065     19.443076      160.57507    
     66000   1.0319864      19.998273      160.21191    
     67000   0.98309658     19.340242      160.43552    
     68000   1.0006388      19.703046      160.19114    
     69000   0.98543774     19.554579      159.8573     
     70000   1.0015348      19.676315      160.0221     
     71000   0.99565921     19.917667      159.97557    
     72000   1.0027725      19.060396      159.99322    
     73000   1.018745       19.682292      159.79277    
     74000   1.0325453      20.21508       159.64212    
     75000   0.98925031     20.190151      159.72521    
     76000   1.0092539      19.712846      159.38822    
     77000   0.98814084     19.653991      159.12037    
     78000   1.0012487      19.616715      158.91983    
     79000   1.0037924      20.493101      158.7559     
     80000   0.96921012     19.665712      158.56127    
     81000   1.0274314      19.562091      158.36798    
     82000   0.99368482     19.903814      158.16612    
     83000   0.90119914     20.033309      158.17472    
     84000   0.9814706      19.792911      158.10264    
     85000   0.95449272     19.415793      158.22501    
     86000   1.0086845      20.129039      157.61118    
     87000   0.95800751     19.641744      157.48076    
     88000   1.005995       19.390404      157.2505     
     89000   0.97492888     20.134275      157.07983    
     90000   1.0020921      19.394094      156.98561    
     91000   0.96594692     19.367208      157.07093    
     92000   0.96673402     20.210171      157.24266    
     93000   1.0328703      19.572566      157.25793    
     94000   0.99955615     19.386234      157.11749    
     95000   0.98213412     19.9269        157.13456    
     96000   1.0036965      19.768572      157.21889    
     97000   0.96074065     19.498195      157.19734    
     98000   0.9752392      19.285025      156.83882    
     99000   0.99633008     19.317326      157.04385    
    100000   0.98381599     20.031563      156.90013    
Loop time of 388.121 on 2 procs for 100000 steps with 700 atoms

Performance: 222611.075 tau/day, 257.652 timesteps/s
101.8% CPU use with 1 MPI tasks x 2 OpenMP threads

MPI task timing breakdown:
Section |  min time  |  avg time  |  max time  |%varavg| %total
---------------------------------------------------------------
Pair    | 0.66903    | 0.66903    | 0.66903    |   0.0 |  0.17
Bond    | 1.4922     | 1.4922     | 1.4922     |   0.0 |  0.38
Neigh   | 382.3      | 382.3      | 382.3      |   0.0 | 98.50
Comm    | 0.028019   | 0.028019   | 0.028019   |   0.0 |  0.01
Output  | 0.2074     | 0.2074     | 0.2074     |   0.0 |  0.05
Modify  | 3.1774     | 3.1774     | 3.1774     |   0.0 |  0.82
Other   |            | 0.2493     |            |       |  0.06

Nlocal:            700 ave         700 max         700 min
Histogram: 1 0 0 0 0 0 0 0 0 0
Nghost:              0 ave           0 max           0 min
Histogram: 1 0 0 0 0 0 0 0 0 0
Neighs:           3581 ave        3581 max        3581 min
Histogram: 1 0 0 0 0 0 0 0 0 0

Total # of neighbors = 3581
Ave neighs/atom = 5.1157143
Ave special neighs/atom = 1.9971429
Neighbor list builds = 1029
Dangerous builds = 0

# Replace lj potential, now collapse
pair_style      lj/cut 3

# Cutoff simul when gyration under 5
# Variable created with equal requires v_ + 'name'
fix 3 all halt 1000 v_rog < 7

run 5000000
Generated 0 of 0 mixed pair_coeff terms from geometric mixing rule
Last active /omp style is angle_style cosine/omp
Per MPI rank memory allocation (min/avg/max) = 1860 | 1860 | 1860 Mbytes
   Step          Temp         Enthalpy         c_1      
    100000   0.98381599     19.540333      156.90013    
    101000   0.99326871     19.145425      156.70832    
    102000   1.0200453      19.550596      156.20186    
    103000   0.96014374     19.527821      155.62661    
    104000   1.0411481      19.307561      155.20741    
    105000   1.0317844      19.233655      154.90418    
    106000   1.0456867      20.008532      154.66115    
    107000   1.0404415      19.205925      154.3773     
    108000   1.0224243      19.686809      154.01698    
    109000   1.0117714      19.011203      153.88562    
    110000   1.0028558      18.85321       153.85331    
    111000   0.97946006     19.464577      153.82909    
    112000   1.03382        19.399079      153.18838    
    113000   0.98397762     19.216204      152.93455    
    114000   0.970249       19.357057      152.86603    
    115000   1.0552795      18.94862       152.46404    
    116000   1.0144485      18.959644      152.13478    
    117000   0.9204419      19.224953      152.0418     
    118000   1.0536499      19.385559      152.05739    
    119000   0.99271479     19.131423      151.9113     
    120000   0.993935       19.502298      151.89322    
    121000   0.99735711     19.256321      151.62863    
    122000   1.0403814      18.592463      151.26174    
    123000   0.9771031      19.227592      151.21673    
    124000   1.0151762      19.831298      151.12711    
    125000   0.99515704     19.675671      151.06728    
    126000   0.96354487     18.908667      150.84256    
    127000   0.98779649     19.132977      150.6524     
    128000   1.0475953      19.122579      150.28846    
    129000   0.962622       18.790424      149.99856    
    130000   0.96272478     18.421654      150.14487    
    131000   0.98999868     19.540312      149.91338    
    132000   0.99859122     18.593469      149.70754    
    133000   0.94955742     19.137259      149.23415    
    134000   0.93190431     19.15974       149.29803    
    135000   1.0255115      18.78128       149.10215    
    136000   1.0035485      19.711617      149.10231    
    137000   1.022581       19.751923      149.02007    
    138000   0.99296055     19.33425       149.26241    
    139000   1.0682561      19.525737      148.999      
    140000   1.0401152      20.022819      149.12358    
    141000   1.0293931      19.392411      148.91552    
    142000   0.97163494     19.315437      148.79014    
    143000   1.0101255      19.117735      148.61769    
    144000   1.0084751      18.862963      148.44474    
    145000   1.0233591      19.594463      148.33413    
    146000   0.99249029     19.776564      148.22065    
    147000   0.97087942     19.138149      148.03946    
    148000   1.0243879      19.169814      147.68878    
    149000   0.98071557     19.56982       147.63636    
    150000   1.0290435      19.514475      147.32887    
    151000   1.0044602      19.060332      146.86643    
    152000   0.99776751     19.175587      147.00753    
    153000   1.0139003      18.942282      146.70313    
    154000   1.0215229      19.308928      146.56964    
    155000   0.93961745     18.933113      146.35866    
    156000   0.95348214     19.244473      146.19301    
    157000   0.97566874     19.443503      146.32412    
    158000   0.98908781     19.334626      146.33964    
    159000   0.98601886     19.19822       146.13198    
    160000   1.0014317      18.80808       145.8568     
    161000   0.98795725     19.1859        145.84067    
    162000   1.017394       19.504599      145.95086    
    163000   0.98818144     19.505735      146.00688    
    164000   0.97757111     18.980352      145.90091    
    165000   0.97045938     19.18019       145.61305    
    166000   1.0388493      19.795149      145.67115    
    167000   0.99910997     19.302487      145.42422    
    168000   1.0115455      19.474316      145.59947    
    169000   1.0110865      18.962972      145.61344    
    170000   0.96255677     19.055373      145.42045    
    171000   0.97963177     18.710396      145.21683    
    172000   0.99962185     19.197519      145.3369     
    173000   0.99826553     19.115333      145.16137    
    174000   1.0107563      19.031085      145.21238    
    175000   0.99918153     18.599101      145.05997    
    176000   1.0285936      19.62833       144.81689    
    177000   1.0134329      19.462448      144.54766    
    178000   0.9794068      18.740882      144.43788    
    179000   0.97109857     19.059451      144.23368    
    180000   1.0200607      18.572516      144.07367    
    181000   1.0239578      19.601204      143.95993    
    182000   1.0061472      18.854567      143.85551    
    183000   1.0083074      19.129454      143.65202    
    184000   1.0349623      19.076439      143.21955    
    185000   0.97115577     18.994776      143.2907     
    186000   0.98259222     19.129736      143.16648    
    187000   0.98254609     19.004968      143.16306    
    188000   0.99509651     19.006037      143.1338     
    189000   1.0010059      18.472443      142.94893    
    190000   0.99812133     18.905206      142.82701    
    191000   0.99090981     18.560582      142.73777    
    192000   0.97831491     18.71818       142.50669    
    193000   0.99923713     19.005296      142.31227    
    194000   1.0034441      18.973052      142.04681    
    195000   0.9780603      19.166665      141.80976    
    196000   0.97287007     19.244956      141.49923    
    197000   1.0448596      19.749508      141.28595    
    198000   0.99991418     18.838333      141.27077    
    199000   1.0373014      19.191188      140.76378    
    200000   0.96580026     17.995103      140.63108    
    201000   0.96395967     18.972803      140.48972    
    202000   1.0023422      19.368124      140.33847    
    203000   1.0311068      19.101864      139.95001    
    204000   1.0084792      18.507317      139.72968    
    205000   0.97382253     19.072495      139.47913    
    206000   0.98564235     19.147091      139.54468    
    207000   0.99090494     18.568252      139.43211    
    208000   1.075565       18.487238      139.07068    
    209000   0.97937139     18.941882      138.96648    
    210000   0.94352686     18.979163      138.7739     
    211000   0.95085574     18.880741      138.82421    
    212000   1.0221217      19.287108      138.64432    
    213000   1.0191645      18.777008      138.55522    
    214000   1.0060439      19.294301      138.5366     
    215000   1.0358457      18.781618      138.2098     
    216000   0.97385428     18.342247      138.03007    
    217000   1.0172533      18.910318      137.94181    
    218000   0.98414994     18.618755      137.91706    
    219000   0.99761671     19.512002      137.63134    
    220000   0.9923156      18.677606      137.60517    
    221000   1.0095908      19.290769      137.41615    
    222000   1.0032767      19.375952      137.29346    
    223000   1.0127401      19.155281      137.24358    
    224000   0.99447596     18.70251       137.03056    
    225000   0.9709633      18.817751      136.90322    
    226000   0.97561495     19.058287      136.94982    
    227000   0.98035842     19.261686      136.71984    
    228000   1.0014741      19.406969      136.59289    
    229000   0.98179925     19.519595      136.45327    
    230000   1.008205       18.731944      136.29055    
    231000   0.98038797     19.131405      136.11661    
    232000   1.0046946      19.316246      135.88908    
    233000   1.0501963      19.288579      135.75137    
    234000   0.99466182     18.47515       135.44701    
    235000   1.0405994      18.956585      134.89137    
    236000   1.026146       18.920736      134.7169     
    237000   0.97771362     18.787418      134.47921    
    238000   0.99440261     19.17152       134.26374    
    239000   0.98196829     19.124277      134.05997    
    240000   0.98350045     19.274745      133.78527    
    241000   1.057737       19.350721      133.60494    
    242000   1.0040508      19.192503      133.41063    
    243000   1.0349966      18.501082      132.97011    
    244000   0.98963325     18.729549      132.83076    
    245000   1.0045203      18.796771      132.54791    
    246000   1.032308       18.551727      132.22314    
    247000   1.0583361      19.284455      131.99055    
    248000   1.0047444      18.942709      131.8331     
    249000   0.98149931     19.584867      132.12156    
    250000   0.99122467     19.319784      132.19986    
    251000   1.0458041      19.418294      132.18115    
    252000   1.0167732      18.392503      132.20428    
    253000   0.99313767     18.706284      132.00664    
    254000   0.94866371     18.947085      131.60227    
    255000   1.0569051      19.184154      131.61575    
    256000   1.0191921      18.875959      131.66229    
    257000   1.0462758      18.238349      131.58668    
    258000   1.0374512      18.53405       131.42221    
    259000   1.0161751      18.53854       131.29233    
    260000   0.98826997     19.452609      130.81842    
    261000   1.048277       19.041868      130.42986    
    262000   0.99378905     19.42065       130.45568    
    263000   1.0433047      19.628356      130.49324    
    264000   1.0120766      18.908199      130.25669    
    265000   1.011302       19.678367      129.9708     
    266000   1.0262215      18.57308       129.96572    
    267000   0.97943458     19.073468      129.80794    
    268000   1.0330777      19.036852      129.56492    
    269000   0.97479467     19.086809      129.38321    
    270000   0.97965683     19.149153      129.28563    
    271000   0.97725233     19.127086      129.24748    
    272000   1.0133911      18.815196      128.78938    
    273000   1.0149731      19.047293      128.62029    
    274000   0.96083136     18.479152      128.44521    
    275000   0.98435963     18.63362       128.35658    
    276000   0.9907546      18.186902      128.38693    
    277000   0.98133899     18.196364      128.28563    
    278000   0.98207557     18.682684      128.2181     
    279000   0.98701608     19.03902       128.1511     
    280000   0.99039019     19.015843      127.87096    
    281000   1.0155244      19.206209      127.96089    
    282000   1.0035407      19.221009      127.92785    
    283000   0.9697727      18.664566      127.5336     
    284000   0.97499526     19.1075        127.27423    
    285000   1.0133704      18.591172      127.32634    
    286000   1.0199241      18.683779      127.09551    
    287000   1.0583961      18.565517      126.79706    
    288000   1.0534016      19.210748      126.8909     
    289000   1.0222474      19.071096      126.84017    
    290000   0.98669886     18.934816      126.96805    
    291000   1.0218103      19.319313      126.73699    
    292000   1.0156226      18.799699      126.40083    
    293000   1.0142466      18.674523      126.36114    
    294000   1.0294466      19.126499      126.25964    
    295000   1.0493385      19.069192      125.81268    
    296000   1.0383704      19.272118      125.66395    
    297000   1.0761168      18.705596      125.88971    
    298000   0.99699664     19.176233      125.88473    
    299000   0.96149851     19.212436      125.67264    
    300000   0.99357806     18.894014      125.53797    
    301000   0.99932915     19.653633      125.49315    
    302000   0.97181576     18.73671       125.19236    
    303000   0.96405106     18.687215      125.1531     
    304000   1.0327338      19.049382      124.86806    
    305000   0.99018529     18.455397      124.75208    
    306000   1.0222046      18.700342      124.56473    
    307000   0.96715538     18.609292      124.43012    
    308000   0.98401889     19.23948       124.3746     
    309000   0.99709418     19.300807      124.27656    
    310000   0.99349164     19.381419      123.86208    
    311000   0.97748254     19.029059      123.99298    
    312000   1.0564142      18.936468      124.03627    
    313000   1.0259606      19.348067      123.75149    
    314000   0.97858706     18.527532      123.44358    
    315000   1.0646542      18.912882      123.11539    
    316000   1.0346677      18.873894      122.6508     
    317000   1.019567       19.170735      122.43578    
    318000   0.96187739     19.099031      122.36032    
    319000   1.0164693      19.352364      122.52999    
    320000   1.0254702      19.249862      122.61475    
    321000   1.0072166      18.540631      122.40602    
    322000   0.99903291     19.193964      122.06672    
    323000   1.0469203      19.830537      122.05191    
    324000   0.99853047     18.917012      122.09104    
    325000   0.97402476     18.968767      122.12966    
    326000   0.99231967     19.039855      122.31132    
    327000   1.024441       18.508381      122.1879     
    328000   0.97045767     19.264021      122.25471    
    329000   1.0664928      19.094587      121.93877    
    330000   1.0050776      18.702169      121.8224     
    331000   1.046185       18.836542      121.6541     
    332000   1.00917        18.759896      121.7666     
    333000   1.0166771      19.183523      121.76554    
    334000   1.0063938      18.815448      121.54562    
    335000   1.0124049      19.153728      121.27503    
    336000   1.005882       18.818231      121.33788    
    337000   0.98791734     19.371687      121.29354    
    338000   0.97427897     17.813121      121.28023    
    339000   0.96187539     18.27586       121.17694    
    340000   1.0047811      18.426098      120.89964    
    341000   0.98240723     18.466119      120.93801    
    342000   0.93190472     18.695883      120.55687    
    343000   1.0089862      19.070512      120.36675    
    344000   0.99058961     18.891843      120.23888    
    345000   0.98378968     19.233394      120.30127    
    346000   1.0057302      18.638928      119.89652    
    347000   0.95632769     18.593298      119.84104    
    348000   0.92537526     19.011366      119.63885    
    349000   1.041239       18.628448      119.57477    
    350000   1.0101271      18.984461      119.54312    
    351000   0.97045252     18.796157      119.36954    
    352000   0.96804875     18.619796      119.4297     
    353000   1.0077932      19.321392      119.44601    
    354000   0.96724299     18.873583      119.5311     
    355000   1.018174       18.985712      119.27382    
    356000   1.0550842      19.017503      119.34261    
    357000   1.0109466      19.232797      119.31874    
    358000   0.96574962     19.622387      118.98607    
    359000   1.0248593      18.650476      119.10331    
    360000   1.0449265      18.714816      119.085      
    361000   1.0089179      18.968626      119.15469    
    362000   1.0244369      18.759115      118.59958    
    363000   0.95924391     18.826061      118.57913    
    364000   0.95371482     18.754182      118.42944    
    365000   1.0399661      19.136209      118.20172    
    366000   0.98002589     19.197623      118.27004    
    367000   0.94980286     18.360879      118.37908    
    368000   1.033689       18.321027      118.50598    
    369000   1.0133418      18.604389      118.39573    
    370000   0.99408089     18.481314      118.37495    
    371000   0.99703176     18.148751      118.06575    
    372000   1.0112107      19.005679      117.75028    
    373000   1.0414142      18.757087      117.69502    
    374000   0.99428676     19.322757      117.78337    
    375000   1.0139961      18.788359      117.79238    
    376000   0.99256195     18.688441      117.71211    
    377000   0.98234151     18.50026       117.789      
    378000   1.0119526      18.586261      117.80334    
    379000   1.0318431      18.390127      117.76978    
    380000   1.0044134      18.578182      117.48505    
    381000   0.94158366     18.283846      117.41682    
    382000   0.9998851      18.712935      117.17515    
    383000   1.0146046      17.981644      116.98921    
    384000   0.99595053     18.648134      116.68948    
    385000   1.0149308      18.881483      116.51183    
    386000   0.95541734     18.906121      116.37406    
    387000   0.94226016     18.08242       116.18229    
    388000   0.97404088     18.712316      116.07773    
    389000   0.99319268     19.109574      116.27275    
    390000   0.97956363     18.718128      116.17572    
    391000   1.0182453      19.261016      115.82732    
    392000   1.0053405      19.447167      115.54462    
    393000   0.98689416     18.696297      115.40115    
    394000   0.9400709      18.913461      115.12234    
    395000   0.99276533     18.440576      114.89209    
    396000   1.0406574      19.192906      114.8522     
    397000   1.0034095      18.832656      114.82548    
    398000   1.050696       18.57387       114.70139    
    399000   1.0273983      19.243846      114.62987    
    400000   1.0175605      18.512282      114.33976    
    401000   0.99464173     18.756766      114.23737    
    402000   1.0008592      18.1805        114.35496    
    403000   0.95911613     18.548396      114.31839    
    404000   1.0037341      18.611678      114.48416    
    405000   0.94804018     18.984429      114.41577    
    406000   1.0104595      19.588433      114.4156     
    407000   1.0071658      19.155521      114.09626    
    408000   0.96227241     18.78445       113.82417    
    409000   1.0526615      19.217525      113.55055    
    410000   1.0289443      18.551913      113.70773    
    411000   1.0210529      19.872814      113.67726    
    412000   1.047981       18.813155      113.33587    
    413000   0.98078744     18.540484      113.17591    
    414000   1.010835       18.157953      113.11902    
    415000   1.0415176      18.557642      113.01767    
    416000   0.98275997     18.510306      112.97962    
    417000   0.97056309     18.887267      112.68541    
    418000   0.97922827     18.260778      112.48125    
    419000   0.95654202     18.36391       112.34809    
    420000   1.0015254      18.515096      112.37166    
    421000   0.99752997     19.016998      112.22109    
    422000   1.0429883      18.09418       112.11645    
    423000   1.035896       18.873378      111.95299    
    424000   0.98185137     18.702265      111.70558    
    425000   1.0020803      18.548497      111.62991    
    426000   1.0234364      18.591179      111.41942    
    427000   1.015197       19.050279      111.45964    
    428000   0.98369632     18.511263      111.59578    
    429000   0.9759433      18.682604      111.64115    
    430000   0.98001384     18.880592      111.62176    
    431000   0.97008648     18.578241      111.65691    
    432000   1.0020097      18.949188      111.40347    
    433000   0.96029439     18.854748      111.11241    
    434000   1.0104         18.647612      110.81203    
    435000   1.0021899      18.82901       110.59626    
    436000   1.0096632      18.701412      110.17904    
    437000   0.9529746      18.210148      109.77111    
    438000   1.015146       18.716431      109.64359    
    439000   0.94768944     18.382686      109.66805    
    440000   1.0262678      19.062123      109.72225    
    441000   1.0295002      19.255736      109.7642     
    442000   1.0286072      18.789997      109.42137    
    443000   1.0324677      18.213876      109.35619    
    444000   0.96429117     17.94468       109.12148    
    445000   0.98024159     18.292043      108.9171     
    446000   1.0038758      18.704162      108.60395    
    447000   1.0048415      18.518974      108.55297    
    448000   1.0250936      18.808302      108.65453    
    449000   0.97078598     18.359923      108.69798    
    450000   0.98047986     18.5238        108.74162    
    451000   0.96522974     18.345234      108.54422    
    452000   0.99424789     17.915508      108.37974    
    453000   1.0495877      19.401392      108.22132    
    454000   0.97575835     18.706507      107.83704    
    455000   1.0076134      18.436554      107.66164    
    456000   1.0129734      18.505425      107.78512    
    457000   0.94140311     18.551134      107.51786    
    458000   0.97404024     18.098823      107.11486    
    459000   1.0132006      18.283978      107.12791    
    460000   0.9781302      18.543818      106.72522    
    461000   0.98769096     17.863474      106.71959    
    462000   0.98096938     18.637446      106.52798    
    463000   0.9856231      18.522267      106.43328    
    464000   0.98948572     18.703652      106.31969    
    465000   0.98544393     18.689966      106.23277    
    466000   0.9987077      18.639903      106.34223    
    467000   0.99297134     18.307588      106.09279    
    468000   1.0054058      18.271212      105.62854    
    469000   0.97740681     18.46916       105.2242     
    470000   0.95056313     18.4756        105.46682    
    471000   0.96118327     18.609431      105.47113    
    472000   0.96507901     18.601562      104.97134    
    473000   0.98927007     19.072749      104.85186    
    474000   0.99141203     19.009262      104.61383    
    475000   1.0086636      18.430904      104.64297    
    476000   0.98125521     18.409242      104.52637    
    477000   0.97964017     18.757356      104.21732    
    478000   1.003177       18.793225      104.22451    
    479000   1.0078568      18.422423      103.92907    
    480000   0.95562641     17.821562      103.8969     
    481000   0.98009099     18.776185      103.83569    
    482000   0.96664642     18.532538      103.57472    
    483000   0.9196185      17.966965      103.59877    
    484000   1.0203006      18.393368      103.66836    
    485000   1.0431706      19.956746      103.66313    
    486000   0.95711384     18.054723      103.46835    
    487000   0.97916768     19.358253      103.41343    
    488000   0.98445125     18.152523      103.42745    
    489000   1.0027733      18.688462      103.4529     
    490000   1.0532998      18.656761      103.31504    
    491000   0.99342376     18.099795      103.2337     
    492000   0.9999984      18.886234      103.01663    
    493000   1.0086903      18.417386      102.87441    
    494000   1.0052636      17.978675      102.87074    
    495000   0.98914372     18.598671      102.66571    
    496000   1.0476857      18.764035      102.51939    
    497000   1.0072583      18.578788      102.47385    
    498000   0.99476644     18.87502       102.21967    
    499000   0.97905633     18.250888      101.90106    
    500000   1.0762216      19.354553      101.85393    
    501000   0.99127509     18.355596      101.9211     
    502000   0.96958463     17.993463      102.07933    
    503000   1.0445643      19.447064      102.29705    
    504000   0.96995284     18.183392      102.02194    
    505000   0.99905198     18.170137      101.85633    
    506000   0.97031073     18.294063      101.67349    
    507000   0.96263377     17.805437      101.67654    
    508000   0.97429267     18.449827      101.51345    
    509000   0.99992368     18.532488      101.11041    
    510000   0.97598567     18.306546      100.77406    
    511000   1.008269       18.035626      100.66715    
    512000   0.9624535      17.543082      100.4287     
    513000   0.95929943     18.378091      100.22519    
    514000   1.0064013      18.236572      100.06995    
    515000   0.99596011     18.188608      99.863295    
    516000   0.98660141     18.300505      100.04147    
    517000   0.99954079     18.216642      99.890831    
    518000   1.0061472      18.93642       99.781572    
    519000   1.0030711      18.353493      99.437628    
    520000   0.96725771     17.730106      99.290292    
    521000   1.0259559      19.090377      99.131224    
    522000   1.0328981      18.413251      99.407573    
    523000   0.98176465     18.994941      99.306685    
    524000   1.019814       18.430461      98.929361    
    525000   0.97771783     18.091597      98.760079    
    526000   0.98273492     18.573763      98.529258    
    527000   0.96598354     18.813271      98.443308    
    528000   1.0287219      18.220904      98.518539    
    529000   0.91850087     18.369111      98.494943    
    530000   1.0677156      18.756675      98.232056    
    531000   1.0281732      18.907113      97.982089    
    532000   0.98378079     18.73645       97.7352      
    533000   1.0011897      18.315995      97.772744    
    534000   0.97420214     17.923527      97.713716    
    535000   0.98988578     18.719543      97.829871    
    536000   1.0811535      19.539666      97.712591    
    537000   0.98025303     18.428654      97.768553    
    538000   1.0252524      18.845657      97.415007    
    539000   0.98496672     18.738174      97.563417    
    540000   1.0110448      19.063583      97.609873    
    541000   1.0447129      18.48916       97.689784    
    542000   1.0070339      18.057903      97.685137    
    543000   1.005935       18.134526      97.288637    
    544000   1.0173723      18.054566      97.265599    
    545000   0.94512997     17.70292       97.171288    
    546000   0.96466041     17.610458      96.979151    
    547000   1.0273178      18.561893      96.781628    
    548000   0.9748855      18.409552      97.073423    
    549000   0.987237       18.354381      96.736336    
    550000   1.031102       18.784052      96.59415     
    551000   0.97461854     18.464949      96.531132    
    552000   0.99751902     18.398923      96.312214    
    553000   0.99953403     18.132576      96.584419    
    554000   0.99210769     18.466869      96.677018    
    555000   0.9829154      18.71819       96.690542    
    556000   0.9641937      17.716913      96.457399    
    557000   0.99443188     18.218109      96.338306    
    558000   1.0811193      18.375261      96.364663    
    559000   1.0203022      18.096306      96.138518    
    560000   1.0118597      18.103027      95.888173    
    561000   1.0377246      18.758018      95.710567    
    562000   1.0233077      18.504685      95.371106    
    563000   0.98623293     17.881638      95.498297    
    564000   0.9743837      18.800205      95.566283    
    565000   1.0563057      18.214077      95.209193    
    566000   0.9998225      18.31429       95.383585    
    567000   0.98426926     18.170638      95.298909    
    568000   1.0342587      18.472634      95.482794    
    569000   0.973143       18.315425      95.701435    
    570000   0.93651545     18.444379      95.724592    
    571000   1.0188646      18.366313      95.7171      
    572000   1.0121896      18.361329      95.494404    
    573000   1.0029967      18.196841      95.459144    
    574000   0.97504974     18.544919      95.386009    
    575000   1.0860585      18.541015      95.537485    
    576000   0.97907626     18.350339      95.242214    
    577000   0.99639469     18.653872      95.291458    
    578000   0.98827094     18.677187      95.400555    
    579000   1.0767451      18.890952      95.482486    
    580000   1.0073398      18.416822      95.234903    
    581000   0.98783759     18.173611      95.14846     
    582000   1.0174549      18.628187      94.880691    
    583000   0.97778785     18.290301      94.626218    
    584000   0.99291106     18.472761      94.79893     
    585000   0.98804311     17.882223      94.673806    
    586000   1.0136534      18.808519      94.517775    
    587000   0.93950343     18.711391      94.448048    
    588000   0.89941222     18.875147      94.170808    
    589000   1.0054673      18.614114      94.096062    
    590000   0.98641479     18.596527      93.805992    
    591000   0.9866678      17.759026      93.618075    
    592000   1.0205746      17.848223      93.396807    
    593000   0.97052329     19.436311      93.184203    
    594000   1.0250107      18.266264      93.24014     
    595000   1.0174448      18.480921      93.40894     
    596000   1.0129245      18.765245      93.352107    
    597000   1.0483433      18.299413      93.286889    
    598000   0.98388928     18.343643      93.119814    
    599000   1.0189902      18.224128      92.94918     
    600000   1.0125531      18.662967      92.712089    
    601000   0.99268535     17.875143      92.586771    
    602000   1.0231095      18.098872      92.572162    
    603000   1.0264647      18.362684      92.455554    
    604000   1.00097        18.488508      92.356317    
    605000   0.91290573     18.653343      92.189439    
    606000   1.0210038      18.61748       91.918164    
    607000   1.0157918      18.315437      91.870516    
    608000   1.0226198      18.283064      91.766044    
    609000   0.9807194      18.958212      91.860006    
    610000   0.96417308     18.013074      91.813844    
    611000   1.0126325      18.906507      91.538413    
    612000   0.99283672     18.112735      91.316829    
    613000   1.0152183      18.948821      91.301576    
    614000   1.0333773      18.505371      91.28971     
    615000   0.97830599     18.816789      91.305884    
    616000   1.0735454      18.594175      91.556698    
    617000   1.0127448      18.283409      91.204642    
    618000   0.98536981     18.51849       90.911032    
    619000   0.96661669     17.750496      90.925247    
    620000   0.96711181     18.135355      90.679738    
    621000   1.0513432      17.899046      90.549662    
    622000   0.96801348     18.188577      90.502563    
    623000   0.99175637     17.815879      90.108753    
    624000   1.0097936      18.467629      89.865959    
    625000   0.95484531     18.505168      90.126213    
    626000   1.0476758      18.55908       89.977752    
    627000   0.97057588     18.938929      89.75675     
    628000   0.96782963     17.512001      89.743176    
    629000   0.99811417     18.503949      89.716299    
    630000   0.97217646     17.716916      89.339845    
    631000   1.0509128      18.865136      89.427737    
    632000   0.97836035     18.647119      89.437896    
    633000   0.99581733     18.025024      89.075102    
    634000   1.003212       18.820796      89.03468     
    635000   1.0010119      18.421818      88.994796    
    636000   1.0347983      17.970659      88.993938    
    637000   1.0159943      18.142596      88.936362    
    638000   1.0141777      17.882838      88.870995    
    639000   1.0174017      17.820275      88.650434    
    640000   1.0417404      18.465902      88.536312    
    641000   0.97780289     18.029621      88.252891    
    642000   1.014636       18.567957      88.143385    
    643000   1.0417321      18.121284      87.966011    
    644000   1.0102986      18.38847       87.78383     
    645000   0.98716253     17.971464      87.896149    
    646000   1.0150933      18.397146      87.771534    
    647000   0.97777549     18.29202       87.871671    
    648000   1.0575012      17.902462      87.681106    
    649000   0.99282496     18.471359      87.522227    
    650000   0.98982403     18.285231      87.320893    
    651000   0.95975666     18.144463      87.253427    
    652000   0.98199017     18.594332      87.117651    
    653000   1.0051803      18.424273      87.076571    
    654000   0.96318609     18.549691      86.842938    
    655000   0.98317801     17.965496      86.773239    
    656000   0.99060124     18.126925      86.667979    
    657000   1.0053778      17.951422      86.257567    
    658000   1.0158757      19.049032      86.270665    
    659000   1.0414941      18.22532       86.239245    
    660000   0.98579258     18.2025        86.038191    
    661000   1.0264863      19.33471       85.971582    
    662000   1.0013566      18.544625      85.947019    
    663000   1.005234       17.706099      85.951799    
    664000   1.0486271      17.975454      85.982713    
    665000   1.0090772      18.419872      85.604297    
    666000   1.0113959      18.269255      85.496484    
    667000   1.0002856      18.21753       85.472909    
    668000   0.9994225      17.601668      85.563914    
    669000   0.9570655      18.298121      85.441643    
    670000   1.032663       18.467256      85.23648     
    671000   0.96227231     18.473086      85.503142    
    672000   0.96735921     17.857709      85.137808    
    673000   0.93379993     17.782449      84.926283    
    674000   1.0521076      18.69809       84.957497    
    675000   0.99818994     18.302103      84.510321    
    676000   1.001571       18.032529      84.454754    
    677000   0.99381447     18.207479      84.282977    
    678000   0.95309995     17.527112      84.401892    
    679000   0.95839621     18.323764      84.113508    
    680000   1.0053354      18.332846      83.983289    
    681000   1.008523       17.643776      84.145238    
    682000   0.98978187     17.677148      84.353324    
    683000   0.96035761     17.897468      84.46294     
    684000   0.97938167     18.456383      84.281131    
    685000   1.0001616      18.313798      83.827295    
    686000   1.0223428      18.868276      83.600238    
    687000   1.0032665      18.657177      83.536809    
    688000   1.012625       18.196701      83.28161     
    689000   0.94737432     18.240138      83.326127    
    690000   1.0117917      18.219933      83.521871    
    691000   1.0019593      17.892264      83.358833    
    692000   1.0086849      18.784286      83.181173    
    693000   0.97553302     17.69482       82.964243    
    694000   1.0220281      18.313769      82.971397    
    695000   1.0373358      18.16554       82.548882    
    696000   1.0501587      18.121755      82.453148    
    697000   1.037389       18.091326      82.300588    
    698000   0.99275844     18.154816      82.020915    
    699000   1.0678996      18.184306      81.905831    
    700000   0.93833151     18.136046      81.714826    
    701000   0.98301856     17.881199      81.800808    
    702000   1.0124713      18.183333      81.64341     
    703000   0.97452046     18.763336      81.463928    
    704000   0.98899047     17.935171      81.469632    
    705000   1.0163605      18.110806      81.54981     
    706000   1.0082977      18.122195      81.421068    
    707000   1.0005769      18.484151      81.306978    
    708000   1.0179987      18.021414      81.395279    
    709000   1.0057379      18.183545      81.270977    
    710000   1.0391583      18.284114      81.219256    
    711000   1.0301727      18.393923      81.246011    
    712000   0.97491831     18.148238      81.008805    
    713000   0.95907865     17.625127      80.697659    
    714000   0.97811051     18.69826       80.691756    
    715000   0.99597915     18.550767      80.715097    
    716000   1.0016872      18.297568      80.923074    
    717000   1.0273469      18.938183      80.807458    
    718000   1.0051416      17.902752      80.954335    
    719000   0.97400485     18.22469       80.8537      
    720000   0.98489244     18.628236      80.75847     
    721000   0.99765151     18.000168      80.680347    
    722000   0.99538415     17.966778      80.573799    
    723000   0.91725885     17.725857      80.626779    
    724000   0.99659711     18.440953      80.574262    
    725000   1.0279948      17.949881      80.392042    
    726000   0.97652304     17.815223      80.48267     
    727000   0.9966731      18.039648      80.231471    
    728000   0.96950801     18.141826      80.263359    
    729000   0.99736093     18.505931      80.146936    
    730000   1.0267201      18.555781      79.944423    
    731000   0.9843726      17.649326      79.87368     
    732000   0.98561215     18.371196      79.70056     
    733000   1.0302801      18.045928      79.591098    
    734000   1.0071325      18.072134      79.503598    
    735000   0.98606515     17.987037      79.437069    
    736000   0.98688653     17.355527      79.391706    
    737000   1.0115145      18.793239      79.260731    
    738000   1.0276078      17.868134      79.035648    
    739000   1.0095677      18.136313      79.359371    
    740000   1.0384175      17.49768       79.444426    
    741000   1.010234       18.168318      79.780173    
    742000   1.0206308      18.191074      79.752498    
    743000   0.9620819      17.937139      79.632643    
    744000   0.94303315     17.539625      79.392173    
    745000   1.0176472      18.487529      79.272892    
    746000   0.9858639      18.740222      79.375079    
    747000   1.0150866      18.504979      79.195552    
    748000   1.0513247      18.398768      78.654974    
    749000   0.99892698     18.383487      78.512589    
    750000   0.99649821     18.448704      78.532991    
    751000   1.0028448      18.660141      78.510345    
    752000   0.98822489     17.844268      78.304813    
    753000   0.99827053     18.044248      78.159826    
    754000   1.0554603      17.982074      78.461523    
    755000   0.93720605     18.461583      78.220498    
    756000   0.99760467     18.123132      78.16141     
    757000   0.99936348     17.950174      78.157519    
    758000   0.98552033     18.410888      78.214662    
    759000   1.0261753      18.595092      78.38829     
    760000   1.0378768      18.288061      78.274738    
    761000   1.0102191      18.045208      78.23897     
    762000   1.0152115      18.686778      78.064732    
    763000   1.047479       18.557671      78.000266    
    764000   1.0220707      18.088608      77.81494     
    765000   0.99214866     18.582922      77.731458    
    766000   1.0252204      17.756717      77.470409    
    767000   1.0490991      18.02069       77.509018    
    768000   0.97800551     18.316438      77.308699    
    769000   1.01815        18.383087      77.398353    
    770000   0.99444287     18.598223      77.172207    
    771000   0.99518405     17.52739       76.948194    
    772000   0.96761044     18.275931      77.040137    
    773000   1.0078959      18.235401      77.041755    
    774000   1.0156941      18.015674      76.982527    
    775000   0.99149514     18.497917      76.888026    
    776000   0.93946827     17.717166      77.087402    
    777000   1.0118191      18.094052      76.865455    
    778000   0.97409544     18.286975      76.467698    
    779000   1.0073907      17.805229      76.256878    
    780000   1.0301377      18.559526      75.943627    
    781000   1.0095638      18.187291      75.797787    
    782000   1.0109725      17.73887       75.549666    
    783000   0.97346752     17.469743      75.540821    
    784000   1.0430323      17.94213       75.595168    
    785000   1.0317453      18.17869       75.578027    
    786000   1.0030526      17.626273      75.464904    
    787000   0.9659087      17.840469      75.486957    
    788000   1.0455737      19.180744      75.573698    
    789000   0.97874073     18.028821      75.304099    
    790000   0.97937133     18.195413      75.261504    
    791000   0.9713771      17.612967      75.155941    
    792000   0.96737718     17.777186      75.115127    
    793000   0.99234791     18.529174      75.047763    
    794000   1.0005709      18.234471      75.111995    
    795000   0.96643806     18.437491      75.182826    
    796000   0.97906402     18.326096      75.236793    
    797000   1.0093948      18.302525      75.066902    
    798000   1.0218477      18.026402      74.784858    
    799000   1.0115542      18.364157      74.867895    
    800000   1.0154595      18.522254      74.777407    
    801000   0.98144175     18.288209      74.456426    
    802000   1.0013957      18.315312      74.383739    
    803000   0.98730384     18.01534       74.294616    
    804000   1.0031935      17.98556       74.346145    
    805000   1.0076791      18.188873      74.236085    
    806000   0.96528486     18.165576      73.890508    
    807000   0.98423459     18.000897      73.881029    
    808000   1.0232151      18.373591      74.003534    
    809000   1.0223266      17.963634      73.816107    
    810000   0.99025028     18.852721      73.942937    
    811000   1.0199309      18.292027      74.091734    
    812000   0.99697797     18.948362      74.053785    
    813000   1.0199907      18.16189       73.96798     
    814000   1.0356024      18.334094      73.758151    
    815000   0.99642389     17.919585      73.469379    
    816000   1.0702214      18.889222      73.36714     
    817000   1.0000158      18.251969      73.320297    
    818000   1.0088844      17.811618      73.09977     
    819000   1.0242619      18.232253      72.926189    
    820000   0.98703852     18.128561      73.052696    
    821000   1.0175134      17.780434      72.909259    
    822000   1.010483       18.105371      72.764637    
    823000   1.0345975      17.706497      72.504975    
    824000   1.0127183      18.05389       72.415791    
    825000   1.0669133      18.84055       72.480371    
    826000   0.96798962     17.75564       72.614489    
    827000   0.96010562     17.906129      72.714285    
    828000   1.0193773      17.837658      72.746309    
    829000   1.0058907      18.388455      72.705595    
    830000   1.0304117      17.908778      72.666328    
    831000   1.0449384      18.643574      72.375535    
    832000   1.0665068      18.608988      72.386737    
    833000   0.96636202     17.952121      72.228628    
    834000   0.96486748     17.926331      72.12726     
    835000   0.9886905      17.681834      71.898932    
    836000   0.96833847     18.403491      71.82255     
    837000   0.95002641     17.279434      71.513432    
    838000   1.0112258      17.866259      71.613804    
    839000   1.0043859      17.557029      71.741822    
    840000   1.0161         18.30323       71.552763    
    841000   0.98386083     17.697833      71.456884    
    842000   0.95174473     18.22888       71.405824    
    843000   0.96158702     18.185099      71.210961    
    844000   0.98277623     18.07137       70.761094    
    845000   1.0257116      17.930996      70.500314    
    846000   0.99898065     17.820373      70.352806    
    847000   1.0084656      18.415979      70.170882    
    848000   1.0123052      18.449728      70.023013    
    849000   1.0592525      17.704092      69.840873    
    850000   1.0447449      18.60512       70.036695    
    851000   1.0208444      18.013946      69.666905    
    852000   0.9318798      17.818204      69.827297    
    853000   0.99705455     18.15056       69.967698    
    854000   1.0027695      18.108895      70.111174    
    855000   0.95897783     18.309762      69.959014    
    856000   0.96529812     17.716696      69.594328    
    857000   0.96715466     17.932732      69.632578    
    858000   0.99967415     18.890575      69.819224    
    859000   1.0300745      18.304273      69.808376    
    860000   0.99293468     16.80547       69.762838    
    861000   0.93839551     17.49711       69.687926    
    862000   0.96108994     17.957771      69.404337    
    863000   1.0200672      18.244836      69.41825     
    864000   1.0312621      17.976898      69.465191    
    865000   0.98803633     18.587831      69.258993    
    866000   1.0699931      18.046379      69.183331    
    867000   0.97953866     17.788456      69.164128    
    868000   0.9427716      17.869757      69.024008    
    869000   0.95269412     18.119507      69.165679    
    870000   1.0152771      18.701073      69.270946    
    871000   0.95068464     17.781119      69.044126    
    872000   1.0034601      18.132638      68.981919    
    873000   0.97461756     17.891269      69.175419    
    874000   0.99874873     17.682102      69.202377    
    875000   0.94913294     17.306914      69.033309    
    876000   0.97545327     17.830536      68.786502    
    877000   1.0539223      18.008676      69.041997    
    878000   1.0761824      18.237889      69.075119    
    879000   1.0028885      18.15858       69.079129    
    880000   1.0098371      18.487372      68.917355    
    881000   0.98860376     17.627858      68.610326    
    882000   0.96937425     17.912355      68.372161    
    883000   1.0388923      18.304486      68.343199    
    884000   0.97283189     18.315582      67.957915    
    885000   0.99149922     17.990113      67.634773    
    886000   1.006677       18.496397      67.503387    
    887000   1.0063023      18.346783      67.225427    
    888000   1.0062122      18.213292      67.096813    
    889000   0.96487653     17.8123        67.111986    
    890000   0.99708665     17.493208      66.997358    
    891000   0.96629459     17.954377      66.786356    
    892000   1.0221881      18.392513      66.933236    
    893000   1.0407921      17.587334      66.747003    
    894000   0.94744597     17.546831      66.607411    
    895000   1.0802219      18.297901      66.457696    
    896000   1.0047784      17.568347      66.47504     
    897000   1.0129348      17.686891      66.493567    
    898000   0.971882       17.681757      66.421056    
    899000   0.96670319     17.180519      66.221523    
    900000   0.96523291     17.248725      65.929737    
    901000   0.96647076     18.269275      65.628293    
    902000   0.97368888     17.502789      65.531242    
    903000   0.98853165     17.946265      65.028185    
    904000   0.94870852     17.917414      65.205121    
    905000   1.0265821      18.483112      65.122478    
    906000   0.99408748     17.579664      64.763535    
    907000   1.0365472      17.44901       64.664837    
    908000   0.91837977     17.694312      64.550339    
    909000   1.0000699      17.930637      64.215463    
    910000   0.98955345     17.943254      63.97194     
    911000   1.0438435      18.203536      64.039472    
    912000   0.99853799     17.792618      63.878246    
    913000   1.0100759      18.186593      63.76534     
    914000   1.0079126      17.770507      63.738285    
    915000   1.0079719      17.749139      63.501424    
    916000   0.99169707     17.292993      63.602531    
    917000   1.0384097      17.873247      63.382283    
    918000   1.0440159      18.66579       63.323238    
    919000   1.0080924      17.860504      63.177119    
    920000   1.008346       17.67534       63.090689    
    921000   1.0034645      18.402611      63.004468    
    922000   0.9814902      17.424516      62.821089    
    923000   1.0397034      18.291373      62.954651    
    924000   1.0096079      17.943393      62.907765    
    925000   1.0173299      17.542395      62.702179    
    926000   0.95962337     17.907083      62.416817    
    927000   1.0300696      17.40799       62.317226    
    928000   1.003841       17.846015      62.081373    
    929000   0.99606814     18.436811      62.344033    
    930000   1.0218212      17.595315      62.282218    
    931000   0.98076218     17.386212      62.10247     
    932000   1.0317613      17.978909      61.911352    
    933000   1.0546158      17.89061       62.10813     
    934000   0.97463717     17.54767       62.20265     
    935000   1.0375652      18.495083      62.293234    
    936000   1.0450554      17.91431       62.085048    
    937000   1.000938       17.990066      61.851006    
    938000   0.99871347     17.578528      61.817037    
    939000   1.001959       17.702665      61.611407    
    940000   0.92569511     17.720638      61.657215    
    941000   0.94524191     17.546096      61.639243    
    942000   1.0242719      17.388561      61.808001    
    943000   1.011954       17.718375      61.599271    
    944000   1.0231915      17.549706      61.376015    
    945000   0.98755623     17.15612       61.535127    
    946000   0.97358203     18.114121      61.402169    
    947000   0.95484508     17.764862      61.094659    
    948000   1.024357       17.648746      60.739394    
    949000   0.96839337     17.524596      60.568223    
    950000   0.98466306     18.081746      60.703468    
    951000   0.99209489     17.433466      60.446868    
    952000   1.0179693      17.918477      60.144961    
    953000   1.0335677      18.149495      60.200662    
    954000   0.98987307     17.580961      59.857665    
    955000   0.96417905     17.708413      59.587218    
    956000   1.0446958      18.37157       59.344207    
    957000   1.0261695      18.659917      58.98834     
    958000   1.0383397      18.566258      58.784577    
    959000   1.025981       17.662182      58.713868    
    960000   0.99473698     17.801967      58.50012     
    961000   0.97687968     18.887701      58.368039    
    962000   1.0239269      17.932122      58.240787    
    963000   1.0382101      17.62693       58.24648     
    964000   1.0204914      17.668128      58.040695    
    965000   0.96207904     17.436254      58.388023    
    966000   0.94434284     18.462754      58.104179    
    967000   1.0054486      18.470063      58.0948      
    968000   1.0378164      17.684131      57.833313    
    969000   0.9688436      17.691962      57.856284    
    970000   1.0267501      17.676568      57.826987    
    971000   1.0020965      17.909842      57.402735    
    972000   0.99662776     17.708714      57.404963    
    973000   0.98619328     18.345348      57.427464    
    974000   1.02611        18.135089      57.430356    
    975000   0.99876167     18.016827      57.398171    
    976000   0.989061       17.563633      57.388338    
    977000   1.0020755      18.105149      57.455952    
    978000   1.0048271      17.961558      57.391433    
    979000   0.995997       17.654497      57.169454    
    980000   0.99124373     17.979912      57.132053    
    981000   0.96765604     17.846988      57.18748     
    982000   1.0249183      18.070858      57.164483    
    983000   0.94449641     17.919724      57.361018    
    984000   0.94151274     18.167455      57.130372    
    985000   0.93596781     17.714528      57.172095    
    986000   1.0188155      18.150235      56.958487    
    987000   1.0179159      17.52918       56.772939    
    988000   0.98556794     17.663698      56.632819    
    989000   1.0134579      17.797342      56.602375    
    990000   1.0157704      17.832175      56.21848     
    991000   1.0370316      18.338123      56.081984    
    992000   0.97927423     17.684093      56.028952    
    993000   1.0303962      18.103626      55.734552    
    994000   0.96857535     17.52235       55.522686    
    995000   0.97697116     18.305162      55.574503    
    996000   1.0277843      18.800898      55.610321    
    997000   0.97775913     17.700788      55.543283    
    998000   1.0120414      17.770097      55.295058    
    999000   0.97563709     17.555826      55.293575    
   1000000   0.98428531     17.872897      55.501109    
   1001000   1.0067057      17.903921      55.192526    
   1002000   1.052046       18.369509      54.82893     
   1003000   1.0287036      17.735067      54.806943    
   1004000   0.99367736     18.611602      54.865434    
   1005000   1.0515739      17.248779      54.526821    
   1006000   1.1025162      17.58674       54.559962    
   1007000   0.98453988     17.747004      54.277456    
   1008000   1.0029144      17.575428      54.179551    
   1009000   1.0138468      18.409811      53.934755    
   1010000   1.0042627      17.960518      53.858204    
   1011000   1.0148119      18.683261      53.57503     
   1012000   1.027628       18.387132      53.443338    
   1013000   0.96247415     17.692195      53.266868    
   1014000   1.0341748      18.573856      53.209627    
   1015000   1.0186192      18.917654      52.870735    
   1016000   0.95420512     17.820704      52.774495    
   1017000   1.0189619      17.352223      52.333728    
   1018000   0.99173004     17.747337      52.252054    
   1019000   1.0556778      17.723188      52.026832    
   1020000   1.024722       17.830632      51.946749    
   1021000   1.0310144      17.675838      51.886777    
   1022000   0.97344832     18.0068        51.700363    
   1023000   0.9975889      17.240281      51.591132    
   1024000   1.0545363      17.978325      51.400173    
   1025000   0.97994501     17.473199      51.304407    
   1026000   1.0269881      18.067894      50.884073    
   1027000   0.96223982     17.920481      50.766854    
   1028000   1.070372       18.335308      50.70299     
   1029000   0.9643925      17.317763      50.801323    
   1030000   0.98733523     17.937285      50.775885    
   1031000   0.97314461     18.65447       50.60882     
   1032000   0.9947175      17.670275      50.146589    
   1033000   0.99021794     18.313108      49.865249    
   1034000   1.05148        18.109521      49.732716    
   1035000   0.96002614     17.236191      49.589169    
   1036000   0.99065344     17.52287       49.442257    
   1037000   1.0541765      17.55224       49.248026    
   1038000   1.0094904      17.478127      49.280615    
   1039000   0.98499838     17.745417      49.162338    
   1040000   0.9888792      16.965712      48.927465    
   1041000   0.97348292     17.582988      48.672663    
   1042000   0.99539407     17.765676      48.665375    
   1043000   1.0035434      17.932871      48.389562    
   1044000   1.0011487      18.103986      48.584357    
   1045000   1.0024105      17.471992      48.58488     
   1046000   0.97449598     17.949105      48.518354    
   1047000   1.0178862      17.292435      48.499256    
   1048000   1.0071157      18.183073      48.4057      
   1049000   1.0046797      17.508058      48.239156    
   1050000   1.0196907      17.609554      48.190203    
   1051000   1.0190371      18.126149      48.027099    
   1052000   1.0435712      17.714049      48.253598    
   1053000   1.0091354      17.622936      48.345412    
   1054000   0.97637313     17.380859      48.013598    
   1055000   0.97824764     17.7045        47.868345    
   1056000   0.96072304     17.632381      47.673992    
   1057000   0.98670926     17.526726      47.365109    
   1058000   0.99211073     17.290643      46.989093    
   1059000   1.0111266      17.400825      46.809496    
   1060000   0.93102591     18.411227      46.6268      
   1061000   1.0102277      18.012716      46.727025    
   1062000   1.0131145      17.32694       46.658643    
   1063000   1.0135708      18.434395      46.78447     
   1064000   0.98487557     16.966289      46.766177    
   1065000   0.98552464     18.148622      46.562061    
   1066000   1.0204975      17.774564      46.231009    
   1067000   1.0837443      17.919391      45.776212    
   1068000   1.0534074      18.404406      45.593463    
   1069000   1.0084516      16.688543      45.510818    
   1070000   1.0052376      18.914226      45.365485    
   1071000   0.97385307     17.690184      45.287915    
   1072000   1.0448223      17.937582      45.014766    
   1073000   1.002521       17.381737      44.870304    
   1074000   1.0016768      17.226022      44.636186    
   1075000   1.0000036      17.001416      44.442004    
   1076000   0.97184934     18.16416       44.225641    
   1077000   1.026115       17.370148      44.450476    
   1078000   0.99869937     17.102228      44.434563    
   1079000   0.95413859     17.866023      44.470361    
   1080000   0.99138542     18.192756      44.361591    
   1081000   1.0519295      18.137668      44.323416    
   1082000   1.0009842      17.392876      44.067593    
   1083000   0.98055076     17.562117      44.16562     
   1084000   1.0209588      17.751895      44.068703    
   1085000   0.96135322     18.191351      43.930021    
   1086000   1.0007718      16.944945      43.94328     
   1087000   1.0109022      17.692214      43.989932    
   1088000   0.99712553     18.063157      43.995639    
   1089000   1.0012804      17.66711       43.984829    
   1090000   1.0387216      17.517413      44.238589    
   1091000   0.98924934     17.45181       44.351388    
   1092000   1.025111       17.286805      44.268139    
   1093000   0.96655373     18.345291      44.362334    
   1094000   1.0101406      17.563171      44.289476    
   1095000   0.94897499     17.443414      44.290111    
   1096000   0.98881751     18.021415      44.229703    
   1097000   1.0013336      17.107841      44.075783    
   1098000   0.97932339     18.285568      43.775531    
   1099000   1.0125598      17.618804      43.651476    
   1100000   0.97765169     17.388475      43.687264    
   1101000   1.0145894      17.852926      43.68519     
   1102000   0.94987732     17.246473      43.359309    
   1103000   1.0088099      17.014822      43.275009    
   1104000   0.9951034      16.965745      43.032367    
   1105000   0.97317434     17.837975      42.84612     
   1106000   1.0109736      17.40761       42.6771      
   1107000   0.98804711     18.059399      42.625887    
   1108000   0.96450206     17.735396      42.805209    
   1109000   1.0016886      16.923283      42.888245    
   1110000   1.0348333      17.918704      42.421483    
   1111000   1.0387555      17.586996      42.037158    
   1112000   1.033918       18.37654       41.953569    
   1113000   1.0734529      17.776196      41.474206    
   1114000   1.0229491      17.640402      41.51794     
   1115000   1.0019097      18.395114      41.16858     
   1116000   0.99648173     17.207834      41.002934    
   1117000   0.99387896     17.778974      40.644741    
   1118000   0.96061942     17.813321      40.389979    
   1119000   0.97396483     17.992651      40.063334    
   1120000   1.0180578      18.113613      39.942669    
   1121000   1.0288408      17.724559      39.686619    
   1122000   0.99952029     17.221319      39.624747    
   1123000   0.97018365     17.673617      39.704611    
   1124000   0.97258769     17.070118      39.615749    
   1125000   0.99270498     17.713924      39.859032    
   1126000   1.0196457      18.1271        39.707542    
   1127000   1.0442489      17.382989      40.0286      
   1128000   1.0250737      18.065064      39.851883    
   1129000   0.9743566      17.232123      39.874975    
   1130000   1.0525443      17.020714      39.933403    
   1131000   1.0055686      17.923811      39.868136    
   1132000   0.99275731     17.884327      39.890004    
   1133000   0.97972273     17.714677      39.886851    
   1134000   0.97553318     17.572652      39.86011     
   1135000   1.0354081      17.892176      39.857619    
   1136000   0.99579553     17.295377      39.568993    
   1137000   1.0822489      18.169557      39.476859    
   1138000   0.99793626     17.97191       39.565735    
   1139000   1.0020888      17.679214      39.271651    
   1140000   1.0170696      16.956102      39.10751     
   1141000   0.98182425     16.92245       39.047446    
   1142000   0.9748332      17.562348      39.175067    
   1143000   1.0535192      17.935075      39.014435    
   1144000   0.95659271     17.630834      38.852031    
   1145000   1.0149496      18.047401      38.551702    
   1146000   0.99679342     17.799137      38.425138    
   1147000   0.99361695     17.951198      38.065719    
   1148000   1.0378944      17.759371      37.895517    
   1149000   0.96317915     17.303504      37.629157    
   1150000   1.0104019      18.450916      37.503173    
   1151000   0.9925075      17.29435       36.814685    
   1152000   0.96815186     17.57908       36.528343    
   1153000   0.99996919     17.585852      36.422149    
   1154000   0.95488577     17.756796      36.277456    
   1155000   0.98933339     17.515108      36.186128    
   1156000   0.96588223     17.28306       36.068175    
   1157000   1.02746        16.893346      36.050149    
   1158000   0.99170512     17.681721      35.859933    
   1159000   1.0139109      17.339004      35.70136     
   1160000   1.0392512      17.458549      35.577951    
   1161000   0.98589005     17.926         35.565733    
   1162000   0.99716532     17.637006      35.332543    
   1163000   0.92781905     16.905004      35.136802    
   1164000   0.9881887      17.401478      35.175862    
   1165000   1.0356628      18.144943      35.173744    
   1166000   1.00463        16.970131      35.217716    
   1167000   0.97986567     17.558586      34.961371    
   1168000   0.98839375     17.403722      34.716927    
   1169000   0.983496       17.931594      34.549214    
   1170000   0.9894813      16.948607      34.564831    
   1171000   0.99354057     17.480935      34.455187    
   1172000   0.98889386     17.931038      34.434164    
   1173000   0.98760105     17.61222       34.506095    
   1174000   1.0165355      17.793598      34.422379    
   1175000   1.0397212      17.600443      34.516477    
   1176000   0.96582441     16.960923      34.658893    
   1177000   0.95252644     17.846697      34.216304    
   1178000   0.95078206     17.700917      34.187071    
   1179000   1.0108791      17.516872      33.887918    
   1180000   1.032071       17.590517      33.686351    
   1181000   0.99496769     17.134141      33.370283    
   1182000   0.9845576      17.216739      33.002811    
   1183000   0.95422247     16.969413      33.005255    
   1184000   0.93920717     17.552203      32.916773    
   1185000   1.0244902      16.610578      32.955255    
   1186000   0.96236509     17.472929      32.635738    
   1187000   0.98975684     16.931488      32.565448    
   1188000   1.0063037      17.998833      32.516504    
   1189000   1.0234873      17.316991      32.206906    
   1190000   0.98903341     17.197626      32.063366    
   1191000   0.99793705     17.701384      31.925979    
   1192000   1.0341167      17.445955      31.752251    
   1193000   0.97121015     17.840363      31.805278    
   1194000   1.041753       17.915252      31.900962    
   1195000   1.1039036      18.087253      32.045925    
   1196000   0.99795457     16.83135       31.904401    
   1197000   1.0075991      17.964165      31.576483    
   1198000   0.99361479     17.222557      31.372765    
   1199000   1.0580076      17.398837      30.954879    
   1200000   0.99637567     17.836775      31.056136    
   1201000   1.0044226      17.189963      30.961681    
   1202000   1.0581527      17.928854      31.045007    
   1203000   1.0030603      17.510714      31.070622    
   1204000   1.01802        17.769768      31.081372    
   1205000   1.0769162      17.554854      31.033598    
   1206000   0.93577707     17.451165      31.174206    
   1207000   1.0016233      17.900113      31.070899    
   1208000   1.0490063      17.816021      31.192745    
   1209000   0.98659102     17.198558      31.405096    
   1210000   1.0314742      17.573443      31.304894    
   1211000   1.0204391      17.148784      31.457877    
   1212000   1.024254       17.556814      31.451535    
   1213000   1.0335416      17.129758      31.26464     
   1214000   0.96681646     18.178343      31.244346    
   1215000   0.93447736     16.966915      30.975521    
   1216000   1.0245709      17.775739      30.895125    
   1217000   1.0262075      17.866284      30.726469    
   1218000   0.95126221     17.830909      30.637131    
   1219000   0.98761626     17.642562      30.596626    
   1220000   1.0125041      17.348947      30.829185    
   1221000   0.99014532     17.650746      30.766495    
   1222000   0.98988203     17.711922      30.417696    
   1223000   1.0077799      17.073724      30.354131    
   1224000   0.95324526     17.679444      30.210836    
   1225000   0.99208312     17.464532      29.851325    
   1226000   1.0141652      17.653163      29.682999    
   1227000   1.0014154      18.000747      29.500929    
   1228000   0.99078429     17.110983      29.389719    
   1229000   0.94356022     17.388854      29.177392    
   1230000   1.019143       17.651123      29.16549     
   1231000   1.0431752      17.634706      28.942854    
   1232000   0.9870804      17.12737       28.919833    
   1233000   1.0147254      17.082712      28.758475    
   1234000   1.0224792      16.895672      28.587754    
   1235000   1.000804       17.574976      28.597296    
   1236000   1.0088731      17.112848      28.49293     
   1237000   0.97288534     17.400231      28.487675    
   1238000   1.0091533      17.536426      28.257104    
   1239000   0.99106878     17.663523      28.061907    
   1240000   0.91241182     16.929533      28.037902    
   1241000   0.91761518     16.796544      27.795974    
   1242000   1.0138627      17.623061      27.620673    
   1243000   1.0239211      17.479368      27.397018    
   1244000   1.0467311      17.362338      27.436102    
   1245000   0.99073033     17.920314      27.564249    
   1246000   0.98168863     17.146809      27.439884    
   1247000   1.0182775      17.116294      27.538009    
   1248000   0.99014975     18.301845      27.542684    
   1249000   0.98168384     17.527323      27.426237    
   1250000   0.97450192     17.420806      27.304448    
   1251000   0.99961083     18.742361      27.05025     
   1252000   1.0192526      17.856108      26.883175    
   1253000   1.036652       17.332142      26.815106    
   1254000   1.0382883      18.078779      26.662584    
   1255000   0.98059977     17.32625       26.431485    
   1256000   1.0208443      18.249464      26.454401    
   1257000   0.99152177     17.153884      26.076702    
   1258000   1.0557874      17.56957       25.930846    
   1259000   0.98780528     17.497918      25.725066    
   1260000   0.97400282     17.735294      25.725615    
   1261000   1.0231004      17.739529      25.705621    
   1262000   1.0412993      17.470275      25.496915    
   1263000   1.0267478      18.135036      25.463935    
   1264000   0.96793431     16.866122      25.339957    
   1265000   0.99445228     17.437389      25.360464    
   1266000   1.0055514      17.715754      25.338878    
   1267000   0.92150738     17.15997       25.221876    
   1268000   1.0003917      17.33362       24.848652    
   1269000   1.0415311      17.548252      24.629729    
   1270000   0.9788126      17.264299      24.690779    
   1271000   1.0324649      17.796929      24.395587    
   1272000   0.98292329     17.422321      24.261471    
   1273000   1.0231105      17.864327      24.074002    
   1274000   1.0267131      17.627502      24.014447    
   1275000   0.98366433     17.005925      23.901439    
   1276000   1.0151939      17.253254      23.889481    
   1277000   0.99544233     17.266842      23.751592    
   1278000   1.0272311      17.529712      23.866098    
   1279000   1.0009271      18.124019      24.197553    
   1280000   1.009844       17.460921      24.046673    
   1281000   0.95496703     17.392109      24.037973    
   1282000   1.0058791      17.642732      24.182393    
   1283000   0.9750048      17.239114      24.177598    
   1284000   1.0033643      17.418002      24.265955    
   1285000   0.94195649     18.056086      24.034151    
   1286000   1.0042932      17.54932       23.8198      
   1287000   0.99167095     16.98637       23.900678    
   1288000   1.0342121      17.091077      23.787295    
   1289000   1.0124686      17.348665      23.963965    
   1290000   0.98540265     17.271346      23.86141     
   1291000   1.0719505      17.436518      23.803493    
   1292000   0.97214238     17.200698      23.323063    
   1293000   1.0030322      18.078316      23.345528    
   1294000   0.97497077     16.84761       23.289766    
   1295000   1.0632736      17.184821      22.824739    
   1296000   1.0016368      18.009403      22.483592    
   1297000   0.99933779     17.523037      22.534806    
   1298000   0.98953914     17.65598       22.168487    
   1299000   0.98150037     17.322444      22.217736    
   1300000   1.0018688      16.781316      22.055322    
   1301000   0.98882248     18.073582      22.224391    
   1302000   1.0400665      18.386464      22.130194    
   1303000   1.0287699      17.323884      21.968647    
   1304000   0.99786967     17.592023      21.650309    
   1305000   0.98859994     17.053173      21.598028    
   1306000   0.99417744     17.469829      21.695062    
   1307000   1.0052942      16.60817       21.421903    
   1308000   1.0777599      17.724435      21.531178    
   1309000   1.0011776      17.795653      21.530937    
   1310000   0.9553459      17.129107      21.469395    
   1311000   1.0265258      17.715936      21.555727    
   1312000   1.0221445      18.534021      21.343323    
   1313000   0.98535201     17.171983      21.120059    
   1314000   1.0422856      17.874234      21.014515    
   1315000   0.97697093     17.256103      20.961664    
   1316000   0.99344626     18.2545        21.043447    
   1317000   0.99595745     17.197545      21.049366    
   1318000   1.0158549      17.418959      21.055448    
   1319000   0.98942086     17.584982      21.092336    
   1320000   0.97691719     17.43209       21.021346    
   1321000   0.99731939     17.28369       20.866585    
   1322000   1.0259452      17.038413      20.931271    
   1323000   1.019124       18.218809      21.044568    
   1324000   1.0095233      17.639151      20.994412    
   1325000   0.98767375     17.072398      20.72333     
   1326000   1.0190914      17.281771      20.647643    
   1327000   1.009416       17.104416      20.376398    
   1328000   1.0239651      17.428793      20.565496    
   1329000   0.99270064     17.421944      20.742065    
   1330000   0.99943504     17.375762      20.665227    
   1331000   0.98372397     16.996896      20.612333    
   1332000   0.98648586     17.269293      20.622485    
   1333000   1.0112829      16.996556      20.390724    
   1334000   1.0804112      17.893439      20.454416    
   1335000   0.97914827     17.728174      20.40296     
   1336000   1.0495871      17.429463      20.241595    
   1337000   1.0065877      16.827872      20.140957    
   1338000   0.99926233     17.416591      19.846543    
   1339000   1.0007861      17.333993      19.510604    
   1340000   0.96615516     17.178384      19.369748    
   1341000   1.0178879      17.160472      19.333468    
   1342000   1.0410769      17.335502      19.425132    
   1343000   0.97562203     17.688202      19.337467    
   1344000   0.99062514     17.404441      19.569341    
   1345000   1.0153861      17.377728      19.523033    
   1346000   1.0140796      17.574734      19.5481      
   1347000   0.99001795     18.101883      19.708975    
   1348000   1.0103774      17.433125      19.62336     
   1349000   0.97606045     17.677618      19.821965    
   1350000   0.98817181     17.63736       19.761423    
   1351000   0.99215746     17.374838      19.658676    
   1352000   1.0351204      17.513069      19.640136    
   1353000   1.0057928      17.069567      19.476976    
   1354000   1.013674       17.639423      19.44509     
   1355000   1.0297191      17.430571      19.250767    
   1356000   0.92337745     17.445328      19.084439    
   1357000   0.99464528     17.435027      19.011055    
   1358000   0.97919188     17.269092      18.792846    
   1359000   0.95304865     17.162013      18.680419    
   1360000   0.9960946      17.210543      18.799914    
   1361000   1.0584672      17.743611      18.77576     
   1362000   0.99875854     16.676763      18.684795    
   1363000   1.0004405      17.076001      18.842775    
   1364000   1.0144766      17.563501      18.982119    
   1365000   1.014332       17.792676      18.687313    
   1366000   1.0161737      17.154858      18.575757    
   1367000   0.93963526     17.43596       18.518795    
   1368000   1.0186075      17.119241      18.265511    
   1369000   1.0433076      17.527658      18.069313    
   1370000   0.99923823     17.129349      17.947493    
   1371000   0.97569881     17.339418      17.43667     
   1372000   1.0350663      17.292498      17.155607    
   1373000   1.0760394      17.197975      17.150793    
   1374000   1.0024067      17.632201      17.005046    
   1375000   0.97854145     16.859049      16.984834    
   1376000   1.0211         17.931893      17.071378    
   1377000   1.026963       17.318778      17.007968    
   1378000   1.0574838      17.19102       17.060705    
   1379000   0.95855842     17.247493      16.931608    
   1380000   1.0030647      17.945943      16.918412    
   1381000   1.0025587      17.29397       16.981278    
   1382000   1.0101276      17.666119      17.125655    
   1383000   1.0174443      17.473745      16.868556    
   1384000   1.0299151      18.002168      16.883678    
   1385000   1.0505502      17.883595      16.960685    
   1386000   1.0277412      17.803862      16.94549     
   1387000   1.0366725      17.498892      16.836837    
   1388000   0.97893841     17.846476      16.686743    
   1389000   0.97682167     17.206488      16.772431    
   1390000   1.0494262      17.548834      16.757784    
   1391000   1.0000488      17.026741      16.601952    
   1392000   1.0285508      17.132924      16.694984    
   1393000   1.0440285      17.193374      16.604698    
   1394000   1.0026587      17.381635      16.343616    
   1395000   0.97244856     17.561055      16.412102    
   1396000   0.98620195     17.604896      16.367176    
   1397000   0.99727123     17.235644      16.258462    
   1398000   1.0050189      16.424645      16.001291    
   1399000   0.99728551     17.986647      15.601514    
   1400000   0.97295608     16.977429      15.555962    
   1401000   1.068505       17.091018      15.66778     
   1402000   0.94645967     16.416197      15.674896    
   1403000   0.957074       17.211509      15.580881    
   1404000   1.0110974      17.926836      15.875196    
   1405000   1.0052936      17.528325      15.696874    
   1406000   0.92552167     17.504636      15.338915    
   1407000   0.98934939     17.569649      15.13901     
   1408000   0.97352852     17.676314      15.069314    
   1409000   1.0009356      16.800281      15.275345    
   1410000   1.0364632      17.099599      15.248283    
   1411000   1.0061499      17.190606      15.033011    
   1412000   0.96318894     17.62236       14.860531    
   1413000   1.0071959      17.522458      14.755108    
   1414000   0.99934034     16.978818      14.760807    
   1415000   1.0118358      17.121792      15.205306    
   1416000   1.0299173      16.997639      15.463712    
   1417000   0.97290066     17.189956      15.294806    
   1418000   1.0497527      17.73839       15.130798    
   1419000   0.99885552     17.661157      15.160348    
   1420000   0.99200211     17.221797      15.240281    
   1421000   0.9756864      17.23978       15.1306      
   1422000   1.1034634      17.557237      15.06735     
   1423000   1.0255977      17.381019      15.058476    
   1424000   1.0001287      17.692879      15.244167    
   1425000   0.98558828     16.927946      15.190118    
   1426000   0.98498665     17.23154       15.274014    
   1427000   0.99466319     16.815443      15.20488     
   1428000   0.95635957     17.549618      15.239905    
   1429000   1.0114619      17.733084      15.338256    
   1430000   0.97632583     17.795476      15.613398    
   1431000   0.99734406     17.423533      15.657035    
   1432000   0.95644851     17.146462      15.679661    
   1433000   1.0264978      17.103478      15.690181    
   1434000   0.99608699     17.687992      15.644889    
   1435000   1.0582446      18.103319      15.311084    
   1436000   1.03755        18.126483      15.206552    
   1437000   1.0090118      17.273329      14.987268    
   1438000   1.0488349      17.343125      14.940153    
   1439000   1.0018878      17.360392      15.070929    
   1440000   1.0191263      17.952608      14.858727    
   1441000   1.0424259      17.628293      14.843493    
   1442000   1.0192632      17.359598      14.658672    
   1443000   0.96687439     17.280728      14.585108    
   1444000   0.99885314     17.129565      14.331136    
   1445000   1.0136589      17.656825      14.046751    
   1446000   1.0337219      18.244155      14.247393    
   1447000   0.93793863     17.367936      14.398088    
   1448000   0.96555037     16.934735      14.323609    
   1449000   0.96749045     17.843364      14.209469    
   1450000   1.0474599      17.716761      14.147005    
   1451000   0.96461532     17.142603      14.031689    
   1452000   1.0091169      16.964355      13.997902    
   1453000   1.0422277      17.814587      13.820853    
   1454000   1.01814        17.280088      13.391288    
   1455000   0.98577141     17.410112      13.186197    
   1456000   1.0530233      16.940266      13.093341    
   1457000   1.0121904      17.565466      13.069561    
   1458000   0.9713473      17.130885      13.103075    
   1459000   0.99738033     17.122454      12.828785    
   1460000   0.95743815     17.540581      12.872572    
   1461000   0.9865162      17.014148      12.406123    
   1462000   0.96355437     17.85782       12.354963    
   1463000   1.0358767      17.518542      12.508868    
   1464000   1.0026333      16.958459      12.558458    
   1465000   0.9574667      16.637479      12.498072    
   1466000   0.9925282      17.360914      12.511233    
   1467000   1.0477163      18.154215      12.280584    
   1468000   0.9801976      17.694086      12.203926    
   1469000   1.0516799      17.619946      12.126276    
   1470000   1.0429894      17.119693      12.201078    
   1471000   1.0037851      16.928105      11.935989    
   1472000   0.95744684     17.095366      11.635639    
   1473000   0.95110584     17.018923      11.75609     
   1474000   0.9652749      17.547248      11.669581    
   1475000   0.95088249     17.232059      11.523271    
   1476000   0.97478855     16.776921      11.315573    
   1477000   0.97530803     16.596218      11.518725    
   1478000   0.99687366     17.277781      11.430418    
   1479000   1.0299103      17.438725      11.205021    
   1480000   1.0443465      16.749472      11.042086    
   1481000   0.96608787     17.338486      11.019225    
   1482000   0.99556552     17.30441       10.658642    
   1483000   1.012741       17.497624      10.104451    
   1484000   0.99556915     16.887222      10.190172    
   1485000   0.99579344     17.775884      10.13281     
   1486000   1.0199773      18.189823      10.069311    
   1487000   1.0492199      17.68559       9.911079     
   1488000   1.0331001      17.205714      9.7654266    
   1489000   0.97167587     17.817064      9.6839712    
   1490000   1.0482475      17.314156      9.6682063    
   1491000   1.0398992      17.449847      9.4308456    
   1492000   0.9919629      17.479782      9.4195024    
   1493000   1.0096528      16.542864      9.1562438    
   1494000   0.98530485     16.87233       9.2761575    
   1495000   0.95746706     16.42266       8.9209736    
   1496000   1.0079776      17.383854      8.6109687    
   1497000   1.0106801      17.068589      8.4552833    
   1498000   0.97871077     17.221414      8.3192458    
   1499000   1.035474       17.684348      8.3817713    
   1500000   0.99952265     17.373731      8.3110291    
   1501000   1.026031       17.192851      8.1383848    
   1502000   1.0058731      17.47202       8.1671495    
   1503000   0.97899577     16.533471      8.0043078    
   1504000   1.0534577      17.594642      8.030177     
   1505000   1.0041342      17.462307      8.008852     
   1506000   0.94961518     17.426856      7.7888265    
   1507000   0.99940766     17.398743      7.8940738    
   1508000   1.0086143      16.929512      7.8448076    
   1509000   1.0484991      17.572827      7.8318667    
   1510000   1.0050592      17.387505      7.6091435    
   1511000   1.0137022      17.511014      7.5737677    
   1512000   1.0373446      18.006985      7.4213531    
   1513000   0.9882285      17.013502      7.2272919    
   1514000   0.98682209     16.996004      7.0374709    
   1515000   0.95910845     16.889223      7.0112452    
   1516000   0.96270805     16.362614      7.0177518    
Fix halt condition for fix-id 3 met on step 1517000 with value 6.971992790274962 (src/fix_halt.cpp:237)
   1517000   0.97074659     17.267195      6.9719928    
Loop time of 1770.64 on 2 procs for 1417000 steps with 700 atoms

Performance: 691438.238 tau/day, 800.276 timesteps/s
116.2% CPU use with 1 MPI tasks x 2 OpenMP threads

MPI task timing breakdown:
Section |  min time  |  avg time  |  max time  |%varavg| %total
---------------------------------------------------------------
Pair    | 200.14     | 200.14     | 200.14     |   0.0 | 11.30
Bond    | 20.23      | 20.23      | 20.23      |   0.0 |  1.14
Neigh   | 1500.1     | 1500.1     | 1500.1     |   0.0 | 84.72
Comm    | 0.39585    | 0.39585    | 0.39585    |   0.0 |  0.02
Output  | 2.8144     | 2.8144     | 2.8144     |   0.0 |  0.16
Modify  | 43.578     | 43.578     | 43.578     |   0.0 |  2.46
Other   |            | 3.378      |            |       |  0.19

Nlocal:            700 ave         700 max         700 min
Histogram: 1 0 0 0 0 0 0 0 0 0
Nghost:              0 ave           0 max           0 min
Histogram: 1 0 0 0 0 0 0 0 0 0
Neighs:         109596 ave      109596 max      109596 min
Histogram: 1 0 0 0 0 0 0 0 0 0

Total # of neighbors = 109596
Ave neighs/atom = 156.56571
Ave special neighs/atom = 1.9971429
Neighbor list builds = 13031
Dangerous builds = 0

# This simulation is done
# Move onto the next one
clear
  using 2 OpenMP thread(s) per MPI task
package omp 0
using multi-threaded neighbor list subroutines
next f
jump SELF

###
# Reference paper:
# K. Kremer and G. S. Grest
# Dynamics of entangled linear polymer melts: A molecular-dynamics simulation
# J Chem Phys 92, 5057 (1990)

##################################
# MIHIR: for branched polymers
# LJ minimum first to expand and explore, then collapse
###

###
# Looping through the various linear polymers to simulate,
# define variables to switch through
# variable f index bb100nuc0bl0bn0d30tot100 bb200nuc0bl0bn0d30tot200 bb300nuc0bl0bn0d30tot300 bb400nuc0bl0bn0d30tot400 bb500nuc0bl0bn0d30tot500 bb600nuc0bl0bn0d30tot600 bb700nuc0bl0bn0d30tot700 bb800nuc0bl0bn0d30tot800 bb900nuc0bl0bn0d30tot900 bb1000nuc0bl0bn0d30tot1000 bb1100nuc0bl0bn0d30tot1100 bb1200nuc0bl0bn0d30tot1200
variable f index bb500nuc0bl0bn0d30tot500 bb600nuc0bl0bn0d30tot600 bb700nuc0bl0bn0d30tot700 bb800nuc0bl0bn0d30tot800 bb900nuc0bl0bn0d30tot900 bb1000nuc0bl0bn0d30tot1000 bb1100nuc0bl0bn0d30tot1100 bb1200nuc0bl0bn0d30tot1200
###


###
# Box and units  (use LJ units and periodic boundaries)
###

units lj
log linear/logs2/$f.log
log linear/logs2/bb800nuc0bl0bn0d30tot800.log
