#atom_style bond #no stiffness
atom_style angle #with stiffness

boundary        p p p
###
# Pair interactions require lists of neighbours to be calculated
###

#neighbor 0.3 bin
neighbor 4 bin

neigh_modify every 1 delay 1 check yes
atom_modify sort 0 0
### Generate RESTART file, SPECIAL format, not a .txt file ###
### Useful if simulation crashes ###

restart 1000000 nuc3branch4/restarts2/$f.restart
restart 1000000 nuc3branch4/restarts2/bb240nuc3bl60bn4d30tot600.restart
#############################



### READ "start" data file ###

read_data nuc3branch4/$f.dat
read_data nuc3branch4/bb240nuc3bl60bn4d30tot600.dat
Reading data file ...
  orthogonal box = (-1000 -1000 -1000) to (1000 1000 1000)
  1 by 1 by 1 MPI processor grid
  reading atoms ...
  601 atoms
  scanning bonds ...
  3 = max bonds/atom
  scanning angles ...
  6 = max angles/atom
  reading bonds ...
  600 bonds
  reading angles ...
  608 angles
Finding 1-2 1-3 1-4 neighbors ...
  special bond factors lj:    0        0        0       
  special bond factors coul:  0        0        0       
     4 = max # of 1-2 neighbors
     4 = max # of 1-3 neighbors
     8 = max # of 1-4 neighbors
    12 = max # of special neighbors
  special bonds CPU = 0.001 seconds
  read_data CPU = 0.053 seconds

######################

### READ "REstart" data file ###

######################



###
# Define groups (atom type 1 is group 'all')
###
group all type 1
601 atoms in group all


###
# Dump configs - "simple dumpings"
###

###
# Dump configs + box coords
###

dump   1   all   custom   1000  nuc3branch4/trjs2/$f.lammpstrj  id  x y z  ix iy iz
dump   1   all   custom   1000  nuc3branch4/trjs2/bb240nuc3bl60bn4d30tot600.lammpstrj  id  x y z  ix iy iz
dump_modify   1   format line "%d %.5f %.5f %.5f %d %d %d"

########################################################################


###################################################################
# Stiffness term
#
# E = K * (1+cos(theta)), K>0
#
angle_style   cosine
#change this coefficient to change stiffness (e.g. 1,5,10)
angle_coeff   1 1.0
###################################################################

###################################################################
# Pair interaction between non-bonded atoms
#
#  Lennard-Jones 12-6 potential with cutoff:
#  potential E=4epsilon[ (sigma/r)^12 - (sigma/r)^6]  for r<r_cut
#
#  1.12246 = 2^(1/6) is the minimum of the potential


pair_style      lj/cut 1.12246152962189
#pair_style      lj/cut 3

#
#  pair_modify shift yes adds a constant to the potential such

#  that E(r_cut)=0. Forces remains unchanged.
#

pair_modify     shift yes

#
#  pair_coeff for lj/cut, specify 4:
#    * atom type interacting with
#    * atom type
#    * epsilon (energy units)
#    * sigma (distance units)
#

pair_coeff      1 1 1.0 1.0
###################################################################

###################################################################
# Pair interaction between non-bonded atoms
#
#  soft potential, for PUSHING apart overlapping atoms
#  potential E=A*(1 + cos(pi*r/r_c))
#
#  1.12246 = 2^(1/6) is the cut-off r_c

#pair_style     soft 1.12246152962189

#
#  pair_coeff for soft, specify 3:
#    * atom type interacting with
#    * atom type
#    * A
#
#

#pair_coeff      1 1 100.0
###################################################################

###################################################################
# Pair interaction between bonded atoms
#
# Fene potential + Lennard Jones 12-6:

#
#  E= - 0.5 K R0^2 ln[ 1- (r/R0)^2]
#     + 4epsilon[ (sigma/r)^12 - (sigma/r)^6] + epsilon
#

bond_style   fene


#
# For style fene, specify:
#   * bond type
#   * K (energy/distance^2)
#   * R0 (distance)
#   * epsilon (energy)  (LJ component)
#   * sigma (distance)  (LJ component)
#


special_bonds fene #<=== I M P O R T A N T (new command)
Finding 1-2 1-3 1-4 neighbors ...
  special bond factors lj:    0        1        1       
  special bond factors coul:  0        1        1       
     4 = max # of 1-2 neighbors
    12 = max # of special neighbors
  special bonds CPU = 0.000 seconds

bond_coeff   1   30   2   1.0   1.0


###################################################

###################################################################
# Pair interaction between bonded atoms
#
# Harmonic potential:
#
#  E= K * (R-R0)^2
#

#bond_style   harmonic

#
# For style harmonic, specify:
#   * bond type
#   * K (energy/distance^2)
#   * R0 (distance)
#

#bond_coeff   1   60.0   1.0
#bond_coeff   2   harmonic 0.1   1.0

###################################################
compute 1 all gyration
variable rog equal c_1
#compute 2 all coord/atom cutoff 1.1

#dump 2 all custom 10000 contact_number.dump id c_2


###
# Set up fixes
###
thermo_style   custom   step  temp enthalpy c_1
fix 1 all nve   ###NVE ensemble

fix 2 all   langevin   1.0 1.0 1.0  778655   ###Langevin integrator Tstart Tstop 1/friction rndseed


##### Sample thermodynamic info  (temperature, energy, pressure, etc.) #####
thermo 1000









############################################################################

###
# set timestep of integrator

timestep 0.01

###
# run integration for a number of steps
###
#run 0
#variable r equal c_1
#if "$r < 63.1" then "quit 1"

# lj potential minimum, cause molecule to explore
run 100000
Generated 0 of 0 mixed pair_coeff terms from geometric mixing rule
Last active /omp style is angle_style cosine/omp
Neighbor list info ...
  update: every = 1 steps, delay = 1 steps, check = yes
  max neighbors/atom: 2000, page size: 100000
  master list distance cutoff = 5.1224615
  ghost atom cutoff = 5.1224615
  binsize = 2.5612308, bins = 781 781 781
  1 neighbor lists, perpetual/occasional/extra = 1 0 0
  (1) pair lj/cut/omp, perpetual
      attributes: half, newton on, omp
      pair build: half/bin/newton/omp
      stencil: half/bin/3d
      bin: standard
WARNING: Communication cutoff 5.12246152962189 is shorter than a bond length based estimate of 5.455. This may lead to errors. (src/comm.cpp:723)
Per MPI rank memory allocation (min/avg/max) = 1861 | 1861 | 1861 Mbytes
   Step          Temp         Enthalpy         c_1      
         0   0              13.256716      52.28199     
      1000   1.0199938      18.163721      51.348365    
      2000   1.051389       19.009349      50.160181    
      3000   1.0171267      19.264302      49.23409     
      4000   0.9661717      18.866522      48.408226    
      5000   0.99790571     19.196713      47.593562    
      6000   1.0312055      19.156806      47.262957    
      7000   0.97808656     20.00845       47.004661    
      8000   1.0078916      19.148422      46.744121    
      9000   1.0211978      20.098539      46.297935    
     10000   1.0019405      20.122766      45.728864    
     11000   0.99504737     20.301206      45.62666     
     12000   0.95196402     19.561721      45.511871    
     13000   0.9779911      19.889866      44.980216    
     14000   0.98512159     20.086831      44.606997    
     15000   0.98934667     20.343352      44.136193    
     16000   0.99057916     20.687011      43.877358    
     17000   0.99038419     20.394809      43.455262    
     18000   0.96431102     19.742403      43.193562    
     19000   0.95591868     19.624226      43.167156    
     20000   1.0192826      20.174147      43.123668    
     21000   1.0216924      20.712131      42.675978    
     22000   1.0349184      20.608987      42.207341    
     23000   1.008203       20.322093      42.291008    
     24000   0.98181816     20.392192      42.214861    
     25000   0.96551324     21.129604      42.390186    
     26000   1.0563346      20.715846      42.092745    
     27000   0.97394919     19.882906      41.534846    
     28000   1.0297868      21.061731      41.442847    
     29000   1.0383016      20.624265      41.333732    
     30000   0.97708102     20.491575      41.232035    
     31000   0.96881044     19.962546      41.015904    
     32000   1.0152897      20.366379      40.933206    
     33000   1.0117452      20.260865      40.634671    
     34000   0.95894378     19.92445       40.552552    
     35000   1.0198943      20.251779      40.192891    
     36000   0.98624934     20.56419       39.998957    
     37000   0.97791245     19.981159      40.152958    
     38000   1.0124182      19.962564      39.971336    
     39000   0.98408481     20.861625      39.666748    
     40000   0.99712911     20.735085      39.738716    
     41000   1.0089901      20.521499      39.554853    
     42000   1.0426905      20.493675      39.847379    
     43000   1.0608646      20.306701      39.524027    
     44000   0.99756691     20.293225      39.15638     
     45000   0.94537938     19.898924      38.973494    
     46000   0.98465498     20.174575      38.764632    
     47000   0.98928835     19.622513      38.728345    
     48000   1.0111843      20.516417      38.514767    
     49000   1.0199215      20.015421      38.441317    
     50000   0.95852368     20.072401      38.068985    
     51000   0.97685082     20.630492      38.173738    
     52000   1.011777       20.347911      38.050023    
     53000   1.0097661      20.583452      37.809194    
     54000   0.97891512     20.641513      37.414104    
     55000   1.0467189      20.610048      37.232132    
     56000   0.9898385      20.471678      37.25629     
     57000   0.99894716     20.188761      37.187625    
     58000   0.98739029     20.350119      36.850642    
     59000   0.96200264     20.599518      36.597914    
     60000   0.99802599     20.210281      36.633566    
     61000   0.97135327     19.94894       36.427652    
     62000   1.0326155      20.778077      36.567969    
     63000   0.94032802     20.41604       36.696776    
     64000   1.0121222      20.104086      36.914243    
     65000   1.0313247      20.870411      36.916845    
     66000   1.0403693      20.603348      36.744348    
     67000   0.98687517     20.26957       36.819397    
     68000   0.97726401     20.768212      36.827208    
     69000   0.98132686     19.875936      36.875536    
     70000   1.0491316      20.81683       36.586459    
     71000   1.0154753      20.971193      36.780278    
     72000   0.96490848     20.740099      36.585402    
     73000   0.94826603     20.546579      36.844091    
     74000   1.0015729      20.954642      36.769801    
     75000   1.034659       20.60875       36.776029    
     76000   0.97797945     20.328881      36.472336    
     77000   1.0227498      19.946763      36.50398     
     78000   0.96395525     20.384022      36.265943    
     79000   0.98597579     20.404361      36.239677    
     80000   1.03154        19.981311      35.931504    
     81000   1.0178168      20.519494      35.888236    
     82000   1.0794273      20.746374      35.771537    
     83000   0.99979888     20.576209      35.425113    
     84000   0.96119634     20.544541      35.223657    
     85000   1.0255044      20.934122      35.059645    
     86000   1.0324028      20.809314      35.015446    
     87000   0.95523771     20.204067      34.939043    
     88000   1.0140483      20.662853      34.791762    
     89000   0.97426599     20.483832      34.66832     
     90000   0.9622387      20.738886      34.399466    
     91000   1.0007157      20.64759       34.273068    
     92000   1.0572302      20.566936      34.216061    
     93000   1.0330718      20.7865        34.117197    
     94000   1.0491231      20.954155      34.046817    
     95000   1.0381366      20.524655      34.08766     
     96000   0.94413695     19.724156      33.728934    
     97000   1.0306777      21.111929      33.592725    
     98000   1.037716       20.984519      33.380197    
     99000   1.0195703      20.322793      33.464833    
    100000   0.97297965     20.095641      33.123061    
Loop time of 465.539 on 2 procs for 100000 steps with 601 atoms

Performance: 185591.146 tau/day, 214.805 timesteps/s
101.4% CPU use with 1 MPI tasks x 2 OpenMP threads

MPI task timing breakdown:
Section |  min time  |  avg time  |  max time  |%varavg| %total
---------------------------------------------------------------
Pair    | 0.81622    | 0.81622    | 0.81622    |   0.0 |  0.18
Bond    | 1.2735     | 1.2735     | 1.2735     |   0.0 |  0.27
Neigh   | 460.23     | 460.23     | 460.23     |   0.0 | 98.86
Comm    | 0.027846   | 0.027846   | 0.027846   |   0.0 |  0.01
Output  | 0.20619    | 0.20619    | 0.20619    |   0.0 |  0.04
Modify  | 2.7608     | 2.7608     | 2.7608     |   0.0 |  0.59
Other   |            | 0.2267     |            |       |  0.05

Nlocal:            601 ave         601 max         601 min
Histogram: 1 0 0 0 0 0 0 0 0 0
Nghost:              0 ave           0 max           0 min
Histogram: 1 0 0 0 0 0 0 0 0 0
Neighs:           5370 ave        5370 max        5370 min
Histogram: 1 0 0 0 0 0 0 0 0 0

Total # of neighbors = 5370
Ave neighs/atom = 8.9351082
Ave special neighs/atom = 1.9966722
Neighbor list builds = 1129
Dangerous builds = 0

# Replace lj potential, now collapse
pair_style      lj/cut 3

# Cutoff simul when gyration under 10
# Variable created with equal requires v_ + 'name'
fix 3 all halt 1000 v_rog < 7

run 3000000
Generated 0 of 0 mixed pair_coeff terms from geometric mixing rule
Last active /omp style is angle_style cosine/omp
Per MPI rank memory allocation (min/avg/max) = 1861 | 1861 | 1861 Mbytes
   Step          Temp         Enthalpy         c_1      
    100000   0.97297965     19.26298       33.123061    
    101000   1.0142758      19.657881      32.705074    
    102000   0.97056478     19.253723      32.44565     
    103000   0.98619527     19.001638      32.039372    
    104000   1.006709       19.269809      31.660586    
    105000   0.98434208     18.271655      31.40068     
    106000   0.99865494     18.628354      31.068547    
    107000   1.0460951      18.224154      30.45054     
    108000   1.0619961      19.240236      30.35523     
    109000   1.0007081      18.4631        30.004824    
    110000   1.0285681      18.994701      29.923122    
    111000   0.99511387     18.54396       29.620388    
    112000   0.98755256     18.040511      29.540525    
    113000   1.0260064      18.713947      29.306605    
    114000   0.95678185     18.24597       28.942919    
    115000   0.95735921     18.598385      28.604872    
    116000   0.9994991      17.849118      28.200388    
    117000   1.0592903      18.312027      27.744309    
    118000   1.0133868      18.205967      27.540165    
    119000   0.97526342     18.199651      27.271897    
    120000   1.0420826      18.086465      27.071003    
    121000   1.0256854      18.04332       27.007561    
    122000   0.96029022     18.175123      26.661269    
    123000   1.0015156      17.844562      26.709428    
    124000   1.0514355      17.922657      26.878609    
    125000   1.0046399      17.733033      26.681674    
    126000   1.0233245      17.73818       26.558804    
    127000   0.98794412     17.915387      26.620825    
    128000   1.0476252      17.71891       26.659715    
    129000   0.9838505      17.905468      26.396739    
    130000   1.0063598      17.855135      26.353294    
    131000   1.0211547      18.090238      26.265362    
    132000   1.0005397      18.765812      26.201235    
    133000   1.0260843      18.170627      25.891384    
    134000   1.0104893      16.654103      25.827076    
    135000   0.9808577      17.91481       25.821649    
    136000   0.94916776     18.157087      25.597633    
    137000   0.97826661     17.069361      25.704876    
    138000   1.0236762      17.763865      25.687549    
    139000   0.98028544     17.34396       25.66964     
    140000   1.0139219      17.397212      25.422571    
    141000   0.98223589     18.431376      25.692734    
    142000   0.96359149     17.961759      25.737644    
    143000   0.99310589     18.147994      25.711866    
    144000   0.98968188     17.14969       25.816433    
    145000   1.0327123      17.676206      25.564828    
    146000   1.0090332      17.420155      25.413381    
    147000   1.0255189      17.407701      25.264268    
    148000   0.98991839     17.457676      24.963513    
    149000   0.98982908     17.772354      25.081759    
    150000   1.0173043      18.235627      24.997399    
    151000   1.0049431      17.260854      24.944167    
    152000   1.043118       17.904946      24.632764    
    153000   1.0432509      17.320496      24.244293    
    154000   0.92907328     17.965716      24.083544    
    155000   0.96831708     17.518587      24.12049     
    156000   1.0091785      17.531115      23.966019    
    157000   0.96238061     17.978585      23.824695    
    158000   1.0207169      17.587655      23.818999    
    159000   1.0194216      17.880947      23.700745    
    160000   1.052355       17.654275      23.586746    
    161000   0.9532393      17.647165      23.75327     
    162000   1.0022373      17.456686      23.757783    
    163000   0.96008497     18.136764      23.449314    
    164000   1.0080842      17.585807      23.361403    
    165000   0.99484373     17.768464      23.241045    
    166000   1.0429297      17.712051      23.108135    
    167000   1.0663349      17.876093      22.808782    
    168000   1.0574666      18.287541      22.699947    
    169000   1.0299515      18.070485      22.283458    
    170000   1.0115443      18.050504      22.54003     
    171000   1.066749       17.96871       22.515393    
    172000   0.98500988     17.840901      22.233564    
    173000   1.0259001      17.782127      22.442196    
    174000   1.029786       17.769816      22.366012    
    175000   0.97541486     17.458378      22.0037      
    176000   1.0042747      18.265066      21.875103    
    177000   1.0369878      17.760877      21.775607    
    178000   1.0227513      18.593016      21.714317    
    179000   0.9591861      18.48704       21.391252    
    180000   1.0046077      18.363054      21.193651    
    181000   0.97875464     17.595447      20.991717    
    182000   0.99952262     18.399198      21.238263    
    183000   1.015376       18.141757      21.568831    
    184000   1.0172541      18.389309      21.625107    
    185000   0.99189134     17.793376      21.592865    
    186000   1.0374581      17.774751      21.26588     
    187000   1.0075162      17.770221      21.219593    
    188000   1.0094006      17.338767      21.403535    
    189000   0.92029587     17.307973      21.270942    
    190000   1.0742584      17.971252      21.170405    
    191000   0.98075074     17.385583      20.985898    
    192000   1.0546721      18.086217      21.01017     
    193000   1.0326226      17.048887      21.000153    
    194000   1.000538       17.386256      21.104079    
    195000   1.0164761      17.789467      20.837171    
    196000   0.97098389     17.69754       20.835974    
    197000   1.0319576      17.684104      20.948702    
    198000   0.98277405     17.136827      20.993079    
    199000   1.0211944      17.288324      20.778937    
    200000   1.0006443      17.552043      20.826115    
    201000   1.0387513      17.480038      21.130137    
    202000   0.97132727     18.267437      20.645617    
    203000   0.98502769     17.526348      20.30779     
    204000   1.0103104      17.389799      19.946081    
    205000   1.112181       17.780153      19.793123    
    206000   1.101523       18.136567      20.027696    
    207000   0.98864649     17.738072      19.620391    
    208000   1.0579133      18.148848      19.574723    
    209000   1.0278899      17.025992      19.3999      
    210000   0.96259963     17.198266      19.052242    
    211000   0.95420516     17.559717      19.003534    
    212000   0.99718257     17.504807      18.830036    
    213000   1.0243069      17.288883      18.60437     
    214000   1.011919       17.323191      18.740433    
    215000   0.9932325      17.988765      18.830564    
    216000   1.0440138      16.667918      18.671299    
    217000   1.0173667      18.362431      18.697227    
    218000   1.0102334      17.495392      18.649729    
    219000   1.0099723      17.129351      18.481146    
    220000   1.0500044      17.898339      18.30455     
    221000   0.95587256     16.958314      18.06804     
    222000   0.99567824     18.313157      17.790677    
    223000   1.0038555      18.026768      17.446984    
    224000   0.95436236     17.773525      17.341303    
    225000   0.98119535     17.352479      17.30056     
    226000   0.97357964     17.476682      16.872237    
    227000   1.0242511      18.151637      16.590677    
    228000   1.0074721      18.47619       16.455808    
    229000   1.0430837      17.990241      16.312096    
    230000   1.0321039      17.470384      16.346028    
    231000   1.0191641      17.862908      16.252912    
    232000   0.95086534     17.320598      16.254998    
    233000   1.0101941      17.891699      16.258873    
    234000   0.98211192     17.624563      16.188251    
    235000   1.079254       17.926802      16.152258    
    236000   1.0388284      17.785768      15.88552     
    237000   0.96170202     17.420434      15.753182    
    238000   0.99151252     17.666616      15.82728     
    239000   1.0507784      18.254335      15.645706    
    240000   0.99806298     17.103756      15.360268    
    241000   0.99666057     18.434635      15.216157    
    242000   1.0362935      18.004662      15.106719    
    243000   0.99695895     18.012341      14.66558     
    244000   1.0165057      17.221332      14.575949    
    245000   0.99208301     17.989517      14.588442    
    246000   1.0265966      18.110128      14.330896    
    247000   0.99323004     17.365015      14.354586    
    248000   0.98211435     18.271025      14.46703     
    249000   1.0174263      18.027267      14.452704    
    250000   0.99856154     17.072694      14.392218    
    251000   0.99144484     17.453151      14.0483      
    252000   0.937003       17.02382       13.871788    
    253000   0.988331       16.797134      13.663284    
    254000   0.9291733      17.335601      13.487994    
    255000   1.0006363      18.144197      13.249371    
    256000   1.0042285      17.132047      13.427374    
    257000   1.0093915      17.325581      13.342888    
    258000   1.0380493      17.444548      13.381496    
    259000   1.010644       17.053505      13.48923     
    260000   1.0439347      16.962179      13.441241    
    261000   1.0177276      17.595738      13.26932     
    262000   1.0086541      18.26394       13.250292    
    263000   0.97199044     17.383099      13.071977    
    264000   1.0783693      18.462508      12.793107    
    265000   0.97972892     18.041503      12.557416    
    266000   0.99512088     17.259594      12.644226    
    267000   1.0370407      17.810897      12.373796    
    268000   1.0003072      17.624105      12.332045    
    269000   1.0227008      17.908091      12.123843    
    270000   0.97150361     17.429784      11.946878    
    271000   1.0121568      17.744034      11.844501    
    272000   0.9481658      17.621619      11.78868     
    273000   1.0087604      17.629955      11.744162    
    274000   0.97221599     17.189076      11.547121    
    275000   1.0071234      17.473511      11.320999    
    276000   1.0065936      17.880715      10.967785    
    277000   1.0096765      17.542511      10.919015    
    278000   0.95735669     17.037099      10.814979    
    279000   0.95305013     17.50888       10.826266    
    280000   1.026047       17.723663      10.43977     
    281000   0.97405326     17.029786      10.059737    
    282000   1.0069876      16.921451      10.347925    
    283000   0.97849998     17.337107      10.356578    
    284000   1.0465926      17.629013      10.224998    
    285000   0.92506815     16.205771      10.008711    
    286000   1.0252211      17.171762      9.8517368    
    287000   1.0302325      17.285103      9.5774731    
    288000   0.94963466     16.569722      9.5724796    
    289000   1.0487008      18.025586      9.4451322    
    290000   1.0407303      17.001387      9.5564001    
    291000   1.0426536      16.693894      9.7348213    
    292000   1.0244291      17.72301       9.6819527    
    293000   1.0506229      17.424614      9.3795676    
    294000   0.96330236     17.716195      9.2327142    
    295000   1.0306936      17.762385      9.0727464    
    296000   1.0355736      17.911898      8.7730999    
    297000   1.0381356      17.411639      8.5605394    
    298000   0.98821643     17.314258      8.439045     
    299000   1.0229343      16.767996      7.9847902    
    300000   1.0072003      17.756387      8.0152062    
    301000   1.0375945      17.389692      7.5238373    
    302000   1.0449155      17.656217      7.1387303    
Fix halt condition for fix-id 3 met on step 303000 with value 6.971856174780746 (src/fix_halt.cpp:237)
    303000   1.0002472      16.699599      6.9718562    
Loop time of 302.947 on 2 procs for 203000 steps with 601 atoms

Performance: 578953.500 tau/day, 670.085 timesteps/s
114.2% CPU use with 1 MPI tasks x 2 OpenMP threads

MPI task timing breakdown:
Section |  min time  |  avg time  |  max time  |%varavg| %total
---------------------------------------------------------------
Pair    | 31.065     | 31.065     | 31.065     |   0.0 | 10.25
Bond    | 2.8718     | 2.8718     | 2.8718     |   0.0 |  0.95
Neigh   | 262.01     | 262.01     | 262.01     |   0.0 | 86.49
Comm    | 0.056572   | 0.056572   | 0.056572   |   0.0 |  0.02
Output  | 0.45264    | 0.45264    | 0.45264    |   0.0 |  0.15
Modify  | 5.9783     | 5.9783     | 5.9783     |   0.0 |  1.97
Other   |            | 0.515      |            |       |  0.17

Nlocal:            601 ave         601 max         601 min
Histogram: 1 0 0 0 0 0 0 0 0 0
Nghost:              0 ave           0 max           0 min
Histogram: 1 0 0 0 0 0 0 0 0 0
Neighs:          85362 ave       85362 max       85362 min
Histogram: 1 0 0 0 0 0 0 0 0 0

Total # of neighbors = 85362
Ave neighs/atom = 142.03328
Ave special neighs/atom = 1.9966722
Neighbor list builds = 1629
Dangerous builds = 0

# This simulation is done
# Move onto the next one
clear
  using 2 OpenMP thread(s) per MPI task
package omp 0
using multi-threaded neighbor list subroutines
next f
jump SELF

###
# Reference paper:
# K. Kremer and G. S. Grest
# Dynamics of entangled linear polymer melts: A molecular-dynamics simulation
# J Chem Phys 92, 5057 (1990)

##################################
# MIHIR: for branched polymers
# LJ minimum first to expand and explore, then collapse
###

###
# Looping through the various nuc3branch4 polymers to simulate,
# define variables to switch through
variable f index bb40nuc3bl10bn4d30tot100 bb80nuc3bl20bn4d30tot200 bb120nuc3bl30bn4d30tot300 bb160nuc3bl40bn4d30tot400 bb200nuc3bl50bn4d30tot500 bb240nuc3bl60bn4d30tot600 bb280nuc3bl70bn4d30tot700 bb320nuc3bl80bn4d30tot800 bb360nuc3bl90bn4d30tot900 bb400nuc3bl100bn4d30tot1000 bb440nuc3bl110bn4d30tot1100 bb480nuc3bl120bn4d30tot1200
###


###
# Box and units  (use LJ units and periodic boundaries)
###

units lj
log nuc3branch4/logs2/$f.log
log nuc3branch4/logs2/bb280nuc3bl70bn4d30tot700.log
