#atom_style bond #no stiffness
atom_style angle #with stiffness

boundary        p p p
###
# Pair interactions require lists of neighbours to be calculated
###

#neighbor 0.3 bin
neighbor 4 bin

neigh_modify every 1 delay 1 check yes
atom_modify sort 0 0
### Generate RESTART file, SPECIAL format, not a .txt file ###
### Useful if simulation crashes ###

restart 1000000 nuc3branch4/restarts2/$f.restart
restart 1000000 nuc3branch4/restarts2/bb360nuc3bl90bn4d30tot900.restart
#############################



### READ "start" data file ###

read_data nuc3branch4/$f.dat
read_data nuc3branch4/bb360nuc3bl90bn4d30tot900.dat
Reading data file ...
  orthogonal box = (-1000 -1000 -1000) to (1000 1000 1000)
  1 by 1 by 1 MPI processor grid
  reading atoms ...
  901 atoms
  scanning bonds ...
  3 = max bonds/atom
  scanning angles ...
  6 = max angles/atom
  reading bonds ...
  900 bonds
  reading angles ...
  908 angles
Finding 1-2 1-3 1-4 neighbors ...
  special bond factors lj:    0        0        0       
  special bond factors coul:  0        0        0       
     4 = max # of 1-2 neighbors
     4 = max # of 1-3 neighbors
     8 = max # of 1-4 neighbors
    12 = max # of special neighbors
  special bonds CPU = 0.001 seconds
  read_data CPU = 0.081 seconds

######################

### READ "REstart" data file ###

######################



###
# Define groups (atom type 1 is group 'all')
###
group all type 1
901 atoms in group all


###
# Dump configs - "simple dumpings"
###

###
# Dump configs + box coords
###

dump   1   all   custom   1000  nuc3branch4/trjs2/$f.lammpstrj  id  x y z  ix iy iz
dump   1   all   custom   1000  nuc3branch4/trjs2/bb360nuc3bl90bn4d30tot900.lammpstrj  id  x y z  ix iy iz
dump_modify   1   format line "%d %.5f %.5f %.5f %d %d %d"

########################################################################


###################################################################
# Stiffness term
#
# E = K * (1+cos(theta)), K>0
#
angle_style   cosine
#change this coefficient to change stiffness (e.g. 1,5,10)
angle_coeff   1 1.0
###################################################################

###################################################################
# Pair interaction between non-bonded atoms
#
#  Lennard-Jones 12-6 potential with cutoff:
#  potential E=4epsilon[ (sigma/r)^12 - (sigma/r)^6]  for r<r_cut
#
#  1.12246 = 2^(1/6) is the minimum of the potential


pair_style      lj/cut 1.12246152962189
#pair_style      lj/cut 3

#
#  pair_modify shift yes adds a constant to the potential such

#  that E(r_cut)=0. Forces remains unchanged.
#

pair_modify     shift yes

#
#  pair_coeff for lj/cut, specify 4:
#    * atom type interacting with
#    * atom type
#    * epsilon (energy units)
#    * sigma (distance units)
#

pair_coeff      1 1 1.0 1.0
###################################################################

###################################################################
# Pair interaction between non-bonded atoms
#
#  soft potential, for PUSHING apart overlapping atoms
#  potential E=A*(1 + cos(pi*r/r_c))
#
#  1.12246 = 2^(1/6) is the cut-off r_c

#pair_style     soft 1.12246152962189

#
#  pair_coeff for soft, specify 3:
#    * atom type interacting with
#    * atom type
#    * A
#
#

#pair_coeff      1 1 100.0
###################################################################

###################################################################
# Pair interaction between bonded atoms
#
# Fene potential + Lennard Jones 12-6:

#
#  E= - 0.5 K R0^2 ln[ 1- (r/R0)^2]
#     + 4epsilon[ (sigma/r)^12 - (sigma/r)^6] + epsilon
#

bond_style   fene


#
# For style fene, specify:
#   * bond type
#   * K (energy/distance^2)
#   * R0 (distance)
#   * epsilon (energy)  (LJ component)
#   * sigma (distance)  (LJ component)
#


special_bonds fene #<=== I M P O R T A N T (new command)
Finding 1-2 1-3 1-4 neighbors ...
  special bond factors lj:    0        1        1       
  special bond factors coul:  0        1        1       
     4 = max # of 1-2 neighbors
    12 = max # of special neighbors
  special bonds CPU = 0.000 seconds

bond_coeff   1   30   2   1.0   1.0


###################################################

###################################################################
# Pair interaction between bonded atoms
#
# Harmonic potential:
#
#  E= K * (R-R0)^2
#

#bond_style   harmonic

#
# For style harmonic, specify:
#   * bond type
#   * K (energy/distance^2)
#   * R0 (distance)
#

#bond_coeff   1   60.0   1.0
#bond_coeff   2   harmonic 0.1   1.0

###################################################
compute 1 all gyration
variable rog equal c_1
#compute 2 all coord/atom cutoff 1.1

#dump 2 all custom 10000 contact_number.dump id c_2


###
# Set up fixes
###
thermo_style   custom   step  temp enthalpy c_1
fix 1 all nve   ###NVE ensemble

fix 2 all   langevin   1.0 1.0 1.0  778655   ###Langevin integrator Tstart Tstop 1/friction rndseed


##### Sample thermodynamic info  (temperature, energy, pressure, etc.) #####
thermo 1000









############################################################################

###
# set timestep of integrator

timestep 0.01

###
# run integration for a number of steps
###
#run 0
#variable r equal c_1
#if "$r < 63.1" then "quit 1"

# lj potential minimum, cause molecule to explore
run 100000
Generated 0 of 0 mixed pair_coeff terms from geometric mixing rule
Last active /omp style is angle_style cosine/omp
Neighbor list info ...
  update: every = 1 steps, delay = 1 steps, check = yes
  max neighbors/atom: 2000, page size: 100000
  master list distance cutoff = 5.1224615
  ghost atom cutoff = 5.1224615
  binsize = 2.5612308, bins = 781 781 781
  1 neighbor lists, perpetual/occasional/extra = 1 0 0
  (1) pair lj/cut/omp, perpetual
      attributes: half, newton on, omp
      pair build: half/bin/newton/omp
      stencil: half/bin/3d
      bin: standard
WARNING: Communication cutoff 5.12246152962189 is shorter than a bond length based estimate of 5.455. This may lead to errors. (src/comm.cpp:723)
Per MPI rank memory allocation (min/avg/max) = 1862 | 1862 | 1862 Mbytes
   Step          Temp         Enthalpy         c_1      
         0   0              13.257249      76.91073     
      1000   0.98537022     18.347127      75.897979    
      2000   1.0374949      18.644197      75.088338    
      3000   0.98924416     18.503235      74.402308    
      4000   1.0158517      18.61571       74.0704      
      5000   0.93235805     19.374135      73.45692     
      6000   1.0106079      19.172893      72.862861    
      7000   1.0065225      19.968067      72.428207    
      8000   1.0790533      19.996233      71.688457    
      9000   1.0414317      19.756021      71.327251    
     10000   1.0358326      19.989855      70.928875    
     11000   0.97338693     19.694032      70.605688    
     12000   0.98386325     19.743706      69.97587     
     13000   1.0113262      19.697417      69.665557    
     14000   1.0125342      19.631252      69.501696    
     15000   0.97695999     19.555057      69.089395    
     16000   0.99579485     19.796227      69.022042    
     17000   1.0070877      19.908784      68.539494    
     18000   1.0189241      19.949874      68.431383    
     19000   1.006012       20.250885      68.275523    
     20000   1.0213782      19.62323       68.044259    
     21000   0.97021371     19.777449      67.943719    
     22000   0.99537451     20.443511      68.021824    
     23000   1.0073908      19.961039      67.690697    
     24000   1.0200243      19.848817      67.484955    
     25000   0.95712869     20.064405      67.302551    
     26000   1.009948       20.382768      67.055422    
     27000   0.98079673     19.895699      67.073015    
     28000   1.0071953      20.238707      66.798684    
     29000   0.96695956     20.033774      66.635497    
     30000   1.0301169      20.379676      66.474266    
     31000   1.0015439      19.932677      66.293613    
     32000   0.98415706     20.202968      66.030664    
     33000   0.99208502     20.314403      65.945565    
     34000   0.99516069     20.043004      65.933467    
     35000   0.97094448     19.716236      66.034642    
     36000   0.99638136     20.366866      65.831875    
     37000   1.0105029      20.87439       65.526222    
     38000   1.0149629      20.222153      65.570151    
     39000   0.99580003     20.387996      65.541497    
     40000   0.9916349      20.334756      65.437691    
     41000   1.0155734      20.061869      65.313657    
     42000   0.95481553     19.837353      65.340974    
     43000   0.98924317     19.873822      65.270707    
     44000   1.0102792      20.027717      64.757618    
     45000   1.0196192      20.726654      64.435065    
     46000   1.0621377      21.00201       64.349839    
     47000   1.0473277      20.699618      64.125463    
     48000   1.0143814      20.100702      63.992649    
     49000   1.0227413      20.001933      63.887652    
     50000   1.0293926      20.499053      63.708621    
     51000   1.002119       20.664967      63.91653     
     52000   1.0023937      20.348396      63.624632    
     53000   0.97468196     20.445379      63.347698    
     54000   1.0359254      20.889062      63.196181    
     55000   1.0115675      20.395933      63.228799    
     56000   0.98026794     20.703351      62.957608    
     57000   0.98746781     20.283591      62.788787    
     58000   0.98547658     20.393774      62.736429    
     59000   1.0339108      20.608892      62.521537    
     60000   0.97893934     20.373067      62.355896    
     61000   1.0231023      20.567709      62.348332    
     62000   0.99296309     20.534246      62.04592     
     63000   1.0080426      20.097049      61.981256    
     64000   0.99659014     20.676494      61.953912    
     65000   1.004969       20.583462      61.838531    
     66000   1.0403456      20.104337      61.618536    
     67000   0.97913089     19.925716      61.532462    
     68000   0.96641767     19.892762      61.391452    
     69000   0.99466514     20.460029      61.470272    
     70000   0.99070503     20.285427      61.420672    
     71000   0.97235088     19.973799      61.285562    
     72000   1.0236241      20.383207      61.304163    
     73000   0.95797421     20.34548       61.223157    
     74000   0.98917834     20.184592      61.211901    
     75000   1.0092132      19.816055      61.146189    
     76000   0.99683621     20.362364      60.991757    
     77000   1.0265126      20.535588      60.925245    
     78000   1.0036099      20.203656      60.792013    
     79000   0.99495253     20.217675      60.529399    
     80000   0.97309025     20.087604      60.223513    
     81000   1.007418       20.321794      60.141474    
     82000   0.99961899     20.300623      60.171835    
     83000   0.97188583     20.133577      60.083318    
     84000   1.0131883      20.365649      60.336414    
     85000   0.95956533     20.384888      60.265113    
     86000   1.0021266      20.113584      60.169812    
     87000   1.0296535      20.634404      59.865715    
     88000   0.99874338     20.113419      59.876296    
     89000   1.0101247      21.026509      59.689021    
     90000   1.0218498      20.07428       59.663068    
     91000   0.98564824     20.746805      59.447473    
     92000   0.97175949     19.96644       59.139917    
     93000   0.99602588     20.78978       58.881712    
     94000   1.0134201      20.531388      58.70688     
     95000   0.98357289     19.840054      58.64243     
     96000   1.0289275      20.285645      58.560556    
     97000   0.98355705     20.220001      58.566334    
     98000   1.0285984      20.383115      58.584642    
     99000   0.96534329     20.609219      58.329136    
    100000   1.0401097      20.051787      58.130614    
Loop time of 509.526 on 2 procs for 100000 steps with 901 atoms

Performance: 169569.212 tau/day, 196.261 timesteps/s
101.9% CPU use with 1 MPI tasks x 2 OpenMP threads

MPI task timing breakdown:
Section |  min time  |  avg time  |  max time  |%varavg| %total
---------------------------------------------------------------
Pair    | 1.2024     | 1.2024     | 1.2024     |   0.0 |  0.24
Bond    | 2.0476     | 2.0476     | 2.0476     |   0.0 |  0.40
Neigh   | 501.42     | 501.42     | 501.42     |   0.0 | 98.41
Comm    | 0.037085   | 0.037085   | 0.037085   |   0.0 |  0.01
Output  | 0.27579    | 0.27579    | 0.27579    |   0.0 |  0.05
Modify  | 4.1934     | 4.1934     | 4.1934     |   0.0 |  0.82
Other   |            | 0.3478     |            |       |  0.07

Nlocal:            901 ave         901 max         901 min
Histogram: 1 0 0 0 0 0 0 0 0 0
Nghost:              0 ave           0 max           0 min
Histogram: 1 0 0 0 0 0 0 0 0 0
Neighs:           6856 ave        6856 max        6856 min
Histogram: 1 0 0 0 0 0 0 0 0 0

Total # of neighbors = 6856
Ave neighs/atom = 7.609323
Ave special neighs/atom = 1.9977802
Neighbor list builds = 1144
Dangerous builds = 0

# Replace lj potential, now collapse
pair_style      lj/cut 3

# Cutoff simul when gyration under 10
# Variable created with equal requires v_ + 'name'
fix 3 all halt 1000 v_rog < 7

run 3000000
Generated 0 of 0 mixed pair_coeff terms from geometric mixing rule
Last active /omp style is angle_style cosine/omp
Per MPI rank memory allocation (min/avg/max) = 1862 | 1862 | 1862 Mbytes
   Step          Temp         Enthalpy         c_1      
    100000   1.0401097      19.253103      58.130614    
    101000   1.0209172      19.397165      57.884261    
    102000   0.98044346     19.535525      57.863544    
    103000   1.0340095      19.464593      57.363704    
    104000   1.0340313      19.318157      57.238192    
    105000   1.0075934      19.184367      57.159785    
    106000   1.009609       19.694044      56.774877    
    107000   0.99265051     19.215851      56.652479    
    108000   0.98740838     19.293065      56.651645    
    109000   1.0168588      18.612515      56.435424    
    110000   1.0397873      19.09628       56.424429    
    111000   1.0482674      18.76695       56.38167     
    112000   1.0000237      19.061536      56.264676    
    113000   0.98402757     18.50982       56.033074    
    114000   0.97645676     18.647236      55.818582    
    115000   1.0287578      18.901348      55.438958    
    116000   0.97813352     19.186496      55.047605    
    117000   1.02373        18.813302      55.008383    
    118000   0.96044979     18.425515      54.797105    
    119000   1.0300315      19.013687      54.450792    
    120000   1.0166874      18.672889      54.286011    
    121000   0.98988462     18.878734      54.288186    
    122000   0.99257407     18.961635      53.990652    
    123000   0.99446973     18.786071      53.716983    
    124000   0.97792319     19.132396      53.686336    
    125000   1.0263661      19.268882      53.625362    
    126000   1.0114637      19.503052      53.540918    
    127000   0.96871778     18.603189      53.359668    
    128000   1.0147475      18.558144      53.299609    
    129000   0.96055213     19.258948      53.228799    
    130000   1.0016763      19.300592      53.134092    
    131000   0.95624701     18.890639      53.227853    
    132000   1.0640854      18.351266      53.045195    
    133000   1.0018079      18.598962      52.60035     
    134000   1.0051306      18.492811      52.291049    
    135000   0.9922488      18.418571      52.028106    
    136000   1.0347481      18.635611      51.957898    
    137000   1.0179013      18.431306      51.717637    
    138000   0.98275977     18.76048       51.284903    
    139000   0.96423367     18.670052      51.129087    
    140000   0.98997554     18.1355        51.155391    
    141000   0.98972363     18.261852      51.013857    
    142000   1.001601       18.023183      50.940587    
    143000   0.97458063     18.212962      50.87599     
    144000   1.0186146      18.644492      50.484765    
    145000   0.99475148     18.707018      50.205851    
    146000   1.0496209      18.241083      50.368575    
    147000   0.98790196     18.243748      50.495861    
    148000   1.0480605      18.264462      50.525817    
    149000   1.0651008      17.86423       50.257348    
    150000   0.99534223     18.086965      50.24969     
    151000   0.97296399     18.493005      50.092773    
    152000   1.0102748      18.564801      49.974724    
    153000   1.0056555      18.221713      49.778254    
    154000   1.0141692      17.845926      49.705322    
    155000   1.0399864      18.51714       49.739465    
    156000   1.0222229      18.330339      49.693897    
    157000   0.976964       17.877862      49.549641    
    158000   0.99779135     18.511845      49.784998    
    159000   0.99668892     17.954928      49.721533    
    160000   0.99301604     18.598692      49.627088    
    161000   0.99140953     18.262756      49.397013    
    162000   1.018078       17.832084      49.185665    
    163000   1.0339626      18.721447      48.991372    
    164000   1.04577        18.087         48.964307    
    165000   1.0276288      18.156998      48.681354    
    166000   1.0122754      18.299449      48.433115    
    167000   0.97720997     18.123647      48.192136    
    168000   1.0509863      17.786737      47.991422    
    169000   1.0351864      18.867068      47.823288    
    170000   1.0134041      17.993136      47.670949    
    171000   1.0182769      18.063896      47.358819    
    172000   1.0264597      17.81935       47.139238    
    173000   1.0339092      18.038042      46.980238    
    174000   0.98060517     17.956353      46.771215    
    175000   0.97557357     17.940246      46.540841    
    176000   0.98934295     17.745101      46.606701    
    177000   1.0172317      18.114188      46.298381    
    178000   1.0426172      18.013293      46.203625    
    179000   1.0161022      17.596525      46.022617    
    180000   0.97225925     17.686833      46.060958    
    181000   0.99652354     18.296895      46.149048    
    182000   0.98471219     17.31361       45.865568    
    183000   0.99448046     17.76008       45.717098    
    184000   1.0117448      17.54185       45.874964    
    185000   0.9804989      18.315829      45.73098     
    186000   0.97083056     16.991093      45.471902    
    187000   0.98587174     18.598059      45.312114    
    188000   0.99996471     17.972356      45.474475    
    189000   1.000028       18.029087      45.307331    
    190000   1.0098587      17.914753      45.231402    
    191000   1.009327       17.816252      45.088554    
    192000   0.98972937     17.175837      45.079209    
    193000   1.0093685      18.205168      44.7019      
    194000   1.0458625      18.211401      44.629942    
    195000   1.0385877      18.097126      44.665957    
    196000   1.0139394      18.177345      44.856726    
    197000   0.98957115     17.620095      44.82943     
    198000   0.99002758     17.488806      45.029171    
    199000   1.0666543      18.616666      45.059022    
    200000   0.96962575     18.376765      44.957209    
    201000   0.99790975     18.292151      44.650801    
    202000   1.0043862      17.634555      44.611607    
    203000   1.0208064      18.247414      44.485572    
    204000   0.98968797     17.988217      44.406143    
    205000   1.013264       17.402343      44.488273    
    206000   1.002296       18.473687      44.454562    
    207000   0.99464966     17.631112      44.415713    
    208000   0.98346249     17.546572      44.232825    
    209000   0.99028747     18.057795      44.053129    
    210000   0.99486281     17.86491       43.699067    
    211000   0.98050941     17.78781       43.471141    
    212000   0.98874795     17.675057      43.371301    
    213000   1.0193174      17.800123      43.130266    
    214000   0.9939412      18.015568      43.253047    
    215000   1.0059835      18.13445       43.20029     
    216000   0.98915067     17.714262      43.227489    
    217000   0.97642045     17.105257      43.184369    
    218000   0.99761945     17.745816      43.355345    
    219000   0.99387254     17.648721      43.23086     
    220000   0.93113891     17.551142      43.179918    
    221000   1.0730911      18.047434      43.014937    
    222000   1.0021767      18.019207      42.796887    
    223000   0.9957463      17.801571      42.730913    
    224000   0.97713625     17.714109      42.556569    
    225000   0.97987802     16.860212      42.171022    
    226000   1.0248143      17.938724      42.198864    
    227000   0.9862456      17.096917      41.90447     
    228000   0.99144286     17.084193      41.716904    
    229000   0.97260224     17.336926      41.659063    
    230000   1.0026448      17.549618      41.667461    
    231000   1.0107509      16.773539      41.444271    
    232000   1.0067866      17.289661      41.326035    
    233000   0.98203593     17.573788      41.118221    
    234000   1.0231766      17.601344      41.151059    
    235000   1.0089799      17.654759      40.977233    
    236000   0.98092464     17.602944      40.828187    
    237000   1.0134236      17.933106      40.836622    
    238000   0.966132       17.68535       40.739372    
    239000   1.0215749      17.678463      40.831147    
    240000   0.9852393      18.170155      40.630789    
    241000   1.0811829      17.917475      40.607993    
    242000   1.0086396      17.815394      40.439766    
    243000   0.98168214     17.897094      40.097406    
    244000   0.97562937     17.781479      40.165508    
    245000   1.0064052      18.279844      40.056869    
    246000   0.99171719     17.474309      39.995572    
    247000   0.99528036     17.491395      39.7845      
    248000   0.96706596     18.059218      39.51454     
    249000   0.95899568     17.797056      39.300851    
    250000   0.97415852     18.631794      39.279293    
    251000   0.99691389     17.837507      39.039369    
    252000   1.0129193      18.221755      39.042046    
    253000   1.042234       17.568374      39.079904    
    254000   0.99071555     17.41691       38.605416    
    255000   0.97666806     17.858211      38.32454     
    256000   0.98549853     17.409171      38.346536    
    257000   1.0130495      18.086035      38.086076    
    258000   0.9703687      17.989761      37.886568    
    259000   1.0195419      17.358866      37.59585     
    260000   1.018133       17.624694      37.442935    
    261000   1.0065871      18.26376       37.343231    
    262000   0.96217813     17.723674      37.374565    
    263000   1.0425377      18.301171      36.949877    
    264000   1.0691539      17.750545      36.848978    
    265000   0.99542646     17.609208      36.640203    
    266000   0.99696648     18.043622      36.285688    
    267000   0.98888285     17.706185      36.502749    
    268000   0.99031615     18.149669      36.442371    
    269000   0.97359968     18.297758      36.378098    
    270000   1.0133949      17.549107      36.067836    
    271000   0.99098985     17.930444      36.070683    
    272000   1.0122423      17.60245       35.784242    
    273000   1.0026114      17.737132      35.76201     
    274000   0.98742722     17.105931      35.735053    
    275000   1.0023582      16.987429      35.639941    
    276000   0.99421433     17.779864      35.68175     
    277000   0.98749473     17.345504      35.88199     
    278000   0.99023697     18.123889      35.854425    
    279000   0.99095125     17.869268      35.575072    
    280000   0.98405607     17.86275       35.171156    
    281000   1.0077301      17.619713      34.94623     
    282000   1.0034279      17.842061      34.669239    
    283000   0.960655       17.816539      34.491456    
    284000   1.0298622      17.667698      34.442248    
    285000   1.0167653      17.471597      34.505026    
    286000   0.95105732     17.869655      34.519476    
    287000   1.0049024      17.754477      34.472214    
    288000   1.0238991      17.514065      34.464695    
    289000   1.0372722      18.064426      34.564229    
    290000   0.98227857     17.464382      34.404487    
    291000   0.97337319     17.503543      34.304232    
    292000   0.98147082     17.379019      34.310804    
    293000   0.97189076     17.981967      33.985304    
    294000   0.9892197      17.405084      33.822723    
    295000   1.0546536      18.367034      33.883709    
    296000   0.99834717     18.010892      33.634684    
    297000   0.99367473     17.77106       33.39201     
    298000   0.97307777     16.950538      33.462087    
    299000   1.0068512      17.35602       33.484107    
    300000   1.0074742      17.920609      33.215701    
    301000   0.99220468     17.477363      32.813787    
    302000   1.0089041      17.573806      32.636347    
    303000   1.0225547      17.692554      32.567038    
    304000   1.0351852      18.18546       32.704295    
    305000   0.99349868     17.40525       32.782191    
    306000   0.99394509     17.592131      32.914352    
    307000   0.98066517     17.823713      32.614068    
    308000   1.0061468      17.7593        32.462206    
    309000   0.96325568     18.438773      32.425307    
    310000   0.92978175     17.31623       32.602585    
    311000   0.96169003     17.533613      32.570507    
    312000   1.013233       17.784784      32.436306    
    313000   1.0311931      17.515895      32.380914    
    314000   1.0413026      17.621825      32.116169    
    315000   1.0141467      17.940448      31.850081    
    316000   1.0096927      17.372815      31.83761     
    317000   1.0075312      17.569311      31.783708    
    318000   1.0112523      17.548908      31.484121    
    319000   1.0064009      17.477743      31.579045    
    320000   0.92547412     17.098639      31.608054    
    321000   1.0207064      17.703333      31.487173    
    322000   0.99977123     18.041406      31.44636     
    323000   0.97496379     17.033129      31.670228    
    324000   0.97896251     17.162793      31.771818    
    325000   1.0320222      17.434392      31.792156    
    326000   1.0260903      17.416577      31.83007     
    327000   1.0102216      17.512385      31.794491    
    328000   0.94067569     17.293384      31.944409    
    329000   1.0203731      17.190957      31.997214    
    330000   1.0326006      17.925208      31.736524    
    331000   0.94895877     17.658902      31.659577    
    332000   1.0068658      17.952406      31.442784    
    333000   0.99402477     16.919814      31.005512    
    334000   1.0075522      18.146089      30.674687    
    335000   1.0018684      17.465839      30.596337    
    336000   1.0071107      17.739113      30.475103    
    337000   0.98605829     17.544792      30.486113    
    338000   0.97781693     18.290043      30.406985    
    339000   0.98120895     17.873106      30.453011    
    340000   1.0526299      17.874997      30.460826    
    341000   1.0357814      17.638468      30.541017    
    342000   1.0071863      17.738451      30.597486    
    343000   0.98008088     17.30335       30.485194    
    344000   0.96293031     17.481091      30.436171    
    345000   0.97822409     17.940372      30.522748    
    346000   1.0124764      17.360316      30.410896    
    347000   1.0042386      18.321203      30.372866    
    348000   1.0137303      17.156962      30.216188    
    349000   1.0236807      17.348411      30.319624    
    350000   0.99589682     17.495868      30.186611    
    351000   1.014057       17.914496      30.134091    
    352000   1.0151487      17.419808      30.125869    
    353000   0.94897218     17.509762      30.076616    
    354000   1.0030747      17.391934      29.852596    
    355000   1.0531437      17.410182      29.848544    
    356000   0.9976348      17.955248      30.020705    
    357000   0.99897804     17.697503      30.019926    
    358000   1.037685       17.277151      29.933844    
    359000   1.0697199      18.260058      29.676259    
    360000   0.97832604     17.881411      29.429997    
    361000   1.024          18.10276       29.097102    
    362000   0.98777482     17.642658      29.037315    
    363000   1.0321517      17.180576      29.022663    
    364000   0.96459397     17.228595      28.88015     
    365000   1.0049902      16.791932      28.898795    
    366000   1.0461235      18.071697      28.587532    
    367000   1.0032059      17.402761      28.486254    
    368000   0.93946867     17.259715      28.324069    
    369000   1.048735       17.294734      28.506424    
    370000   0.99621344     17.368262      28.290473    
    371000   1.0048321      17.501528      28.230069    
    372000   1.0030357      18.102945      28.371711    
    373000   0.98503103     17.561222      28.347894    
    374000   0.9868768      18.398382      28.464958    
    375000   1.0269284      18.662585      28.159776    
    376000   1.0055145      17.206509      27.75599     
    377000   0.99260364     17.844691      27.417882    
    378000   0.96979919     17.05795       27.289423    
    379000   0.99886439     16.997652      27.064649    
    380000   1.0306346      17.415416      26.784919    
    381000   1.0284756      17.102839      26.638837    
    382000   0.97531099     17.218643      26.692503    
    383000   1.0398648      17.560355      26.586293    
    384000   1.0099095      17.760557      26.765384    
    385000   0.98635739     17.094891      26.764069    
    386000   1.0350301      17.689996      26.561924    
    387000   0.97074807     18.09468       26.385897    
    388000   0.99442896     17.764122      26.512134    
    389000   1.0253093      17.097306      26.457979    
    390000   1.0170656      17.657001      26.238632    
    391000   0.95602682     17.382479      26.056698    
    392000   1.0114664      17.628619      25.909932    
    393000   0.98822967     17.029846      25.875788    
    394000   1.0921722      17.766259      25.93574     
    395000   1.0165211      17.413451      25.816224    
    396000   0.99985742     17.25549       25.838006    
    397000   0.99328044     17.941524      25.464265    
    398000   1.0115199      17.681473      25.448429    
    399000   1.0465404      17.317635      25.204773    
    400000   0.98891364     17.534967      24.68532     
    401000   0.99859655     18.123262      24.785951    
    402000   1.0217904      17.904184      24.869559    
    403000   0.98981188     17.173583      24.61053     
    404000   1.0019921      17.486168      24.680037    
    405000   0.98356498     17.016772      24.544744    
    406000   1.0330835      17.778723      24.387769    
    407000   1.0115706      17.394844      24.18712     
    408000   0.99989875     17.183671      23.953066    
    409000   0.98334386     16.785344      23.923807    
    410000   0.98939967     17.820026      23.886577    
    411000   0.96001321     17.116482      23.929559    
    412000   1.0165261      16.992849      23.799416    
    413000   1.0568392      17.188475      23.444631    
    414000   1.0097862      17.07164       23.520136    
    415000   0.98500669     17.476433      23.279868    
    416000   1.0258225      17.11632       23.224722    
    417000   1.0022927      17.615443      22.909187    
    418000   0.9457336      17.527747      22.880526    
    419000   0.95598742     17.175058      22.947889    
    420000   0.96400327     18.056371      22.838486    
    421000   1.0066557      17.990801      22.73071     
    422000   1.0372061      17.703712      22.425503    
    423000   0.99873818     17.050043      22.12069     
    424000   1.0362966      17.692801      21.933869    
    425000   1.0178859      17.296432      21.628201    
    426000   1.0480123      18.192483      21.300615    
    427000   1.045781       17.305246      21.270146    
    428000   0.97099484     17.476571      21.077073    
    429000   1.0187952      17.218486      20.872942    
    430000   0.98676103     17.081132      20.995683    
    431000   0.9225353      17.417629      20.91378     
    432000   1.0408391      18.081283      20.973469    
    433000   1.0082504      17.536339      20.929569    
    434000   0.99958557     17.691893      21.014868    
    435000   0.99797956     17.619353      21.008226    
    436000   0.96209813     17.333428      20.822435    
    437000   0.96006724     17.647764      20.522309    
    438000   1.0739451      17.689127      20.073173    
    439000   1.0083976      17.837094      20.001924    
    440000   0.93132463     17.239308      20.080304    
    441000   0.94913711     17.145789      19.910244    
    442000   1.0690028      17.770235      19.979722    
    443000   0.98572203     18.059557      19.667014    
    444000   1.0372988      16.807773      19.358856    
    445000   0.96141133     17.594478      19.316138    
    446000   1.0165586      17.474301      19.527092    
    447000   1.0286441      17.968479      19.503344    
    448000   1.0548271      17.570743      19.370986    
    449000   1.0258675      17.302152      19.407092    
    450000   0.95717073     18.270206      19.115046    
    451000   1.0174177      18.491106      19.08743     
    452000   0.98316309     17.207705      19.128631    
    453000   0.93103649     17.646204      19.079897    
    454000   1.0678855      18.048327      18.834744    
    455000   0.99951692     17.647916      18.772109    
    456000   1.0291071      17.597313      18.767913    
    457000   0.98585826     17.109469      18.683143    
    458000   0.99245432     17.25568       18.750195    
    459000   1.0346094      16.83214       18.801829    
    460000   0.99091093     17.690718      18.529011    
    461000   0.99910488     17.508562      18.330966    
    462000   1.0102884      17.440034      18.234368    
    463000   0.98522756     17.923364      18.255673    
    464000   1.0386531      17.55835       18.194126    
    465000   0.98242204     17.47287       18.005578    
    466000   1.0313038      18.053018      18.243799    
    467000   0.95954463     17.653396      18.451875    
    468000   0.95948487     17.032602      18.439746    
    469000   1.0460569      17.541587      18.546004    
    470000   0.97399924     17.557909      18.415872    
    471000   1.0343469      17.111415      18.214207    
    472000   0.99793126     17.303558      18.10211     
    473000   0.95085383     16.883173      18.175682    
    474000   0.99871078     17.552621      18.243111    
    475000   1.0248312      17.237797      18.170084    
    476000   0.9768176      17.563271      18.267889    
    477000   0.97467594     17.873209      18.153816    
    478000   1.0343946      17.576247      17.864682    
    479000   0.97914239     16.997616      17.781114    
    480000   1.0652428      17.425582      17.86255     
    481000   0.98970619     17.12063       17.968627    
    482000   0.96073748     17.540922      17.599645    
    483000   0.98951385     17.814062      17.652855    
    484000   1.031353       17.162565      17.659806    
    485000   1.0070837      17.47455       17.496775    
    486000   1.0071587      17.868328      17.669762    
    487000   1.0330509      17.388487      17.944559    
    488000   0.98404898     17.518706      18.019534    
    489000   0.98487548     17.432467      17.745984    
    490000   0.98782211     17.1045        17.623602    
    491000   1.0147051      17.326739      17.645237    
    492000   0.98164039     17.994134      17.718358    
    493000   0.97087993     18.046167      17.627625    
    494000   0.95798957     16.722717      17.412274    
    495000   1.06517        17.306685      17.410264    
    496000   0.97238416     17.395768      17.362129    
    497000   1.0368031      17.430911      17.305092    
    498000   1.0261032      17.732503      17.097672    
    499000   1.0075987      16.884748      16.774357    
    500000   0.99294845     17.390956      16.83172     
    501000   0.95460683     16.950919      16.750429    
    502000   1.0325353      18.021036      16.624536    
    503000   0.97451811     17.493255      16.656372    
    504000   1.0086228      16.909595      16.338511    
    505000   1.0307021      18.298268      16.372493    
    506000   1.0036782      17.574094      16.359417    
    507000   1.0218439      16.988199      16.240796    
    508000   0.97203802     17.160755      16.156762    
    509000   1.0212886      17.623445      16.216863    
    510000   0.99518788     17.704949      16.072057    
    511000   0.96096152     17.268231      16.013886    
    512000   1.0351557      17.426738      15.891491    
    513000   1.0092669      17.574576      15.603187    
    514000   1.0220527      17.914526      15.36746     
    515000   0.97900481     17.209746      15.400132    
    516000   1.0326077      17.610316      15.268303    
    517000   0.97750861     17.424895      15.29626     
    518000   0.99034204     17.198885      15.068931    
    519000   0.97161586     17.081166      15.074367    
    520000   1.0268356      17.584125      14.940021    
    521000   1.013419       17.355945      15.07973     
    522000   0.96269204     17.646999      15.228746    
    523000   1.0516835      17.175983      15.239811    
    524000   1.0078322      17.552631      14.758398    
    525000   1.0190966      17.287801      14.730749    
    526000   0.99235033     17.281204      14.699813    
    527000   0.97508715     17.088899      14.530098    
    528000   1.0182402      17.345654      14.648407    
    529000   1.0262347      17.091047      14.319438    
    530000   1.0169357      17.061472      14.25729     
    531000   0.97956759     17.303562      14.32173     
    532000   1.0535212      17.10702       14.205845    
    533000   0.96928657     17.681592      14.145669    
    534000   1.0380324      17.523394      14.14528     
    535000   0.98998147     16.672547      14.324283    
    536000   0.95548723     16.586989      14.219522    
    537000   1.0316357      17.999962      14.177581    
    538000   0.98324076     17.168966      14.179271    
    539000   0.99862781     17.60773       14.220285    
    540000   0.9934744      17.103244      14.403405    
    541000   0.99008234     16.974955      14.65166     
    542000   0.96107967     17.610723      14.732837    
    543000   0.97245253     17.775157      14.618321    
    544000   1.020093       17.504061      14.579126    
    545000   1.0016861      18.100766      14.458468    
    546000   0.95046501     17.352466      14.421312    
    547000   1.0510437      17.750287      14.483367    
    548000   0.97115021     17.402489      14.257178    
    549000   1.0242435      17.825799      13.965502    
    550000   0.96407988     16.91655       13.671718    
    551000   0.98619299     17.595203      13.599115    
    552000   0.94588695     17.277118      13.360404    
    553000   1.0013022      16.96176       13.180941    
    554000   0.98792636     17.374789      13.189071    
    555000   1.0129005      17.440837      13.067731    
    556000   1.0326077      17.66289       12.983202    
    557000   0.97586229     16.72506       12.970299    
    558000   1.0000427      17.44454       13.02863     
    559000   0.98526948     17.314256      13.107422    
    560000   0.99182256     17.010855      13.240562    
    561000   1.0163126      17.27933       13.160891    
    562000   0.98884311     17.35316       13.133762    
    563000   1.0495537      17.735685      13.107672    
    564000   1.0206943      17.651872      13.249318    
    565000   0.97879463     17.538529      13.466024    
    566000   1.0075768      17.385584      13.33619     
    567000   1.0224588      17.855727      13.348081    
    568000   1.0057904      17.50378       13.480653    
    569000   1.0512635      17.916838      12.999463    
    570000   0.98840741     17.414194      12.897037    
    571000   1.0244452      17.738476      12.651255    
    572000   1.0005599      16.943673      12.6336      
    573000   0.99743579     16.96673       12.2307      
    574000   0.99032045     17.060865      12.140995    
    575000   0.99735155     17.007302      12.022165    
    576000   0.99219051     16.37897       11.768985    
    577000   0.97513088     17.639961      11.693875    
    578000   1.0119907      16.894472      11.58196     
    579000   1.0168022      17.301924      11.536495    
    580000   1.0342598      17.620228      11.588914    
    581000   1.0159334      17.080318      11.44474     
    582000   1.0431966      17.248587      11.292738    
    583000   0.993185       17.481805      11.275819    
    584000   1.0322637      17.550771      11.160861    
    585000   1.011118       17.092406      10.802689    
    586000   0.98105772     17.274994      10.624112    
    587000   0.97089886     17.136554      10.675502    
    588000   0.99469642     17.002274      10.403152    
    589000   1.0505694      17.240271      10.244825    
    590000   1.0262641      17.397522      9.9096231    
    591000   1.0079202      17.331322      10.040835    
    592000   0.98174723     17.057063      9.6655393    
    593000   1.0208394      17.137674      9.5666514    
    594000   0.97842505     16.775093      9.6721284    
    595000   1.0249064      16.929279      9.5196864    
    596000   0.99053557     17.120331      9.6436896    
    597000   0.96753118     17.330031      9.2385166    
    598000   0.9870332      17.091577      9.3295726    
    599000   0.97923911     17.124505      9.4092474    
    600000   0.97531673     16.896199      9.2653443    
    601000   0.96971082     17.185821      8.9054878    
    602000   1.0149052      16.785217      8.7263855    
    603000   0.99960796     17.107441      8.7085413    
    604000   1.0092794      17.556267      8.6615655    
    605000   1.0015166      17.417708      8.4146113    
    606000   1.0080012      16.835826      8.2848895    
    607000   0.95999236     17.375801      8.2760928    
    608000   1.0349785      16.262607      8.1341426    
    609000   1.0259895      17.156821      8.043707     
    610000   0.96678229     17.325144      8.0041661    
    611000   0.98726419     17.230543      8.0971423    
    612000   0.96350022     16.942773      8.0468557    
    613000   1.0077269      17.28484       7.7577101    
    614000   0.98611259     17.16539       7.8114708    
    615000   0.985105       16.864176      7.7503117    
    616000   0.98591131     16.687938      7.6708622    
    617000   1.0011799      17.22923       7.6432174    
    618000   1.0430425      16.643646      7.4884284    
    619000   1.0431         17.164942      7.528191     
    620000   1.0009508      17.156021      7.3987076    
    621000   0.9904422      17.128809      7.269094     
    622000   1.0169383      16.817139      7.1718977    
Fix halt condition for fix-id 3 met on step 623000 with value 6.757005281638738 (src/fix_halt.cpp:237)
    623000   0.9614831      16.565079      6.7570053    
Loop time of 860.801 on 2 procs for 523000 steps with 901 atoms

Performance: 524943.549 tau/day, 607.574 timesteps/s
123.3% CPU use with 1 MPI tasks x 2 OpenMP threads

MPI task timing breakdown:
Section |  min time  |  avg time  |  max time  |%varavg| %total
---------------------------------------------------------------
Pair    | 155.55     | 155.55     | 155.55     |   0.0 | 18.07
Bond    | 11.55      | 11.55      | 11.55      |   0.0 |  1.34
Neigh   | 666.7      | 666.7      | 666.7      |   0.0 | 77.45
Comm    | 0.19728    | 0.19728    | 0.19728    |   0.0 |  0.02
Output  | 1.431      | 1.431      | 1.431      |   0.0 |  0.17
Modify  | 23.39      | 23.39      | 23.39      |   0.0 |  2.72
Other   |            | 1.984      |            |       |  0.23

Nlocal:            901 ave         901 max         901 min
Histogram: 1 0 0 0 0 0 0 0 0 0
Nghost:              0 ave           0 max           0 min
Histogram: 1 0 0 0 0 0 0 0 0 0
Neighs:         178418 ave      178418 max      178418 min
Histogram: 1 0 0 0 0 0 0 0 0 0

Total # of neighbors = 178418
Ave neighs/atom = 198.0222
Ave special neighs/atom = 1.9977802
Neighbor list builds = 4417
Dangerous builds = 0

# This simulation is done
# Move onto the next one
clear
  using 2 OpenMP thread(s) per MPI task
package omp 0
using multi-threaded neighbor list subroutines
next f
jump SELF

###
# Reference paper:
# K. Kremer and G. S. Grest
# Dynamics of entangled linear polymer melts: A molecular-dynamics simulation
# J Chem Phys 92, 5057 (1990)

##################################
# MIHIR: for branched polymers
# LJ minimum first to expand and explore, then collapse
###

###
# Looping through the various nuc3branch4 polymers to simulate,
# define variables to switch through
variable f index bb40nuc3bl10bn4d30tot100 bb80nuc3bl20bn4d30tot200 bb120nuc3bl30bn4d30tot300 bb160nuc3bl40bn4d30tot400 bb200nuc3bl50bn4d30tot500 bb240nuc3bl60bn4d30tot600 bb280nuc3bl70bn4d30tot700 bb320nuc3bl80bn4d30tot800 bb360nuc3bl90bn4d30tot900 bb400nuc3bl100bn4d30tot1000 bb440nuc3bl110bn4d30tot1100 bb480nuc3bl120bn4d30tot1200
###


###
# Box and units  (use LJ units and periodic boundaries)
###

units lj
log nuc3branch4/logs2/$f.log
log nuc3branch4/logs2/bb400nuc3bl100bn4d30tot1000.log
