#atom_style bond #no stiffness
atom_style angle #with stiffness

boundary        p p p
###
# Pair interactions require lists of neighbours to be calculated
###

#neighbor 0.3 bin
neighbor 4 bin

neigh_modify every 1 delay 1 check yes
atom_modify sort 0 0
### Generate RESTART file, SPECIAL format, not a .txt file ###
### Useful if simulation crashes ###

restart 1000000 nuc3branch4/restarts2/$f.restart
restart 1000000 nuc3branch4/restarts2/bb280nuc3bl70bn4d30tot700.restart
#############################



### READ "start" data file ###

read_data nuc3branch4/$f.dat
read_data nuc3branch4/bb280nuc3bl70bn4d30tot700.dat
Reading data file ...
  orthogonal box = (-1000 -1000 -1000) to (1000 1000 1000)
  1 by 1 by 1 MPI processor grid
  reading atoms ...
  701 atoms
  scanning bonds ...
  3 = max bonds/atom
  scanning angles ...
  6 = max angles/atom
  reading bonds ...
  700 bonds
  reading angles ...
  708 angles
Finding 1-2 1-3 1-4 neighbors ...
  special bond factors lj:    0        0        0       
  special bond factors coul:  0        0        0       
     4 = max # of 1-2 neighbors
     4 = max # of 1-3 neighbors
     8 = max # of 1-4 neighbors
    12 = max # of special neighbors
  special bonds CPU = 0.000 seconds
  read_data CPU = 0.049 seconds

######################

### READ "REstart" data file ###

######################



###
# Define groups (atom type 1 is group 'all')
###
group all type 1
701 atoms in group all


###
# Dump configs - "simple dumpings"
###

###
# Dump configs + box coords
###

dump   1   all   custom   1000  nuc3branch4/trjs2/$f.lammpstrj  id  x y z  ix iy iz
dump   1   all   custom   1000  nuc3branch4/trjs2/bb280nuc3bl70bn4d30tot700.lammpstrj  id  x y z  ix iy iz
dump_modify   1   format line "%d %.5f %.5f %.5f %d %d %d"

########################################################################


###################################################################
# Stiffness term
#
# E = K * (1+cos(theta)), K>0
#
angle_style   cosine
#change this coefficient to change stiffness (e.g. 1,5,10)
angle_coeff   1 1.0
###################################################################

###################################################################
# Pair interaction between non-bonded atoms
#
#  Lennard-Jones 12-6 potential with cutoff:
#  potential E=4epsilon[ (sigma/r)^12 - (sigma/r)^6]  for r<r_cut
#
#  1.12246 = 2^(1/6) is the minimum of the potential


pair_style      lj/cut 1.12246152962189
#pair_style      lj/cut 3

#
#  pair_modify shift yes adds a constant to the potential such

#  that E(r_cut)=0. Forces remains unchanged.
#

pair_modify     shift yes

#
#  pair_coeff for lj/cut, specify 4:
#    * atom type interacting with
#    * atom type
#    * epsilon (energy units)
#    * sigma (distance units)
#

pair_coeff      1 1 1.0 1.0
###################################################################

###################################################################
# Pair interaction between non-bonded atoms
#
#  soft potential, for PUSHING apart overlapping atoms
#  potential E=A*(1 + cos(pi*r/r_c))
#
#  1.12246 = 2^(1/6) is the cut-off r_c

#pair_style     soft 1.12246152962189

#
#  pair_coeff for soft, specify 3:
#    * atom type interacting with
#    * atom type
#    * A
#
#

#pair_coeff      1 1 100.0
###################################################################

###################################################################
# Pair interaction between bonded atoms
#
# Fene potential + Lennard Jones 12-6:

#
#  E= - 0.5 K R0^2 ln[ 1- (r/R0)^2]
#     + 4epsilon[ (sigma/r)^12 - (sigma/r)^6] + epsilon
#

bond_style   fene


#
# For style fene, specify:
#   * bond type
#   * K (energy/distance^2)
#   * R0 (distance)
#   * epsilon (energy)  (LJ component)
#   * sigma (distance)  (LJ component)
#


special_bonds fene #<=== I M P O R T A N T (new command)
Finding 1-2 1-3 1-4 neighbors ...
  special bond factors lj:    0        1        1       
  special bond factors coul:  0        1        1       
     4 = max # of 1-2 neighbors
    12 = max # of special neighbors
  special bonds CPU = 0.000 seconds

bond_coeff   1   30   2   1.0   1.0


###################################################

###################################################################
# Pair interaction between bonded atoms
#
# Harmonic potential:
#
#  E= K * (R-R0)^2
#

#bond_style   harmonic

#
# For style harmonic, specify:
#   * bond type
#   * K (energy/distance^2)
#   * R0 (distance)
#

#bond_coeff   1   60.0   1.0
#bond_coeff   2   harmonic 0.1   1.0

###################################################
compute 1 all gyration
variable rog equal c_1
#compute 2 all coord/atom cutoff 1.1

#dump 2 all custom 10000 contact_number.dump id c_2


###
# Set up fixes
###
thermo_style   custom   step  temp enthalpy c_1
fix 1 all nve   ###NVE ensemble

fix 2 all   langevin   1.0 1.0 1.0  778655   ###Langevin integrator Tstart Tstop 1/friction rndseed


##### Sample thermodynamic info  (temperature, energy, pressure, etc.) #####
thermo 1000









############################################################################

###
# set timestep of integrator

timestep 0.01

###
# run integration for a number of steps
###
#run 0
#variable r equal c_1
#if "$r < 63.1" then "quit 1"

# lj potential minimum, cause molecule to explore
run 100000
Generated 0 of 0 mixed pair_coeff terms from geometric mixing rule
Last active /omp style is angle_style cosine/omp
Neighbor list info ...
  update: every = 1 steps, delay = 1 steps, check = yes
  max neighbors/atom: 2000, page size: 100000
  master list distance cutoff = 5.1224615
  ghost atom cutoff = 5.1224615
  binsize = 2.5612308, bins = 781 781 781
  1 neighbor lists, perpetual/occasional/extra = 1 0 0
  (1) pair lj/cut/omp, perpetual
      attributes: half, newton on, omp
      pair build: half/bin/newton/omp
      stencil: half/bin/3d
      bin: standard
WARNING: Communication cutoff 5.12246152962189 is shorter than a bond length based estimate of 5.455. This may lead to errors. (src/comm.cpp:723)
Per MPI rank memory allocation (min/avg/max) = 1862 | 1862 | 1862 Mbytes
   Step          Temp         Enthalpy         c_1      
         0   0              13.257882      62.554062    
      1000   1.0237962      18.557325      61.535471    
      2000   1.0175538      19.280414      60.401       
      3000   0.9710775      18.520295      59.710632    
      4000   0.94221698     19.617658      59.074702    
      5000   0.96395381     18.580645      58.31793     
      6000   0.94262055     20.100641      58.191303    
      7000   1.0070832      19.459416      57.751339    
      8000   0.99845954     19.479981      57.459484    
      9000   1.0318108      20.032846      57.019879    
     10000   1.0051618      19.88345       56.762841    
     11000   1.005232       19.470386      56.48269     
     12000   1.0157912      19.873906      56.271845    
     13000   0.98724944     19.589671      55.964589    
     14000   0.97534368     20.394256      55.404356    
     15000   0.99425386     20.356081      54.964304    
     16000   0.96272138     20.389528      54.63457     
     17000   1.0161659      20.008424      54.355549    
     18000   0.98208232     19.711592      53.977789    
     19000   1.0083393      20.341395      53.761273    
     20000   0.94998545     19.825354      53.270329    
     21000   0.98924899     19.732108      52.934503    
     22000   0.99833022     20.512277      52.41394     
     23000   1.0078732      21.209837      52.090778    
     24000   1.0130138      19.97847       52.076896    
     25000   1.0226043      20.40986       52.164015    
     26000   1.0008273      20.735906      52.007366    
     27000   1.0071288      20.101433      51.985739    
     28000   0.97937507     19.948476      51.88656     
     29000   1.0145812      20.259521      51.760016    
     30000   1.0029629      20.082838      51.548756    
     31000   0.98422517     20.671188      51.464025    
     32000   1.008102       20.11479       51.222879    
     33000   1.0329217      19.762945      50.896059    
     34000   1.0441066      20.207558      50.383759    
     35000   1.0198616      20.571601      50.203       
     36000   0.99856297     20.346667      49.93225     
     37000   1.0508563      20.739659      49.75981     
     38000   0.9822451      20.361075      49.536815    
     39000   0.98414139     20.35834       49.569726    
     40000   1.0656276      20.643587      49.468019    
     41000   0.95992559     20.410584      49.341585    
     42000   1.0013429      20.496226      49.025279    
     43000   0.95977927     20.2272        48.947158    
     44000   0.98054096     20.692091      48.872759    
     45000   0.96076993     20.095356      48.545876    
     46000   1.0080292      20.129242      48.51323     
     47000   1.0072024      20.068693      48.352717    
     48000   1.026545       20.427651      48.085486    
     49000   1.0237422      20.126192      48.006022    
     50000   0.97641263     20.701811      47.884282    
     51000   0.97198925     20.040129      47.814761    
     52000   1.040534       20.109476      47.544064    
     53000   0.99325562     20.225802      47.445034    
     54000   0.96929301     20.341282      47.581248    
     55000   1.0357874      20.816772      47.568575    
     56000   1.0077594      20.360605      47.297733    
     57000   1.0767969      20.321539      47.401903    
     58000   1.0249224      20.787732      47.451787    
     59000   0.9954516      19.899157      47.364473    
     60000   1.0305389      20.667878      47.330192    
     61000   0.97343711     20.540151      47.200032    
     62000   1.015482       20.365327      46.902675    
     63000   1.0593522      20.850128      47.118821    
     64000   1.0531907      20.839666      47.181442    
     65000   0.96119009     19.998198      47.030407    
     66000   1.0290135      20.441701      46.799381    
     67000   1.0341936      20.199571      46.83361     
     68000   1.0206483      20.334263      46.85397     
     69000   1.0746563      20.877414      46.648284    
     70000   1.0357847      20.820234      46.524542    
     71000   1.0344519      20.910231      46.293523    
     72000   1.0012468      20.142958      46.194753    
     73000   0.95290721     20.271657      46.277022    
     74000   1.046499       20.723928      46.163331    
     75000   0.95716984     20.369342      45.861638    
     76000   0.99931161     19.461704      46.014012    
     77000   0.98481433     20.61292       45.733683    
     78000   1.0820084      20.645039      45.621742    
     79000   0.97121671     20.415262      45.584246    
     80000   1.0265743      20.838892      45.590193    
     81000   0.96115732     20.162202      45.616272    
     82000   1.059271       20.692225      45.46756     
     83000   1.0228413      20.508461      45.255362    
     84000   0.96083791     20.13381       45.18284     
     85000   0.94097062     20.249635      45.117898    
     86000   1.0409673      20.79946       45.186387    
     87000   0.98221372     20.028889      45.119388    
     88000   1.0155075      20.41099       45.265387    
     89000   1.0447219      20.272041      45.308418    
     90000   1.0315998      20.766794      45.03011     
     91000   1.0088561      20.60953       45.196006    
     92000   1.0298058      20.487309      45.036312    
     93000   1.0316443      21.110811      45.022486    
     94000   1.0132359      20.414651      44.871592    
     95000   1.0075934      20.622224      44.904044    
     96000   0.99114356     20.553497      44.747992    
     97000   1.0178285      20.200169      44.695106    
     98000   0.99256849     20.727918      44.742999    
     99000   1.0072172      20.875121      44.793584    
    100000   0.9404691      20.214594      44.804305    
Loop time of 447.79 on 2 procs for 100000 steps with 701 atoms

Performance: 192947.653 tau/day, 223.319 timesteps/s
101.7% CPU use with 1 MPI tasks x 2 OpenMP threads

MPI task timing breakdown:
Section |  min time  |  avg time  |  max time  |%varavg| %total
---------------------------------------------------------------
Pair    | 0.90582    | 0.90582    | 0.90582    |   0.0 |  0.20
Bond    | 1.4888     | 1.4888     | 1.4888     |   0.0 |  0.33
Neigh   | 441.8      | 441.8      | 441.8      |   0.0 | 98.66
Comm    | 0.028107   | 0.028107   | 0.028107   |   0.0 |  0.01
Output  | 0.22462    | 0.22462    | 0.22462    |   0.0 |  0.05
Modify  | 3.0881     | 3.0881     | 3.0881     |   0.0 |  0.69
Other   |            | 0.2578     |            |       |  0.06

Nlocal:            701 ave         701 max         701 min
Histogram: 1 0 0 0 0 0 0 0 0 0
Nghost:              0 ave           0 max           0 min
Histogram: 1 0 0 0 0 0 0 0 0 0
Neighs:           5876 ave        5876 max        5876 min
Histogram: 1 0 0 0 0 0 0 0 0 0

Total # of neighbors = 5876
Ave neighs/atom = 8.382311
Ave special neighs/atom = 1.9971469
Neighbor list builds = 1138
Dangerous builds = 0

# Replace lj potential, now collapse
pair_style      lj/cut 3

# Cutoff simul when gyration under 10
# Variable created with equal requires v_ + 'name'
fix 3 all halt 1000 v_rog < 7

run 3000000
Generated 0 of 0 mixed pair_coeff terms from geometric mixing rule
Last active /omp style is angle_style cosine/omp
Per MPI rank memory allocation (min/avg/max) = 1862 | 1862 | 1862 Mbytes
   Step          Temp         Enthalpy         c_1      
    100000   0.9404691      19.349296      44.804305    
    101000   1.0511427      20.096626      44.402361    
    102000   0.96431786     19.495427      43.900591    
    103000   1.0513323      19.700232      43.929377    
    104000   0.95876108     19.401569      43.374571    
    105000   1.0644663      19.3279        43.273107    
    106000   0.98525565     18.84592       42.883532    
    107000   1.0911832      19.606238      42.541166    
    108000   0.96852126     18.873114      42.508018    
    109000   1.0539958      20.017033      42.424358    
    110000   1.0172669      18.99333       42.122672    
    111000   1.0091206      19.165473      42.06847     
    112000   0.96236488     18.215379      41.930772    
    113000   1.0414211      18.745341      41.677097    
    114000   1.0033924      18.657817      41.324891    
    115000   1.0249659      18.747775      41.028126    
    116000   0.98720404     18.58197       41.018935    
    117000   1.0018411      18.785034      40.649461    
    118000   1.0004233      18.984604      40.338228    
    119000   0.97070066     17.905038      40.310053    
    120000   0.97073863     18.899097      40.244649    
    121000   0.97002333     18.018562      39.839534    
    122000   0.98854536     18.762937      39.503892    
    123000   0.98317289     18.962769      39.069544    
    124000   1.0293019      19.198075      38.923145    
    125000   0.96814373     17.741475      38.908922    
    126000   0.98252613     18.572421      38.867248    
    127000   1.0315884      18.162636      38.86888     
    128000   1.0367721      18.136445      38.609944    
    129000   0.98872291     18.727994      38.412118    
    130000   0.99358779     17.514257      38.155205    
    131000   0.96468705     17.98775       37.923521    
    132000   1.0258873      18.225388      37.762924    
    133000   1.0047074      17.893411      37.605439    
    134000   0.98501499     18.520124      37.554779    
    135000   0.98184846     17.42337       37.475907    
    136000   0.97851636     17.856251      37.210792    
    137000   1.0350929      18.441662      36.955899    
    138000   0.98889549     17.852429      37.103496    
    139000   0.97967761     17.759518      36.962059    
    140000   0.96127992     17.195909      36.739158    
    141000   1.0066032      17.973813      36.538499    
    142000   1.0197535      18.326899      36.494217    
    143000   1.0047043      17.566654      36.54715     
    144000   0.97974037     17.667094      36.471684    
    145000   1.0168748      18.289848      36.102744    
    146000   0.9785614      18.210673      35.999324    
    147000   1.0146254      17.679716      36.187887    
    148000   0.99557622     18.27364       36.252243    
    149000   0.94327976     17.865468      36.304057    
    150000   0.94886586     18.185338      36.049568    
    151000   0.98317361     18.086746      35.962728    
    152000   1.0587267      18.587345      35.709021    
    153000   0.96063634     17.766351      35.514829    
    154000   1.020591       17.904974      35.853613    
    155000   1.0086397      18.247855      35.620203    
    156000   1.0206571      18.300572      35.498524    
    157000   0.98967503     18.756931      35.172431    
    158000   1.0319978      17.897244      34.957573    
    159000   0.95548116     17.408546      34.783748    
    160000   0.95938258     17.985048      34.732995    
    161000   0.99607301     17.865031      34.966732    
    162000   1.0014583      17.785522      34.980308    
    163000   1.0436277      17.969693      34.988166    
    164000   0.9636773      17.851815      34.938719    
    165000   1.052937       18.019966      34.609306    
    166000   1.032355       17.672272      34.650944    
    167000   1.0164981      17.55687       34.446624    
    168000   0.99444736     18.447887      34.216034    
    169000   1.0306464      17.822495      34.076935    
    170000   0.99099609     17.794716      34.126133    
    171000   1.0211451      17.866654      34.119978    
    172000   1.0484119      18.473398      34.094031    
    173000   1.0155198      17.856602      33.894143    
    174000   1.0007681      17.546094      33.690065    
    175000   0.99598049     18.092449      33.369112    
    176000   1.0466249      17.617235      33.310005    
    177000   0.9612966      16.997255      33.050791    
    178000   0.98581975     17.589651      33.168797    
    179000   1.0097707      17.709735      33.163691    
    180000   1.0243863      18.246644      33.19397     
    181000   1.0144247      18.256551      32.973538    
    182000   0.98141684     17.856889      33.048596    
    183000   1.0205914      17.969647      33.042229    
    184000   0.99937563     17.53461       32.914931    
    185000   1.0212343      17.907531      32.803823    
    186000   0.94836783     17.407401      32.66077     
    187000   0.98507148     18.036456      32.743488    
    188000   0.95622829     17.592699      32.619147    
    189000   1.0110282      17.282789      32.620967    
    190000   1.0869555      18.120265      32.674309    
    191000   1.0006151      18.034274      32.647733    
    192000   1.0305788      17.680008      32.663988    
    193000   1.0365314      17.79695       32.599963    
    194000   0.99847715     18.209238      32.180436    
    195000   0.98582437     18.354469      31.838609    
    196000   1.0369005      17.546141      31.695416    
    197000   1.0100824      18.159227      31.486773    
    198000   0.96355034     17.746394      31.216334    
    199000   1.0036498      18.052562      31.01192     
    200000   0.98046406     17.214311      30.62002     
    201000   1.0488025      18.143027      30.47418     
    202000   0.98759844     17.511192      30.313196    
    203000   0.96833599     17.966366      30.220404    
    204000   1.0526767      18.271643      30.075663    
    205000   0.95518048     17.799072      29.852114    
    206000   0.99260288     17.958348      29.6687      
    207000   1.0041505      17.235401      29.732675    
    208000   1.0074152      18.459867      29.827017    
    209000   0.97866244     17.747421      29.796967    
    210000   0.99438674     17.733758      29.643834    
    211000   1.0207794      17.77871       29.222887    
    212000   0.97647621     17.957101      28.77682     
    213000   1.0168824      18.316542      28.660318    
    214000   1.0244999      18.15734       28.5459      
    215000   0.97891438     18.054276      28.380075    
    216000   0.98885346     18.369059      28.336974    
    217000   0.98702446     18.280154      28.469648    
    218000   1.0634756      17.568113      28.166064    
    219000   1.051845       18.083823      27.879657    
    220000   1.004317       17.646736      27.912296    
    221000   1.0206822      17.805558      27.930865    
    222000   0.99599747     17.642869      27.919093    
    223000   0.992046       17.386586      27.633757    
    224000   1.0054976      17.615543      27.641655    
    225000   0.97004498     17.898327      27.176092    
    226000   1.0279158      18.03992       27.125936    
    227000   1.0129891      16.972615      27.053159    
    228000   1.0201825      17.389065      27.097509    
    229000   1.0693534      17.16024       27.250677    
    230000   1.0064106      17.687092      27.136449    
    231000   0.96513423     17.792596      27.018587    
    232000   0.98557178     17.500826      26.794961    
    233000   1.0171002      17.572645      26.557997    
    234000   1.010179       18.552992      26.381374    
    235000   0.99454556     17.815678      26.436871    
    236000   0.98932819     17.378546      26.297075    
    237000   1.0104107      18.087789      26.072467    
    238000   1.0142915      17.600515      25.792549    
    239000   0.9877282      17.819429      25.743371    
    240000   0.93954688     17.150515      25.542606    
    241000   1.0002515      17.138464      25.493126    
    242000   0.97834967     17.639602      25.262626    
    243000   0.98453267     17.909051      25.12526     
    244000   1.0226936      18.055544      24.851701    
    245000   1.0376317      17.829585      24.567033    
    246000   0.96413386     16.888192      24.570965    
    247000   0.99132808     17.551268      24.393552    
    248000   1.0307598      18.468777      24.306019    
    249000   0.98647056     18.267895      24.099964    
    250000   0.949567       17.538823      24.359793    
    251000   0.97682607     17.957578      24.322001    
    252000   1.0024807      17.996039      24.402607    
    253000   1.0116935      17.350135      24.266166    
    254000   1.0143684      18.029674      24.156619    
    255000   1.11715        17.792819      24.286456    
    256000   1.0181105      17.392071      24.028313    
    257000   1.032785       17.921561      24.221587    
    258000   1.0014893      17.825546      24.124533    
    259000   1.0410703      17.183382      24.135927    
    260000   0.94507302     18.035572      23.989035    
    261000   1.0205388      17.679886      23.913346    
    262000   0.99864103     17.420707      23.916258    
    263000   1.019305       17.947652      23.812052    
    264000   1.0430576      18.116471      23.751479    
    265000   0.97437894     17.627729      23.646826    
    266000   1.0313176      17.815341      23.545347    
    267000   0.97286619     17.088889      23.611539    
    268000   0.94909177     17.613203      23.595618    
    269000   1.0468756      17.667654      23.546096    
    270000   1.036487       17.334883      23.271208    
    271000   0.98839975     16.926993      23.33538     
    272000   0.9903565      17.979654      23.100685    
    273000   1.0536149      18.038185      23.422874    
    274000   1.0127699      17.931193      23.394535    
    275000   1.0007675      17.513624      23.328695    
    276000   1.0013154      18.257808      23.271172    
    277000   0.99656328     17.262828      23.053766    
    278000   0.98541944     17.765509      22.770888    
    279000   1.0105839      17.917721      22.412831    
    280000   1.0180158      17.414245      22.288702    
    281000   1.0297872      17.525623      22.128057    
    282000   0.95224112     18.085078      22.032501    
    283000   0.99010999     16.852607      22.061255    
    284000   1.0086615      17.529274      21.706194    
    285000   0.96159178     17.70674       21.432807    
    286000   0.99548934     17.806796      21.393413    
    287000   1.0671125      18.168466      21.14004     
    288000   0.97443309     17.798757      21.120141    
    289000   0.98396582     16.826845      20.868608    
    290000   1.0512638      18.327053      20.946543    
    291000   0.9548839      17.110692      20.811693    
    292000   1.0071942      18.18082       20.899833    
    293000   1.0037072      18.195868      20.587621    
    294000   1.0230658      17.503196      20.990433    
    295000   0.95114308     17.842202      20.9299      
    296000   1.0041444      17.600314      20.691937    
    297000   0.99995397     17.964781      20.357506    
    298000   0.94265719     17.729553      20.06676     
    299000   1.0093956      18.134823      19.96784     
    300000   1.0647162      18.50024       20.08836     
    301000   1.0652592      18.035534      19.919371    
    302000   1.0268221      17.966498      19.783152    
    303000   0.99976426     17.482434      19.751609    
    304000   0.94939871     17.58975       19.776721    
    305000   0.93278624     17.051         19.840823    
    306000   0.98219762     17.147197      19.695014    
    307000   0.99545188     17.397842      19.504486    
    308000   1.0002488      17.977291      19.08228     
    309000   0.9633365      17.720842      19.196278    
    310000   1.0407491      17.304002      19.240476    
    311000   1.0082202      17.657736      18.926217    
    312000   0.98491948     17.044024      19.040998    
    313000   0.9514787      17.300386      19.070564    
    314000   1.0049053      17.492069      18.895714    
    315000   1.0315816      17.976354      18.961132    
    316000   1.0115948      17.295322      18.768346    
    317000   0.96185129     17.40301       18.581538    
    318000   0.99893638     17.196379      18.401428    
    319000   0.9873379      18.139158      18.476905    
    320000   1.0124483      17.709725      18.587624    
    321000   0.98202342     17.855843      18.559044    
    322000   0.97680254     17.867353      18.591287    
    323000   1.0240631      17.884495      18.444413    
    324000   1.0330456      17.302639      18.305337    
    325000   1.0076206      17.722965      18.271176    
    326000   1.0162136      17.19888       18.093291    
    327000   1.0063538      17.689566      18.152277    
    328000   0.9550903      18.155118      18.144143    
    329000   1.0470775      18.023152      18.141438    
    330000   1.1130201      17.59264       18.049457    
    331000   0.9665639      17.920218      18.131531    
    332000   0.99558635     17.468161      18.153093    
    333000   0.96343636     17.410466      18.080085    
    334000   1.001234       17.824116      17.979072    
    335000   0.99304641     17.069044      18.131881    
    336000   1.0246724      17.322696      18.027414    
    337000   1.0462116      17.20875       17.948472    
    338000   1.0370567      18.183217      18.045521    
    339000   0.94947872     18.255778      17.811819    
    340000   1.0890396      17.646726      17.679992    
    341000   0.99703413     18.398232      17.597827    
    342000   0.97152407     17.944405      17.317732    
    343000   1.0221409      17.905463      17.396663    
    344000   1.0022751      17.07676       17.332726    
    345000   1.0419423      17.61696       17.259105    
    346000   0.97245512     17.728168      17.180913    
    347000   1.0045016      16.929949      16.787216    
    348000   1.0415231      17.494271      16.411895    
    349000   0.99982423     16.803778      16.47089     
    350000   0.99343102     17.462761      16.243619    
    351000   0.97897926     17.71746       16.097026    
    352000   0.94399591     17.023634      15.924755    
    353000   0.97914164     17.911517      16.05359     
    354000   1.0611742      17.399179      15.884041    
    355000   1.0130787      17.162837      15.750836    
    356000   0.98138269     17.6521        15.711976    
    357000   0.98537628     17.259282      15.345634    
    358000   1.0221935      17.326215      15.428593    
    359000   1.0272893      17.584643      15.535282    
    360000   1.0527444      17.529768      15.523641    
    361000   0.98332537     17.788728      15.544987    
    362000   1.0590174      17.262123      15.228654    
    363000   1.0540281      17.864797      15.048988    
    364000   1.0110971      18.021413      14.662379    
    365000   0.99191022     17.56318       14.27685     
    366000   0.96124643     18.222485      13.938909    
    367000   1.0467549      18.061739      13.802506    
    368000   1.0074436      17.122649      13.680966    
    369000   0.98181169     17.576921      13.576016    
    370000   0.9817         17.343108      13.652778    
    371000   1.0471236      17.339116      13.625488    
    372000   0.97629886     16.723951      13.653941    
    373000   1.0176602      17.878385      13.225754    
    374000   1.0199527      17.44419       13.4474      
    375000   1.0204738      17.912434      13.727958    
    376000   0.95572497     17.016606      13.7017      
    377000   0.96584767     16.963387      13.803216    
    378000   1.0285686      17.550412      13.942131    
    379000   0.93678788     17.983667      13.762979    
    380000   1.0422923      17.573152      13.73595     
    381000   1.0628283      17.360203      13.658194    
    382000   1.0005107      17.593117      13.845366    
    383000   0.98239234     17.694968      13.717572    
    384000   0.99973814     17.403299      13.462136    
    385000   1.0087654      17.669646      13.563873    
    386000   0.95233666     16.940531      13.40618     
    387000   1.0229664      17.39611       13.318247    
    388000   0.99292631     17.628761      13.092536    
    389000   1.0354608      17.066704      13.204495    
    390000   0.99642529     17.63436       12.795237    
    391000   0.98279533     17.725758      12.839338    
    392000   1.0216847      18.384606      12.731098    
    393000   1.0388165      17.327261      12.854934    
    394000   1.0048736      17.223342      12.709692    
    395000   1.0658918      17.521013      12.580725    
    396000   0.97941922     17.292079      12.773308    
    397000   0.98432274     16.792095      12.651833    
    398000   0.98784841     17.788591      12.754898    
    399000   1.0418567      17.514386      12.496942    
    400000   0.96646292     17.038998      12.623541    
    401000   1.0144154      18.212469      12.350559    
    402000   0.99072658     17.495561      12.212757    
    403000   1.0128961      18.349068      12.142195    
    404000   1.005385       17.716814      11.996921    
    405000   0.99132572     17.764286      11.958776    
    406000   0.95724138     17.805197      11.713252    
    407000   1.0326551      17.45938       11.762106    
    408000   1.0764556      17.045119      11.404111    
    409000   0.99286302     18.131087      11.327485    
    410000   0.96411201     17.448072      11.315067    
    411000   1.0024437      17.35133       11.20292     
    412000   1.029571       17.451908      11.301935    
    413000   0.96323944     17.094293      11.152999    
    414000   0.99802832     16.909591      11.044068    
    415000   0.98203636     17.286862      10.954114    
    416000   0.94217332     18.018624      10.667157    
    417000   0.98758203     16.5859        10.561906    
    418000   1.0496648      17.656028      10.430996    
    419000   1.0051537      17.711797      10.402105    
    420000   0.99105422     18.261474      10.331198    
    421000   0.98767483     17.29325       10.207459    
    422000   0.96470372     17.084787      10.055658    
    423000   0.99878516     17.376035      9.7738994    
    424000   0.94617475     17.927677      9.5884577    
    425000   0.99180275     16.879501      9.3841809    
    426000   1.0120596      17.267598      9.0966336    
    427000   0.97343787     16.720779      8.7294387    
    428000   1.0149516      17.439634      8.6512191    
    429000   1.050058       17.183646      8.4606708    
    430000   1.0335803      17.611798      8.425739     
    431000   0.95631492     16.999143      8.1290121    
    432000   1.0009096      17.043035      8.0431933    
    433000   1.0122168      17.57784       7.806019     
    434000   1.0202782      17.656567      7.5909325    
    435000   0.99785682     17.236567      7.2979465    
Fix halt condition for fix-id 3 met on step 436000 with value 6.985646195258948 (src/fix_halt.cpp:237)
    436000   0.98516196     17.032837      6.9856462    
Loop time of 482.675 on 2 procs for 336000 steps with 701 atoms

Performance: 601448.772 tau/day, 696.121 timesteps/s
118.0% CPU use with 1 MPI tasks x 2 OpenMP threads

MPI task timing breakdown:
Section |  min time  |  avg time  |  max time  |%varavg| %total
---------------------------------------------------------------
Pair    | 64.559     | 64.559     | 64.559     |   0.0 | 13.38
Bond    | 5.5391     | 5.5391     | 5.5391     |   0.0 |  1.15
Neigh   | 399.53     | 399.53     | 399.53     |   0.0 | 82.77
Comm    | 0.098646   | 0.098646   | 0.098646   |   0.0 |  0.02
Output  | 0.80303    | 0.80303    | 0.80303    |   0.0 |  0.17
Modify  | 11.206     | 11.206     | 11.206     |   0.0 |  2.32
Other   |            | 0.9412     |            |       |  0.20

Nlocal:            701 ave         701 max         701 min
Histogram: 1 0 0 0 0 0 0 0 0 0
Nghost:              0 ave           0 max           0 min
Histogram: 1 0 0 0 0 0 0 0 0 0
Neighs:         113432 ave      113432 max      113432 min
Histogram: 1 0 0 0 0 0 0 0 0 0

Total # of neighbors = 113432
Ave neighs/atom = 161.81455
Ave special neighs/atom = 1.9971469
Neighbor list builds = 2747
Dangerous builds = 0

# This simulation is done
# Move onto the next one
clear
  using 2 OpenMP thread(s) per MPI task
package omp 0
using multi-threaded neighbor list subroutines
next f
jump SELF

###
# Reference paper:
# K. Kremer and G. S. Grest
# Dynamics of entangled linear polymer melts: A molecular-dynamics simulation
# J Chem Phys 92, 5057 (1990)

##################################
# MIHIR: for branched polymers
# LJ minimum first to expand and explore, then collapse
###

###
# Looping through the various nuc3branch4 polymers to simulate,
# define variables to switch through
variable f index bb40nuc3bl10bn4d30tot100 bb80nuc3bl20bn4d30tot200 bb120nuc3bl30bn4d30tot300 bb160nuc3bl40bn4d30tot400 bb200nuc3bl50bn4d30tot500 bb240nuc3bl60bn4d30tot600 bb280nuc3bl70bn4d30tot700 bb320nuc3bl80bn4d30tot800 bb360nuc3bl90bn4d30tot900 bb400nuc3bl100bn4d30tot1000 bb440nuc3bl110bn4d30tot1100 bb480nuc3bl120bn4d30tot1200
###


###
# Box and units  (use LJ units and periodic boundaries)
###

units lj
log nuc3branch4/logs2/$f.log
log nuc3branch4/logs2/bb320nuc3bl80bn4d30tot800.log
