#atom_style bond #no stiffness
atom_style angle #with stiffness

boundary        p p p
###
# Pair interactions require lists of neighbours to be calculated
###

#neighbor 0.3 bin
neighbor 4 bin

neigh_modify every 1 delay 1 check yes
atom_modify sort 0 0
### Generate RESTART file, SPECIAL format, not a .txt file ###
### Useful if simulation crashes ###

restart 1000000 nuc3branch4/restarts2/$f.restart
restart 1000000 nuc3branch4/restarts2/bb320nuc3bl80bn4d30tot800.restart
#############################



### READ "start" data file ###

read_data nuc3branch4/$f.dat
read_data nuc3branch4/bb320nuc3bl80bn4d30tot800.dat
Reading data file ...
  orthogonal box = (-1000 -1000 -1000) to (1000 1000 1000)
  1 by 1 by 1 MPI processor grid
  reading atoms ...
  801 atoms
  scanning bonds ...
  3 = max bonds/atom
  scanning angles ...
  6 = max angles/atom
  reading bonds ...
  800 bonds
  reading angles ...
  808 angles
Finding 1-2 1-3 1-4 neighbors ...
  special bond factors lj:    0        0        0       
  special bond factors coul:  0        0        0       
     4 = max # of 1-2 neighbors
     4 = max # of 1-3 neighbors
     8 = max # of 1-4 neighbors
    12 = max # of special neighbors
  special bonds CPU = 0.001 seconds
  read_data CPU = 0.063 seconds

######################

### READ "REstart" data file ###

######################



###
# Define groups (atom type 1 is group 'all')
###
group all type 1
801 atoms in group all


###
# Dump configs - "simple dumpings"
###

###
# Dump configs + box coords
###

dump   1   all   custom   1000  nuc3branch4/trjs2/$f.lammpstrj  id  x y z  ix iy iz
dump   1   all   custom   1000  nuc3branch4/trjs2/bb320nuc3bl80bn4d30tot800.lammpstrj  id  x y z  ix iy iz
dump_modify   1   format line "%d %.5f %.5f %.5f %d %d %d"

########################################################################


###################################################################
# Stiffness term
#
# E = K * (1+cos(theta)), K>0
#
angle_style   cosine
#change this coefficient to change stiffness (e.g. 1,5,10)
angle_coeff   1 1.0
###################################################################

###################################################################
# Pair interaction between non-bonded atoms
#
#  Lennard-Jones 12-6 potential with cutoff:
#  potential E=4epsilon[ (sigma/r)^12 - (sigma/r)^6]  for r<r_cut
#
#  1.12246 = 2^(1/6) is the minimum of the potential


pair_style      lj/cut 1.12246152962189
#pair_style      lj/cut 3

#
#  pair_modify shift yes adds a constant to the potential such

#  that E(r_cut)=0. Forces remains unchanged.
#

pair_modify     shift yes

#
#  pair_coeff for lj/cut, specify 4:
#    * atom type interacting with
#    * atom type
#    * epsilon (energy units)
#    * sigma (distance units)
#

pair_coeff      1 1 1.0 1.0
###################################################################

###################################################################
# Pair interaction between non-bonded atoms
#
#  soft potential, for PUSHING apart overlapping atoms
#  potential E=A*(1 + cos(pi*r/r_c))
#
#  1.12246 = 2^(1/6) is the cut-off r_c

#pair_style     soft 1.12246152962189

#
#  pair_coeff for soft, specify 3:
#    * atom type interacting with
#    * atom type
#    * A
#
#

#pair_coeff      1 1 100.0
###################################################################

###################################################################
# Pair interaction between bonded atoms
#
# Fene potential + Lennard Jones 12-6:

#
#  E= - 0.5 K R0^2 ln[ 1- (r/R0)^2]
#     + 4epsilon[ (sigma/r)^12 - (sigma/r)^6] + epsilon
#

bond_style   fene


#
# For style fene, specify:
#   * bond type
#   * K (energy/distance^2)
#   * R0 (distance)
#   * epsilon (energy)  (LJ component)
#   * sigma (distance)  (LJ component)
#


special_bonds fene #<=== I M P O R T A N T (new command)
Finding 1-2 1-3 1-4 neighbors ...
  special bond factors lj:    0        1        1       
  special bond factors coul:  0        1        1       
     4 = max # of 1-2 neighbors
    12 = max # of special neighbors
  special bonds CPU = 0.000 seconds

bond_coeff   1   30   2   1.0   1.0


###################################################

###################################################################
# Pair interaction between bonded atoms
#
# Harmonic potential:
#
#  E= K * (R-R0)^2
#

#bond_style   harmonic

#
# For style harmonic, specify:
#   * bond type
#   * K (energy/distance^2)
#   * R0 (distance)
#

#bond_coeff   1   60.0   1.0
#bond_coeff   2   harmonic 0.1   1.0

###################################################
compute 1 all gyration
variable rog equal c_1
#compute 2 all coord/atom cutoff 1.1

#dump 2 all custom 10000 contact_number.dump id c_2


###
# Set up fixes
###
thermo_style   custom   step  temp enthalpy c_1
fix 1 all nve   ###NVE ensemble

fix 2 all   langevin   1.0 1.0 1.0  778655   ###Langevin integrator Tstart Tstop 1/friction rndseed


##### Sample thermodynamic info  (temperature, energy, pressure, etc.) #####
thermo 1000









############################################################################

###
# set timestep of integrator

timestep 0.01

###
# run integration for a number of steps
###
#run 0
#variable r equal c_1
#if "$r < 63.1" then "quit 1"

# lj potential minimum, cause molecule to explore
run 100000
Generated 0 of 0 mixed pair_coeff terms from geometric mixing rule
Last active /omp style is angle_style cosine/omp
Neighbor list info ...
  update: every = 1 steps, delay = 1 steps, check = yes
  max neighbors/atom: 2000, page size: 100000
  master list distance cutoff = 5.1224615
  ghost atom cutoff = 5.1224615
  binsize = 2.5612308, bins = 781 781 781
  1 neighbor lists, perpetual/occasional/extra = 1 0 0
  (1) pair lj/cut/omp, perpetual
      attributes: half, newton on, omp
      pair build: half/bin/newton/omp
      stencil: half/bin/3d
      bin: standard
WARNING: Communication cutoff 5.12246152962189 is shorter than a bond length based estimate of 5.455. This may lead to errors. (src/comm.cpp:723)
Per MPI rank memory allocation (min/avg/max) = 1862 | 1862 | 1862 Mbytes
   Step          Temp         Enthalpy         c_1      
         0   0              13.259555      71.570058    
      1000   1.0154338      18.257297      70.759252    
      2000   1.04779        18.625353      69.996907    
      3000   1.0447037      18.716315      69.155324    
      4000   0.97481696     18.500011      68.670719    
      5000   0.99282287     19.134269      68.255816    
      6000   0.98950551     19.087579      67.765697    
      7000   1.0388199      19.445574      67.368498    
      8000   1.0161308      20.064821      66.771361    
      9000   1.0071908      19.656681      66.304589    
     10000   0.98931614     19.317963      66.083901    
     11000   1.0101734      19.444922      65.653831    
     12000   1.0648641      19.620647      65.378051    
     13000   0.99803349     19.783657      64.955057    
     14000   1.044133       20.462286      64.815008    
     15000   1.0359883      19.962471      64.589827    
     16000   1.0014911      19.619239      64.159984    
     17000   0.95676171     20.06611       63.687244    
     18000   0.96024814     20.237717      63.388931    
     19000   0.94600877     19.887418      63.241615    
     20000   0.99407754     19.667351      63.190567    
     21000   1.0396138      20.193952      63.080338    
     22000   0.97452175     19.636536      62.689997    
     23000   0.98586396     20.00686       62.433236    
     24000   0.97458235     20.378033      62.444988    
     25000   1.0630338      20.303603      62.193067    
     26000   0.98842263     19.914174      61.996779    
     27000   0.96999333     19.963573      61.872523    
     28000   0.97950327     19.850689      61.572726    
     29000   1.0036749      20.006262      61.322141    
     30000   1.0268042      19.963171      61.293559    
     31000   0.99136479     20.177536      61.069681    
     32000   1.0683988      20.463373      60.9426      
     33000   1.0537805      20.289289      60.492135    
     34000   1.0409088      20.460577      60.474528    
     35000   1.0480434      20.503693      60.103061    
     36000   1.0444591      20.884659      60.026825    
     37000   0.98922673     20.270591      60.050245    
     38000   1.0334019      20.077298      59.922586    
     39000   1.0225159      19.880075      59.433185    
     40000   1.0017831      20.250722      59.31801     
     41000   1.0798783      20.100771      59.108304    
     42000   0.93354172     19.401471      59.05028     
     43000   1.0026093      19.913243      58.807755    
     44000   0.946406       19.828467      58.829847    
     45000   0.98702302     20.683964      58.565507    
     46000   1.0332037      20.237165      58.442786    
     47000   0.96108446     19.571676      58.285116    
     48000   0.99235726     20.099982      57.907177    
     49000   1.0648344      20.777934      57.59379     
     50000   0.96057032     20.172455      57.373382    
     51000   1.0048117      20.231118      57.236244    
     52000   0.98778049     20.306323      56.999285    
     53000   0.96686669     20.432365      56.905875    
     54000   0.97195578     20.142914      56.911946    
     55000   0.94838942     20.358987      57.02309     
     56000   1.0382396      20.472774      56.500753    
     57000   1.0318063      20.201956      56.338608    
     58000   1.018117       20.323489      56.469172    
     59000   0.9603491      20.008002      56.096436    
     60000   0.98297652     20.341652      55.768061    
     61000   1.0044552      20.280556      55.706124    
     62000   0.9763657      20.432436      55.441194    
     63000   1.0307346      20.336556      55.170952    
     64000   0.97597952     20.35101       55.223851    
     65000   0.99716813     20.429924      55.061139    
     66000   0.9903118      19.977736      54.959585    
     67000   1.0007938      20.387389      54.735117    
     68000   0.98410088     20.332951      54.645326    
     69000   1.0185129      20.376087      54.336479    
     70000   0.97171335     20.495888      54.161404    
     71000   1.001975       20.593121      54.132815    
     72000   0.9804625      20.616913      53.974134    
     73000   0.92379678     20.462784      54.058216    
     74000   0.95825453     20.934385      54.062434    
     75000   1.020958       20.358877      53.92823     
     76000   0.98623534     20.647717      53.686143    
     77000   0.96118304     20.690462      53.62991     
     78000   1.0005944      20.424054      53.78623     
     79000   0.97616664     20.656167      53.563592    
     80000   0.96907421     19.784218      53.419612    
     81000   1.0097377      20.491763      53.546987    
     82000   0.99951409     20.028683      53.579268    
     83000   0.9710764      20.616909      53.493279    
     84000   1.0426934      20.69716       53.575072    
     85000   1.0403359      20.683354      53.37288     
     86000   0.95545051     20.24602       53.42061     
     87000   0.97489161     20.19743       53.366927    
     88000   1.0079775      20.591223      53.55753     
     89000   0.99890425     20.237865      53.621226    
     90000   0.97047752     20.56921       53.437237    
     91000   0.98766264     20.009613      53.371278    
     92000   1.0011323      20.376462      53.433502    
     93000   1.0130775      20.375961      53.269765    
     94000   1.0012477      20.890229      53.476162    
     95000   0.98304971     20.29626       53.607482    
     96000   1.0231581      20.501589      53.594966    
     97000   0.96347213     20.376637      53.568929    
     98000   1.0256921      20.547534      53.691757    
     99000   1.0200013      19.981756      53.693262    
    100000   0.99421231     20.470168      53.593161    
Loop time of 493.523 on 2 procs for 100000 steps with 801 atoms

Performance: 175067.703 tau/day, 202.625 timesteps/s
101.7% CPU use with 1 MPI tasks x 2 OpenMP threads

MPI task timing breakdown:
Section |  min time  |  avg time  |  max time  |%varavg| %total
---------------------------------------------------------------
Pair    | 1.005      | 1.005      | 1.005      |   0.0 |  0.20
Bond    | 1.7336     | 1.7336     | 1.7336     |   0.0 |  0.35
Neigh   | 486.45     | 486.45     | 486.45     |   0.0 | 98.57
Comm    | 0.032017   | 0.032017   | 0.032017   |   0.0 |  0.01
Output  | 0.24909    | 0.24909    | 0.24909    |   0.0 |  0.05
Modify  | 3.7492     | 3.7492     | 3.7492     |   0.0 |  0.76
Other   |            | 0.3015     |            |       |  0.06

Nlocal:            801 ave         801 max         801 min
Histogram: 1 0 0 0 0 0 0 0 0 0
Nghost:              0 ave           0 max           0 min
Histogram: 1 0 0 0 0 0 0 0 0 0
Neighs:           6569 ave        6569 max        6569 min
Histogram: 1 0 0 0 0 0 0 0 0 0

Total # of neighbors = 6569
Ave neighs/atom = 8.2009988
Ave special neighs/atom = 1.9975031
Neighbor list builds = 1147
Dangerous builds = 0

# Replace lj potential, now collapse
pair_style      lj/cut 3

# Cutoff simul when gyration under 10
# Variable created with equal requires v_ + 'name'
fix 3 all halt 1000 v_rog < 7

run 3000000
Generated 0 of 0 mixed pair_coeff terms from geometric mixing rule
Last active /omp style is angle_style cosine/omp
Per MPI rank memory allocation (min/avg/max) = 1862 | 1862 | 1862 Mbytes
   Step          Temp         Enthalpy         c_1      
    100000   0.99421231     19.632562      53.593161    
    101000   0.97971709     19.303536      53.367348    
    102000   0.9731664      19.483474      53.238396    
    103000   0.97085735     19.569275      53.096021    
    104000   1.0000672      18.601099      52.863469    
    105000   1.0439659      19.294083      52.713067    
    106000   1.0726493      19.900156      52.627439    
    107000   1.054721       19.262866      52.582205    
    108000   0.97824882     19.70741       52.343617    
    109000   0.99464973     19.018236      52.314446    
    110000   1.021079       19.220815      52.151454    
    111000   0.95394529     18.84001       51.954837    
    112000   1.0066188      19.289042      51.747998    
    113000   0.98879247     18.970619      51.459036    
    114000   1.0111792      19.683681      51.442038    
    115000   0.96808055     19.486077      50.987328    
    116000   1.0358371      18.76014       51.146897    
    117000   1.0221973      19.040548      50.9779      
    118000   1.0362358      19.308558      50.876828    
    119000   1.0488626      19.105427      50.770948    
    120000   1.0410437      19.06139       50.786403    
    121000   0.99924337     18.624974      50.514943    
    122000   0.98356558     19.002511      50.094103    
    123000   1.0115164      18.576905      50.123388    
    124000   0.99044695     18.742216      49.926304    
    125000   1.025002       19.044398      49.52793     
    126000   0.98213363     18.268726      49.395268    
    127000   1.0534911      19.455036      49.400868    
    128000   1.0246845      18.807236      49.227759    
    129000   1.0064818      17.828409      49.258361    
    130000   1.0557679      18.644732      48.973285    
    131000   1.0441229      18.393141      48.535043    
    132000   0.94134493     18.896336      48.377778    
    133000   0.98061891     18.412938      48.031623    
    134000   1.0393304      19.343484      47.925742    
    135000   1.0429019      18.328115      47.626605    
    136000   1.0093916      18.406708      47.408165    
    137000   1.0182391      18.657633      47.287387    
    138000   1.0241802      18.471067      47.158011    
    139000   0.94643168     17.93157       47.065312    
    140000   0.981399       18.134614      46.982156    
    141000   1.0048799      18.529743      46.777118    
    142000   1.0148618      18.05723       46.610933    
    143000   1.0430443      18.802085      46.532015    
    144000   1.0283276      17.836391      46.306633    
    145000   0.96004877     17.960009      46.048888    
    146000   0.99642628     17.221902      45.964024    
    147000   0.93623199     17.295796      45.811866    
    148000   1.0325635      17.872406      45.548847    
    149000   0.96076555     17.099944      45.545768    
    150000   1.0098262      17.937943      45.61021     
    151000   1.0330971      18.117389      45.409843    
    152000   1.0182703      19.107779      45.103547    
    153000   0.96337851     18.078378      45.021317    
    154000   1.0010306      18.00048       44.733222    
    155000   0.91882661     17.126587      44.602032    
    156000   1.0226334      17.051032      44.30414     
    157000   1.0124185      17.350106      44.288517    
    158000   1.0171361      17.857954      44.46742     
    159000   0.96340162     17.590874      44.653582    
    160000   0.99674        17.916128      44.669831    
    161000   1.0405168      17.793587      44.692037    
    162000   1.066389       18.408686      44.541513    
    163000   1.0248992      17.709968      44.379591    
    164000   1.0052615      17.263145      44.407528    
    165000   0.99954724     17.722696      44.17605     
    166000   0.9921433      18.234471      43.751035    
    167000   1.010506       18.308349      43.873206    
    168000   0.98996973     17.634445      43.844749    
    169000   1.0288847      17.506512      43.637609    
    170000   0.93901967     17.889686      43.645962    
    171000   0.99674065     17.811135      43.665407    
    172000   0.97598504     17.981898      43.689608    
    173000   0.99050099     17.592034      43.609864    
    174000   0.99821384     17.610709      43.438669    
    175000   0.96452344     18.063842      43.356095    
    176000   1.0159341      17.952208      43.281588    
    177000   1.0100997      18.285294      43.080212    
    178000   1.0041324      18.143146      43.074124    
    179000   1.0032698      18.305017      42.9005      
    180000   0.98355612     17.56685       42.744577    
    181000   1.0464336      17.488295      42.749886    
    182000   0.9842775      18.12693       43.017926    
    183000   1.0287351      18.555451      42.985312    
    184000   0.97376138     17.723227      42.845673    
    185000   1.0006274      18.221171      42.68519     
    186000   0.9888519      18.210155      42.689249    
    187000   1.0079919      17.235577      42.474459    
    188000   1.0101304      17.960969      42.468037    
    189000   0.98235942     17.611397      42.3033      
    190000   1.0108875      18.410451      42.412861    
    191000   1.0134958      17.609394      42.176246    
    192000   1.0370557      18.08857       42.224604    
    193000   1.0004861      17.556764      42.185384    
    194000   0.97883748     18.003179      41.997856    
    195000   1.0116304      17.874047      41.761838    
    196000   1.0381277      17.844514      41.584268    
    197000   1.0091436      18.00026       41.445184    
    198000   1.0142706      17.890461      41.230669    
    199000   1.0234371      17.411597      41.138594    
    200000   1.0030588      17.837627      40.930513    
    201000   1.0177387      17.799973      40.738306    
    202000   0.98740098     17.818357      40.774215    
    203000   1.0138972      18.019404      40.510223    
    204000   1.0048365      16.956716      40.257979    
    205000   1.0399817      18.394035      40.103661    
    206000   1.0335468      17.487507      40.277993    
    207000   0.9409907      17.599324      40.045653    
    208000   0.97353267     18.102477      39.951271    
    209000   1.0004542      17.491419      39.983962    
    210000   0.95407632     17.609115      40.136851    
    211000   1.0206364      18.252329      40.024237    
    212000   1.0146281      17.334294      40.067363    
    213000   0.9913642      17.910268      40.202554    
    214000   1.03031        17.933887      40.260523    
    215000   1.0072469      17.607908      40.223685    
    216000   0.97085563     18.00972       40.145878    
    217000   0.99464332     17.590062      39.854135    
    218000   1.0108248      17.731867      39.633513    
    219000   0.96572692     17.945993      39.391926    
    220000   1.017537       17.54288       39.409258    
    221000   1.0048924      18.177735      39.367654    
    222000   1.0128032      17.805634      39.285899    
    223000   1.0249079      18.013479      38.860115    
    224000   0.99175178     17.874574      38.67392     
    225000   1.0209814      18.111634      38.493974    
    226000   1.0652105      17.518933      38.28326     
    227000   1.0148539      18.007612      38.171306    
    228000   1.0534257      17.608017      37.947974    
    229000   1.0016385      18.412238      37.805214    
    230000   0.98750824     17.166337      37.626226    
    231000   0.96114504     17.708916      37.651892    
    232000   0.96226512     17.96561       37.446004    
    233000   1.0233337      17.859819      37.48191     
    234000   0.99471792     17.675461      37.470088    
    235000   1.0091732      18.873891      37.48096     
    236000   1.0037145      17.771746      37.501281    
    237000   0.96040745     17.301932      37.206842    
    238000   1.0087022      17.71726       37.038152    
    239000   1.044428       18.12536       36.952825    
    240000   0.99169934     17.607244      36.964893    
    241000   0.93885676     17.736136      36.936553    
    242000   1.0227855      18.301147      36.830609    
    243000   1.027792       17.256215      36.645638    
    244000   1.006711       18.088125      36.524992    
    245000   1.0108392      17.39216       36.349473    
    246000   1.0196716      17.954784      36.318075    
    247000   0.98131813     17.533962      36.011569    
    248000   0.99391754     17.461675      36.090643    
    249000   1.0819126      17.525696      35.839593    
    250000   1.0169251      17.461917      35.6865      
    251000   1.0251281      18.241955      35.755778    
    252000   0.9577515      18.289842      35.593538    
    253000   0.99296097     17.664327      35.629358    
    254000   0.98069787     17.832909      35.311588    
    255000   0.96400837     16.932439      35.058303    
    256000   0.94451005     17.085928      35.096925    
    257000   0.99642287     18.326954      34.812692    
    258000   1.0109912      18.113777      34.96746     
    259000   0.96003594     17.582233      34.941897    
    260000   1.0245491      18.206305      34.896384    
    261000   1.0376754      17.990945      34.844173    
    262000   1.0178046      17.168314      34.910222    
    263000   1.002504       18.448788      34.838359    
    264000   0.97367748     17.547621      34.673476    
    265000   1.0282595      17.837248      34.450981    
    266000   1.0048883      17.180826      34.574665    
    267000   0.9811924      17.726376      34.438946    
    268000   0.99836155     18.138973      34.619467    
    269000   1.0254166      17.496849      34.330521    
    270000   0.97349779     17.817205      34.210416    
    271000   0.98271849     17.028772      34.11236     
    272000   1.0215546      17.523254      34.184474    
    273000   1.0361373      17.700614      34.074776    
    274000   1.012483       17.402786      34.039943    
    275000   1.0005422      17.855405      33.89088     
    276000   0.99103675     17.548874      33.891048    
    277000   0.99527587     17.805662      33.795008    
    278000   1.0051617      17.536671      33.742428    
    279000   1.0195541      17.756067      33.517183    
    280000   1.0141517      18.347191      33.41454     
    281000   1.0239316      17.739632      33.308947    
    282000   1.0287101      17.560579      33.166444    
    283000   1.0175775      17.561947      33.07833     
    284000   1.0014013      18.065946      32.750927    
    285000   0.9549602      17.691752      32.579067    
    286000   0.99520473     17.01752       32.672426    
    287000   0.98566634     17.763384      32.756281    
    288000   0.99671685     17.89605       32.504501    
    289000   1.0081831      18.296038      32.463614    
    290000   0.98455762     18.210116      32.31314     
    291000   1.0581464      17.328443      32.135571    
    292000   0.99219656     17.79835       31.782896    
    293000   1.0011072      17.611243      31.590786    
    294000   1.0140676      17.504061      31.478504    
    295000   1.0061332      16.928631      31.522519    
    296000   0.98569399     17.486743      31.542532    
    297000   0.99527407     18.50915       31.577335    
    298000   0.99011078     17.745113      31.675892    
    299000   0.94921518     17.816058      31.702489    
    300000   0.97469391     18.031508      31.673591    
    301000   1.0198491      17.910539      31.672169    
    302000   0.9677957      17.5194        31.793067    
    303000   1.0037975      18.29746       31.681304    
    304000   1.002905       17.266878      31.679739    
    305000   1.0114983      17.327245      31.564159    
    306000   0.99186481     17.663022      31.302011    
    307000   0.9930603      18.773573      31.064041    
    308000   0.92533448     17.625839      30.73409     
    309000   0.97727194     17.135991      30.609165    
    310000   0.99761501     17.730171      30.412468    
    311000   1.0757173      17.733748      30.209433    
    312000   0.99864006     17.578978      29.932751    
    313000   1.0301624      17.993506      29.899826    
    314000   0.99509109     17.968506      29.807144    
    315000   1.0677357      17.89825       29.467413    
    316000   0.98296512     16.918224      29.342434    
    317000   0.93133537     17.458141      29.285457    
    318000   0.90611529     17.27306       29.146592    
    319000   1.0113642      17.627453      29.037863    
    320000   0.9501752      17.747757      29.101986    
    321000   1.0124989      17.533977      28.826757    
    322000   0.9756246      17.149623      28.590578    
    323000   1.0104648      17.777033      28.437036    
    324000   0.99300233     17.849326      28.269551    
    325000   0.9577822      16.886431      28.349067    
    326000   0.99768447     17.618754      28.509838    
    327000   0.99429169     17.937083      28.2623      
    328000   0.98381008     17.640542      27.844557    
    329000   0.99686596     17.690569      28.143163    
    330000   1.0183614      17.309051      28.141919    
    331000   1.0079539      18.027687      28.124654    
    332000   1.007921       18.01917       28.125794    
    333000   0.99032816     18.034598      28.155865    
    334000   1.0071852      17.408804      28.256305    
    335000   1.017532       17.671802      28.330408    
    336000   1.0151558      17.449493      27.948606    
    337000   1.0160795      17.344424      27.912614    
    338000   0.97064264     18.088247      27.54881     
    339000   0.99934018     17.880841      27.611517    
    340000   1.0005448      17.879586      27.692418    
    341000   1.0008629      17.819633      27.755164    
    342000   1.0417188      17.583085      27.459989    
    343000   0.99556618     17.718578      27.338823    
    344000   0.97247146     17.817457      27.212293    
    345000   0.99190605     17.738644      27.441161    
    346000   1.0073845      17.536271      27.220062    
    347000   0.96256142     17.483474      27.263538    
    348000   1.0093295      17.233294      27.108403    
    349000   1.0124412      16.798111      27.011631    
    350000   1.0215757      17.840867      26.974207    
    351000   1.0224931      17.371941      26.863135    
    352000   1.0158477      17.573772      26.723774    
    353000   0.99097792     17.600842      26.534554    
    354000   0.98858189     17.986875      26.520678    
    355000   1.0220566      17.544616      26.509283    
    356000   1.0147506      17.392243      26.55771     
    357000   1.0270194      18.259946      26.374533    
    358000   0.99020202     17.534106      26.372646    
    359000   1.0310956      18.132841      26.291799    
    360000   0.9655898      18.175725      26.371679    
    361000   1.0020333      17.725696      26.414185    
    362000   1.0242772      18.115253      26.389152    
    363000   0.99303861     17.493413      26.490903    
    364000   1.0203146      17.516155      26.490463    
    365000   0.96596038     17.407958      26.152022    
    366000   1.0507867      17.699785      26.071569    
    367000   1.0121157      17.247643      25.952763    
    368000   1.0079996      17.35375       25.789927    
    369000   0.96668747     17.785743      25.677227    
    370000   1.0016282      17.584871      25.500229    
    371000   1.0005303      17.871797      25.44243     
    372000   0.98215566     17.338738      25.367683    
    373000   1.0117755      17.242812      25.203204    
    374000   1.0609362      17.469662      25.111331    
    375000   0.96303014     17.145682      24.907652    
    376000   0.94236055     16.955323      24.589307    
    377000   0.97707528     17.561549      24.634338    
    378000   1.026737       17.6018        24.5528      
    379000   1.0168656      17.078864      24.452042    
    380000   0.99070494     17.203772      24.214149    
    381000   0.98421674     17.752703      24.365904    
    382000   1.0306529      17.677232      24.218602    
    383000   1.0430732      17.318351      24.239817    
    384000   0.95268919     17.746277      24.230172    
    385000   0.98209523     17.432063      23.871765    
    386000   1.0052255      17.735804      23.591113    
    387000   1.0235333      17.055676      23.571999    
    388000   0.97517749     17.620683      23.47977     
    389000   0.99085595     17.134917      23.345947    
    390000   1.0197086      17.877153      23.152394    
    391000   0.97845447     17.056712      22.880131    
    392000   0.99697121     16.778689      22.754373    
    393000   0.97209913     17.018607      22.738679    
    394000   0.945238       17.526         22.627425    
    395000   0.97657935     17.925499      22.519065    
    396000   0.98098086     17.911118      22.431821    
    397000   1.001838       18.058343      22.584092    
    398000   0.9498568      17.148839      22.478252    
    399000   0.97738769     17.566463      22.264403    
    400000   1.0245754      17.330401      22.477574    
    401000   0.98454338     17.59698       22.347639    
    402000   0.99515942     18.042197      22.589767    
    403000   0.96161946     17.357363      22.344808    
    404000   0.95926463     17.035303      22.297536    
    405000   1.0363326      17.702294      22.127808    
    406000   0.96735258     17.123228      22.106841    
    407000   1.0125073      17.431561      21.838373    
    408000   0.95843336     17.515488      21.949002    
    409000   1.0460997      17.162713      21.810413    
    410000   0.94313724     17.561742      21.505513    
    411000   0.99662134     17.150788      21.439871    
    412000   1.0326101      17.604518      21.465219    
    413000   1.0063956      17.36421       21.287906    
    414000   0.96355724     18.004493      21.040059    
    415000   1.0241972      18.185712      20.633678    
    416000   1.0216448      17.619054      20.435836    
    417000   0.97953758     17.886078      20.404096    
    418000   0.99769811     18.067873      20.2024      
    419000   0.96103368     17.123993      20.05101     
    420000   0.97330118     17.846267      19.740236    
    421000   1.0453321      18.068886      19.545215    
    422000   1.01209        17.718915      19.602015    
    423000   0.98402943     17.737062      19.64031     
    424000   1.007657       17.669519      19.455027    
    425000   0.98598755     16.51707       19.096986    
    426000   1.0446954      17.64045       18.774492    
    427000   0.98914909     17.451908      18.586668    
    428000   0.99626433     18.0428        18.446121    
    429000   1.0041742      16.971319      18.444278    
    430000   0.99071198     17.896435      18.255077    
    431000   1.0786657      17.500664      18.12809     
    432000   0.95769968     17.373463      18.160901    
    433000   1.0003278      17.554057      18.104934    
    434000   0.99153312     17.075359      17.873854    
    435000   0.9978431      17.03906       17.853092    
    436000   1.023287       17.930344      17.508667    
    437000   1.0781355      17.349314      17.313928    
    438000   0.97017497     17.734852      17.323718    
    439000   0.99327209     17.445982      17.384445    
    440000   1.0059011      17.950879      17.100403    
    441000   1.0194679      17.770683      17.313358    
    442000   0.96476214     17.19216       17.376373    
    443000   0.953804       17.238828      17.327645    
    444000   0.98279117     17.025044      17.229939    
    445000   0.99145884     17.108944      17.071651    
    446000   0.97067279     17.406309      17.031315    
    447000   0.97899853     18.18153       16.938921    
    448000   0.97477062     17.102737      16.939333    
    449000   1.0271368      17.409328      16.918218    
    450000   1.0426999      17.780572      16.85036     
    451000   0.95461626     17.672086      16.806501    
    452000   1.0025664      17.172296      16.781763    
    453000   0.9581666      17.135359      16.638788    
    454000   1.0309576      17.570532      16.612451    
    455000   1.0199863      17.007052      16.484812    
    456000   1.0024889      17.525135      16.470889    
    457000   1.0019518      16.648025      16.307827    
    458000   0.9748376      16.837829      16.098228    
    459000   1.0048154      17.078213      15.97037     
    460000   0.9917236      17.032733      15.829678    
    461000   0.97464227     16.50151       15.503735    
    462000   0.99055791     17.270803      15.785549    
    463000   0.97718819     17.781547      15.706682    
    464000   1.0150753      17.975227      15.517088    
    465000   0.98826057     17.96238       15.424933    
    466000   0.98257773     17.084137      15.182017    
    467000   1.012682       16.954125      15.159963    
    468000   1.0110542      17.236871      14.856136    
    469000   0.99389399     16.951566      14.867011    
    470000   0.95673296     17.342569      14.353943    
    471000   0.99601418     17.250411      14.458885    
    472000   1.0126987      16.761939      14.408584    
    473000   1.0080528      17.320233      14.21527     
    474000   1.0069536      17.076532      13.841619    
    475000   1.0105033      17.194397      13.693705    
    476000   0.96228992     17.232047      13.563113    
    477000   0.99739034     17.00583       13.422505    
    478000   0.96683253     17.095279      13.390789    
    479000   1.0485902      17.430555      13.4294      
    480000   0.99463786     17.081188      13.41478     
    481000   1.0195951      17.309793      13.212867    
    482000   1.0020337      17.971709      12.899715    
    483000   0.97833492     16.888447      12.835502    
    484000   0.93173662     16.802389      12.667219    
    485000   0.91699896     17.295523      12.556813    
    486000   0.97690943     17.126598      12.430924    
    487000   1.0220366      16.735143      12.353319    
    488000   0.98333516     17.140388      12.273421    
    489000   1.0033188      17.179817      11.980787    
    490000   1.0381476      16.834194      11.706964    
    491000   1.05019        16.522539      11.663793    
    492000   0.9904006      17.630081      11.857569    
    493000   0.96711349     17.427939      11.867748    
    494000   1.0002346      16.973546      11.752751    
    495000   0.98889312     17.450748      11.942881    
    496000   1.0033359      17.037683      12.005367    
    497000   0.99043657     16.878141      11.988834    
    498000   1.0438262      17.66198       11.904241    
    499000   0.98387597     17.579924      11.732798    
    500000   1.0450694      17.32019       11.720716    
    501000   0.95874462     17.747195      11.479624    
    502000   0.97957352     16.369811      11.393431    
    503000   1.0499315      17.846167      11.247712    
    504000   0.98549532     17.583841      11.142285    
    505000   0.98969784     17.204935      11.40131     
    506000   0.9848969      17.151058      11.454212    
    507000   0.99034712     17.456143      11.462475    
    508000   1.0019698      17.141069      11.228692    
    509000   1.0163187      17.908394      10.825206    
    510000   1.015034       17.020346      10.707465    
    511000   0.99385171     17.419189      10.607279    
    512000   0.94885263     17.613369      10.589595    
    513000   0.98723605     16.537726      10.67559     
    514000   0.99706249     17.378014      10.560583    
    515000   0.99674358     16.96037       10.324981    
    516000   1.0056778      17.229127      10.07125     
    517000   1.0578388      17.280023      10.065831    
    518000   1.0327875      17.165514      10.056823    
    519000   0.97487673     16.772583      9.924699     
    520000   1.0236055      16.623235      9.5804863    
    521000   1.0353112      17.451871      9.392776     
    522000   0.96894669     17.272797      9.2126803    
    523000   1.0072839      17.704534      8.9623229    
    524000   0.97777001     16.82403       8.7080521    
    525000   1.0366908      18.012804      8.7125438    
    526000   0.99933246     16.958016      8.6742446    
    527000   0.98662214     17.325654      8.4997384    
    528000   1.0039741      16.851486      8.306751     
    529000   1.0072905      16.646199      8.3506327    
    530000   0.99242431     17.865946      8.2942114    
    531000   1.0259278      17.06955       8.178414     
    532000   1.016902       17.464504      8.1730313    
    533000   0.99395446     16.945751      8.0711842    
    534000   0.98095073     16.278374      7.9566753    
    535000   0.96691926     17.176759      7.6599671    
    536000   0.99238423     17.062835      7.5175707    
    537000   1.0113131      17.085967      7.5455439    
    538000   0.9619341      16.069945      7.5137505    
    539000   1.039529       17.677884      7.4526413    
    540000   1.0481639      17.045236      7.6145617    
    541000   0.99051975     17.12093       7.628381     
    542000   1.0012119      16.816787      7.4804304    
    543000   1.0057255      16.639427      7.4403485    
    544000   1.0053324      17.0236        7.1546536    
Fix halt condition for fix-id 3 met on step 545000 with value 6.890242353050617 (src/fix_halt.cpp:237)
    545000   0.99833278     17.007457      6.8902424    
Loop time of 744.136 on 2 procs for 445000 steps with 801 atoms

Performance: 516679.807 tau/day, 598.009 timesteps/s
119.7% CPU use with 1 MPI tasks x 2 OpenMP threads

MPI task timing breakdown:
Section |  min time  |  avg time  |  max time  |%varavg| %total
---------------------------------------------------------------
Pair    | 111.56     | 111.56     | 111.56     |   0.0 | 14.99
Bond    | 8.6444     | 8.6444     | 8.6444     |   0.0 |  1.16
Neigh   | 602.75     | 602.75     | 602.75     |   0.0 | 81.00
Comm    | 0.15568    | 0.15568    | 0.15568    |   0.0 |  0.02
Output  | 1.1065     | 1.1065     | 1.1065     |   0.0 |  0.15
Modify  | 18.372     | 18.372     | 18.372     |   0.0 |  2.47
Other   |            | 1.545      |            |       |  0.21

Nlocal:            801 ave         801 max         801 min
Histogram: 1 0 0 0 0 0 0 0 0 0
Nghost:              0 ave           0 max           0 min
Histogram: 1 0 0 0 0 0 0 0 0 0
Neighs:         144039 ave      144039 max      144039 min
Histogram: 1 0 0 0 0 0 0 0 0 0

Total # of neighbors = 144039
Ave neighs/atom = 179.82397
Ave special neighs/atom = 1.9975031
Neighbor list builds = 3707
Dangerous builds = 0

# This simulation is done
# Move onto the next one
clear
  using 2 OpenMP thread(s) per MPI task
package omp 0
using multi-threaded neighbor list subroutines
next f
jump SELF

###
# Reference paper:
# K. Kremer and G. S. Grest
# Dynamics of entangled linear polymer melts: A molecular-dynamics simulation
# J Chem Phys 92, 5057 (1990)

##################################
# MIHIR: for branched polymers
# LJ minimum first to expand and explore, then collapse
###

###
# Looping through the various nuc3branch4 polymers to simulate,
# define variables to switch through
variable f index bb40nuc3bl10bn4d30tot100 bb80nuc3bl20bn4d30tot200 bb120nuc3bl30bn4d30tot300 bb160nuc3bl40bn4d30tot400 bb200nuc3bl50bn4d30tot500 bb240nuc3bl60bn4d30tot600 bb280nuc3bl70bn4d30tot700 bb320nuc3bl80bn4d30tot800 bb360nuc3bl90bn4d30tot900 bb400nuc3bl100bn4d30tot1000 bb440nuc3bl110bn4d30tot1100 bb480nuc3bl120bn4d30tot1200
###


###
# Box and units  (use LJ units and periodic boundaries)
###

units lj
log nuc3branch4/logs2/$f.log
log nuc3branch4/logs2/bb360nuc3bl90bn4d30tot900.log
