#atom_style bond #no stiffness
atom_style angle #with stiffness

boundary        p p p
###
# Pair interactions require lists of neighbours to be calculated
###

#neighbor 0.3 bin
neighbor 4 bin

neigh_modify every 1 delay 1 check yes
atom_modify sort 0 0
### Generate RESTART file, SPECIAL format, not a .txt file ###
### Useful if simulation crashes ###

restart 1000000 nuc3branch4/restarts2/$f.restart
restart 1000000 nuc3branch4/restarts2/bb400nuc3bl100bn4d30tot1000.restart
#############################



### READ "start" data file ###

read_data nuc3branch4/$f.dat
read_data nuc3branch4/bb400nuc3bl100bn4d30tot1000.dat
Reading data file ...
  orthogonal box = (-1000 -1000 -1000) to (1000 1000 1000)
  1 by 1 by 1 MPI processor grid
  reading atoms ...
  1001 atoms
  scanning bonds ...
  3 = max bonds/atom
  scanning angles ...
  6 = max angles/atom
  reading bonds ...
  1000 bonds
  reading angles ...
  1008 angles
Finding 1-2 1-3 1-4 neighbors ...
  special bond factors lj:    0        0        0       
  special bond factors coul:  0        0        0       
     4 = max # of 1-2 neighbors
     4 = max # of 1-3 neighbors
     8 = max # of 1-4 neighbors
    12 = max # of special neighbors
  special bonds CPU = 0.001 seconds
  read_data CPU = 0.093 seconds

######################

### READ "REstart" data file ###

######################



###
# Define groups (atom type 1 is group 'all')
###
group all type 1
1001 atoms in group all


###
# Dump configs - "simple dumpings"
###

###
# Dump configs + box coords
###

dump   1   all   custom   1000  nuc3branch4/trjs2/$f.lammpstrj  id  x y z  ix iy iz
dump   1   all   custom   1000  nuc3branch4/trjs2/bb400nuc3bl100bn4d30tot1000.lammpstrj  id  x y z  ix iy iz
dump_modify   1   format line "%d %.5f %.5f %.5f %d %d %d"

########################################################################


###################################################################
# Stiffness term
#
# E = K * (1+cos(theta)), K>0
#
angle_style   cosine
#change this coefficient to change stiffness (e.g. 1,5,10)
angle_coeff   1 1.0
###################################################################

###################################################################
# Pair interaction between non-bonded atoms
#
#  Lennard-Jones 12-6 potential with cutoff:
#  potential E=4epsilon[ (sigma/r)^12 - (sigma/r)^6]  for r<r_cut
#
#  1.12246 = 2^(1/6) is the minimum of the potential


pair_style      lj/cut 1.12246152962189
#pair_style      lj/cut 3

#
#  pair_modify shift yes adds a constant to the potential such

#  that E(r_cut)=0. Forces remains unchanged.
#

pair_modify     shift yes

#
#  pair_coeff for lj/cut, specify 4:
#    * atom type interacting with
#    * atom type
#    * epsilon (energy units)
#    * sigma (distance units)
#

pair_coeff      1 1 1.0 1.0
###################################################################

###################################################################
# Pair interaction between non-bonded atoms
#
#  soft potential, for PUSHING apart overlapping atoms
#  potential E=A*(1 + cos(pi*r/r_c))
#
#  1.12246 = 2^(1/6) is the cut-off r_c

#pair_style     soft 1.12246152962189

#
#  pair_coeff for soft, specify 3:
#    * atom type interacting with
#    * atom type
#    * A
#
#

#pair_coeff      1 1 100.0
###################################################################

###################################################################
# Pair interaction between bonded atoms
#
# Fene potential + Lennard Jones 12-6:

#
#  E= - 0.5 K R0^2 ln[ 1- (r/R0)^2]
#     + 4epsilon[ (sigma/r)^12 - (sigma/r)^6] + epsilon
#

bond_style   fene


#
# For style fene, specify:
#   * bond type
#   * K (energy/distance^2)
#   * R0 (distance)
#   * epsilon (energy)  (LJ component)
#   * sigma (distance)  (LJ component)
#


special_bonds fene #<=== I M P O R T A N T (new command)
Finding 1-2 1-3 1-4 neighbors ...
  special bond factors lj:    0        1        1       
  special bond factors coul:  0        1        1       
     4 = max # of 1-2 neighbors
    12 = max # of special neighbors
  special bonds CPU = 0.000 seconds

bond_coeff   1   30   2   1.0   1.0


###################################################

###################################################################
# Pair interaction between bonded atoms
#
# Harmonic potential:
#
#  E= K * (R-R0)^2
#

#bond_style   harmonic

#
# For style harmonic, specify:
#   * bond type
#   * K (energy/distance^2)
#   * R0 (distance)
#

#bond_coeff   1   60.0   1.0
#bond_coeff   2   harmonic 0.1   1.0

###################################################
compute 1 all gyration
variable rog equal c_1
#compute 2 all coord/atom cutoff 1.1

#dump 2 all custom 10000 contact_number.dump id c_2


###
# Set up fixes
###
thermo_style   custom   step  temp enthalpy c_1
fix 1 all nve   ###NVE ensemble

fix 2 all   langevin   1.0 1.0 1.0  778655   ###Langevin integrator Tstart Tstop 1/friction rndseed


##### Sample thermodynamic info  (temperature, energy, pressure, etc.) #####
thermo 1000









############################################################################

###
# set timestep of integrator

timestep 0.01

###
# run integration for a number of steps
###
#run 0
#variable r equal c_1
#if "$r < 63.1" then "quit 1"

# lj potential minimum, cause molecule to explore
run 100000
Generated 0 of 0 mixed pair_coeff terms from geometric mixing rule
Last active /omp style is angle_style cosine/omp
Neighbor list info ...
  update: every = 1 steps, delay = 1 steps, check = yes
  max neighbors/atom: 2000, page size: 100000
  master list distance cutoff = 5.1224615
  ghost atom cutoff = 5.1224615
  binsize = 2.5612308, bins = 781 781 781
  1 neighbor lists, perpetual/occasional/extra = 1 0 0
  (1) pair lj/cut/omp, perpetual
      attributes: half, newton on, omp
      pair build: half/bin/newton/omp
      stencil: half/bin/3d
      bin: standard
WARNING: Communication cutoff 5.12246152962189 is shorter than a bond length based estimate of 5.455. This may lead to errors. (src/comm.cpp:723)
Per MPI rank memory allocation (min/avg/max) = 1862 | 1862 | 1862 Mbytes
   Step          Temp         Enthalpy         c_1      
         0   0              13.27894       91.099931    
      1000   1.0592657      18.43621       90.352974    
      2000   1.0213718      18.775317      89.689904    
      3000   1.0362803      18.91479       89.16621     
      4000   1.0197142      19.57196       88.352234    
      5000   1.0158013      18.924339      87.791249    
      6000   0.99749386     19.071804      87.361421    
      7000   1.0094662      19.079173      86.931702    
      8000   0.99052524     18.907613      86.288912    
      9000   1.0079051      19.669527      85.991193    
     10000   1.0124225      19.431527      85.784198    
     11000   1.0175746      19.774885      85.309414    
     12000   1.041732       19.745677      84.948052    
     13000   0.98173196     19.302839      84.610654    
     14000   0.95940689     19.337323      84.236098    
     15000   0.97184577     19.560733      84.041396    
     16000   1.0000485      19.644944      83.720348    
     17000   0.98192938     19.809877      83.419979    
     18000   1.0046736      19.695546      83.042014    
     19000   1.0177776      20.07874       82.621114    
     20000   0.98587627     19.679192      82.412494    
     21000   0.97732828     19.33562       82.148486    
     22000   0.95728495     20.102602      81.889668    
     23000   0.96941483     20.045436      81.790843    
     24000   1.0178048      19.847299      81.902477    
     25000   0.99596951     19.643571      81.66151     
     26000   0.997409       20.256201      81.336512    
     27000   1.0063963      19.895327      81.098219    
     28000   1.0368769      20.217313      80.84122     
     29000   1.0449255      20.010267      80.579982    
     30000   1.0313996      19.673696      80.432732    
     31000   1.0003043      20.264899      80.122099    
     32000   1.0057121      19.915601      79.85889     
     33000   0.96650451     19.456905      79.670165    
     34000   0.97198675     19.923779      79.651273    
     35000   1.0156019      19.796049      79.518908    
     36000   0.98427738     19.870311      79.440533    
     37000   1.0496986      20.042003      79.315599    
     38000   0.98589496     19.98083       79.064387    
     39000   0.98435032     20.130297      78.721752    
     40000   1.0057464      20.221883      78.461103    
     41000   1.019478       20.070688      78.508708    
     42000   0.97492833     20.087977      78.191532    
     43000   0.97367695     20.032504      77.996291    
     44000   0.95365614     20.102768      77.797029    
     45000   0.94387509     20.152532      77.826682    
     46000   1.0012662      20.454446      77.679558    
     47000   1.0294186      19.992677      77.579683    
     48000   0.99359661     19.952894      77.599996    
     49000   1.0004942      20.036869      77.397709    
     50000   0.99717646     20.102813      77.387991    
     51000   1.0178042      19.993277      77.066723    
     52000   0.96758812     19.98579       76.660194    
     53000   1.0375394      20.511951      76.750495    
     54000   1.0319602      19.870328      76.727739    
     55000   1.0200289      20.404029      76.409308    
     56000   0.97462733     20.093986      76.318829    
     57000   0.97607969     20.035705      75.971474    
     58000   1.0016703      20.084767      75.777889    
     59000   0.97168355     20.730355      75.465112    
     60000   1.0279587      20.441756      75.346626    
     61000   1.0014968      20.203555      75.143151    
     62000   0.95517748     19.772859      75.081733    
     63000   1.042774       20.419018      74.856929    
     64000   1.0107922      20.771552      74.609419    
     65000   1.0040136      20.617831      74.52354     
     66000   1.0144383      20.143321      74.602814    
     67000   1.0514246      20.581498      74.661583    
     68000   0.97694843     20.363728      74.574579    
     69000   1.0112294      20.688465      74.425085    
     70000   0.95134398     19.55842       74.243189    
     71000   1.0158194      20.572002      74.215623    
     72000   1.0207238      20.713532      74.312368    
     73000   1.0184556      20.017078      74.331906    
     74000   1.0033097      19.902596      74.365375    
     75000   1.0103858      20.314815      74.165048    
     76000   0.97841292     20.022973      74.089349    
     77000   0.97018285     20.411736      73.935726    
     78000   0.95934946     20.207257      73.831677    
     79000   0.9871621      20.351285      73.573123    
     80000   1.043481       20.650689      73.510641    
     81000   1.014125       20.376903      73.68763     
     82000   1.0558791      20.446264      73.830436    
     83000   1.0000037      20.385817      73.59122     
     84000   1.0221878      20.259925      73.465617    
     85000   1.0265139      20.578787      73.355546    
     86000   0.97874538     20.070629      73.368421    
     87000   1.0370136      20.141656      73.377714    
     88000   1.022896       20.673993      73.202823    
     89000   0.99755774     20.318405      73.215152    
     90000   1.0012105      19.96129       73.106985    
     91000   1.0262218      20.931038      73.220107    
     92000   1.0039507      20.780492      73.027432    
     93000   0.98837033     19.853639      72.999706    
     94000   1.0059427      19.824836      73.086625    
     95000   1.0022505      20.660967      72.780324    
     96000   0.99429254     19.381946      72.768645    
     97000   1.0228392      20.563319      72.542527    
     98000   0.99495285     20.469979      72.400282    
     99000   1.0122942      20.092649      72.456297    
    100000   1.0273803      20.849193      72.373982    
Loop time of 433.687 on 2 procs for 100000 steps with 1001 atoms

Performance: 199221.882 tau/day, 230.581 timesteps/s
102.4% CPU use with 1 MPI tasks x 2 OpenMP threads

MPI task timing breakdown:
Section |  min time  |  avg time  |  max time  |%varavg| %total
---------------------------------------------------------------
Pair    | 1.2383     | 1.2383     | 1.2383     |   0.0 |  0.29
Bond    | 2.1431     | 2.1431     | 2.1431     |   0.0 |  0.49
Neigh   | 424.87     | 424.87     | 424.87     |   0.0 | 97.97
Comm    | 0.036034   | 0.036034   | 0.036034   |   0.0 |  0.01
Output  | 0.28505    | 0.28505    | 0.28505    |   0.0 |  0.07
Modify  | 4.7619     | 4.7619     | 4.7619     |   0.0 |  1.10
Other   |            | 0.3502     |            |       |  0.08

Nlocal:           1001 ave        1001 max        1001 min
Histogram: 1 0 0 0 0 0 0 0 0 0
Nghost:              0 ave           0 max           0 min
Histogram: 1 0 0 0 0 0 0 0 0 0
Neighs:           6759 ave        6759 max        6759 min
Histogram: 1 0 0 0 0 0 0 0 0 0

Total # of neighbors = 6759
Ave neighs/atom = 6.7522478
Ave special neighs/atom = 1.998002
Neighbor list builds = 1172
Dangerous builds = 0

# Replace lj potential, now collapse
pair_style      lj/cut 3

# Cutoff simul when gyration under 10
# Variable created with equal requires v_ + 'name'
fix 3 all halt 1000 v_rog < 7

run 3000000
Generated 0 of 0 mixed pair_coeff terms from geometric mixing rule
Last active /omp style is angle_style cosine/omp
Per MPI rank memory allocation (min/avg/max) = 1862 | 1862 | 1862 Mbytes
   Step          Temp         Enthalpy         c_1      
    100000   1.0273803      20.085032      72.373982    
    101000   1.0292604      20.068233      72.248517    
    102000   1.0130104      19.380013      72.059278    
    103000   1.0054986      19.493464      71.913996    
    104000   1.0013855      19.646357      71.746869    
    105000   1.0269572      19.487004      71.574145    
    106000   1.0120858      19.230119      71.475038    
    107000   1.011122       19.108294      71.110398    
    108000   1.0086471      19.702388      71.179275    
    109000   0.97346147     19.775536      71.184744    
    110000   1.0056691      19.013834      71.011746    
    111000   0.97639643     19.366847      70.761538    
    112000   0.99736523     19.537652      70.566263    
    113000   0.96173107     19.029331      70.109598    
    114000   1.04616        19.846467      69.902078    
    115000   1.0017615      19.435766      69.526402    
    116000   1.0266012      19.277993      69.38902     
    117000   1.0057317      19.491698      69.30796     
    118000   1.0080255      19.093713      69.200891    
    119000   1.0026996      18.436444      69.018404    
    120000   0.98076862     19.125408      68.54837     
    121000   0.99435095     19.461227      68.402137    
    122000   0.96491806     19.010995      68.347582    
    123000   1.0128462      19.197218      67.91355     
    124000   0.98553699     19.266891      67.673673    
    125000   0.95220838     18.742139      67.633943    
    126000   0.98144744     18.787999      67.634259    
    127000   1.0291203      18.885906      67.430577    
    128000   1.0147077      19.446243      67.253285    
    129000   1.0213452      18.72316       67.308241    
    130000   0.98718517     19.232788      67.32106     
    131000   1.0095348      19.021616      67.152026    
    132000   1.0055921      18.381669      66.897503    
    133000   1.0205215      19.00591       66.764194    
    134000   1.0024457      18.775729      66.657033    
    135000   0.99331842     18.911385      66.513719    
    136000   1.0368921      19.370364      66.460478    
    137000   0.97236293     19.099116      66.472134    
    138000   1.0109808      18.584629      66.223654    
    139000   0.95198831     19.224579      66.204189    
    140000   1.0016479      18.451224      65.982206    
    141000   1.0049215      18.310887      65.849993    
    142000   0.99576258     18.544201      65.679325    
    143000   0.97457601     19.01901       65.577181    
    144000   1.0095283      18.327792      65.477601    
    145000   1.015527       18.785647      65.241114    
    146000   0.98089059     18.045002      64.939472    
    147000   0.98484686     18.735042      64.731497    
    148000   1.0391866      18.992442      64.436583    
    149000   0.97445982     18.257648      64.33461     
    150000   0.99774176     17.850899      64.350464    
    151000   0.96641004     18.476563      64.194416    
    152000   0.99848534     18.554262      64.007503    
    153000   0.97929358     18.557221      64.196643    
    154000   0.98790877     18.607129      63.966889    
    155000   1.0113118      18.748616      63.711422    
    156000   1.0074204      17.963257      63.39094     
    157000   1.0477252      18.531367      62.983096    
    158000   1.0031252      17.789126      62.98318     
    159000   0.97076874     18.339168      62.803485    
    160000   1.0502675      19.151162      62.599069    
    161000   0.98143369     18.301128      62.475083    
    162000   0.98795716     18.607827      62.377118    
    163000   0.99380099     18.288904      62.369943    
    164000   0.9808062      18.445088      62.350363    
    165000   0.93888521     18.118847      62.311539    
    166000   0.97223574     18.501614      62.069643    
    167000   0.98597137     18.311434      61.918425    
    168000   0.96860536     18.248576      61.764415    
    169000   1.0248283      18.969952      61.483437    
    170000   0.9796708      18.064761      61.292328    
    171000   1.0044948      18.342346      61.032485    
    172000   1.0164243      18.541537      60.923819    
    173000   0.98670735     17.771441      60.721247    
    174000   0.98775406     18.179082      60.58428     
    175000   0.98978943     18.837606      60.583177    
    176000   1.0067502      18.423913      60.32767     
    177000   1.0319129      18.080321      60.047941    
    178000   1.02995        17.634942      59.939026    
    179000   0.9864058      18.514781      59.792958    
    180000   1.0204568      18.023067      59.734718    
    181000   1.0045998      18.079877      59.562124    
    182000   0.97836667     18.720849      59.375917    
    183000   1.0209689      18.697586      59.300025    
    184000   0.9479586      17.951329      59.355251    
    185000   1.039323       18.961296      59.319647    
    186000   1.0176516      17.610041      59.297209    
    187000   0.94893826     17.624507      59.104963    
    188000   0.99907986     17.580638      58.860015    
    189000   0.96191756     17.571624      58.65823     
    190000   1.0119757      17.866437      58.54887     
    191000   1.0014851      17.718642      58.478184    
    192000   1.0198916      17.926547      58.487474    
    193000   0.97904786     18.176736      58.504652    
    194000   0.97192025     17.347357      58.314499    
    195000   1.0315388      18.037468      58.298168    
    196000   1.0051079      18.012233      58.081708    
    197000   1.0163808      18.293063      57.934128    
    198000   0.99579735     17.609075      57.76157     
    199000   0.99612166     17.432368      57.790117    
    200000   1.0300057      17.403239      57.692547    
    201000   1.035047       17.858539      57.520621    
    202000   0.98218589     18.044667      57.831802    
    203000   0.97256054     18.061669      57.635958    
    204000   0.98753536     17.586651      57.642196    
    205000   1.0292293      17.858087      57.499511    
    206000   0.98913789     18.134612      57.236051    
    207000   0.98203616     17.741297      57.3481      
    208000   1.0087313      17.925274      57.363107    
    209000   1.0074601      17.466289      57.096329    
    210000   1.0390146      17.441905      56.760168    
    211000   0.99938253     16.947897      56.549091    
    212000   1.0408108      17.826366      56.53549     
    213000   1.0036272      17.676106      56.518282    
    214000   1.0333094      17.560127      56.467946    
    215000   1.0193489      17.609047      56.61893     
    216000   0.98868059     17.856584      56.380696    
    217000   1.000005       17.059362      56.384292    
    218000   0.98461423     17.849059      56.277552    
    219000   0.9680727      17.264693      56.216496    
    220000   0.97279514     17.446356      56.087833    
    221000   1.0024268      18.046526      55.294491    
    222000   0.9589721      17.322753      55.277864    
    223000   1.0078166      18.264188      55.250773    
    224000   1.0074699      17.316372      55.079443    
    225000   1.0272171      17.3452        55.21957     
    226000   1.0292885      17.947541      55.256072    
    227000   1.0054543      18.177942      55.267211    
    228000   1.0536768      17.692279      55.009445    
    229000   1.0206126      17.794076      54.785476    
    230000   1.0294999      18.366847      54.858504    
    231000   1.0450406      17.094716      54.693827    
    232000   1.0204875      17.147471      54.675477    
    233000   0.99389003     17.49798       54.630877    
    234000   1.0096709      17.886224      54.625512    
    235000   1.0122205      17.802897      54.422852    
    236000   0.97072281     17.52905       54.20891     
    237000   0.98141384     18.059043      53.895678    
    238000   1.0280281      17.470894      53.853572    
    239000   1.0341421      18.237736      53.689852    
    240000   1.0222055      17.318578      53.564148    
    241000   1.0184795      17.491954      53.460311    
    242000   1.0189331      17.588313      53.398063    
    243000   0.97676791     17.671075      53.486398    
    244000   0.97763653     18.118302      53.534612    
    245000   0.99212862     18.017212      53.327578    
    246000   0.9792422      17.510019      53.158043    
    247000   0.97966069     17.866305      53.006202    
    248000   0.97422204     16.843361      52.847717    
    249000   1.0483867      18.003248      52.915975    
    250000   1.019922       18.192717      52.972745    
    251000   1.0141049      17.587984      52.996024    
    252000   0.98732421     17.948535      53.240643    
    253000   1.0229598      17.588803      53.325607    
    254000   0.96872563     17.035777      53.0739      
    255000   1.0326587      17.60327       52.900246    
    256000   0.99383125     18.088301      52.649908    
    257000   0.99634978     17.310672      52.664909    
    258000   0.96514064     18.057529      52.55168     
    259000   0.99302168     17.505444      52.376569    
    260000   0.9689141      17.375925      52.262589    
    261000   0.97687586     17.267973      52.139553    
    262000   1.0035576      17.694714      51.964926    
    263000   0.96184842     17.312134      51.901782    
    264000   1.0009674      17.828085      51.864641    
    265000   1.0005057      17.103485      51.781187    
    266000   0.98336754     17.522055      51.612664    
    267000   0.99230382     17.402477      51.591048    
    268000   0.92898667     17.554072      51.573887    
    269000   1.0185057      17.601104      51.562726    
    270000   0.96226317     17.71642       51.630195    
    271000   1.0071958      17.732444      51.575798    
    272000   0.99648253     17.998752      51.713828    
    273000   0.99287744     17.574373      51.596146    
    274000   0.99378962     17.841999      51.539534    
    275000   0.99915589     18.09583       51.663913    
    276000   1.0259865      17.565166      51.86346     
    277000   1.0317829      17.343101      51.973534    
    278000   0.94411969     17.361262      51.796121    
    279000   0.97372182     17.463154      51.791434    
    280000   1.0233942      17.888303      51.964191    
    281000   1.0114601      17.658351      51.934627    
    282000   0.95699949     17.796391      51.931813    
    283000   1.0111085      17.789285      52.078922    
    284000   0.99850483     18.349481      52.250546    
    285000   0.98898567     17.85724       52.178217    
    286000   1.0028889      17.578997      51.95753     
    287000   0.96373667     17.296369      51.858264    
    288000   1.01986        17.580516      51.795871    
    289000   0.96171489     17.848214      51.674381    
    290000   0.96752659     18.204201      51.691863    
    291000   1.0009642      17.793897      51.661933    
    292000   0.99130047     18.099966      51.734146    
    293000   0.97779555     17.251022      51.750741    
    294000   0.98700036     17.612331      51.573142    
    295000   1.012247       17.768629      51.574625    
    296000   1.0353737      17.430434      51.429663    
    297000   1.0103013      17.384902      51.423103    
    298000   1.0062815      17.715882      51.307567    
    299000   1.0089489      17.611647      51.00065     
    300000   0.99560769     17.740996      51.125849    
    301000   0.97935811     18.374668      50.942864    
    302000   1.0173044      17.998367      50.744631    
    303000   0.97870426     17.533584      50.657929    
    304000   0.96712017     18.062853      50.595176    
    305000   1.0280511      17.582929      50.336603    
    306000   1.0006523      17.380583      50.153462    
    307000   1.0241291      17.660018      49.984054    
    308000   1.0162806      17.530795      49.830284    
    309000   1.0166532      17.863645      49.71688     
    310000   1.0142517      17.260537      49.585577    
    311000   0.98195441     17.320964      49.443055    
    312000   1.0320069      17.58021       49.394495    
    313000   0.9769326      18.239718      49.294261    
    314000   0.98106374     17.516111      49.114362    
    315000   0.95162556     17.225548      49.150313    
    316000   1.0477695      17.281627      48.99601     
    317000   1.003775       17.670049      48.931209    
    318000   0.99193766     17.737484      49.158804    
    319000   1.0029313      17.242525      48.97651     
    320000   1.0297309      17.602283      48.966624    
    321000   1.0140998      17.833609      48.738017    
    322000   0.95050234     17.455838      48.592307    
    323000   1.0410232      17.910735      48.984934    
    324000   0.98072189     18.180571      48.933543    
    325000   1.0219849      17.419344      48.938412    
    326000   1.001506       17.328634      48.413649    
    327000   0.97802258     17.288193      48.300011    
    328000   1.0071263      16.92388       48.418894    
    329000   0.9961001      17.664394      48.407097    
    330000   1.004457       17.649888      48.193704    
    331000   1.0149476      17.772682      48.03758     
    332000   0.97485655     17.593485      48.008112    
    333000   0.99476141     17.919727      47.928173    
    334000   0.97697826     17.098636      47.916022    
    335000   0.99604147     17.508249      47.757887    
    336000   1.0285666      18.008629      47.828671    
    337000   1.0053487      17.616407      47.620891    
    338000   1.0028818      17.561447      47.500118    
    339000   1.0178237      18.105861      47.383915    
    340000   1.0515232      17.864889      47.367978    
    341000   0.94675854     17.725625      47.272039    
    342000   0.99919163     17.114744      47.326867    
    343000   1.0055617      17.373146      47.298522    
    344000   1.0396713      17.252027      47.257755    
    345000   1.0217973      18.260314      47.247298    
    346000   1.0555758      17.880828      47.162909    
    347000   0.99993612     18.105         46.955709    
    348000   1.0862376      18.338575      46.67839     
    349000   1.0155919      17.346234      46.488826    
    350000   0.98637615     17.006355      46.482205    
    351000   1.0235622      17.459663      46.45944     
    352000   0.98631695     17.309859      46.398913    
    353000   0.99014526     18.090365      46.124425    
    354000   1.0012893      17.432852      46.262955    
    355000   1.0354641      18.010273      46.01855     
    356000   1.0078974      17.155336      46.089153    
    357000   1.0258116      17.370976      46.055939    
    358000   1.0355915      17.73919       46.226834    
    359000   1.038025       17.33343       46.208686    
    360000   0.96609142     17.495155      45.751387    
    361000   1.0021824      17.363183      45.623816    
    362000   0.96373094     17.426433      45.628723    
    363000   1.0240982      17.691151      45.304031    
    364000   1.0136311      17.696068      45.196041    
    365000   1.0151248      17.605433      45.351358    
    366000   0.98671025     17.770189      45.344761    
    367000   1.0003765      17.824194      45.523908    
    368000   1.0541371      17.460178      45.541485    
    369000   1.0311758      18.144146      45.660902    
    370000   0.98025786     17.669679      45.694693    
    371000   0.95998883     17.776222      45.651804    
    372000   0.99802905     16.78139       45.558322    
    373000   1.0002556      17.682761      45.418049    
    374000   0.99756912     17.391399      45.190088    
    375000   0.99668787     17.69578       45.212797    
    376000   0.99327843     17.314605      45.3098      
    377000   1.0219828      17.72482       45.133116    
    378000   1.0406512      17.794462      45.193088    
    379000   0.98467709     18.095483      44.961866    
    380000   1.0108889      17.963206      45.100542    
    381000   0.97354018     17.489196      45.016605    
    382000   0.99043252     18.233076      44.871026    
    383000   1.0176591      17.692774      44.58131     
    384000   1.0273653      17.872896      44.511251    
    385000   0.96931076     17.516875      44.345949    
    386000   0.97846134     18.073472      44.043135    
    387000   1.0002512      17.782587      43.860112    
    388000   1.0229547      17.829568      43.882831    
    389000   1.0290483      17.694162      43.674248    
    390000   0.99411248     17.360167      43.499683    
    391000   1.0248697      17.6206        43.409354    
    392000   1.0228891      16.894844      43.371171    
    393000   0.9605673      17.66722       43.112576    
    394000   1.0046695      18.036707      42.880073    
    395000   1.0155955      17.766078      42.896337    
    396000   1.0213042      17.459386      42.810877    
    397000   1.0052232      17.907335      42.920064    
    398000   0.97917226     17.74081       42.780835    
    399000   0.99983738     17.361861      42.686112    
    400000   1.0053062      17.559871      42.523117    
    401000   1.0114816      18.328735      42.393267    
    402000   1.0219004      17.42065       42.326066    
    403000   1.0199297      17.51836       42.134771    
    404000   0.93662057     16.965588      42.048857    
    405000   0.9948599      17.086294      41.835838    
    406000   1.0187424      17.527387      41.860026    
    407000   0.97412273     17.228077      41.860401    
    408000   0.99561055     17.191827      42.016202    
    409000   1.0045255      17.932751      42.170663    
    410000   1.0184212      17.725071      42.074887    
    411000   1.017932       17.492827      41.869742    
    412000   0.99981594     17.457049      41.990859    
    413000   0.97198583     17.92903       41.945092    
    414000   0.93062017     17.057685      41.715857    
    415000   1.0021594      17.397406      41.474298    
    416000   0.95315311     17.407756      41.236912    
    417000   1.0237634      18.113182      41.138697    
    418000   0.98705601     17.772561      40.829373    
    419000   0.97342046     17.343024      40.686086    
    420000   1.0267651      17.757319      40.439695    
    421000   0.95563644     17.293235      40.295241    
    422000   0.99528784     17.069178      40.252165    
    423000   0.99475027     17.646619      39.955631    
    424000   1.0233409      18.028934      39.830858    
    425000   0.98424518     17.393323      40.112003    
    426000   1.0176262      18.061844      40.074804    
    427000   0.99772736     17.881892      39.821949    
    428000   0.97357955     17.695105      39.619448    
    429000   1.0175918      17.729433      39.677586    
    430000   1.0291522      17.97031       39.843071    
    431000   0.99704784     17.557251      39.679203    
    432000   1.0174748      17.594133      39.467007    
    433000   1.0545088      18.078999      39.164843    
    434000   1.0149388      17.784315      39.11095     
    435000   0.98872532     17.169102      39.091589    
    436000   1.0554102      17.857673      38.691095    
    437000   1.0227279      17.640702      38.55079     
    438000   1.0414618      17.731504      38.36205     
    439000   1.0209566      17.837137      38.403423    
    440000   1.011019       17.343173      38.683481    
    441000   1.0081606      17.17161       38.604302    
    442000   1.0587396      17.558697      38.408381    
    443000   0.99888335     17.120385      38.196025    
    444000   0.96118253     17.743737      38.182412    
    445000   1.0366325      17.58455       38.159114    
    446000   1.0237988      17.737281      37.757442    
    447000   1.0075282      17.467218      37.688885    
    448000   0.98664716     17.755557      37.430863    
    449000   1.0322344      18.008325      37.143331    
    450000   0.96697479     16.649324      37.143542    
    451000   0.98302403     17.854506      37.074781    
    452000   0.97680921     17.289677      37.054905    
    453000   0.96205686     17.337031      36.918299    
    454000   0.97122219     17.757882      36.882887    
    455000   0.9942023      18.135388      36.558946    
    456000   0.9958916      18.195628      36.437407    
    457000   0.96895533     17.407267      36.552856    
    458000   1.0278191      17.931578      36.580594    
    459000   0.97867374     18.457496      36.672412    
    460000   0.98646239     17.336607      36.648914    
    461000   1.0371569      17.609409      36.659973    
    462000   0.95250349     16.913654      36.657973    
    463000   0.99649194     17.879856      36.807028    
    464000   0.97104216     17.713924      36.737302    
    465000   1.0446395      17.835125      36.398475    
    466000   0.97826159     17.374871      36.401646    
    467000   1.0570721      17.544282      36.289022    
    468000   0.98673923     17.449671      36.128082    
    469000   0.9836924      17.307323      36.132282    
    470000   1.0082036      17.727498      36.091734    
    471000   1.0217931      17.378027      36.109206    
    472000   1.0327272      17.318657      35.958884    
    473000   1.0182329      18.321507      35.890576    
    474000   0.98357488     17.283606      35.988156    
    475000   1.0171016      17.449961      35.977485    
    476000   1.0152314      17.414061      35.68957     
    477000   1.0352581      17.020546      35.491142    
    478000   0.99272216     17.000703      35.453675    
    479000   1.0164795      17.81612       35.350943    
    480000   0.99263958     17.554647      35.111072    
    481000   0.98433766     17.58734       35.221728    
    482000   1.0179053      17.254973      35.09096     
    483000   1.0048413      17.624477      34.851454    
    484000   0.99140661     17.867339      34.737878    
    485000   0.98806951     17.39106       34.346776    
    486000   1.0232431      17.173048      34.329529    
    487000   0.99940818     17.44827       34.202921    
    488000   1.0119722      17.493904      34.112053    
    489000   0.97129269     17.635493      34.05914     
    490000   0.98272169     17.689889      33.783707    
    491000   0.97461064     17.387978      33.329998    
    492000   1.0208873      17.209029      33.180037    
    493000   0.99681641     17.321221      33.21789     
    494000   1.002854       17.749333      32.968493    
    495000   0.99569602     17.460472      32.987968    
    496000   1.0084145      17.274219      33.038586    
    497000   0.98634824     17.707284      32.963338    
    498000   1.0130622      17.558581      32.890944    
    499000   0.97998221     17.278458      32.827349    
    500000   0.99974512     17.717307      32.692466    
    501000   1.0219321      17.206266      32.775771    
    502000   0.99494702     17.627342      32.570738    
    503000   0.94123387     17.725339      32.469748    
    504000   0.95255682     17.366991      32.357384    
    505000   1.0147911      17.844229      32.18851     
    506000   1.0261174      16.953546      32.095481    
    507000   0.98352536     17.222271      32.015812    
    508000   1.0235893      17.696357      31.95649     
    509000   0.97298446     17.692553      31.659503    
    510000   0.99179624     18.087671      31.381808    
    511000   0.96288778     17.159997      31.164606    
    512000   0.97738025     17.634739      31.086612    
    513000   0.98689376     17.743175      30.853003    
    514000   1.006167       17.434534      30.840276    
    515000   0.98673954     17.507095      30.660433    
    516000   0.95212375     17.210443      30.619066    
    517000   0.99218958     17.52563       30.272365    
    518000   0.97303276     16.747766      30.141678    
    519000   0.98702224     17.466804      29.975816    
    520000   1.0115202      18.011767      29.921046    
    521000   0.96690863     17.337589      29.973174    
    522000   0.9882567      17.188905      29.727163    
    523000   1.018211       17.437949      29.780388    
    524000   0.97551177     17.368835      29.636091    
    525000   0.96579862     17.045374      29.59271     
    526000   0.96326878     17.852315      29.467773    
    527000   0.9640567      17.018289      29.329413    
    528000   0.95228428     17.332119      29.257451    
    529000   0.99334686     17.042176      29.191152    
    530000   1.0037798      17.499043      29.298629    
    531000   1.0153426      17.001253      29.236399    
    532000   0.99064326     17.228073      29.021749    
    533000   0.9763197      17.066533      29.034122    
    534000   0.98893393     17.598714      28.793393    
    535000   1.0302533      17.840168      28.779145    
    536000   0.99240489     17.255767      28.546055    
    537000   1.0073165      17.583449      28.648662    
    538000   1.0171226      17.710651      28.760533    
    539000   1.0157945      17.761019      28.724514    
    540000   1.0342979      17.38932       28.523673    
    541000   1.0443858      17.641312      28.682903    
    542000   0.99217282     17.067786      28.678887    
    543000   1.0023076      17.703281      28.501626    
    544000   1.0307187      17.186797      28.652678    
    545000   0.93781823     17.980533      28.508901    
    546000   1.0279126      17.034429      28.46464     
    547000   0.99771889     17.772384      28.30344     
    548000   1.0319505      17.873842      28.134718    
    549000   0.99884969     17.077121      27.896446    
    550000   0.96831348     17.460592      27.843875    
    551000   0.99230133     17.545797      27.762789    
    552000   1.0038299      17.18722       27.643993    
    553000   1.0203041      17.563754      27.727939    
    554000   1.0004689      17.279949      27.482197    
    555000   0.99546641     17.598367      27.159243    
    556000   1.031857       17.922111      27.298763    
    557000   0.99105487     18.190024      27.22699     
    558000   0.99338333     17.286561      27.220302    
    559000   1.0147287      17.363098      27.080478    
    560000   1.0249426      18.156437      26.859381    
    561000   0.9873327      17.753332      26.978816    
    562000   1.0352906      16.991045      27.003631    
    563000   0.97520561     17.411414      26.854441    
    564000   0.96510539     17.069114      26.689661    
    565000   0.9563313      17.851783      26.408631    
    566000   1.0204961      17.644805      26.443769    
    567000   0.97144353     16.899774      26.430422    
    568000   0.99007764     17.738508      26.543427    
    569000   0.99147361     17.187584      26.504612    
    570000   1.0123931      17.713754      26.65265     
    571000   1.0159047      17.77733       26.634483    
    572000   1.0282199      17.39227       26.603751    
    573000   1.0238767      17.573814      26.513762    
    574000   1.0236141      17.579767      26.272521    
    575000   0.99081714     17.518135      26.109994    
    576000   0.9967489      17.190514      26.184345    
    577000   0.95400865     16.827048      26.076588    
    578000   1.022415       17.493818      26.125286    
    579000   1.0033121      16.944425      25.940285    
    580000   0.97988436     17.424821      25.647238    
    581000   0.99134524     17.730775      25.432223    
    582000   1.0015164      17.165115      25.034546    
    583000   0.99130411     17.622823      25.047752    
    584000   1.0168912      17.027608      25.127218    
    585000   1.0323699      17.124132      25.165986    
    586000   0.9956163      17.981521      25.024916    
    587000   0.97286609     17.533568      24.917963    
    588000   0.99546202     17.441961      25.012171    
    589000   1.0156017      16.904473      24.649212    
    590000   1.0030169      17.223385      24.342241    
    591000   0.99790901     16.899807      24.241046    
    592000   1.018888       17.349426      24.196588    
    593000   0.99725203     17.119827      24.086647    
    594000   1.0361024      17.528165      24.08022     
    595000   0.95030323     17.747487      23.898053    
    596000   1.0005928      17.650178      23.705118    
    597000   1.044866       17.484797      23.58808     
    598000   0.98529205     17.232623      23.516412    
    599000   0.96619777     17.305925      23.49701     
    600000   0.99964436     17.375494      23.340742    
    601000   0.99953474     16.882458      23.01388     
    602000   0.97438762     17.149057      22.873514    
    603000   1.0153117      17.255354      22.772267    
    604000   0.99485709     17.095273      22.714437    
    605000   0.99779065     17.069492      22.473562    
    606000   1.0359308      17.323676      22.322242    
    607000   1.0245085      17.453391      22.412605    
    608000   1.0499596      16.99772       22.240274    
    609000   0.97293763     17.533046      22.346092    
    610000   1.0027323      17.908163      22.18378     
    611000   1.0497731      17.75678       22.051987    
    612000   0.97676211     17.132405      21.862299    
    613000   0.99800206     17.431818      21.989953    
    614000   1.0210607      17.351193      22.015559    
    615000   1.0322379      16.903289      22.180765    
    616000   1.0354895      16.733634      22.362583    
    617000   0.96464397     17.51202       22.261991    
    618000   1.0259539      17.85956       22.298332    
    619000   1.0306834      17.496789      22.390313    
    620000   0.97916578     17.178207      22.358957    
    621000   0.95887834     16.954119      22.269613    
    622000   0.98817913     17.317552      22.181699    
    623000   0.9927887      17.156094      22.253759    
    624000   0.96274713     17.624579      22.373168    
    625000   1.0343831      17.380562      22.22786     
    626000   0.99824377     17.478305      22.03676     
    627000   0.9799189      17.611451      21.815158    
    628000   1.013507       17.4271        21.894706    
    629000   1.0150397      17.271174      21.835631    
    630000   0.98342981     17.872026      21.741414    
    631000   1.0429473      17.703951      21.48212     
    632000   0.98256583     17.898187      21.207796    
    633000   0.99627096     16.963985      21.172051    
    634000   1.0146909      17.386007      20.977848    
    635000   0.99371506     17.757637      20.682193    
    636000   1.0209223      17.546709      20.394389    
    637000   0.95755924     17.217754      20.04756     
    638000   1.0065214      17.174296      19.80794     
    639000   0.98304313     17.164974      19.616157    
    640000   1.0110274      17.555679      19.646538    
    641000   1.0396914      16.671894      19.757229    
    642000   0.99228169     17.538051      19.72811     
    643000   0.99050878     17.394157      19.740411    
    644000   1.036669       17.656723      19.555808    
    645000   1.0088591      17.21282       19.629002    
    646000   0.96898824     17.015655      19.56572     
    647000   0.98575212     17.110662      19.410801    
    648000   1.0292741      17.411523      19.445401    
    649000   1.0230302      17.553985      19.479382    
    650000   0.98878271     17.60308       19.478758    
    651000   0.9861053      17.06405       19.327077    
    652000   1.0453595      17.671442      19.098161    
    653000   0.97041993     17.622899      19.032079    
    654000   0.99657126     17.195399      18.912146    
    655000   0.99029003     17.235168      18.843747    
    656000   0.97847045     17.023541      18.583143    
    657000   0.98454043     17.869944      18.379955    
    658000   0.94700725     16.812313      18.281302    
    659000   1.0095315      17.589052      18.327813    
    660000   1.0044678      17.215705      18.046437    
    661000   1.0322605      16.864139      17.663466    
    662000   1.0179535      17.756516      17.430937    
    663000   0.96945723     17.137194      17.288177    
    664000   0.93428596     17.776362      17.119905    
    665000   0.9971487      17.157535      17.018251    
    666000   0.98761126     17.074983      16.971425    
    667000   0.99635217     17.469328      16.718318    
    668000   0.97219657     16.632744      16.751184    
    669000   0.98527653     16.872241      16.868868    
    670000   0.99182536     17.792012      16.904402    
    671000   1.0010018      17.293086      16.827354    
    672000   0.97967132     17.422624      16.863464    
    673000   0.98773407     17.31612       16.678961    
    674000   1.034698       17.316591      16.719887    
    675000   1.0044635      17.444731      16.636533    
    676000   1.0385883      17.649915      16.648291    
    677000   0.99255865     17.277139      16.472471    
    678000   1.0170249      17.353633      16.279422    
    679000   0.97028564     17.343674      16.378908    
    680000   1.0606599      18.320817      16.308076    
    681000   0.98887516     16.756989      16.120063    
    682000   0.96595239     17.279355      16.063218    
    683000   1.0137442      17.065978      15.947039    
    684000   1.0499434      17.253874      15.723478    
    685000   1.0036375      17.577561      15.613737    
    686000   0.96543373     17.270531      15.769132    
    687000   0.98575427     16.928811      15.597753    
    688000   0.99577266     17.360367      15.47652     
    689000   0.99966932     17.237358      15.335422    
    690000   1.0059432      16.806918      15.140424    
    691000   0.9453681      17.016461      15.126777    
    692000   0.97746044     17.442598      15.146739    
    693000   1.0141812      16.808759      14.849524    
    694000   1.0090681      17.405147      14.691236    
    695000   1.0024589      16.981539      14.417581    
    696000   1.0407208      17.336215      14.072976    
    697000   1.0397378      16.660477      13.98212     
    698000   1.018604       17.696686      13.82981     
    699000   0.98205678     17.249106      13.772213    
    700000   0.97340321     17.235085      13.589915    
    701000   1.0024006      16.833998      13.467324    
    702000   1.0195664      16.958104      13.366884    
    703000   1.0286991      16.920278      13.219233    
    704000   0.99439242     16.91635       13.089653    
    705000   1.0018969      17.679539      12.947063    
    706000   1.0110759      17.795875      12.875245    
    707000   1.0084677      17.551048      12.814126    
    708000   0.98558791     16.701671      12.840324    
    709000   0.98522555     17.431284      12.735604    
    710000   0.99349761     16.914079      12.891008    
    711000   1.037099       16.358151      12.767601    
    712000   0.99981765     17.067533      12.739134    
    713000   0.97097319     16.48563       12.655878    
    714000   1.0290717      17.041394      12.602159    
    715000   1.0376647      17.251411      12.23975     
    716000   0.97701562     16.653984      11.944498    
    717000   0.99033147     17.0729        11.913871    
    718000   1.0131241      16.929239      11.868413    
    719000   0.9446498      17.169692      11.908872    
    720000   0.92968291     17.206539      11.666873    
    721000   0.96785605     16.955003      11.476682    
    722000   1.0161554      17.072467      11.70272     
    723000   0.97659879     16.737201      11.812498    
    724000   0.97245962     16.972567      11.525191    
    725000   1.046553       16.684028      11.321053    
    726000   0.99585252     17.081163      11.185962    
    727000   1.0102903      16.806698      11.176122    
    728000   1.0127583      16.95639       11.075207    
    729000   0.96553458     16.327505      10.870133    
    730000   0.96638773     16.678149      10.921364    
    731000   1.0196779      17.019915      10.900292    
    732000   1.0545966      16.702283      10.788781    
    733000   1.0520278      17.112698      10.909738    
    734000   1.0133327      17.279825      10.757589    
    735000   0.97648895     17.162014      10.662175    
    736000   0.99280958     17.418957      10.603204    
    737000   0.97962918     17.291598      10.51618     
    738000   1.0092315      17.8512        10.460031    
    739000   0.9910907      17.216644      10.280285    
    740000   0.9992088      17.17702       10.301543    
    741000   0.97658751     17.194327      10.039605    
    742000   0.9673694      16.642101      10.0273      
    743000   0.99220638     17.329029      10.064315    
    744000   1.046546       17.173112      9.8870058    
    745000   0.9690085      16.449795      9.7969303    
    746000   0.97212469     16.931495      9.5770431    
    747000   1.0358897      17.036269      9.5248564    
    748000   1.0135694      16.924526      9.4748413    
    749000   1.0165832      17.497127      9.3898742    
    750000   0.99557614     17.076092      9.5690381    
    751000   0.94499225     16.910399      9.7359602    
    752000   1.0514749      17.304147      9.5928834    
    753000   0.99589917     16.940353      9.613896     
    754000   1.0142761      17.241285      9.721893     
    755000   0.99670249     17.041794      9.6761179    
    756000   1.0095708      17.727783      9.6434956    
    757000   0.98190672     17.193626      9.460081     
    758000   1.0099917      17.143194      9.5169023    
    759000   0.99568391     16.895987      9.4305476    
    760000   0.95430219     17.139194      9.5485395    
    761000   1.0081727      17.167828      9.5428398    
    762000   1.0513073      17.190287      9.4216003    
    763000   1.0335461      16.998856      9.4938894    
    764000   1.0005249      17.015082      9.4117874    
    765000   0.99733185     17.212549      9.3906992    
    766000   0.96095363     17.528958      9.4547263    
    767000   1.0412363      16.91368       9.425332     
    768000   1.0062169      17.813792      9.4465629    
    769000   0.98570818     17.191993      9.137242     
    770000   1.0240369      17.147916      9.1681175    
    771000   0.98764627     16.898595      8.969912     
    772000   1.0016642      16.567406      8.9722054    
    773000   1.0032514      16.852436      8.7816745    
    774000   0.99357686     17.019132      8.8957339    
    775000   1.037773       17.499417      8.7434632    
    776000   1.0151938      17.299539      8.6979766    
    777000   0.93533452     16.611033      8.6561228    
    778000   0.97795521     17.023777      8.6827319    
    779000   0.99003735     16.832137      8.5699834    
    780000   1.0313923      17.180357      8.6750738    
    781000   1.0136384      17.578746      8.6852753    
    782000   1.0114233      16.956634      8.7049128    
    783000   0.97707268     16.816116      8.525465     
    784000   1.011039       17.220324      8.4226786    
    785000   0.96628276     17.220135      8.3204305    
    786000   1.0486036      16.898082      8.164036     
    787000   1.0332211      17.051745      8.1583578    
    788000   1.0391991      16.2692        7.9278921    
    789000   1.032088       17.163828      7.9114266    
    790000   0.97074398     16.392371      7.8631895    
    791000   0.94613019     16.716173      7.857943     
    792000   1.0224019      17.749248      7.6021562    
    793000   0.96306887     17.545376      7.3824985    
    794000   0.99940083     17.118147      7.0955265    
Fix halt condition for fix-id 3 met on step 795000 with value 6.921504174376287 (src/fix_halt.cpp:237)
    795000   1.0096754      17.409598      6.9215042    
Loop time of 1371.29 on 2 procs for 695000 steps with 1001 atoms

Performance: 437895.151 tau/day, 506.823 timesteps/s
125.6% CPU use with 1 MPI tasks x 2 OpenMP threads

MPI task timing breakdown:
Section |  min time  |  avg time  |  max time  |%varavg| %total
---------------------------------------------------------------
Pair    | 275.08     | 275.08     | 275.08     |   0.0 | 20.06
Bond    | 19.588     | 19.588     | 19.588     |   0.0 |  1.43
Neigh   | 1030.1     | 1030.1     | 1030.1     |   0.0 | 75.12
Comm    | 0.34049    | 0.34049    | 0.34049    |   0.0 |  0.02
Output  | 2.1968     | 2.1968     | 2.1968     |   0.0 |  0.16
Modify  | 40.236     | 40.236     | 40.236     |   0.0 |  2.93
Other   |            | 3.769      |            |       |  0.27

Nlocal:           1001 ave        1001 max        1001 min
Histogram: 1 0 0 0 0 0 0 0 0 0
Nghost:              0 ave           0 max           0 min
Histogram: 1 0 0 0 0 0 0 0 0 0
Neighs:         211415 ave      211415 max      211415 min
Histogram: 1 0 0 0 0 0 0 0 0 0

Total # of neighbors = 211415
Ave neighs/atom = 211.2038
Ave special neighs/atom = 1.998002
Neighbor list builds = 5993
Dangerous builds = 0

# This simulation is done
# Move onto the next one
clear
  using 2 OpenMP thread(s) per MPI task
package omp 0
using multi-threaded neighbor list subroutines
next f
jump SELF

###
# Reference paper:
# K. Kremer and G. S. Grest
# Dynamics of entangled linear polymer melts: A molecular-dynamics simulation
# J Chem Phys 92, 5057 (1990)

##################################
# MIHIR: for branched polymers
# LJ minimum first to expand and explore, then collapse
###

###
# Looping through the various nuc3branch4 polymers to simulate,
# define variables to switch through
variable f index bb40nuc3bl10bn4d30tot100 bb80nuc3bl20bn4d30tot200 bb120nuc3bl30bn4d30tot300 bb160nuc3bl40bn4d30tot400 bb200nuc3bl50bn4d30tot500 bb240nuc3bl60bn4d30tot600 bb280nuc3bl70bn4d30tot700 bb320nuc3bl80bn4d30tot800 bb360nuc3bl90bn4d30tot900 bb400nuc3bl100bn4d30tot1000 bb440nuc3bl110bn4d30tot1100 bb480nuc3bl120bn4d30tot1200
###


###
# Box and units  (use LJ units and periodic boundaries)
###

units lj
log nuc3branch4/logs2/$f.log
log nuc3branch4/logs2/bb440nuc3bl110bn4d30tot1100.log
