#atom_style bond #no stiffness
atom_style angle #with stiffness

boundary        p p p
###
# Pair interactions require lists of neighbours to be calculated
###

#neighbor 0.3 bin
neighbor 4 bin

neigh_modify every 1 delay 1 check yes
atom_modify sort 0 0
### Generate RESTART file, SPECIAL format, not a .txt file ###
### Useful if simulation crashes ###

restart 1000000 nuc3branch4/restarts2/$f.restart
restart 1000000 nuc3branch4/restarts2/bb440nuc3bl110bn4d30tot1100.restart
#############################



### READ "start" data file ###

read_data nuc3branch4/$f.dat
read_data nuc3branch4/bb440nuc3bl110bn4d30tot1100.dat
Reading data file ...
  orthogonal box = (-1000 -1000 -1000) to (1000 1000 1000)
  1 by 1 by 1 MPI processor grid
  reading atoms ...
  1101 atoms
  scanning bonds ...
  3 = max bonds/atom
  scanning angles ...
  6 = max angles/atom
  reading bonds ...
  1100 bonds
  reading angles ...
  1108 angles
Finding 1-2 1-3 1-4 neighbors ...
  special bond factors lj:    0        0        0       
  special bond factors coul:  0        0        0       
     4 = max # of 1-2 neighbors
     4 = max # of 1-3 neighbors
     8 = max # of 1-4 neighbors
    12 = max # of special neighbors
  special bonds CPU = 0.002 seconds
  read_data CPU = 0.110 seconds

######################

### READ "REstart" data file ###

######################



###
# Define groups (atom type 1 is group 'all')
###
group all type 1
1101 atoms in group all


###
# Dump configs - "simple dumpings"
###

###
# Dump configs + box coords
###

dump   1   all   custom   1000  nuc3branch4/trjs2/$f.lammpstrj  id  x y z  ix iy iz
dump   1   all   custom   1000  nuc3branch4/trjs2/bb440nuc3bl110bn4d30tot1100.lammpstrj  id  x y z  ix iy iz
dump_modify   1   format line "%d %.5f %.5f %.5f %d %d %d"

########################################################################


###################################################################
# Stiffness term
#
# E = K * (1+cos(theta)), K>0
#
angle_style   cosine
#change this coefficient to change stiffness (e.g. 1,5,10)
angle_coeff   1 1.0
###################################################################

###################################################################
# Pair interaction between non-bonded atoms
#
#  Lennard-Jones 12-6 potential with cutoff:
#  potential E=4epsilon[ (sigma/r)^12 - (sigma/r)^6]  for r<r_cut
#
#  1.12246 = 2^(1/6) is the minimum of the potential


pair_style      lj/cut 1.12246152962189
#pair_style      lj/cut 3

#
#  pair_modify shift yes adds a constant to the potential such

#  that E(r_cut)=0. Forces remains unchanged.
#

pair_modify     shift yes

#
#  pair_coeff for lj/cut, specify 4:
#    * atom type interacting with
#    * atom type
#    * epsilon (energy units)
#    * sigma (distance units)
#

pair_coeff      1 1 1.0 1.0
###################################################################

###################################################################
# Pair interaction between non-bonded atoms
#
#  soft potential, for PUSHING apart overlapping atoms
#  potential E=A*(1 + cos(pi*r/r_c))
#
#  1.12246 = 2^(1/6) is the cut-off r_c

#pair_style     soft 1.12246152962189

#
#  pair_coeff for soft, specify 3:
#    * atom type interacting with
#    * atom type
#    * A
#
#

#pair_coeff      1 1 100.0
###################################################################

###################################################################
# Pair interaction between bonded atoms
#
# Fene potential + Lennard Jones 12-6:

#
#  E= - 0.5 K R0^2 ln[ 1- (r/R0)^2]
#     + 4epsilon[ (sigma/r)^12 - (sigma/r)^6] + epsilon
#

bond_style   fene


#
# For style fene, specify:
#   * bond type
#   * K (energy/distance^2)
#   * R0 (distance)
#   * epsilon (energy)  (LJ component)
#   * sigma (distance)  (LJ component)
#


special_bonds fene #<=== I M P O R T A N T (new command)
Finding 1-2 1-3 1-4 neighbors ...
  special bond factors lj:    0        1        1       
  special bond factors coul:  0        1        1       
     4 = max # of 1-2 neighbors
    12 = max # of special neighbors
  special bonds CPU = 0.000 seconds

bond_coeff   1   30   2   1.0   1.0


###################################################

###################################################################
# Pair interaction between bonded atoms
#
# Harmonic potential:
#
#  E= K * (R-R0)^2
#

#bond_style   harmonic

#
# For style harmonic, specify:
#   * bond type
#   * K (energy/distance^2)
#   * R0 (distance)
#

#bond_coeff   1   60.0   1.0
#bond_coeff   2   harmonic 0.1   1.0

###################################################
compute 1 all gyration
variable rog equal c_1
#compute 2 all coord/atom cutoff 1.1

#dump 2 all custom 10000 contact_number.dump id c_2


###
# Set up fixes
###
thermo_style   custom   step  temp enthalpy c_1
fix 1 all nve   ###NVE ensemble

fix 2 all   langevin   1.0 1.0 1.0  778655   ###Langevin integrator Tstart Tstop 1/friction rndseed


##### Sample thermodynamic info  (temperature, energy, pressure, etc.) #####
thermo 1000









############################################################################

###
# set timestep of integrator

timestep 0.01

###
# run integration for a number of steps
###
#run 0
#variable r equal c_1
#if "$r < 63.1" then "quit 1"

# lj potential minimum, cause molecule to explore
run 100000
Generated 0 of 0 mixed pair_coeff terms from geometric mixing rule
Last active /omp style is angle_style cosine/omp
Neighbor list info ...
  update: every = 1 steps, delay = 1 steps, check = yes
  max neighbors/atom: 2000, page size: 100000
  master list distance cutoff = 5.1224615
  ghost atom cutoff = 5.1224615
  binsize = 2.5612308, bins = 781 781 781
  1 neighbor lists, perpetual/occasional/extra = 1 0 0
  (1) pair lj/cut/omp, perpetual
      attributes: half, newton on, omp
      pair build: half/bin/newton/omp
      stencil: half/bin/3d
      bin: standard
WARNING: Communication cutoff 5.12246152962189 is shorter than a bond length based estimate of 5.455. This may lead to errors. (src/comm.cpp:723)
Per MPI rank memory allocation (min/avg/max) = 1862 | 1862 | 1862 Mbytes
   Step          Temp         Enthalpy         c_1      
         0   0              13.234555      90.624926    
      1000   1.0418289      18.435481      89.767975    
      2000   0.97985874     18.608295      88.86636     
      3000   1.0308998      18.741882      88.311784    
      4000   1.0328852      18.907361      87.626715    
      5000   1.0384885      19.413644      87.186542    
      6000   1.013051       19.429274      86.551499    
      7000   0.99669491     19.482524      86.134059    
      8000   1.0288327      19.839796      85.734641    
      9000   1.0060308      19.197904      85.219379    
     10000   0.96484865     19.156837      84.990895    
     11000   1.0097695      19.20536       84.682891    
     12000   1.015672       19.556386      84.422107    
     13000   1.0129231      19.499287      84.165829    
     14000   1.017595       19.497575      83.824682    
     15000   0.99973785     19.637106      83.575493    
     16000   1.0084654      19.677812      83.514129    
     17000   0.96131907     19.508666      83.27531     
     18000   1.0198963      20.007949      82.983264    
     19000   0.99995336     19.784558      82.850682    
     20000   0.97955841     19.696656      82.712195    
     21000   1.0082303      19.566371      82.605425    
     22000   1.0031712      19.655819      82.291484    
     23000   0.99733689     19.833834      81.797751    
     24000   0.9761096      19.789163      81.510646    
     25000   0.95552059     19.845072      81.250385    
     26000   0.99942394     20.000086      80.976761    
     27000   1.0327833      20.149799      80.592001    
     28000   1.0482974      20.097525      80.470735    
     29000   1.0020515      20.366682      80.111188    
     30000   1.0154791      20.002227      79.903063    
     31000   1.0046284      19.524026      79.747408    
     32000   0.97706312     19.642723      79.415523    
     33000   1.0365292      20.11641       79.147697    
     34000   0.99574789     19.395762      79.06858     
     35000   1.0205645      20.296712      78.852714    
     36000   1.0113332      20.011851      78.626005    
     37000   1.0534689      19.913983      78.414839    
     38000   1.006244       19.712735      78.278644    
     39000   0.99807125     19.820707      78.045088    
     40000   0.98617038     19.757932      77.688319    
     41000   0.98705444     20.18017       77.512335    
     42000   1.0213498      20.230317      77.641634    
     43000   1.019633       20.455828      77.380966    
     44000   1.0294229      20.241433      77.140773    
     45000   0.97518541     19.924668      76.937031    
     46000   0.99521831     19.659909      76.661226    
     47000   0.98875483     19.757553      76.41145     
     48000   0.99257407     20.254889      76.33658     
     49000   0.98327076     20.341955      76.245154    
     50000   0.97179632     20.126581      76.190629    
     51000   0.99201834     19.923995      76.041166    
     52000   0.96633794     20.225474      75.927629    
     53000   1.0139026      19.879905      75.956963    
     54000   0.98423773     20.254749      75.920797    
     55000   0.98628264     20.029468      75.531602    
     56000   1.0210985      20.183528      75.135128    
     57000   0.97906249     20.323003      74.848475    
     58000   1.0204743      20.806623      74.529642    
     59000   0.99225212     19.993282      74.173959    
     60000   1.0121382      20.517076      74.009431    
     61000   1.0121874      20.484256      74.044293    
     62000   0.99206712     20.327714      73.863209    
     63000   1.027821       20.334847      73.695129    
     64000   1.0144748      20.494013      73.519994    
     65000   1.002856       19.91778       73.264165    
     66000   1.0040204      20.358548      73.304843    
     67000   1.0214997      19.910077      73.179365    
     68000   0.99936993     20.277354      73.202238    
     69000   0.99883028     20.361958      73.024105    
     70000   1.0113583      20.057547      72.864352    
     71000   1.024696       20.321698      72.854474    
     72000   1.0074543      20.290287      72.713195    
     73000   1.0414983      20.355958      72.43995     
     74000   1.0211106      20.616755      72.351509    
     75000   1.0329999      20.158622      72.246646    
     76000   0.99521478     20.933607      72.341135    
     77000   1.0062079      20.678973      72.4876      
     78000   0.98488941     20.46009       72.618627    
     79000   0.97276052     19.86726       72.561598    
     80000   1.0045378      20.555948      72.359516    
     81000   1.0033919      20.341766      72.322807    
     82000   1.0521615      20.308677      72.266806    
     83000   1.0000837      20.494674      72.357585    
     84000   0.97136132     20.559687      72.183499    
     85000   0.97247107     19.794224      72.193988    
     86000   1.0292835      20.474551      72.027948    
     87000   1.0203447      20.315308      72.185508    
     88000   1.0094153      20.252252      72.299473    
     89000   0.98638189     20.306846      72.317912    
     90000   1.0032431      20.256849      72.431678    
     91000   0.99878076     20.268006      72.456011    
     92000   1.0026367      20.331248      72.277486    
     93000   1.0253373      20.246561      72.067071    
     94000   0.98863555     19.672927      71.883915    
     95000   0.98812474     20.599239      71.772744    
     96000   1.0054706      20.80338       71.874103    
     97000   0.95877418     20.311189      71.785521    
     98000   1.0158824      20.312563      71.553032    
     99000   0.99503989     20.635448      71.738459    
    100000   0.97801932     20.231169      71.61114     
Loop time of 537.53 on 2 procs for 100000 steps with 1101 atoms

Performance: 160735.227 tau/day, 186.036 timesteps/s
103.0% CPU use with 1 MPI tasks x 2 OpenMP threads

MPI task timing breakdown:
Section |  min time  |  avg time  |  max time  |%varavg| %total
---------------------------------------------------------------
Pair    | 1.9881     | 1.9881     | 1.9881     |   0.0 |  0.37
Bond    | 3.5693     | 3.5693     | 3.5693     |   0.0 |  0.66
Neigh   | 523.77     | 523.77     | 523.77     |   0.0 | 97.44
Comm    | 0.056058   | 0.056058   | 0.056058   |   0.0 |  0.01
Output  | 0.3742     | 0.3742     | 0.3742     |   0.0 |  0.07
Modify  | 7.2117     | 7.2117     | 7.2117     |   0.0 |  1.34
Other   |            | 0.5627     |            |       |  0.10

Nlocal:           1101 ave        1101 max        1101 min
Histogram: 1 0 0 0 0 0 0 0 0 0
Nghost:              0 ave           0 max           0 min
Histogram: 1 0 0 0 0 0 0 0 0 0
Neighs:           7418 ave        7418 max        7418 min
Histogram: 1 0 0 0 0 0 0 0 0 0

Total # of neighbors = 7418
Ave neighs/atom = 6.7375114
Ave special neighs/atom = 1.9981835
Neighbor list builds = 1165
Dangerous builds = 0

# Replace lj potential, now collapse
pair_style      lj/cut 3

# Cutoff simul when gyration under 10
# Variable created with equal requires v_ + 'name'
fix 3 all halt 1000 v_rog < 7

run 3000000
Generated 0 of 0 mixed pair_coeff terms from geometric mixing rule
Last active /omp style is angle_style cosine/omp
Per MPI rank memory allocation (min/avg/max) = 1862 | 1862 | 1862 Mbytes
   Step          Temp         Enthalpy         c_1      
    100000   0.97801932     19.528401      71.61114     
    101000   0.97546672     19.229152      71.428301    
    102000   0.9836657      19.569887      71.1141      
    103000   0.97964738     19.140386      70.973531    
    104000   0.99445195     19.779316      70.707976    
    105000   1.0319843      19.618684      70.656102    
    106000   0.9839865      20.109296      70.49727     
    107000   1.0073127      19.781269      70.409296    
    108000   1.0323896      18.995817      70.358974    
    109000   1.0091732      19.36965       70.215636    
    110000   0.92146592     18.849861      70.012108    
    111000   1.0182182      19.670884      69.849937    
    112000   1.0145753      19.375575      69.498774    
    113000   1.0078134      19.313233      69.458855    
    114000   1.0324147      19.451352      69.404072    
    115000   1.0144144      19.45411       69.253909    
    116000   0.96231992     19.663069      69.042245    
    117000   0.98640111     19.176715      68.892747    
    118000   1.0633509      19.725614      68.691093    
    119000   1.03461        19.569341      68.284111    
    120000   0.96359347     18.718707      68.000615    
    121000   0.99812164     18.88036       68.047749    
    122000   0.97711691     18.942574      67.796332    
    123000   0.99356571     18.931875      67.502753    
    124000   1.0389606      19.804949      67.2254      
    125000   0.97465188     19.023103      67.044467    
    126000   0.98444435     18.929628      66.853681    
    127000   1.0038973      19.147367      66.584772    
    128000   0.9936715      18.520625      66.349391    
    129000   0.97510028     19.254884      66.027406    
    130000   1.0042397      18.836693      66.067083    
    131000   1.0007234      19.04427       65.998937    
    132000   1.0055032      19.149757      65.563137    
    133000   1.0080295      18.710157      65.588752    
    134000   1.0032703      18.495662      65.37558     
    135000   1.023338       18.943399      65.247899    
    136000   1.0215418      18.438577      65.080961    
    137000   1.0052191      18.644531      64.755231    
    138000   1.0262405      18.319392      64.633082    
    139000   1.0053574      19.025893      64.575829    
    140000   1.0181485      18.748777      64.571628    
    141000   1.0077562      19.252795      64.198968    
    142000   0.98980249     18.977726      64.091052    
    143000   0.97161638     19.033084      63.877282    
    144000   0.99107279     18.959618      63.658079    
    145000   1.0420809      18.936126      63.322717    
    146000   0.99262577     18.975781      63.342258    
    147000   0.98169812     18.444489      63.219961    
    148000   1.0091294      19.165091      62.788638    
    149000   1.0299081      18.499587      62.613509    
    150000   1.0166178      18.781533      62.412934    
    151000   0.97114078     18.807836      62.267327    
    152000   1.013198       18.989436      62.346299    
    153000   1.0299786      18.807083      62.103874    
    154000   0.96730768     18.235066      61.936817    
    155000   1.003962       18.726872      61.68225     
    156000   1.0224931      18.736365      61.276362    
    157000   0.96510709     18.90724       61.121857    
    158000   0.99194474     18.037877      60.953357    
    159000   0.99855329     18.273348      60.569172    
    160000   0.98955892     18.611497      60.361476    
    161000   1.022132       18.899291      60.149045    
    162000   1.0282674      19.022908      59.899916    
    163000   1.0011934      18.445975      59.781623    
    164000   0.99532999     19.018228      59.80759     
    165000   0.99089758     18.495097      59.668718    
    166000   0.98946263     18.139796      59.694602    
    167000   0.98656636     18.639201      59.549381    
    168000   1.0057195      18.896002      59.453191    
    169000   1.0274007      18.545288      59.195571    
    170000   1.0152328      18.36478       59.062067    
    171000   1.0073027      18.199908      58.822399    
    172000   0.99479713     18.441142      58.791279    
    173000   1.0053387      18.284917      58.400401    
    174000   0.98039938     18.485621      58.351314    
    175000   1.0101489      18.301921      58.39658     
    176000   0.99799086     17.908155      58.543488    
    177000   1.0160285      18.234334      58.36109     
    178000   1.010576       17.900565      58.326856    
    179000   1.0416729      18.398213      58.249429    
    180000   1.0000066      18.099612      58.267112    
    181000   1.0131463      18.14921       57.970754    
    182000   0.99058779     18.261558      57.784889    
    183000   1.0560277      18.577738      57.650061    
    184000   1.0128853      18.158087      57.42669     
    185000   1.005214       18.441242      57.206807    
    186000   0.99289084     17.950448      57.084865    
    187000   0.9626249      17.476596      57.006257    
    188000   1.0085181      18.368106      56.686633    
    189000   0.97673134     18.095863      56.593345    
    190000   1.0319012      17.92038       56.501073    
    191000   1.0207304      18.321279      56.402255    
    192000   1.0008489      18.072449      56.419015    
    193000   0.97075849     18.443893      56.527622    
    194000   1.0141752      17.596871      56.466649    
    195000   1.0423777      18.003227      56.347768    
    196000   1.0134293      18.519249      56.178169    
    197000   1.0232377      18.516472      56.154161    
    198000   0.9799456      18.228253      56.054352    
    199000   1.0104174      17.837029      55.790021    
    200000   0.97219392     17.889604      55.739955    
    201000   0.99656684     17.458037      55.649236    
    202000   0.99535447     18.081154      55.669031    
    203000   1.0262879      18.068823      55.787079    
    204000   0.98263094     17.863526      55.522216    
    205000   0.95308605     17.725915      55.533417    
    206000   0.9809573      18.002684      55.306582    
    207000   0.98631157     18.228107      55.154994    
    208000   0.96560581     17.856755      55.130468    
    209000   1.0110805      18.595913      54.806095    
    210000   1.0231223      17.91067       54.630561    
    211000   1.0024946      18.190716      54.666687    
    212000   0.95065535     17.590815      54.542058    
    213000   0.9938086      18.050994      54.527009    
    214000   1.0255397      18.253097      54.501515    
    215000   1.0108431      18.170297      54.242035    
    216000   0.99567256     17.335983      54.213813    
    217000   1.0049271      17.923137      54.019822    
    218000   1.0167776      17.290128      53.910073    
    219000   1.0341745      17.7047        53.689671    
    220000   0.98974188     17.71197       53.689052    
    221000   1.0217483      18.062367      53.57608     
    222000   1.0051129      17.239371      53.537796    
    223000   0.98176375     17.692711      53.363193    
    224000   1.0168662      17.762082      53.3331      
    225000   1.0152739      17.963171      53.042939    
    226000   1.009265       17.796975      52.614002    
    227000   1.0228597      17.338336      52.199716    
    228000   0.96423524     17.119444      52.245582    
    229000   0.99235101     18.028186      52.190407    
    230000   1.0262082      17.21357       52.166301    
    231000   1.0177489      18.22001       52.214133    
    232000   0.96379051     17.700389      52.168458    
    233000   0.99903416     17.232953      52.256796    
    234000   1.0404714      17.939882      52.178044    
    235000   1.0101747      18.400381      52.194057    
    236000   0.99163861     17.650332      52.176356    
    237000   0.96778289     17.666955      52.432077    
    238000   0.99403299     17.356299      52.477078    
    239000   1.0534298      17.36061       52.306422    
    240000   0.98111811     17.369992      52.20492     
    241000   0.99652691     17.599773      51.962081    
    242000   0.96695852     17.380899      51.823916    
    243000   0.97435433     18.461626      51.802817    
    244000   0.98674406     17.724821      51.924033    
    245000   0.97105353     17.476074      51.769716    
    246000   1.0542599      18.369793      51.48582     
    247000   0.95958098     17.708884      51.453592    
    248000   0.98778312     17.28742       51.334308    
    249000   0.99984428     17.488472      51.082477    
    250000   0.99905418     17.497558      51.260985    
    251000   1.0113961      17.35222       51.401983    
    252000   0.99244774     16.519638      51.241825    
    253000   0.98123132     17.086254      51.178519    
    254000   0.99460161     17.508906      51.23554     
    255000   0.97976543     17.795361      51.206493    
    256000   1.0181996      17.307816      51.006235    
    257000   1.0125583      17.498046      50.926684    
    258000   0.96801817     17.300821      50.777695    
    259000   1.0403482      17.824834      50.737754    
    260000   0.97342312     17.372239      50.616858    
    261000   0.97143562     17.242046      50.493522    
    262000   0.98778593     17.875549      50.468762    
    263000   0.98216933     17.82238       50.405327    
    264000   0.98013719     18.158632      50.269014    
    265000   0.9770423      17.530466      50.31911     
    266000   0.96179207     17.740932      50.22763     
    267000   1.0107894      17.586789      50.459296    
    268000   0.99865284     18.048187      50.41835     
    269000   0.97259338     17.546678      50.259487    
    270000   0.96705414     17.948191      50.199688    
    271000   1.0848883      17.912449      50.239741    
    272000   0.96211702     17.45739       50.288521    
    273000   1.0183349      17.946297      50.031967    
    274000   0.95286175     17.667908      49.908865    
    275000   0.98252773     17.70505       49.836204    
    276000   1.0288461      18.063101      49.866183    
    277000   1.0266556      17.785366      49.742977    
    278000   0.99560153     17.786659      49.609756    
    279000   1.0207288      17.752357      49.541218    
    280000   0.9977962      17.572952      49.345515    
    281000   0.97391373     17.475279      49.215766    
    282000   0.97814792     17.383989      49.091709    
    283000   0.99846935     17.605708      49.017712    
    284000   1.0396772      17.878367      48.781084    
    285000   0.98691133     17.528785      48.554977    
    286000   0.97632111     17.315717      48.667231    
    287000   0.99665112     17.341933      48.48355     
    288000   0.98054534     17.240005      48.584385    
    289000   0.99762728     17.174328      48.739545    
    290000   0.98997169     17.307753      48.547857    
    291000   0.96931425     17.596711      48.463362    
    292000   0.99005442     17.467938      48.488947    
    293000   0.99539937     17.619062      48.444489    
    294000   1.0142854      17.77243       48.44842     
    295000   0.95471551     17.802687      48.215287    
    296000   1.0116709      17.595912      48.269677    
    297000   1.0091688      18.094109      48.003959    
    298000   1.0110035      17.597455      48.07803     
    299000   1.0634624      18.2777        48.059251    
    300000   0.99084122     18.652049      48.006016    
    301000   0.99515616     17.565534      48.069756    
    302000   1.0249786      17.648656      48.009335    
    303000   1.0073347      17.149349      48.051472    
    304000   1.0006083      17.54478       47.802545    
    305000   0.98418895     17.581404      47.771162    
    306000   1.0002828      17.367261      47.767081    
    307000   1.0048474      17.496985      47.645449    
    308000   1.0205646      18.190616      47.674264    
    309000   1.0002637      18.06051       47.561888    
    310000   1.0176106      17.44959       47.658195    
    311000   1.0271098      17.719456      47.630669    
    312000   1.0129563      17.763061      47.533361    
    313000   0.9768905      17.475952      47.116287    
    314000   0.97553774     17.421063      47.01275     
    315000   0.97391378     17.730076      46.944412    
    316000   0.98754726     17.796185      47.079869    
    317000   0.936393       18.316787      46.983092    
    318000   0.98724328     17.805202      46.70701     
    319000   0.99179587     17.510882      46.572786    
    320000   1.044495       17.577982      46.565306    
    321000   0.98778669     17.704039      46.414036    
    322000   1.0256685      17.979599      46.359171    
    323000   1.0169105      17.947628      46.615248    
    324000   0.95321153     17.276522      46.489836    
    325000   0.96305413     17.425446      46.318325    
    326000   1.0246239      16.733207      46.160035    
    327000   1.0091228      17.738009      46.191256    
    328000   0.97758747     17.213201      45.873563    
    329000   1.0200117      17.027238      45.890593    
    330000   1.0264429      17.17149       45.44635     
    331000   0.99188464     17.750362      45.383827    
    332000   1.0162249      17.748286      45.170527    
    333000   0.98282486     17.584462      45.067124    
    334000   0.97385567     17.645979      45.099919    
    335000   1.052896       18.046861      45.171299    
    336000   0.98770647     17.401582      45.278071    
    337000   0.98742905     17.606563      45.076669    
    338000   1.0103503      17.480369      44.941158    
    339000   0.99712335     17.971555      44.94921     
    340000   0.9807194      17.273553      44.942199    
    341000   0.99755313     17.237047      44.792202    
    342000   1.0220439      17.05154       44.626482    
    343000   1.0165328      18.04504       44.541723    
    344000   0.99928002     17.344574      44.510643    
    345000   0.96220741     17.700961      44.561605    
    346000   0.9799477      17.6712        44.424295    
    347000   0.99071062     17.428515      44.368862    
    348000   0.96591375     17.715982      44.350032    
    349000   1.0223222      17.308894      44.265768    
    350000   1.0008884      17.777358      44.132612    
    351000   1.021414       17.669616      44.111229    
    352000   0.98431574     17.357594      44.309875    
    353000   0.97885069     17.456708      44.323641    
    354000   0.97133334     17.209231      44.078184    
    355000   1.0179652      17.674859      43.792423    
    356000   0.9950029      17.783029      43.674338    
    357000   1.0300487      17.913775      43.50978     
    358000   1.0099776      17.472433      43.326794    
    359000   1.0357818      17.350263      43.177591    
    360000   1.0289432      17.466957      43.076199    
    361000   0.96745352     17.499142      42.829816    
    362000   1.019099       17.727359      42.713837    
    363000   1.0285142      16.967967      42.69956     
    364000   0.99261908     17.127306      42.442929    
    365000   0.99785403     17.595474      42.067781    
    366000   0.96897435     17.127118      42.06425     
    367000   1.0029276      17.813859      41.861965    
    368000   0.95741408     17.857894      42.046132    
    369000   1.0345813      17.362876      41.901261    
    370000   1.00536        17.490339      41.832349    
    371000   0.97679461     17.462185      41.892339    
    372000   0.9733017      16.871965      41.782479    
    373000   1.0063426      17.915578      41.588677    
    374000   1.0098346      18.142605      41.398676    
    375000   0.98488803     17.1102        41.338735    
    376000   1.001839       17.956913      41.162829    
    377000   1.0145074      17.776059      40.945211    
    378000   1.0134011      17.396532      40.974495    
    379000   1.0197433      17.376804      41.040349    
    380000   0.96632483     17.347643      40.955257    
    381000   0.98938162     17.042521      40.689045    
    382000   1.028103       17.111416      40.563638    
    383000   0.98840136     17.532234      40.269308    
    384000   0.99418277     17.379352      40.203565    
    385000   1.010458       17.528028      40.054845    
    386000   0.97068866     17.475538      39.839967    
    387000   1.0093542      17.284626      39.673353    
    388000   0.98480153     17.345767      39.753208    
    389000   1.0485825      17.527386      39.736049    
    390000   0.98541019     17.307198      39.628198    
    391000   0.97061782     17.164291      39.506971    
    392000   1.001743       17.004403      39.375918    
    393000   0.96781294     17.905018      39.389121    
    394000   1.007786       17.674365      39.453362    
    395000   1.0051843      17.412285      39.458107    
    396000   0.98207529     17.542224      39.463366    
    397000   1.0025447      17.797482      39.603981    
    398000   0.9634736      17.597889      39.532317    
    399000   1.0113886      17.725242      39.606862    
    400000   1.0045408      17.042191      39.598631    
    401000   1.0040635      17.847953      39.637387    
    402000   1.0103387      17.446208      39.55869     
    403000   1.0104987      17.274931      39.683409    
    404000   0.96994404     17.082865      39.664419    
    405000   1.0226844      17.233331      39.580989    
    406000   1.0013007      17.799276      39.580054    
    407000   1.022586       18.067272      39.659503    
    408000   0.95411032     17.048968      39.725857    
    409000   1.0034675      17.51177       39.6323      
    410000   1.0056151      17.372565      39.702857    
    411000   0.99594691     17.79934       39.652661    
    412000   0.99942702     17.094112      39.729684    
    413000   1.0107811      17.384777      39.563689    
    414000   0.97442947     17.870754      39.515643    
    415000   0.99758056     17.513825      39.268029    
    416000   1.0183024      17.864243      38.974348    
    417000   0.98824307     17.722476      38.800224    
    418000   0.98129276     17.98895       38.875765    
    419000   1.0322886      17.349253      38.844674    
    420000   0.98610321     17.646085      38.525125    
    421000   1.0495634      17.902464      38.192606    
    422000   1.0058808      17.525569      38.127654    
    423000   1.0441762      17.751173      38.197297    
    424000   1.0344751      17.599653      38.044738    
    425000   0.97440353     17.395178      37.848995    
    426000   1.0340635      18.200368      37.93245     
    427000   0.99948411     17.63032       37.779632    
    428000   0.97334904     17.195703      37.981339    
    429000   0.9888462      17.295981      37.741244    
    430000   1.0109572      17.178522      37.66311     
    431000   1.0170967      17.498244      37.457087    
    432000   1.0167916      16.978683      37.561993    
    433000   1.0288533      17.662114      37.686104    
    434000   1.0096385      17.15063       37.451981    
    435000   1.0337157      17.507687      37.280903    
    436000   1.0084907      17.558387      37.182762    
    437000   0.99882907     17.346701      37.15494     
    438000   0.99420967     17.209772      36.854147    
    439000   0.98322849     17.294848      36.672003    
    440000   0.96845288     17.086937      36.47163     
    441000   0.98876784     17.342627      36.417505    
    442000   1.0098662      18.284359      36.476002    
    443000   0.99354652     17.899174      36.470091    
    444000   1.0015919      17.744908      36.484316    
    445000   0.98937288     16.924742      36.668395    
    446000   1.0183401      17.725904      36.678977    
    447000   0.98477249     17.09811       36.308867    
    448000   1.0344829      17.276867      36.23447     
    449000   1.0373435      17.925894      36.444678    
    450000   1.013742       17.27406       36.478024    
    451000   0.98691391     17.444716      36.442347    
    452000   0.9801625      17.309889      36.405117    
    453000   1.0123723      17.869929      36.423668    
    454000   0.98934127     17.561289      36.1474      
    455000   1.0062877      17.280027      35.982591    
    456000   1.0068283      17.591698      35.900508    
    457000   0.98635958     17.523733      35.883545    
    458000   1.0068882      17.201151      35.875457    
    459000   1.0563131      17.606862      35.718571    
    460000   0.99208853     17.557267      35.548284    
    461000   1.0006504      17.739651      35.562621    
    462000   0.96412893     17.510246      35.486868    
    463000   0.94863534     17.210054      35.298953    
    464000   1.034218       17.460277      35.136878    
    465000   0.97783287     17.232401      34.840331    
    466000   1.0178712      17.397373      34.683943    
    467000   1.0179612      17.738343      34.514781    
    468000   1.0298001      17.435704      34.548876    
    469000   1.0240996      17.676344      34.426206    
    470000   1.0396001      17.729075      34.364432    
    471000   1.0068903      17.334725      34.254887    
    472000   1.0154577      17.651206      33.983204    
    473000   0.9723631      17.078966      33.780147    
    474000   1.0356242      17.451414      33.626193    
    475000   1.0023411      17.697795      33.621738    
    476000   1.0663023      17.155896      33.622392    
    477000   1.0041093      17.162791      33.311046    
    478000   1.0063514      17.249395      33.449455    
    479000   1.0206604      18.065562      33.386422    
    480000   0.99922861     17.324582      33.345369    
    481000   1.0036691      17.353178      33.278766    
    482000   1.0126561      17.548823      33.121026    
    483000   0.98693263     17.444038      33.122215    
    484000   1.0181255      17.157451      32.828306    
    485000   1.017786       16.58543       33.016454    
    486000   0.99777745     17.16685       32.852641    
    487000   0.97972808     17.029974      32.801993    
    488000   0.99422774     17.511697      32.589943    
    489000   0.99565956     17.643987      32.421428    
    490000   0.9882937      16.923346      32.215027    
    491000   0.96824572     17.456658      32.334559    
    492000   0.97269986     17.795236      32.253351    
    493000   0.98772579     17.432088      32.211895    
    494000   1.0222584      17.687437      32.088983    
    495000   1.0072165      16.818501      32.158968    
    496000   1.0061273      16.990205      32.203243    
    497000   0.9902128      17.696944      32.148993    
    498000   1.0131859      17.816915      32.060077    
    499000   1.0316823      17.756498      32.099499    
    500000   0.98698913     17.113282      32.080412    
    501000   0.96980471     17.493027      31.991019    
    502000   1.0090545      17.143218      31.960573    
    503000   0.96220864     16.948677      32.040312    
    504000   1.0221979      17.966957      32.114147    
    505000   0.99606219     17.153142      32.101535    
    506000   0.99059217     17.359365      31.858847    
    507000   0.97253942     17.40563       31.759506    
    508000   1.0096966      17.518603      31.803285    
    509000   0.98438422     17.115665      31.68698     
    510000   1.0178915      17.506638      31.670675    
    511000   0.96861594     17.371617      31.636112    
    512000   1.0161332      17.957715      31.374663    
    513000   0.99207279     17.271401      31.353826    
    514000   1.022461       17.866893      31.401705    
    515000   1.0100674      16.962213      31.288498    
    516000   0.98644719     17.125171      31.189985    
    517000   1.0266562      17.491813      31.228607    
    518000   0.97132686     17.161233      31.261078    
    519000   0.96862808     17.628582      31.093092    
    520000   1.013927       16.947665      30.936149    
    521000   0.99815611     17.816746      31.044471    
    522000   0.99202456     17.665699      30.974943    
    523000   1.03525        17.52737       31.126484    
    524000   0.97259794     17.296999      30.987655    
    525000   0.99838663     17.607079      31.024913    
    526000   0.95186835     17.172793      30.964642    
    527000   1.0774187      18.080749      30.884966    
    528000   1.0155853      17.613419      30.543181    
    529000   0.99341228     17.444794      30.457951    
    530000   1.0395727      17.599194      30.427093    
    531000   1.000476       17.887135      30.431333    
    532000   1.0551125      17.355214      30.222362    
    533000   0.99038294     17.235938      30.036164    
    534000   1.0202232      17.793582      29.892585    
    535000   0.99536271     17.404549      29.824998    
    536000   1.0050313      17.805616      29.822466    
    537000   0.98432222     17.081641      29.845149    
    538000   1.0230418      17.272176      29.833482    
    539000   0.96208407     17.183489      29.707054    
    540000   1.0126968      17.116918      29.71215     
    541000   1.0134022      17.393818      29.55672     
    542000   0.98539346     17.77333       29.295066    
    543000   0.94873038     17.387023      29.075631    
    544000   0.98906346     17.406049      29.150717    
    545000   1.0131755      17.627583      29.227192    
    546000   0.9809768      17.246379      29.212236    
    547000   1.0194454      17.374915      29.154583    
    548000   0.97451139     17.43621       28.938131    
    549000   1.0038942      17.583969      28.906703    
    550000   0.98116255     16.925853      28.688066    
    551000   1.0213199      17.137299      28.824701    
    552000   1.0529749      17.280759      28.764389    
    553000   1.004928       17.38466       28.753149    
    554000   0.99360812     17.534194      28.692442    
    555000   1.0229808      17.17098       28.503272    
    556000   1.0406992      18.278898      28.403104    
    557000   1.0393144      17.961699      28.121636    
    558000   1.0076721      17.589396      28.076372    
    559000   0.95867747     17.322462      28.009919    
    560000   1.0068017      17.465597      27.772485    
    561000   1.0105168      16.925618      27.470989    
    562000   1.0061184      17.911729      27.26289     
    563000   0.98169658     17.363393      27.255185    
    564000   1.0067678      17.555002      27.232964    
    565000   1.002734       17.446992      27.007622    
    566000   0.9908577      17.090073      26.891762    
    567000   0.9934723      17.241351      26.887871    
    568000   1.0206139      17.009964      26.785963    
    569000   0.96805732     17.234717      26.686752    
    570000   1.0073565      17.538975      26.583036    
    571000   0.95186848     17.61059       26.52039     
    572000   0.97894207     17.493394      26.493619    
    573000   0.98280083     17.621883      26.354218    
    574000   1.0009868      18.011478      26.285813    
    575000   1.0211695      17.646781      26.135052    
    576000   1.0090467      16.869797      26.065124    
    577000   1.0001984      17.184748      25.970246    
    578000   0.99117457     17.382324      25.955145    
    579000   0.97834555     17.074167      25.875139    
    580000   0.99875601     17.266612      25.857011    
    581000   1.0492846      17.463786      25.845016    
    582000   0.97275813     17.273898      25.873756    
    583000   0.98417957     17.31947       25.821472    
    584000   0.99227534     17.182221      25.565122    
    585000   1.0111703      16.942815      25.357344    
    586000   1.02665        17.35834       25.547008    
    587000   1.0171108      17.673461      25.309282    
    588000   0.99824965     17.837985      25.353176    
    589000   1.0043168      17.596468      25.207679    
    590000   0.99356829     17.928006      25.078538    
    591000   0.98715184     17.592221      25.183033    
    592000   1.0009561      17.658901      25.174002    
    593000   0.99197109     17.754824      25.230966    
    594000   1.0315606      17.495007      25.08191     
    595000   1.0332653      17.166035      24.933738    
    596000   0.99835474     17.693387      24.787855    
    597000   1.0248386      17.919763      24.860548    
    598000   1.0071255      17.330909      24.803462    
    599000   1.0260205      17.393131      24.77639     
    600000   0.99161494     17.389617      24.722654    
    601000   0.98457857     17.559383      24.749393    
    602000   0.98920826     17.19515       24.644248    
    603000   1.0235641      17.095931      24.711718    
    604000   0.98161142     17.497628      24.700933    
    605000   0.9986369      16.617146      24.640401    
    606000   1.0236296      17.486201      24.669896    
    607000   1.0110099      17.558071      24.732074    
    608000   0.98360769     17.313053      24.687962    
    609000   0.97960605     17.61721       24.724509    
    610000   0.99634099     17.520309      24.86673     
    611000   1.0226778      17.352478      24.965942    
    612000   0.99399028     17.132551      24.866178    
    613000   1.0208488      17.883754      24.725034    
    614000   1.0057737      17.686178      24.558033    
    615000   0.98639677     17.075703      24.325758    
    616000   0.98949056     16.958254      23.946189    
    617000   1.0160288      17.557088      23.764717    
    618000   0.96785307     17.396805      23.818484    
    619000   0.99506774     17.122813      23.726937    
    620000   0.97477089     17.101308      23.695339    
    621000   0.98379964     17.127044      23.761358    
    622000   0.98187052     17.539814      23.71548     
    623000   0.9729662      17.031068      23.741652    
    624000   1.0150409      17.147244      23.64897     
    625000   0.9798694      17.344593      23.568524    
    626000   0.99906532     16.974638      23.31137     
    627000   1.0661437      17.419252      23.321549    
    628000   0.96228931     16.997403      23.111777    
    629000   0.9277453      17.698411      22.828119    
    630000   0.99440221     17.181177      22.815317    
    631000   1.0010861      17.097633      22.695395    
    632000   0.96697122     17.093388      22.480177    
    633000   1.001097       16.831596      22.619524    
    634000   1.0091859      17.075494      22.699981    
    635000   1.0094571      16.84955       22.785484    
    636000   0.99563977     17.560794      22.690563    
    637000   1.021513       17.518543      22.767754    
    638000   1.0233101      17.463887      22.606061    
    639000   1.0281084      17.529061      22.702098    
    640000   1.0053382      16.82182       22.764122    
    641000   0.9869679      17.089983      22.719201    
    642000   0.97455161     17.246616      22.591277    
    643000   0.98843323     17.361403      22.358827    
    644000   1.0009052      17.263659      22.428344    
    645000   1.0336084      17.116537      22.289656    
    646000   1.0016063      17.047747      22.207501    
    647000   0.98038909     17.541582      22.245643    
    648000   1.0547998      17.377526      22.205968    
    649000   0.97299927     16.951868      21.957635    
    650000   0.98388399     17.278648      21.748791    
    651000   0.98228505     17.29404       21.724687    
    652000   0.96168796     17.470145      21.617579    
    653000   1.0152793      17.242075      21.661989    
    654000   0.95863535     17.573512      21.547788    
    655000   0.99745944     17.171336      21.294259    
    656000   1.0277971      17.379819      21.477484    
    657000   1.0113319      17.579779      21.395774    
    658000   1.0285308      17.489379      21.380816    
    659000   0.99731404     17.349426      21.124369    
    660000   0.98975448     17.585377      20.817969    
    661000   0.99413231     17.109266      20.805327    
    662000   0.96815883     17.414332      20.563852    
    663000   1.0366827      17.445269      20.410765    
    664000   0.99012526     17.151397      20.089823    
    665000   1.0126479      17.230123      19.897847    
    666000   1.0206747      17.510837      19.776568    
    667000   0.99128038     17.001958      19.491047    
    668000   0.97265255     17.021591      19.336567    
    669000   0.97125878     17.653053      19.400994    
    670000   1.0418489      17.411439      19.324848    
    671000   1.0225935      17.723572      19.277105    
    672000   1.0058797      17.25043       19.166255    
    673000   1.0088279      16.891015      19.236887    
    674000   0.98569958     16.575927      19.2192      
    675000   1.0688877      17.307882      19.281101    
    676000   0.99949287     17.348607      19.293597    
    677000   0.98841397     17.720039      19.232434    
    678000   1.0608376      17.06465       19.225044    
    679000   0.98723981     17.020176      19.149715    
    680000   0.98240172     16.991761      19.175186    
    681000   0.96800756     16.9045        19.137196    
    682000   0.97090407     17.375759      18.994242    
    683000   0.9758463      17.448178      18.928781    
    684000   1.0558278      17.843898      18.685927    
    685000   1.0059654      16.990999      18.72204     
    686000   0.98669849     17.167489      18.657389    
    687000   1.0023073      17.165058      18.759604    
    688000   1.0072242      17.215398      18.579158    
    689000   0.98765185     17.504737      18.459971    
    690000   1.0154619      17.356151      18.213939    
    691000   0.99081818     16.794167      18.176867    
    692000   1.0261654      17.036957      18.223923    
    693000   1.0202038      17.68437       18.156277    
    694000   0.96529343     17.319693      17.905438    
    695000   0.96054737     16.467664      17.762735    
    696000   1.0294013      17.576134      17.938257    
    697000   1.0031458      17.382873      17.996117    
    698000   1.0296346      17.378889      17.735946    
    699000   0.98239477     17.18459       17.944219    
    700000   0.99213578     17.299194      17.712161    
    701000   1.0016244      17.573776      17.763519    
    702000   1.0249444      17.680354      17.697917    
    703000   1.0407783      17.510242      17.590071    
    704000   1.0299482      18.016762      17.398907    
    705000   1.0236193      17.582455      17.343874    
    706000   0.97962034     17.013238      17.308861    
    707000   0.97615377     17.443352      17.387896    
    708000   1.0142647      17.730406      17.412656    
    709000   1.0305612      17.055347      17.292141    
    710000   1.01846        17.359608      17.073468    
    711000   0.99908059     16.958229      17.1792      
    712000   1.0207232      17.433603      17.35667     
    713000   1.0159189      17.363229      17.177499    
    714000   0.98566713     17.889298      17.139785    
    715000   1.0079796      16.866776      17.000342    
    716000   0.98928933     17.922372      16.930751    
    717000   1.0247892      17.38063       16.867547    
    718000   0.96839565     16.662844      16.8744      
    719000   1.0298253      17.198444      16.843996    
    720000   1.0128906      17.324799      16.744476    
    721000   0.99343046     17.405116      16.596439    
    722000   0.99106506     17.313945      16.678471    
    723000   0.98918057     17.373733      16.668206    
    724000   0.96145223     17.209508      16.68958     
    725000   1.0085987      18.061259      16.524875    
    726000   1.0034406      17.287511      16.326447    
    727000   1.0213312      17.055659      16.152456    
    728000   0.99012397     17.535022      16.037659    
    729000   1.0301195      17.060084      15.918787    
    730000   0.97874618     16.721058      15.975064    
    731000   0.96884188     16.842609      15.810213    
    732000   1.0400817      17.43646       15.648652    
    733000   0.99013692     17.978618      15.798601    
    734000   1.0176749      17.501705      15.517066    
    735000   1.0121024      17.216846      15.626165    
    736000   1.0241603      17.675853      15.653173    
    737000   1.0750445      17.202965      15.772277    
    738000   0.99901703     17.425595      15.759939    
    739000   0.94966975     17.586235      15.862185    
    740000   0.97773064     17.207512      15.697934    
    741000   1.0395847      17.236024      15.443981    
    742000   1.0394679      17.483082      15.400453    
    743000   0.98261083     17.315922      15.369532    
    744000   1.0120439      17.401891      15.242122    
    745000   1.0320891      17.508518      15.389112    
    746000   0.9765547      17.489901      15.208273    
    747000   1.0072359      16.8862        15.279004    
    748000   0.98869701     17.29895       15.284446    
    749000   1.0022778      17.555582      15.20441     
    750000   1.0381483      17.039954      15.108524    
    751000   0.98254024     17.249279      15.143591    
    752000   0.98906354     17.092658      14.907829    
    753000   1.0472141      17.596621      14.91998     
    754000   0.91648155     16.762666      14.846505    
    755000   1.0163868      17.328807      14.769584    
    756000   1.041462       17.60445       14.653184    
    757000   0.99973643     17.143505      14.574868    
    758000   1.0106126      17.960829      14.508851    
    759000   0.98280445     17.117934      14.344001    
    760000   1.0061309      17.103584      14.227634    
    761000   1.0008742      17.037509      14.109595    
    762000   1.0189847      17.836406      14.119       
    763000   0.98236543     17.033018      14.210368    
    764000   1.030349       17.075546      14.084082    
    765000   1.0069411      17.229807      14.008163    
    766000   1.0079347      16.915528      13.755717    
    767000   1.0019929      17.156886      13.639697    
    768000   0.99772518     17.350865      13.467179    
    769000   0.99713081     17.840004      13.448124    
    770000   0.98922389     17.629933      13.471012    
    771000   1.0286797      17.662866      13.230351    
    772000   1.0096653      16.656293      13.188339    
    773000   1.0034849      16.940738      13.286994    
    774000   1.0239089      17.035522      13.218401    
    775000   0.97475974     17.212735      13.046537    
    776000   0.95426207     17.249997      13.136385    
    777000   1.0465132      17.090829      13.040698    
    778000   0.99293354     16.881933      12.950986    
    779000   1.0175243      16.806595      13.042657    
    780000   0.99561296     17.19551       12.967676    
    781000   1.0082786      17.475776      12.819385    
    782000   0.99763251     16.977102      12.634406    
    783000   0.99227679     16.823714      12.478445    
    784000   1.0006225      17.115445      12.296459    
    785000   0.9880087      17.384305      12.038404    
    786000   1.0056058      17.836274      12.192071    
    787000   1.0387427      16.953415      12.27329     
    788000   0.97456558     16.800987      12.103447    
    789000   1.0509534      17.269696      12.078875    
    790000   1.0042874      16.846488      12.176195    
    791000   1.0198617      17.404316      12.288037    
    792000   1.047399       17.189265      12.124729    
    793000   0.99155108     17.083208      12.075212    
    794000   1.0002041      17.477252      11.875443    
    795000   1.0426854      17.577389      11.928921    
    796000   0.98931453     18.054177      11.694305    
    797000   1.0109882      16.733388      11.425008    
    798000   1.0248526      17.428789      11.460203    
    799000   1.014102       17.494787      11.46052     
    800000   1.0227491      18.138941      11.417278    
    801000   1.0238788      17.254045      11.536792    
    802000   0.97558246     17.265196      11.369283    
    803000   0.99414525     17.040956      11.217182    
    804000   0.97851798     17.217238      11.090375    
    805000   1.015523       17.856181      11.013773    
    806000   1.0247961      16.921229      10.8076      
    807000   1.0417914      17.38331       10.706012    
    808000   1.012431       17.630557      10.704298    
    809000   1.0168333      17.057441      10.695569    
    810000   0.98298624     16.915148      10.639906    
    811000   0.99718011     17.152741      10.594709    
    812000   1.0046856      17.454981      10.580564    
    813000   1.0039142      17.149151      10.411609    
    814000   1.0175783      17.306212      10.452289    
    815000   0.96730201     17.148475      10.387896    
    816000   1.0320972      17.554583      10.449944    
    817000   1.0071502      17.004916      10.641718    
    818000   1.0249939      16.995192      10.542353    
    819000   0.97341218     16.646798      10.586891    
    820000   0.98335047     17.025028      10.360187    
    821000   1.0180316      16.944905      10.181106    
    822000   0.98006864     16.850926      10.088885    
    823000   1.0207128      17.214943      10.190836    
    824000   0.97889591     17.202218      10.032381    
    825000   0.99367266     17.19507       10.023378    
    826000   1.0201877      16.854772      9.9003245    
    827000   0.96719334     17.012382      9.7159623    
    828000   0.9831973      17.016099      9.6198051    
    829000   1.0238823      17.060417      9.3607999    
    830000   0.9732445      17.11014       9.240324     
    831000   1.0115429      17.201292      9.1805871    
    832000   0.99782421     17.53376       9.2498328    
    833000   0.99213269     17.023532      9.2711943    
    834000   0.99031971     16.955447      9.3117777    
    835000   0.98659675     16.834205      9.1870716    
    836000   1.0098639      16.938728      9.2454764    
    837000   0.96727761     16.883298      9.1486957    
    838000   1.0070545      16.771405      9.2143986    
    839000   0.9727305      17.058562      9.3170956    
    840000   0.99898913     17.621436      9.2722966    
    841000   1.0058153      17.328625      9.1425872    
    842000   0.9977183      17.393773      9.2160648    
    843000   0.99796401     17.066453      9.1992395    
    844000   1.0115727      17.257496      9.3236999    
    845000   0.97988166     17.432264      9.2529329    
    846000   1.0088787      17.160346      9.0251797    
    847000   0.98911636     17.040692      8.9885608    
    848000   0.97906903     16.631234      8.8208266    
    849000   0.98764856     16.734279      8.8279928    
    850000   1.0025564      17.205315      8.7064846    
    851000   1.0132246      16.951637      8.8243663    
    852000   0.96825787     17.290586      8.6902648    
    853000   0.98748233     16.349748      8.5150826    
    854000   1.0145735      17.07492       8.432465     
    855000   0.99592033     16.982592      8.4123442    
    856000   1.0261577      17.209266      8.4197096    
    857000   0.9862603      17.411405      8.54621      
    858000   0.96572923     16.583569      8.4757003    
    859000   0.96862796     17.07836       8.4948551    
    860000   1.0085111      17.334277      8.55698      
    861000   1.0325184      17.577293      8.5943434    
    862000   1.0050523      17.423201      8.5995448    
    863000   0.97938666     16.982385      8.6135853    
    864000   0.96647689     16.742182      8.4136109    
    865000   0.97655903     16.998857      8.3903842    
    866000   1.0345546      16.981503      8.2640984    
    867000   0.98740356     17.375116      8.3290459    
    868000   0.99716504     17.069354      8.1095154    
    869000   1.0223544      17.061307      8.1370418    
    870000   0.99876511     17.200207      8.085106     
    871000   1.0106864      17.332785      7.9684533    
    872000   0.99462035     16.870474      7.87727      
    873000   0.99634803     16.929254      7.866629     
    874000   0.94029557     16.717567      7.6957486    
    875000   0.97777278     16.600139      7.5624417    
    876000   1.0355103      17.407193      7.4432982    
    877000   0.97153334     16.510023      7.3004885    
    878000   0.97549778     16.782596      7.0795865    
Fix halt condition for fix-id 3 met on step 879000 with value 6.693015573986714 (src/fix_halt.cpp:237)
    879000   1.0527107      17.030631      6.6930156    
Loop time of 1565.91 on 2 procs for 779000 steps with 1101 atoms

Performance: 429817.725 tau/day, 497.474 timesteps/s
133.6% CPU use with 1 MPI tasks x 2 OpenMP threads

MPI task timing breakdown:
Section |  min time  |  avg time  |  max time  |%varavg| %total
---------------------------------------------------------------
Pair    | 420.47     | 420.47     | 420.47     |   0.0 | 26.85
Bond    | 28.039     | 28.039     | 28.039     |   0.0 |  1.79
Neigh   | 1053.7     | 1053.7     | 1053.7     |   0.0 | 67.29
Comm    | 0.43327    | 0.43327    | 0.43327    |   0.0 |  0.03
Output  | 2.7302     | 2.7302     | 2.7302     |   0.0 |  0.17
Modify  | 55.61      | 55.61      | 55.61      |   0.0 |  3.55
Other   |            | 4.931      |            |       |  0.31

Nlocal:           1101 ave        1101 max        1101 min
Histogram: 1 0 0 0 0 0 0 0 0 0
Nghost:              0 ave           0 max           0 min
Histogram: 1 0 0 0 0 0 0 0 0 0
Neighs:         255086 ave      255086 max      255086 min
Histogram: 1 0 0 0 0 0 0 0 0 0

Total # of neighbors = 255086
Ave neighs/atom = 231.68574
Ave special neighs/atom = 1.9981835
Neighbor list builds = 6720
Dangerous builds = 0

# This simulation is done
# Move onto the next one
clear
  using 2 OpenMP thread(s) per MPI task
package omp 0
using multi-threaded neighbor list subroutines
next f
jump SELF

###
# Reference paper:
# K. Kremer and G. S. Grest
# Dynamics of entangled linear polymer melts: A molecular-dynamics simulation
# J Chem Phys 92, 5057 (1990)

##################################
# MIHIR: for branched polymers
# LJ minimum first to expand and explore, then collapse
###

###
# Looping through the various nuc3branch4 polymers to simulate,
# define variables to switch through
variable f index bb40nuc3bl10bn4d30tot100 bb80nuc3bl20bn4d30tot200 bb120nuc3bl30bn4d30tot300 bb160nuc3bl40bn4d30tot400 bb200nuc3bl50bn4d30tot500 bb240nuc3bl60bn4d30tot600 bb280nuc3bl70bn4d30tot700 bb320nuc3bl80bn4d30tot800 bb360nuc3bl90bn4d30tot900 bb400nuc3bl100bn4d30tot1000 bb440nuc3bl110bn4d30tot1100 bb480nuc3bl120bn4d30tot1200
###


###
# Box and units  (use LJ units and periodic boundaries)
###

units lj
log nuc3branch4/logs2/$f.log
log nuc3branch4/logs2/bb480nuc3bl120bn4d30tot1200.log
