#atom_style bond #no stiffness
atom_style angle #with stiffness

boundary        p p p
###
# Pair interactions require lists of neighbours to be calculated
###

#neighbor 0.3 bin
neighbor 4 bin

neigh_modify every 1 delay 1 check yes
atom_modify sort 0 0
### Generate RESTART file, SPECIAL format, not a .txt file ###
### Useful if simulation crashes ###

restart 1000000 nuc3branch4/restarts2/$f.restart
restart 1000000 nuc3branch4/restarts2/bb480nuc3bl120bn4d30tot1200.restart
#############################



### READ "start" data file ###

read_data nuc3branch4/$f.dat
read_data nuc3branch4/bb480nuc3bl120bn4d30tot1200.dat
Reading data file ...
  orthogonal box = (-1000 -1000 -1000) to (1000 1000 1000)
  1 by 1 by 1 MPI processor grid
  reading atoms ...
  1201 atoms
  scanning bonds ...
  3 = max bonds/atom
  scanning angles ...
  6 = max angles/atom
  reading bonds ...
  1200 bonds
  reading angles ...
  1208 angles
Finding 1-2 1-3 1-4 neighbors ...
  special bond factors lj:    0        0        0       
  special bond factors coul:  0        0        0       
     4 = max # of 1-2 neighbors
     4 = max # of 1-3 neighbors
     8 = max # of 1-4 neighbors
    12 = max # of special neighbors
  special bonds CPU = 0.003 seconds
  read_data CPU = 0.158 seconds

######################

### READ "REstart" data file ###

######################



###
# Define groups (atom type 1 is group 'all')
###
group all type 1
1201 atoms in group all


###
# Dump configs - "simple dumpings"
###

###
# Dump configs + box coords
###

dump   1   all   custom   1000  nuc3branch4/trjs2/$f.lammpstrj  id  x y z  ix iy iz
dump   1   all   custom   1000  nuc3branch4/trjs2/bb480nuc3bl120bn4d30tot1200.lammpstrj  id  x y z  ix iy iz
dump_modify   1   format line "%d %.5f %.5f %.5f %d %d %d"

########################################################################


###################################################################
# Stiffness term
#
# E = K * (1+cos(theta)), K>0
#
angle_style   cosine
#change this coefficient to change stiffness (e.g. 1,5,10)
angle_coeff   1 1.0
###################################################################

###################################################################
# Pair interaction between non-bonded atoms
#
#  Lennard-Jones 12-6 potential with cutoff:
#  potential E=4epsilon[ (sigma/r)^12 - (sigma/r)^6]  for r<r_cut
#
#  1.12246 = 2^(1/6) is the minimum of the potential


pair_style      lj/cut 1.12246152962189
#pair_style      lj/cut 3

#
#  pair_modify shift yes adds a constant to the potential such

#  that E(r_cut)=0. Forces remains unchanged.
#

pair_modify     shift yes

#
#  pair_coeff for lj/cut, specify 4:
#    * atom type interacting with
#    * atom type
#    * epsilon (energy units)
#    * sigma (distance units)
#

pair_coeff      1 1 1.0 1.0
###################################################################

###################################################################
# Pair interaction between non-bonded atoms
#
#  soft potential, for PUSHING apart overlapping atoms
#  potential E=A*(1 + cos(pi*r/r_c))
#
#  1.12246 = 2^(1/6) is the cut-off r_c

#pair_style     soft 1.12246152962189

#
#  pair_coeff for soft, specify 3:
#    * atom type interacting with
#    * atom type
#    * A
#
#

#pair_coeff      1 1 100.0
###################################################################

###################################################################
# Pair interaction between bonded atoms
#
# Fene potential + Lennard Jones 12-6:

#
#  E= - 0.5 K R0^2 ln[ 1- (r/R0)^2]
#     + 4epsilon[ (sigma/r)^12 - (sigma/r)^6] + epsilon
#

bond_style   fene


#
# For style fene, specify:
#   * bond type
#   * K (energy/distance^2)
#   * R0 (distance)
#   * epsilon (energy)  (LJ component)
#   * sigma (distance)  (LJ component)
#


special_bonds fene #<=== I M P O R T A N T (new command)
Finding 1-2 1-3 1-4 neighbors ...
  special bond factors lj:    0        1        1       
  special bond factors coul:  0        1        1       
     4 = max # of 1-2 neighbors
    12 = max # of special neighbors
  special bonds CPU = 0.000 seconds

bond_coeff   1   30   2   1.0   1.0


###################################################

###################################################################
# Pair interaction between bonded atoms
#
# Harmonic potential:
#
#  E= K * (R-R0)^2
#

#bond_style   harmonic

#
# For style harmonic, specify:
#   * bond type
#   * K (energy/distance^2)
#   * R0 (distance)
#

#bond_coeff   1   60.0   1.0
#bond_coeff   2   harmonic 0.1   1.0

###################################################
compute 1 all gyration
variable rog equal c_1
#compute 2 all coord/atom cutoff 1.1

#dump 2 all custom 10000 contact_number.dump id c_2


###
# Set up fixes
###
thermo_style   custom   step  temp enthalpy c_1
fix 1 all nve   ###NVE ensemble

fix 2 all   langevin   1.0 1.0 1.0  778655   ###Langevin integrator Tstart Tstop 1/friction rndseed


##### Sample thermodynamic info  (temperature, energy, pressure, etc.) #####
thermo 1000









############################################################################

###
# set timestep of integrator

timestep 0.01

###
# run integration for a number of steps
###
#run 0
#variable r equal c_1
#if "$r < 63.1" then "quit 1"

# lj potential minimum, cause molecule to explore
run 100000
Generated 0 of 0 mixed pair_coeff terms from geometric mixing rule
Last active /omp style is angle_style cosine/omp
Neighbor list info ...
  update: every = 1 steps, delay = 1 steps, check = yes
  max neighbors/atom: 2000, page size: 100000
  master list distance cutoff = 5.1224615
  ghost atom cutoff = 5.1224615
  binsize = 2.5612308, bins = 781 781 781
  1 neighbor lists, perpetual/occasional/extra = 1 0 0
  (1) pair lj/cut/omp, perpetual
      attributes: half, newton on, omp
      pair build: half/bin/newton/omp
      stencil: half/bin/3d
      bin: standard
WARNING: Communication cutoff 5.12246152962189 is shorter than a bond length based estimate of 5.455. This may lead to errors. (src/comm.cpp:723)
Per MPI rank memory allocation (min/avg/max) = 1862 | 1862 | 1862 Mbytes
   Step          Temp         Enthalpy         c_1      
         0   0              13.283583      114.05129    
      1000   1.0288587      17.96398       113.34751    
      2000   1.000846       18.691772      112.74974    
      3000   1.0535212      18.539925      112.25769    
      4000   0.99800685     18.816374      111.90204    
      5000   0.99833305     18.827194      111.87766    
      6000   0.98129781     18.678168      111.40208    
      7000   1.0408882      18.812415      111.01125    
      8000   0.98974568     19.307564      110.55855    
      9000   1.0156888      19.136613      110.37831    
     10000   0.99095675     19.105632      109.86304    
     11000   0.98631172     19.02968       109.59501    
     12000   1.0181846      18.899059      109.31078    
     13000   0.99826414     19.106071      109.03273    
     14000   1.0188307      19.245165      108.93354    
     15000   0.98889702     19.458727      108.79208    
     16000   0.99628984     19.096462      108.74845    
     17000   1.019746       19.484104      108.49945    
     18000   1.0159247      19.247532      107.99846    
     19000   0.98979231     19.252749      107.66684    
     20000   1.0203828      19.463384      107.33482    
     21000   1.0279967      19.869979      107.03566    
     22000   0.99917318     19.336215      106.60187    
     23000   0.95196259     19.168021      106.56869    
     24000   1.0229742      19.63322       106.42394    
     25000   1.0265322      18.866241      106.18174    
     26000   0.9998369      19.982483      106.01238    
     27000   0.97777232     19.827527      105.63204    
     28000   0.99357172     19.345493      105.50143    
     29000   0.98499889     19.454179      105.21142    
     30000   0.98071447     19.924424      104.89549    
     31000   1.0161272      19.593548      104.45293    
     32000   1.0318232      19.47942       104.21351    
     33000   1.0351032      19.875685      103.9339     
     34000   0.99243914     20.057131      103.76691    
     35000   1.052341       19.651857      103.58454    
     36000   1.0096304      20.026553      103.25422    
     37000   0.99834495     19.96879       102.97949    
     38000   0.97670478     19.745641      102.50781    
     39000   1.0058429      19.534765      102.56165    
     40000   0.971888       20.359444      102.44563    
     41000   0.98764686     20.161757      102.39122    
     42000   1.0540087      19.637507      102.22544    
     43000   1.0197388      19.868172      102.12025    
     44000   1.0301511      20.304254      101.91148    
     45000   1.0095343      20.271735      101.71635    
     46000   1.0360983      20.030465      101.62854    
     47000   1.0155449      19.846279      101.62475    
     48000   1.0156522      20.148861      101.45518    
     49000   1.0396802      19.782229      101.23067    
     50000   1.0304459      19.88432       101.3346     
     51000   1.025672       20.019859      101.163      
     52000   0.96712439     20.038056      101.10613    
     53000   1.0227784      20.251458      100.70832    
     54000   1.0047935      19.765688      100.3171     
     55000   0.99268059     19.667338      100.24442    
     56000   1.0091231      19.562823      100.13481    
     57000   0.94365265     19.756484      99.897191    
     58000   0.972675       20.063087      99.506545    
     59000   0.9686737      20.623112      99.220582    
     60000   0.99332235     19.961991      99.124842    
     61000   0.98479124     19.864705      99.134186    
     62000   1.0126924      20.017513      98.958852    
     63000   1.0440157      20.47665       98.84468     
     64000   1.0119045      20.504857      98.701152    
     65000   1.0229338      20.476321      98.704467    
     66000   0.99591114     20.138229      98.873315    
     67000   0.96368014     20.470611      98.874099    
     68000   1.0108436      20.357342      98.567887    
     69000   0.99273612     19.703259      98.45019     
     70000   0.99057608     20.292162      98.40834     
     71000   0.98382328     20.357995      98.15847     
     72000   1.0116527      19.924824      98.211526    
     73000   1.0593311      20.247461      98.062523    
     74000   1.0092447      20.291472      97.810266    
     75000   1.020921       20.174953      97.686976    
     76000   0.9920083      20.152669      97.518106    
     77000   0.99451856     19.969547      97.342732    
     78000   1.001835       19.967517      97.301316    
     79000   1.0033071      20.362178      96.995157    
     80000   0.99597285     20.293045      96.769725    
     81000   1.0304669      19.754447      96.800422    
     82000   0.98536982     20.080601      96.728702    
     83000   0.94929755     20.041638      96.614955    
     84000   0.99139845     20.365239      96.516927    
     85000   0.96151201     19.876487      96.569784    
     86000   1.0101089      20.474904      96.440729    
     87000   0.99064476     20.376199      96.358364    
     88000   1.0380285      20.577292      96.180538    
     89000   0.97144338     20.292737      96.054983    
     90000   0.982109       20.011349      95.884486    
     91000   0.99815262     20.175275      95.549115    
     92000   1.0600148      20.487534      95.596984    
     93000   0.98885564     19.795529      95.39001     
     94000   1.0029903      20.424434      95.189462    
     95000   0.99795944     20.22684       95.056309    
     96000   1.0565265      21.01269       94.89298     
     97000   0.99920051     20.207016      94.835599    
     98000   0.97058604     20.462911      95.014876    
     99000   0.96566464     20.438997      94.97348     
    100000   0.99907861     20.419753      94.742585    
Loop time of 454.201 on 2 procs for 100000 steps with 1201 atoms

Performance: 190224.096 tau/day, 220.167 timesteps/s
103.2% CPU use with 1 MPI tasks x 2 OpenMP threads

MPI task timing breakdown:
Section |  min time  |  avg time  |  max time  |%varavg| %total
---------------------------------------------------------------
Pair    | 1.6809     | 1.6809     | 1.6809     |   0.0 |  0.37
Bond    | 3.1459     | 3.1459     | 3.1459     |   0.0 |  0.69
Neigh   | 441.47     | 441.47     | 441.47     |   0.0 | 97.20
Comm    | 0.046227   | 0.046227   | 0.046227   |   0.0 |  0.01
Output  | 0.34451    | 0.34451    | 0.34451    |   0.0 |  0.08
Modify  | 7.0223     | 7.0223     | 7.0223     |   0.0 |  1.55
Other   |            | 0.4881     |            |       |  0.11

Nlocal:           1201 ave        1201 max        1201 min
Histogram: 1 0 0 0 0 0 0 0 0 0
Nghost:              0 ave           0 max           0 min
Histogram: 1 0 0 0 0 0 0 0 0 0
Neighs:           8172 ave        8172 max        8172 min
Histogram: 1 0 0 0 0 0 0 0 0 0

Total # of neighbors = 8172
Ave neighs/atom = 6.8043297
Ave special neighs/atom = 1.9983347
Neighbor list builds = 1163
Dangerous builds = 0

# Replace lj potential, now collapse
pair_style      lj/cut 3

# Cutoff simul when gyration under 10
# Variable created with equal requires v_ + 'name'
fix 3 all halt 1000 v_rog < 7

run 3000000
Generated 0 of 0 mixed pair_coeff terms from geometric mixing rule
Last active /omp style is angle_style cosine/omp
Per MPI rank memory allocation (min/avg/max) = 1862 | 1862 | 1862 Mbytes
   Step          Temp         Enthalpy         c_1      
    100000   0.99907861     19.69252       94.742585    
    101000   0.97250034     19.537327      94.546667    
    102000   1.0012975      19.473778      94.472225    
    103000   0.99754237     19.507932      94.297998    
    104000   1.0223079      19.30443       94.043542    
    105000   0.94348309     19.468204      93.982541    
    106000   1.0000067      19.17014       93.870437    
    107000   0.99256854     19.172399      93.531864    
    108000   1.0258585      19.258599      93.362748    
    109000   0.99867272     19.077665      92.984124    
    110000   0.97312543     18.81457       92.942577    
    111000   0.99870808     19.272836      92.683181    
    112000   1.0244212      19.273028      92.579167    
    113000   1.0050447      19.081806      92.543774    
    114000   1.0277268      19.957065      92.226706    
    115000   0.98284023     18.774006      92.26572     
    116000   0.96952524     19.722893      92.073833    
    117000   0.97984473     18.683839      92.038479    
    118000   1.0006634      19.00089       91.829928    
    119000   1.0119561      18.900218      91.578092    
    120000   1.0099455      19.556955      91.295194    
    121000   0.9411266      18.67206       91.178294    
    122000   1.0068442      19.111402      91.119645    
    123000   1.0539102      19.413906      90.95991     
    124000   1.0510797      19.213213      90.72515     
    125000   1.086294       19.527461      90.521374    
    126000   1.0288156      19.137444      90.412197    
    127000   0.99836051     19.136283      90.470906    
    128000   1.0071275      19.086714      90.473474    
    129000   1.000089       19.13669       90.326272    
    130000   0.9978052      18.952797      90.21981     
    131000   0.96020497     18.22155       89.982795    
    132000   0.96995675     18.945656      89.98293     
    133000   0.97604523     19.008158      89.748402    
    134000   1.0017307      19.158253      89.37406     
    135000   1.0188908      19.436977      89.028988    
    136000   0.97765286     18.644765      89.109402    
    137000   0.98326743     19.241631      89.057648    
    138000   0.97805339     18.731875      88.961589    
    139000   1.0056582      18.830895      88.792191    
    140000   0.99218614     19.061544      88.750389    
    141000   1.0024709      19.007902      88.725074    
    142000   1.0330582      18.803378      88.334036    
    143000   1.0357163      18.72768       87.997309    
    144000   1.0098038      19.104371      88.01248     
    145000   0.98657729     18.70997       87.990536    
    146000   1.0047258      18.348628      87.747415    
    147000   0.97092614     18.96164       87.537668    
    148000   0.98085287     18.685898      87.224556    
    149000   1.0534655      18.583695      87.204414    
    150000   0.99536008     19.08552       87.075423    
    151000   1.0303625      18.417917      87.038711    
    152000   0.98419641     18.576795      86.968818    
    153000   1.0022382      18.038322      86.810284    
    154000   0.9766198      18.628891      86.603851    
    155000   1.0076692      18.887397      86.523981    
    156000   0.97271864     18.602542      86.456316    
    157000   0.96880771     18.763126      86.361355    
    158000   1.0197441      18.582692      86.238274    
    159000   1.0216754      19.040622      86.1129      
    160000   1.0000191      18.903038      85.98834     
    161000   1.0024272      18.85548       85.67669     
    162000   0.99496203     19.412018      85.491565    
    163000   1.0039896      18.436174      85.084902    
    164000   1.0131817      18.277802      84.913574    
    165000   1.0126826      18.618327      84.83714     
    166000   0.98056046     18.730453      84.473285    
    167000   1.0184851      18.114137      84.078116    
    168000   1.0318246      18.862932      83.885964    
    169000   1.0187357      18.511137      83.888077    
    170000   0.97897323     18.425726      83.69148     
    171000   1.0036967      18.725482      83.966597    
    172000   1.0022845      18.573769      83.798827    
    173000   0.96063857     18.712681      83.752148    
    174000   0.98122232     18.571419      83.289202    
    175000   1.0002817      19.003281      83.029654    
    176000   1.0008064      18.557917      82.950203    
    177000   1.0218534      18.808547      83.09892     
    178000   1.0090366      18.275521      83.084695    
    179000   0.98242362     18.628641      83.098568    
    180000   1.0097895      19.132892      82.855096    
    181000   0.98023586     18.674448      82.534154    
    182000   1.0314841      18.439401      82.480927    
    183000   1.0192547      18.760147      82.338373    
    184000   1.0078809      18.521241      82.194563    
    185000   1.0112733      18.657608      82.08823     
    186000   1.0092743      18.408831      81.910102    
    187000   1.0115514      18.342432      81.623382    
    188000   1.0144989      18.529923      81.656351    
    189000   1.0123613      18.581041      81.450108    
    190000   0.98392663     18.777096      81.158272    
    191000   0.96746169     18.775694      81.202782    
    192000   1.0010965      18.644897      81.064016    
    193000   1.0104658      19.086111      81.10514     
    194000   0.96239425     18.611159      80.997028    
    195000   1.0420844      18.600239      80.822215    
    196000   0.97396698     18.114162      80.631254    
    197000   0.98567749     18.542834      80.560543    
    198000   0.99087461     18.264761      80.19177     
    199000   0.96622015     18.154463      79.895329    
    200000   0.96963041     18.15871       79.62225     
    201000   1.0296672      18.347041      79.379819    
    202000   1.0093547      18.026408      79.202716    
    203000   1.0375559      18.288513      79.168452    
    204000   1.0080339      18.048242      78.959714    
    205000   1.016211       17.855234      79.131394    
    206000   0.94177366     17.954305      78.930598    
    207000   0.96026596     17.950171      78.806707    
    208000   0.95189896     18.535104      78.636129    
    209000   1.0042362      18.271938      78.274564    
    210000   1.0191949      18.896332      78.209469    
    211000   0.99682862     18.295256      78.193073    
    212000   0.99635098     18.68353       78.107803    
    213000   1.0028577      18.200996      77.966334    
    214000   1.0135381      18.219765      77.923109    
    215000   1.0041728      18.130906      78.085497    
    216000   1.0008609      18.253066      78.072912    
    217000   1.0037235      17.783826      77.766391    
    218000   1.0034249      17.594765      77.537522    
    219000   1.0493822      18.138212      77.456356    
    220000   0.99936579     18.047587      77.475154    
    221000   1.0017461      17.807291      77.503022    
    222000   1.0598581      18.171593      77.309393    
    223000   1.0051353      17.94699       77.154379    
    224000   0.98900322     18.00386       77.056811    
    225000   0.9865019      17.751163      76.967865    
    226000   0.96427927     17.915605      76.882582    
    227000   1.0374202      18.296339      76.771537    
    228000   0.98838228     17.936906      76.54205     
    229000   0.95210063     17.994199      76.572629    
    230000   1.0000479      18.433755      76.483114    
    231000   1.0320945      18.059383      76.259056    
    232000   1.0024638      18.054208      76.196011    
    233000   0.97581367     18.01925       76.01553     
    234000   1.0246023      17.960608      75.937994    
    235000   1.0066585      17.606148      75.814682    
    236000   0.98910604     18.218109      75.963233    
    237000   1.0193816      18.297678      75.80322     
    238000   1.0158246      17.942999      75.427159    
    239000   1.01051        17.844875      75.192623    
    240000   1.0156021      17.776831      74.988401    
    241000   0.95235155     17.258159      74.932896    
    242000   1.0353284      17.578735      74.903677    
    243000   0.96857169     17.661223      74.714997    
    244000   0.95393261     17.626636      74.580229    
    245000   1.0055294      18.480342      74.425382    
    246000   0.99122698     17.71234       74.335131    
    247000   1.0210549      17.785938      74.198349    
    248000   1.0204133      18.240933      74.247714    
    249000   1.0055471      17.883241      74.227582    
    250000   0.96991454     17.89138       73.940816    
    251000   0.97892824     17.432321      73.762719    
    252000   1.0273525      18.004314      73.752067    
    253000   1.0154402      17.952352      73.398978    
    254000   1.0111032      17.589601      73.178952    
    255000   1.0072573      17.673512      73.260353    
    256000   0.99490538     17.501372      73.422058    
    257000   1.0166659      18.065305      73.330785    
    258000   0.99957791     17.1329        73.092924    
    259000   1.0013482      17.936606      73.01322     
    260000   0.94635372     17.740907      72.875307    
    261000   1.0251717      17.992016      72.791012    
    262000   1.0061454      17.684297      72.539131    
    263000   1.013114       17.703795      72.336666    
    264000   1.0075095      17.930309      72.200761    
    265000   1.0343852      18.07478       72.003869    
    266000   0.98288496     17.543352      71.878744    
    267000   1.0004177      17.702732      71.722314    
    268000   0.98471611     17.958877      71.645619    
    269000   1.0075481      17.623224      71.459043    
    270000   0.93663563     17.582634      71.468785    
    271000   1.0014185      17.60912       71.470961    
    272000   1.0277978      17.77101       71.401285    
    273000   1.0665101      17.816         71.316662    
    274000   0.96554667     17.625783      71.188973    
    275000   0.96976994     16.954418      70.889957    
    276000   0.95388969     17.353671      70.691497    
    277000   0.99034343     17.228297      70.766722    
    278000   0.99186374     17.891193      70.680892    
    279000   1.0116743      17.856866      70.646196    
    280000   0.95923094     17.441412      70.423788    
    281000   0.99817087     17.246281      70.228777    
    282000   1.0361598      17.730313      70.342388    
    283000   1.0082402      17.321483      70.191185    
    284000   1.0151027      17.847212      70.026537    
    285000   0.99364984     17.813157      69.804237    
    286000   0.99170354     18.25681       69.446225    
    287000   1.0294108      17.863267      69.255378    
    288000   0.98609182     18.014509      69.148483    
    289000   1.0152155      17.610634      69.23349     
    290000   1.0498165      18.016252      69.062385    
    291000   1.0206772      17.473499      69.024224    
    292000   1.0302392      18.167054      68.926116    
    293000   0.9887661      17.28076       68.848617    
    294000   0.99140741     18.040877      68.665904    
    295000   1.0615591      17.699908      68.430435    
    296000   1.0238625      17.398279      68.354022    
    297000   1.01475        17.806328      68.327708    
    298000   0.99313407     17.685262      68.282473    
    299000   1.0226229      17.970866      68.212724    
    300000   0.99970159     17.4675        68.154084    
    301000   1.0207138      17.893253      68.056697    
    302000   1.0037653      17.236454      68.045224    
    303000   1.0264748      17.531311      67.946297    
    304000   0.99908778     17.437609      67.772247    
    305000   1.0174839      18.257814      67.651227    
    306000   0.99271786     17.059216      67.55121     
    307000   0.99748552     17.590922      67.678115    
    308000   0.96990786     17.968569      67.427419    
    309000   1.0082159      17.534591      67.375027    
    310000   1.0066716      17.592331      67.3166      
    311000   1.0129268      18.087081      67.533817    
    312000   0.96257724     17.916404      67.518007    
    313000   0.96340239     17.557355      67.712015    
    314000   0.95939274     17.422632      67.661576    
    315000   0.98749501     17.704837      67.378119    
    316000   0.96383387     17.545212      67.337294    
    317000   1.0045482      17.902404      67.234673    
    318000   1.0426426      17.801783      67.099381    
    319000   0.99945339     17.768993      67.055765    
    320000   0.95795261     17.42434       66.926296    
    321000   1.0251104      18.124232      66.733657    
    322000   0.99787434     17.467252      66.476662    
    323000   0.97585772     17.612326      66.528683    
    324000   1.0328874      18.068398      66.417774    
    325000   1.0008951      17.41651       66.331291    
    326000   1.0524192      17.56222       66.276149    
    327000   0.98752708     17.036358      66.255745    
    328000   1.0143416      17.692155      66.176915    
    329000   0.95884125     17.042966      66.308023    
    330000   0.99431255     17.897155      66.143741    
    331000   0.98650104     17.458393      66.169443    
    332000   0.99858866     17.188419      65.976878    
    333000   0.96255767     17.648473      65.800383    
    334000   0.98172916     18.095747      65.739194    
    335000   1.021217       17.934574      65.598892    
    336000   1.0620082      17.411767      65.629304    
    337000   0.97795271     17.889556      65.69558     
    338000   0.99892297     17.624576      65.530984    
    339000   0.98320923     17.407179      65.611407    
    340000   0.96945103     16.915287      65.391261    
    341000   1.02148        17.567306      65.426957    
    342000   0.99878142     17.644087      65.296036    
    343000   1.0106278      17.912302      65.015254    
    344000   1.0447759      17.977478      64.896007    
    345000   1.0060648      17.675365      64.771453    
    346000   1.016045       17.696015      64.742857    
    347000   0.99753906     17.005056      64.396658    
    348000   1.0163338      17.471754      64.262945    
    349000   0.9821369      17.341454      64.032697    
    350000   0.99657287     17.645019      64.022591    
    351000   1.0003705      17.204304      64.044495    
    352000   0.96743463     17.409439      64.009499    
    353000   0.95621055     17.109867      64.150213    
    354000   1.0396322      17.435376      64.083199    
    355000   1.0064815      17.810374      64.07485     
    356000   0.99513394     17.864228      63.996074    
    357000   0.9826754      17.608147      64.112247    
    358000   0.99274907     17.65744       63.71612     
    359000   0.98286212     17.516147      63.517423    
    360000   1.0084073      17.370537      63.523062    
    361000   0.99814308     16.941022      63.455869    
    362000   1.0068209      17.16008       63.486853    
    363000   0.97338105     17.616826      63.362408    
    364000   0.99610989     17.747535      63.038898    
    365000   1.0267827      18.183044      63.043575    
    366000   1.0153927      17.299471      63.109712    
    367000   1.0113547      18.139705      62.964227    
    368000   0.99268486     17.479925      63.015127    
    369000   0.99466892     18.064075      62.886368    
    370000   1.0085204      17.552367      62.81483     
    371000   1.0054426      17.476036      62.807714    
    372000   0.99576075     17.653982      62.70052     
    373000   1.0313557      17.657558      62.797718    
    374000   1.0363811      17.666425      62.75319     
    375000   1.0227748      17.46693       62.627625    
    376000   0.97878349     17.93514       62.53794     
    377000   0.99429037     17.910607      62.77602     
    378000   1.0358452      17.421457      62.822676    
    379000   0.99448923     17.982174      62.620673    
    380000   0.98759161     17.456919      62.522027    
    381000   1.0314856      17.128215      62.579809    
    382000   1.0456126      17.716772      62.430161    
    383000   1.0216194      17.913696      62.344356    
    384000   0.97578547     17.555028      62.191058    
    385000   1.0101419      17.697036      62.333435    
    386000   0.99884701     17.255733      62.423936    
    387000   1.0105018      18.285642      62.577815    
    388000   0.9940432      17.213625      62.288846    
    389000   1.0327697      17.688979      62.054918    
    390000   1.0078635      17.789549      62.0237      
    391000   0.97900039     17.397156      61.834054    
    392000   0.99364072     17.929385      61.848931    
    393000   1.0093789      17.735403      61.674729    
    394000   1.0866397      17.873417      61.604903    
    395000   0.97575524     17.182663      61.640204    
    396000   0.98952377     17.681703      61.432077    
    397000   1.0130724      17.521313      61.376456    
    398000   1.0163441      17.869319      61.145984    
    399000   0.98690739     17.256073      61.017195    
    400000   0.97774558     17.710046      60.966065    
    401000   0.95039737     17.168156      60.994874    
    402000   1.0446581      17.763287      60.769696    
    403000   1.0214987      17.802413      60.717778    
    404000   0.9896321      17.178854      60.639498    
    405000   1.0007172      17.448958      60.583368    
    406000   0.96989983     17.617221      60.657913    
    407000   0.96338079     17.457642      60.601401    
    408000   1.0213987      17.434323      60.387155    
    409000   0.98306        17.777084      60.179399    
    410000   1.0386151      17.928477      60.152757    
    411000   1.0205261      17.553934      59.926602    
    412000   1.0144623      17.585172      59.841389    
    413000   1.0395913      17.822433      59.64767     
    414000   0.97606661     17.943029      59.74276     
    415000   1.004845       17.775213      59.824191    
    416000   0.97729753     17.237784      59.672469    
    417000   0.98033357     17.872789      59.393473    
    418000   1.0192247      17.335361      59.336622    
    419000   1.0133161      17.983341      59.151612    
    420000   1.0532138      18.170219      59.001425    
    421000   1.0161325      18.068304      58.858082    
    422000   0.95405093     17.582534      58.713064    
    423000   1.0196391      17.343872      58.386289    
    424000   0.99877004     17.698189      58.468598    
    425000   1.0010461      17.804146      58.392276    
    426000   1.0127665      17.420702      58.446836    
    427000   1.0045331      18.04269       58.226799    
    428000   0.99934693     16.995636      58.390727    
    429000   0.9994556      17.360332      58.245249    
    430000   1.0341835      17.76676       58.095113    
    431000   0.98093203     17.173324      58.120575    
    432000   1.0075465      18.088566      57.889988    
    433000   1.0366909      17.99086       58.100242    
    434000   0.94903769     17.241866      58.184275    
    435000   1.0386703      18.139071      57.949506    
    436000   1.0081328      17.794974      57.905536    
    437000   1.0143116      17.545382      57.88478     
    438000   1.038349       17.855851      57.59457     
    439000   0.97212204     17.7931        57.270197    
    440000   1.0047797      17.658372      57.373418    
    441000   0.98142461     17.478363      57.188552    
    442000   0.96976521     17.827189      57.21107     
    443000   0.98542704     17.732623      57.031376    
    444000   1.0238764      17.112159      57.060258    
    445000   1.0062834      17.785524      57.039905    
    446000   1.0028781      17.323405      56.993578    
    447000   0.99608394     17.975315      56.941163    
    448000   1.0558076      17.675921      57.115532    
    449000   0.9898809      17.177811      56.985855    
    450000   0.99619367     17.669269      56.93974     
    451000   1.0371631      17.405804      56.878933    
    452000   1.0143695      17.440595      56.837925    
    453000   0.97957939     17.334246      56.826963    
    454000   1.0348103      17.569841      56.727474    
    455000   0.99836824     17.427046      56.709383    
    456000   1.0354517      17.596916      56.627002    
    457000   1.0155902      17.076806      56.485211    
    458000   1.0246484      17.359898      56.30061     
    459000   1.0014733      17.64529       56.063771    
    460000   1.010064       17.679079      55.972202    
    461000   1.0092386      17.711341      55.797517    
    462000   1.0266054      17.897693      55.690922    
    463000   1.0076619      17.734193      55.670183    
    464000   1.0485361      17.135801      55.725533    
    465000   0.96977188     17.310366      55.754806    
    466000   0.98657133     17.54718       55.553922    
    467000   1.0290705      17.329776      55.426943    
    468000   0.98639564     17.434894      55.352762    
    469000   0.94574937     17.28071       55.311969    
    470000   0.95799163     17.360813      55.284481    
    471000   1.0270692      17.974075      55.41543     
    472000   1.0116884      18.180859      55.473433    
    473000   0.95235684     17.1636        55.435748    
    474000   1.0357823      17.638274      55.497186    
    475000   1.0412054      17.545739      55.40634     
    476000   0.95415365     17.26126       55.260161    
    477000   1.0168686      17.378052      55.248744    
    478000   0.98429849     17.668736      55.097727    
    479000   0.97905194     17.214152      55.135703    
    480000   0.98027727     17.214566      55.073082    
    481000   1.035166       17.730476      55.1077      
    482000   0.98416712     17.253311      55.086183    
    483000   1.0373771      17.561181      54.807674    
    484000   0.9752637      17.452508      54.844516    
    485000   0.99696142     17.458407      54.834379    
    486000   0.99559691     17.630029      54.556759    
    487000   1.0064266      17.400008      54.464071    
    488000   0.99113873     17.579997      54.443076    
    489000   1.000701       17.713673      54.383518    
    490000   0.97228231     17.142091      54.476685    
    491000   0.98124806     17.58722       54.390581    
    492000   1.0157406      17.636667      54.218509    
    493000   1.0032853      17.051905      54.105768    
    494000   1.0520155      17.620402      54.048689    
    495000   1.0008985      16.805345      53.939185    
    496000   1.0094664      17.572148      53.96506     
    497000   1.0002525      17.521025      54.040318    
    498000   0.98733701     17.452139      53.910426    
    499000   0.95365888     16.959582      53.739751    
    500000   1.0246802      17.503777      53.662327    
    501000   0.99058332     17.831785      53.303049    
    502000   1.0258454      17.536165      53.091949    
    503000   0.99925524     17.409291      52.754316    
    504000   0.98353226     17.519976      52.408794    
    505000   1.0241402      17.451764      52.310949    
    506000   0.99940263     17.10516       52.202953    
    507000   1.0002004      17.705832      52.202906    
    508000   1.0094156      17.900494      52.095374    
    509000   0.98134663     17.307329      52.064627    
    510000   1.0320496      17.670527      52.037846    
    511000   1.0096786      17.846606      52.156443    
    512000   0.96410602     17.35721       51.911173    
    513000   1.033615       17.28825       51.748547    
    514000   1.0173527      17.430256      51.693074    
    515000   1.0079259      17.848917      51.782834    
    516000   1.0029936      16.974591      51.855273    
    517000   0.95560353     17.80062       51.622074    
    518000   1.0358353      17.936843      51.476972    
    519000   1.01921        17.343526      51.263336    
    520000   1.0331839      17.657073      51.315261    
    521000   0.96134269     17.186823      51.349815    
    522000   0.99001073     17.546558      51.034025    
    523000   1.0287142      18.15642       50.815186    
    524000   1.0436095      17.672141      50.723937    
    525000   0.99004964     17.348288      50.918458    
    526000   0.98393118     18.113178      51.149397    
    527000   0.99252155     17.330096      51.092004    
    528000   1.0205519      17.336989      51.124214    
    529000   1.0280999      17.163479      50.957893    
    530000   1.0014566      17.939581      50.98878     
    531000   1.0192484      17.082662      50.816996    
    532000   0.99036198     17.619379      50.627799    
    533000   1.0045137      17.54778       50.557628    
    534000   0.94338796     17.552793      50.563176    
    535000   1.0110784      17.453957      50.657318    
    536000   0.98325446     17.403622      50.535348    
    537000   0.96840778     17.270783      50.32743     
    538000   1.0270488      18.016402      50.469868    
    539000   0.96229196     17.244243      50.298216    
    540000   0.97425364     17.215974      50.308118    
    541000   0.99406112     17.691411      50.088823    
    542000   1.0201584      17.890796      49.864232    
    543000   0.99699313     18.199684      49.892394    
    544000   1.0485475      17.992937      49.831403    
    545000   1.0307953      17.520656      49.993771    
    546000   1.0103622      17.154952      49.890827    
    547000   0.98750744     17.414256      49.98264     
    548000   0.98706698     17.786164      50.025592    
    549000   0.97829771     17.786387      50.046369    
    550000   1.0392697      17.954454      49.814634    
    551000   0.9793734      17.163346      49.747459    
    552000   0.99654652     16.902512      49.819609    
    553000   0.9997646      17.590242      49.830869    
    554000   1.0078858      17.678521      49.764434    
    555000   1.0073474      18.138688      49.535704    
    556000   0.95646764     17.831985      49.47412     
    557000   0.97419029     17.27594       49.4189      
    558000   1.0097503      17.556728      49.210459    
    559000   0.97343293     17.384861      49.112098    
    560000   1.0218945      17.407873      49.096824    
    561000   1.0218598      17.18519       49.207866    
    562000   0.98342684     17.755943      49.115516    
    563000   0.99560633     18.228935      48.884473    
    564000   1.0315052      17.036994      48.840072    
    565000   0.99808068     17.345115      48.700155    
    566000   1.0370386      18.095371      48.669838    
    567000   0.98355209     17.518587      48.446049    
    568000   0.94859254     17.70224       48.17324     
    569000   1.0262409      17.593537      48.124472    
    570000   0.97344997     17.14138       48.087172    
    571000   1.0145379      17.516147      47.940407    
    572000   1.0036918      17.452649      47.775364    
    573000   1.0382491      17.523208      47.731544    
    574000   1.0021755      16.45907       47.546967    
    575000   1.0190717      17.822453      47.693527    
    576000   1.0274778      17.672253      47.472478    
    577000   0.96565767     17.598979      47.44132     
    578000   1.0096462      18.309799      47.568636    
    579000   1.0296297      17.625145      47.52433     
    580000   1.03659        17.881679      47.435536    
    581000   1.011172       18.056082      47.199421    
    582000   1.0028567      17.320064      47.317757    
    583000   0.97534092     17.718754      47.343034    
    584000   0.97939733     17.794736      47.409715    
    585000   1.0135513      17.87047       47.304418    
    586000   1.0147714      17.21614       47.228547    
    587000   1.0303954      17.682093      47.169476    
    588000   1.0325495      18.027903      47.080294    
    589000   0.99577781     17.321781      47.149957    
    590000   0.9849427      17.076641      46.696662    
    591000   0.98146765     17.487997      46.562694    
    592000   1.0638939      17.259768      46.708873    
    593000   1.0342168      17.297242      46.71552     
    594000   0.99594637     17.26805       46.374316    
    595000   1.0088015      17.509882      46.049655    
    596000   1.0266273      17.442334      45.912218    
    597000   0.97862826     18.067137      46.042541    
    598000   0.984705       17.262437      46.058469    
    599000   0.99778704     17.81153       46.149956    
    600000   0.98905567     17.265395      45.921253    
    601000   1.0115639      17.322685      45.897197    
    602000   1.0302495      17.263834      46.068598    
    603000   0.98156284     17.088574      45.990261    
    604000   0.978003       17.352871      45.887929    
    605000   0.99767097     17.546567      45.955845    
    606000   0.97011847     17.615719      45.773716    
    607000   0.9892851      17.559558      45.519084    
    608000   0.97873267     17.079589      45.731435    
    609000   0.98337333     17.301415      45.61711     
    610000   1.0298975      17.615262      45.649545    
    611000   0.9826444      17.349436      45.769458    
    612000   0.96001265     17.532035      45.540355    
    613000   1.0278283      17.605677      45.390096    
    614000   1.0151441      17.346874      45.208506    
    615000   1.0170884      17.747099      45.025035    
    616000   0.98897925     17.450571      44.846782    
    617000   1.0253514      17.097877      44.710827    
    618000   0.98702558     17.34291       44.662814    
    619000   1.0514234      17.623035      44.58009     
    620000   1.0018752      17.422454      44.242887    
    621000   1.0229144      17.231416      44.318745    
    622000   1.0001084      17.427885      44.223618    
    623000   1.0075791      16.873607      43.969417    
    624000   0.98751838     17.10847       43.916823    
    625000   0.9867465      17.224614      43.795372    
    626000   0.98391291     17.790327      43.777769    
    627000   1.0241798      17.555789      43.714542    
    628000   0.98642904     18.182922      43.746755    
    629000   1.0110084      17.473401      43.725928    
    630000   1.0025362      17.438841      43.474062    
    631000   1.0218248      17.230695      43.23933     
    632000   1.0093319      17.642424      43.125588    
    633000   1.0188357      17.305711      43.287109    
    634000   0.98934916     17.891518      43.270446    
    635000   0.9951924      17.582956      43.052098    
    636000   1.0301178      17.581337      42.888789    
    637000   1.0700218      17.392691      42.933113    
    638000   0.99075821     17.527098      43.128611    
    639000   1.0074839      17.727869      43.162188    
    640000   1.0447784      17.619089      43.059465    
    641000   1.0254743      17.934792      42.826537    
    642000   0.97789009     17.088466      42.857186    
    643000   1.0203099      17.541494      42.747288    
    644000   0.96159132     17.734779      42.442651    
    645000   0.99129811     17.69544       42.367953    
    646000   0.98347703     17.823312      42.473517    
    647000   1.0122226      17.653444      42.473456    
    648000   1.0154288      17.357678      42.306003    
    649000   1.0293574      17.593104      42.206851    
    650000   0.96782735     17.112155      42.066831    
    651000   1.0139409      17.167978      42.103766    
    652000   1.0146115      17.56332       41.983915    
    653000   0.98834476     17.284286      42.153007    
    654000   1.0030573      17.159344      42.09139     
    655000   1.0186208      17.681295      41.87338     
    656000   1.0073646      17.558282      41.863558    
    657000   0.96855281     17.193448      41.981835    
    658000   0.99904129     17.228196      41.714712    
    659000   1.0038322      17.136194      41.629134    
    660000   1.0007906      17.81017       41.391024    
    661000   1.0202528      17.767207      41.371747    
    662000   1.021138       17.4867        41.344542    
    663000   0.9927953      17.186034      41.386816    
    664000   0.97942692     17.353893      41.274464    
    665000   1.0214321      17.49353       41.071188    
    666000   1.0073212      17.897519      40.815902    
    667000   1.0190784      17.011887      40.738689    
    668000   1.0324191      17.408331      40.405875    
    669000   1.009227       17.271479      40.588971    
    670000   0.96920315     17.13195       40.401791    
    671000   0.99123769     17.21879       40.253147    
    672000   0.99725288     17.147028      40.169915    
    673000   0.9945859      17.505713      39.972899    
    674000   0.99152719     17.865074      39.835026    
    675000   0.98940027     17.131905      39.75544     
    676000   0.98897271     17.422734      39.643226    
    677000   1.0589722      17.934206      39.565535    
    678000   1.0051261      17.242062      39.363872    
    679000   0.99204914     18.041174      39.238593    
    680000   0.97280382     17.342828      39.227595    
    681000   1.0274321      17.43231       39.171837    
    682000   0.96795374     17.351981      39.058314    
    683000   0.99028815     17.800085      39.171462    
    684000   0.9940586      17.543345      39.061988    
    685000   1.0040695      17.161345      39.046361    
    686000   0.98782611     17.016466      39.026053    
    687000   0.98691813     17.321141      39.003179    
    688000   1.0398588      17.725767      38.994154    
    689000   1.0230334      17.621138      38.777107    
    690000   1.0289098      18.189652      38.758485    
    691000   0.97340739     17.133125      38.584127    
    692000   0.94672412     17.03083       38.410968    
    693000   0.95204676     17.471188      38.409025    
    694000   1.0240071      17.346912      38.276308    
    695000   1.0194977      17.275876      37.929897    
    696000   0.95231141     17.171444      37.80617     
    697000   1.0526137      17.402666      37.637752    
    698000   0.98559979     17.834486      37.548895    
    699000   1.0195081      17.640341      37.508151    
    700000   0.99937185     17.589031      37.238993    
    701000   1.0329959      17.700331      37.012746    
    702000   0.97845676     17.509836      36.926327    
    703000   1.0015891      17.650058      37.123561    
    704000   1.0239022      18.214094      37.318411    
    705000   1.0064667      17.723328      37.291697    
    706000   0.98621872     17.091923      37.321982    
    707000   0.9932826      17.571328      37.232045    
    708000   1.0238655      17.219466      37.225726    
    709000   0.99903483     17.306215      37.220303    
    710000   1.0090279      17.699419      36.998098    
    711000   1.0102029      17.453665      36.806886    
    712000   0.980765       17.794623      36.708924    
    713000   0.9458828      17.102814      36.55219     
    714000   1.019568       17.57555       36.287725    
    715000   1.0355347      17.254106      36.087201    
    716000   0.98939919     17.392397      35.959885    
    717000   0.96095016     17.850508      35.782941    
    718000   0.99651335     17.154063      35.660089    
    719000   0.99428394     17.149143      35.624104    
    720000   0.98280484     17.778627      35.517435    
    721000   0.99613178     17.431239      35.649075    
    722000   1.0179269      17.58516       35.554083    
    723000   1.0038427      17.640164      35.326717    
    724000   1.0074368      17.273732      35.474388    
    725000   0.97827742     16.792243      35.443554    
    726000   0.99248096     17.436371      35.467085    
    727000   0.94583094     16.774544      35.318043    
    728000   0.98826225     17.887457      35.274179    
    729000   1.0180522      17.062462      34.963642    
    730000   1.0215806      17.121846      34.507838    
    731000   1.0214065      17.754918      34.335475    
    732000   0.99606332     17.170444      34.374536    
    733000   0.96473292     16.791029      34.219381    
    734000   1.0170977      16.892248      34.063488    
    735000   1.0164755      17.033563      34.08525     
    736000   1.0036121      17.685982      34.124141    
    737000   1.0065069      17.799815      34.167946    
    738000   0.98417269     17.775413      34.112712    
    739000   0.96040775     17.428039      33.979781    
    740000   1.0245827      17.013864      33.602696    
    741000   1.0183527      17.329301      33.60843     
    742000   1.0020707      17.192798      33.646837    
    743000   0.95301353     17.367915      33.6613      
    744000   1.0303086      17.447343      33.81266     
    745000   0.99050545     17.592903      33.750437    
    746000   1.0081019      17.701322      33.607402    
    747000   0.99372829     17.521812      33.767982    
    748000   1.0324355      18.002642      33.806847    
    749000   0.9767142      17.640183      33.779704    
    750000   0.99885279     17.123009      33.864205    
    751000   1.0098478      16.998272      33.739626    
    752000   0.98696415     17.298475      33.552661    
    753000   0.96729791     16.696827      33.489769    
    754000   0.98499758     17.008662      33.54923     
    755000   1.0089979      17.605096      33.427442    
    756000   1.012154       17.211642      33.392318    
    757000   0.9977155      17.706503      33.346155    
    758000   0.98948453     17.036011      33.138884    
    759000   1.0060097      17.247697      33.107272    
    760000   1.0274878      17.348657      32.817016    
    761000   0.98383122     17.215565      32.740748    
    762000   1.0143009      17.545142      32.554386    
    763000   0.99525684     17.508743      32.273333    
    764000   1.0023381      17.187608      31.933601    
    765000   1.0474223      17.627672      31.803756    
    766000   0.99489016     17.213515      31.671198    
    767000   1.0123967      17.202445      31.606556    
    768000   1.0417837      16.995377      31.739138    
    769000   0.98371341     17.357597      31.672793    
    770000   0.97692115     17.023722      31.711326    
    771000   1.0113442      17.178911      31.636734    
    772000   0.99590477     17.416841      31.770902    
    773000   0.99323947     17.276908      31.790123    
    774000   1.0072521      17.378762      31.603788    
    775000   0.99613532     17.481989      31.589003    
    776000   0.97026168     17.46162       31.519797    
    777000   1.0074439      17.071159      31.538411    
    778000   0.97091748     17.517249      31.345999    
    779000   0.97430875     17.020248      31.453683    
    780000   1.0021921      17.594364      31.374952    
    781000   1.0167879      17.701047      31.480981    
    782000   1.0064983      17.674188      31.440168    
    783000   0.9653655      17.521034      31.252894    
    784000   1.0333082      17.251604      31.117139    
    785000   1.0176081      17.920647      31.000288    
    786000   0.96159004     17.978268      31.214061    
    787000   0.99740975     17.409363      31.195828    
    788000   0.96437175     17.37542       31.219797    
    789000   0.99456206     17.180327      31.230866    
    790000   1.0579298      17.298692      31.227916    
    791000   0.9714262      17.239592      31.144045    
    792000   0.98503545     17.42559       31.323442    
    793000   0.98911092     17.576068      31.455187    
    794000   1.0098109      17.499783      31.42255     
    795000   0.98300997     17.556323      31.234208    
    796000   0.99890655     16.75373       31.305608    
    797000   1.0062833      17.051129      31.274726    
    798000   1.0311659      17.623722      31.37232     
    799000   1.0098665      17.75984       31.331849    
    800000   1.0048418      17.28209       31.376882    
    801000   1.0108584      17.553252      31.309881    
    802000   1.0045327      17.15666       31.099471    
    803000   1.0177245      17.181873      31.176809    
    804000   1.0195458      17.764381      31.240392    
    805000   1.02919        17.092212      31.280833    
    806000   1.0266305      17.404207      31.200374    
    807000   0.99080827     17.389913      31.197628    
    808000   1.0371874      17.201594      31.114648    
    809000   1.0251099      17.381409      31.055438    
    810000   0.97754478     17.253885      30.990109    
    811000   0.98746435     18.078438      30.970121    
    812000   1.004283       17.06633       31.164895    
    813000   1.024349       17.788569      31.279209    
    814000   1.0081901      16.896552      31.214094    
    815000   0.97696242     17.568009      31.338473    
    816000   0.96472626     17.419991      31.359997    
    817000   1.0050083      17.225024      31.204791    
    818000   0.97661917     17.439175      31.006376    
    819000   0.97498009     17.094926      31.018346    
    820000   0.97565525     17.166203      30.910572    
    821000   0.9774857      17.565088      30.943169    
    822000   0.96629259     17.413088      30.760309    
    823000   1.0479311      17.561941      30.903995    
    824000   1.0352622      17.037295      30.86793     
    825000   0.96161018     17.217846      30.626277    
    826000   1.0220822      17.565966      30.493887    
    827000   1.0115307      17.324747      30.436643    
    828000   1.0098582      17.626733      30.348712    
    829000   0.97895253     17.090653      30.386771    
    830000   1.0041773      16.927435      30.332893    
    831000   0.97010419     17.311294      30.183136    
    832000   1.009386       17.56104       30.001767    
    833000   0.99956272     17.141361      30.118312    
    834000   0.99495733     16.984734      30.087432    
    835000   0.95214491     17.468349      30.057903    
    836000   0.97929622     17.726061      29.917115    
    837000   1.035309       16.840243      29.919393    
    838000   1.004669       17.166182      29.649879    
    839000   1.0198362      17.148778      29.995893    
    840000   0.95758413     17.677808      29.950105    
    841000   1.0117375      18.284539      29.869522    
    842000   0.99073781     17.208296      29.789402    
    843000   1.0229817      17.374448      29.841837    
    844000   1.0430074      17.70064       29.843486    
    845000   0.99162082     17.149519      29.78846     
    846000   1.0121334      17.579987      29.539061    
    847000   1.026377       17.18874       29.530959    
    848000   1.0106195      16.962007      29.545805    
    849000   1.0025746      16.962214      29.367137    
    850000   1.0020389      17.215044      29.231552    
    851000   0.98483034     17.216606      29.213254    
    852000   1.0010668      17.439415      29.07351     
    853000   0.97495148     17.745449      29.045667    
    854000   0.99342623     17.260323      28.961195    
    855000   0.98051693     17.148432      29.053916    
    856000   0.99972479     17.52063       28.77914     
    857000   1.0004631      17.561708      28.872157    
    858000   1.0078614      16.821816      28.968838    
    859000   0.98800888     17.52279       29.116479    
    860000   1.0339931      17.020977      29.075972    
    861000   1.0216326      17.270297      28.863972    
    862000   0.982684       17.488559      28.776532    
    863000   0.99203411     16.88519       28.473445    
    864000   1.0275648      17.481291      28.530171    
    865000   1.0220008      17.357134      28.373558    
    866000   1.0266758      17.957592      28.176079    
    867000   1.0063117      17.237971      28.162681    
    868000   0.99217309     17.149209      28.104819    
    869000   1.0024819      17.438557      28.078166    
    870000   0.98926909     17.639768      27.980974    
    871000   1.0145345      17.665291      27.886648    
    872000   0.97722416     17.657885      27.564843    
    873000   1.0112774      17.690743      27.152009    
    874000   1.0184553      17.594678      26.949139    
    875000   0.98526762     17.29866       26.880326    
    876000   1.0164023      17.673745      26.935482    
    877000   0.99905313     17.346793      26.803254    
    878000   0.97160333     17.646118      26.813457    
    879000   1.0145285      17.533329      26.734512    
    880000   1.0481369      17.449347      26.652611    
    881000   1.0076215      17.066007      26.518982    
    882000   1.0198853      17.581519      26.548009    
    883000   1.016877       17.092334      26.494269    
    884000   1.0235869      17.208024      26.341615    
    885000   0.99330581     16.900094      26.143657    
    886000   1.023949       17.624493      25.885458    
    887000   1.0200131      17.276535      25.701784    
    888000   1.0420744      18.051043      25.735366    
    889000   1.0074336      17.560347      25.698894    
    890000   0.93627        17.410975      25.553326    
    891000   0.97944808     17.033025      25.300138    
    892000   1.0053817      17.471083      25.25985     
    893000   1.0108374      17.914686      25.102592    
    894000   0.94822058     17.336637      25.085941    
    895000   0.95605413     16.721738      25.200918    
    896000   0.92590752     16.973953      25.145143    
    897000   1.0247784      17.355252      24.964985    
    898000   1.0256677      17.100002      24.905235    
    899000   1.0194986      17.507043      24.923441    
    900000   1.0384735      17.37444       24.830015    
    901000   0.99613326     17.571005      24.852884    
    902000   1.0039516      17.512011      24.662898    
    903000   0.98195972     16.999142      24.401392    
    904000   0.99172715     17.800768      24.454763    
    905000   1.0214105      17.302052      24.3893      
    906000   0.97650531     17.379662      24.457363    
    907000   1.015367       17.458493      24.358075    
    908000   1.0274496      17.419533      24.096258    
    909000   1.0268775      17.203876      23.918727    
    910000   1.0195194      17.442306      23.946338    
    911000   0.99238064     17.406375      23.978134    
    912000   1.0445408      16.92025       23.924656    
    913000   0.98793693     17.380002      23.778085    
    914000   0.98794029     17.0052        23.726194    
    915000   0.98682903     17.898673      23.631599    
    916000   0.99157723     17.12342       23.516261    
    917000   0.982539       17.027374      23.570363    
    918000   1.0028175      17.216775      23.251631    
    919000   0.97739753     16.731324      23.304902    
    920000   0.96504825     17.561641      23.133663    
    921000   0.99868395     17.485598      23.118901    
    922000   1.0347103      17.264216      22.789109    
    923000   0.9766183      17.144534      22.749427    
    924000   1.0221484      17.406013      22.544237    
    925000   1.015276       17.664671      22.500252    
    926000   0.98927306     17.192555      22.549076    
    927000   1.0183507      17.692897      22.538629    
    928000   0.98062841     16.697222      22.542351    
    929000   0.97483852     17.256303      22.192958    
    930000   1.003049       17.40011       22.01987     
    931000   1.0087473      17.289848      21.962837    
    932000   1.0478647      17.417704      21.943525    
    933000   1.0102222      17.258223      21.762857    
    934000   0.99106545     17.445618      21.924678    
    935000   1.0146237      17.182228      22.06054     
    936000   1.0108264      17.318887      22.00422     
    937000   1.008445       17.398312      22.089075    
    938000   0.96564963     16.492794      22.037245    
    939000   0.98085644     17.004949      21.971645    
    940000   1.0079068      18.051794      21.877095    
    941000   1.0057047      17.511677      21.817915    
    942000   0.99346434     16.823997      21.455725    
    943000   0.98537591     17.442806      21.312686    
    944000   1.0041192      17.039281      21.214258    
    945000   0.97863172     17.357789      21.223391    
    946000   1.0294327      17.398908      21.202237    
    947000   1.0134854      17.340817      21.223308    
    948000   1.0429241      17.610528      21.037245    
    949000   0.99887465     17.335334      20.650831    
    950000   1.0067496      16.888626      20.551699    
    951000   0.98549527     17.41068       20.418617    
    952000   1.0230844      17.423083      20.236855    
    953000   1.0182633      16.665383      20.112469    
    954000   1.0371648      17.826436      20.106897    
    955000   1.0429532      17.067546      20.086993    
    956000   1.0090997      17.430752      19.84081     
    957000   1.0440347      16.836027      19.825427    
    958000   1.0064908      17.094588      19.888357    
    959000   1.0213369      16.885639      19.780276    
    960000   1.0287452      17.127114      19.629036    
    961000   1.0134577      17.610704      19.69294     
    962000   0.98201429     17.443872      19.676834    
    963000   1.0170425      16.731218      19.599218    
    964000   1.0374475      17.632469      19.755075    
    965000   1.0026327      17.075312      19.687542    
    966000   1.0295589      17.426662      19.621303    
    967000   0.93954501     17.204603      19.617401    
    968000   1.007327       17.646369      19.519583    
    969000   0.97290615     16.886288      19.402426    
    970000   0.98973013     16.989847      19.406999    
    971000   0.99076554     17.789963      19.360317    
    972000   1.0084749      17.329548      19.196253    
    973000   1.0361923      17.270407      18.95126     
    974000   0.99543304     16.945642      18.8457      
    975000   0.98051514     17.147398      18.833355    
    976000   1.0038109      16.820661      18.864947    
    977000   0.96273604     17.203727      18.731327    
    978000   1.0007897      17.167569      18.743588    
    979000   0.98937286     17.184417      18.733007    
    980000   1.0323349      17.141509      18.63962     
    981000   1.0173802      17.468583      18.397267    
    982000   0.98659891     17.246623      18.284594    
    983000   1.0092764      17.683314      18.287642    
    984000   0.94884175     16.98086       18.297313    
    985000   0.98760138     17.134677      18.161333    
    986000   0.97917624     17.622041      18.389003    
    987000   0.99462402     17.118697      18.255542    
    988000   1.0090118      17.429748      18.078809    
    989000   0.99190572     16.954567      18.065293    
    990000   0.98488908     18.204601      17.94888     
    991000   1.0089907      17.762963      17.938746    
    992000   1.0070693      17.378394      17.795233    
    993000   1.000241       17.629228      17.715825    
    994000   0.9673325      16.991862      17.861543    
    995000   0.99041651     16.66113       17.999232    
    996000   1.0398925      16.726717      17.955781    
    997000   0.99528465     17.19633       18.137879    
    998000   1.0072674      17.612752      18.266752    
    999000   1.0281795      17.572037      18.07157     
   1000000   1.0313782      17.057001      17.969441    
   1001000   1.026069       16.999578      17.915264    
   1002000   1.020993       17.435855      17.818454    
   1003000   1.0094963      17.391044      17.737462    
   1004000   0.9868972      17.526894      17.755959    
   1005000   0.9665202      16.807277      17.580166    
   1006000   0.97005258     17.42781       17.594195    
   1007000   1.0126696      17.21733       17.479466    
   1008000   0.99652969     17.753089      17.386905    
   1009000   0.95143792     16.858125      17.369371    
   1010000   1.0270923      17.755595      17.388983    
   1011000   1.0321275      17.404086      17.337159    
   1012000   0.95350498     17.01141       17.279092    
   1013000   0.97290638     17.167658      17.407845    
   1014000   0.96181319     16.901055      17.218215    
   1015000   0.99712374     16.667704      17.194117    
   1016000   1.0253552      17.162734      17.094766    
   1017000   0.99739905     17.113435      16.947571    
   1018000   0.9774937      16.988896      16.755564    
   1019000   1.0249318      16.936921      16.517537    
   1020000   0.99398456     17.529478      16.21905     
   1021000   0.97173689     17.40295       16.163941    
   1022000   0.97463592     17.075         16.319065    
   1023000   1.0192911      17.05771       16.196926    
   1024000   1.022606       16.977942      15.956941    
   1025000   0.97475037     17.306731      15.720803    
   1026000   1.0323826      17.370844      15.719594    
   1027000   0.9566046      17.890259      15.717668    
   1028000   1.009199       16.943179      15.624419    
   1029000   1.0178029      17.404513      15.431615    
   1030000   1.0477357      17.51742       15.32791     
   1031000   1.0010934      16.797415      15.307293    
   1032000   0.99801482     17.179923      15.296733    
   1033000   1.045977       17.54817       15.281141    
   1034000   1.0214604      17.276274      15.017174    
   1035000   1.0015717      16.514331      14.725072    
   1036000   1.0026998      17.620451      14.545592    
   1037000   1.0045395      17.491597      14.634743    
   1038000   0.9957757      17.548884      14.511394    
   1039000   1.0164058      16.640832      14.468587    
   1040000   1.031937       17.575311      14.385494    
   1041000   1.0080019      16.922949      14.119468    
   1042000   0.99361889     16.389534      14.091811    
   1043000   1.0191631      16.864465      13.885542    
   1044000   1.0165692      16.864498      13.651212    
   1045000   1.0344457      17.459764      13.362087    
   1046000   0.99056579     16.804355      13.232787    
   1047000   1.047748       17.231385      13.251698    
   1048000   0.97635879     16.494017      13.231509    
   1049000   0.99245658     16.946089      13.190696    
   1050000   1.014107       17.017699      13.249339    
   1051000   0.99263655     17.172443      13.295102    
   1052000   0.96283283     17.313303      12.983743    
   1053000   1.0079695      16.993423      13.105064    
   1054000   1.0257113      17.224007      13.079482    
   1055000   1.047099       17.19656       13.128874    
   1056000   0.99027044     16.995752      13.239509    
   1057000   1.0506366      16.89467       13.097057    
   1058000   1.015525       16.711031      13.151382    
   1059000   0.96091949     16.834948      12.884013    
   1060000   1.0043937      16.768165      12.642413    
   1061000   1.0012509      16.937113      12.7386      
   1062000   0.9771913      16.978605      12.817197    
   1063000   0.9692896      17.02287       12.7119      
   1064000   0.98949492     16.904784      12.668075    
   1065000   0.96000492     16.779505      12.489807    
   1066000   1.0014977      17.383225      12.31336     
   1067000   1.009927       16.936111      12.126615    
   1068000   0.97743169     17.000219      12.10947     
   1069000   1.0322824      16.774757      12.111468    
   1070000   0.9677259      17.250806      12.08495     
   1071000   1.0254845      17.116302      11.870137    
   1072000   1.0080492      17.124408      11.805747    
   1073000   0.99414296     17.402356      11.788742    
   1074000   0.9930208      16.885461      11.592885    
   1075000   1.029613       16.596012      11.655836    
   1076000   0.98728325     17.024069      11.560871    
   1077000   0.98958428     17.261877      11.226152    
   1078000   0.98063737     17.150443      11.268097    
   1079000   0.97687626     17.349128      11.094221    
   1080000   1.0358281      16.822693      11.029175    
   1081000   1.0020086      17.068576      11.045214    
   1082000   1.0612135      17.588299      11.146612    
   1083000   0.98971387     17.683074      10.978354    
   1084000   0.96455378     16.867119      11.047586    
   1085000   1.0112167      16.479299      10.916216    
   1086000   0.99498891     16.8082        10.690212    
   1087000   1.0122276      17.279876      10.757968    
   1088000   0.96092208     16.74962       10.65608     
   1089000   1.027528       16.974293      10.783049    
   1090000   0.95126466     16.809491      10.913862    
   1091000   0.98995168     16.969283      10.905142    
   1092000   1.0051637      16.81038       10.95744     
   1093000   0.97333912     17.208856      10.959991    
   1094000   1.0048899      16.397646      10.974432    
   1095000   1.0019602      17.115         11.003369    
   1096000   1.0009513      17.069916      10.906704    
   1097000   0.98311192     16.991936      10.831332    
   1098000   0.9685511      16.69432       10.760108    
   1099000   1.0297871      16.870611      10.707304    
   1100000   0.98358647     16.935275      10.582753    
   1101000   0.97106099     16.858503      10.435925    
   1102000   0.95549234     17.453846      10.534179    
   1103000   1.0728148      17.608878      10.496859    
   1104000   1.0083091      17.09173       10.43824     
   1105000   1.0594464      17.565491      10.396765    
   1106000   1.0154823      16.873804      10.431616    
   1107000   1.0150157      17.325151      10.224681    
   1108000   1.0179947      16.833886      10.175897    
   1109000   0.97034513     16.365595      10.007787    
   1110000   1.01381        16.875601      9.9164189    
   1111000   1.0177643      17.28747       9.8301391    
   1112000   1.0346428      16.682859      9.7640184    
   1113000   1.0015635      17.718572      9.6013985    
   1114000   0.98610992     16.39865       9.4903438    
   1115000   1.0066271      17.374063      9.5469389    
   1116000   1.0034874      17.600082      9.361973     
   1117000   1.0027441      16.920759      9.3304292    
   1118000   0.98221253     16.782706      9.3771221    
   1119000   0.99191781     16.555399      9.4725916    
   1120000   1.0403205      17.222578      9.5914106    
   1121000   1.0143873      17.239207      9.6027626    
   1122000   1.0106464      17.181731      9.6540639    
   1123000   0.99432377     17.240038      9.6411376    
   1124000   1.0111498      17.458827      9.6925913    
   1125000   0.93663402     16.594662      9.7777176    
   1126000   0.9900697      16.885514      9.6480436    
   1127000   0.96923054     16.772312      9.5256591    
   1128000   1.0145792      17.357723      9.6839338    
   1129000   1.0270973      17.189211      9.5607801    
   1130000   0.97983986     17.556659      9.3475212    
   1131000   0.97482098     16.993782      9.4768126    
   1132000   1.0032343      16.570851      9.619228     
   1133000   0.97355496     17.208907      9.6147027    
   1134000   1.0159144      16.542625      9.494376     
   1135000   1.003653       16.997755      9.3967407    
   1136000   1.0578595      17.215757      9.3316678    
   1137000   0.99355672     17.119933      9.3628679    
   1138000   0.9866386      17.48029       9.2140729    
   1139000   0.99776358     17.460596      9.0939439    
   1140000   1.0500083      17.510833      8.942286     
   1141000   0.97636102     17.043565      8.837163     
   1142000   1.038129       17.217021      8.7315843    
   1143000   1.021316       17.129386      8.3935145    
   1144000   0.97575891     17.103471      8.0994527    
   1145000   0.98689833     16.874873      7.8967963    
   1146000   0.98527006     17.076464      7.6271922    
   1147000   0.98992234     16.42489       7.5374694    
   1148000   1.0111189      16.730424      7.2026786    
   1149000   0.9812273      17.002093      7.1554999    
Fix halt condition for fix-id 3 met on step 1150000 with value 6.941569071719619 (src/fix_halt.cpp:237)
   1150000   1.0333564      17.58939       6.9415691    
Loop time of 1610.46 on 2 procs for 1050000 steps with 1201 atoms

Performance: 563318.695 tau/day, 651.989 timesteps/s
132.9% CPU use with 1 MPI tasks x 2 OpenMP threads

MPI task timing breakdown:
Section |  min time  |  avg time  |  max time  |%varavg| %total
---------------------------------------------------------------
Pair    | 423.4      | 423.4      | 423.4      |   0.0 | 26.29
Bond    | 26.05      | 26.05      | 26.05      |   0.0 |  1.62
Neigh   | 1095.2     | 1095.2     | 1095.2     |   0.0 | 68.01
Comm    | 0.3967     | 0.3967     | 0.3967     |   0.0 |  0.02
Output  | 2.9166     | 2.9166     | 2.9166     |   0.0 |  0.18
Modify  | 58.176     | 58.176     | 58.176     |   0.0 |  3.61
Other   |            | 4.313      |            |       |  0.27

Nlocal:           1201 ave        1201 max        1201 min
Histogram: 1 0 0 0 0 0 0 0 0 0
Nghost:              0 ave           0 max           0 min
Histogram: 1 0 0 0 0 0 0 0 0 0
Neighs:         288077 ave      288077 max      288077 min
Histogram: 1 0 0 0 0 0 0 0 0 0

Total # of neighbors = 288077
Ave neighs/atom = 239.86428
Ave special neighs/atom = 1.9983347
Neighbor list builds = 9246
Dangerous builds = 0

# This simulation is done
# Move onto the next one
clear
  using 2 OpenMP thread(s) per MPI task
package omp 0
using multi-threaded neighbor list subroutines
next f
jump SELF

Total wall time: 3:33:45
