#atom_style bond #no stiffness
atom_style angle #with stiffness

boundary        p p p
###
# Pair interactions require lists of neighbours to be calculated
###

#neighbor 0.3 bin
neighbor 4 bin

neigh_modify every 1 delay 1 check yes
atom_modify sort 0 0
### Generate RESTART file, SPECIAL format, not a .txt file ###
### Useful if simulation crashes ###

restart 1000000 nuc3branch4/restarts2/$f.restart
restart 1000000 nuc3branch4/restarts2/bb80nuc3bl20bn4d30tot200.restart
#############################



### READ "start" data file ###

read_data nuc3branch4/$f.dat
read_data nuc3branch4/bb80nuc3bl20bn4d30tot200.dat
Reading data file ...
  orthogonal box = (-1000 -1000 -1000) to (1000 1000 1000)
  1 by 1 by 1 MPI processor grid
  reading atoms ...
  201 atoms
  scanning bonds ...
  3 = max bonds/atom
  scanning angles ...
  6 = max angles/atom
  reading bonds ...
  200 bonds
  reading angles ...
  208 angles
Finding 1-2 1-3 1-4 neighbors ...
  special bond factors lj:    0        0        0       
  special bond factors coul:  0        0        0       
     4 = max # of 1-2 neighbors
     4 = max # of 1-3 neighbors
     8 = max # of 1-4 neighbors
    12 = max # of special neighbors
  special bonds CPU = 0.001 seconds
  read_data CPU = 0.028 seconds

######################

### READ "REstart" data file ###

######################



###
# Define groups (atom type 1 is group 'all')
###
group all type 1
201 atoms in group all


###
# Dump configs - "simple dumpings"
###

###
# Dump configs + box coords
###

dump   1   all   custom   1000  nuc3branch4/trjs2/$f.lammpstrj  id  x y z  ix iy iz
dump   1   all   custom   1000  nuc3branch4/trjs2/bb80nuc3bl20bn4d30tot200.lammpstrj  id  x y z  ix iy iz
dump_modify   1   format line "%d %.5f %.5f %.5f %d %d %d"

########################################################################


###################################################################
# Stiffness term
#
# E = K * (1+cos(theta)), K>0
#
angle_style   cosine
#change this coefficient to change stiffness (e.g. 1,5,10)
angle_coeff   1 1.0
###################################################################

###################################################################
# Pair interaction between non-bonded atoms
#
#  Lennard-Jones 12-6 potential with cutoff:
#  potential E=4epsilon[ (sigma/r)^12 - (sigma/r)^6]  for r<r_cut
#
#  1.12246 = 2^(1/6) is the minimum of the potential


pair_style      lj/cut 1.12246152962189
#pair_style      lj/cut 3

#
#  pair_modify shift yes adds a constant to the potential such

#  that E(r_cut)=0. Forces remains unchanged.
#

pair_modify     shift yes

#
#  pair_coeff for lj/cut, specify 4:
#    * atom type interacting with
#    * atom type
#    * epsilon (energy units)
#    * sigma (distance units)
#

pair_coeff      1 1 1.0 1.0
###################################################################

###################################################################
# Pair interaction between non-bonded atoms
#
#  soft potential, for PUSHING apart overlapping atoms
#  potential E=A*(1 + cos(pi*r/r_c))
#
#  1.12246 = 2^(1/6) is the cut-off r_c

#pair_style     soft 1.12246152962189

#
#  pair_coeff for soft, specify 3:
#    * atom type interacting with
#    * atom type
#    * A
#
#

#pair_coeff      1 1 100.0
###################################################################

###################################################################
# Pair interaction between bonded atoms
#
# Fene potential + Lennard Jones 12-6:

#
#  E= - 0.5 K R0^2 ln[ 1- (r/R0)^2]
#     + 4epsilon[ (sigma/r)^12 - (sigma/r)^6] + epsilon
#

bond_style   fene


#
# For style fene, specify:
#   * bond type
#   * K (energy/distance^2)
#   * R0 (distance)
#   * epsilon (energy)  (LJ component)
#   * sigma (distance)  (LJ component)
#


special_bonds fene #<=== I M P O R T A N T (new command)
Finding 1-2 1-3 1-4 neighbors ...
  special bond factors lj:    0        1        1       
  special bond factors coul:  0        1        1       
     4 = max # of 1-2 neighbors
    12 = max # of special neighbors
  special bonds CPU = 0.000 seconds

bond_coeff   1   30   2   1.0   1.0


###################################################

###################################################################
# Pair interaction between bonded atoms
#
# Harmonic potential:
#
#  E= K * (R-R0)^2
#

#bond_style   harmonic

#
# For style harmonic, specify:
#   * bond type
#   * K (energy/distance^2)
#   * R0 (distance)
#

#bond_coeff   1   60.0   1.0
#bond_coeff   2   harmonic 0.1   1.0

###################################################
compute 1 all gyration
variable rog equal c_1
#compute 2 all coord/atom cutoff 1.1

#dump 2 all custom 10000 contact_number.dump id c_2


###
# Set up fixes
###
thermo_style   custom   step  temp enthalpy c_1
fix 1 all nve   ###NVE ensemble

fix 2 all   langevin   1.0 1.0 1.0  778655   ###Langevin integrator Tstart Tstop 1/friction rndseed


##### Sample thermodynamic info  (temperature, energy, pressure, etc.) #####
thermo 1000









############################################################################

###
# set timestep of integrator

timestep 0.01

###
# run integration for a number of steps
###
#run 0
#variable r equal c_1
#if "$r < 63.1" then "quit 1"

# lj potential minimum, cause molecule to explore
run 100000
Generated 0 of 0 mixed pair_coeff terms from geometric mixing rule
Last active /omp style is angle_style cosine/omp
Neighbor list info ...
  update: every = 1 steps, delay = 1 steps, check = yes
  max neighbors/atom: 2000, page size: 100000
  master list distance cutoff = 5.1224615
  ghost atom cutoff = 5.1224615
  binsize = 2.5612308, bins = 781 781 781
  1 neighbor lists, perpetual/occasional/extra = 1 0 0
  (1) pair lj/cut/omp, perpetual
      attributes: half, newton on, omp
      pair build: half/bin/newton/omp
      stencil: half/bin/3d
      bin: standard
WARNING: Communication cutoff 5.12246152962189 is shorter than a bond length based estimate of 5.455. This may lead to errors. (src/comm.cpp:723)
Per MPI rank memory allocation (min/avg/max) = 1861 | 1861 | 1861 Mbytes
   Step          Temp         Enthalpy         c_1      
         0   0              13.233768      18.553677    
      1000   0.95628913     19.167589      16.891759    
      2000   0.98623521     20.29407       15.864149    
      3000   1.1039777      22.376539      15.507956    
      4000   0.99107267     21.009049      15.628804    
      5000   1.0501295      21.253046      14.944368    
      6000   1.0348697      20.095851      14.542816    
      7000   1.0761665      18.721487      14.271886    
      8000   1.0736735      19.068589      13.881984    
      9000   0.93846767     20.608184      14.004059    
     10000   1.0068115      19.578715      14.085353    
     11000   1.0295691      21.222659      14.413082    
     12000   0.9971607      19.739985      14.286766    
     13000   1.0038974      20.826357      14.18032     
     14000   0.99443315     19.953599      14.238228    
     15000   1.0534942      21.309737      13.971934    
     16000   1.1271394      21.290721      13.494314    
     17000   1.0247028      19.328618      12.941376    
     18000   1.0867296      20.573155      12.455074    
     19000   0.86828133     20.83341       12.737042    
     20000   1.008044       21.168772      12.374991    
     21000   1.1518149      22.120468      12.574962    
     22000   0.97058666     20.588711      12.60672     
     23000   1.0202575      21.222685      12.382086    
     24000   0.9802912      20.047347      12.284545    
     25000   0.98457914     21.070277      12.266118    
     26000   0.88060636     19.600269      11.829118    
     27000   0.99936193     20.695521      11.586377    
     28000   0.99091354     19.677994      11.421739    
     29000   0.9750457      20.473613      10.769478    
     30000   0.96302835     21.190283      10.705281    
     31000   1.1038053      21.063323      10.63591     
     32000   0.98387642     21.611968      10.377414    
     33000   1.018596       20.43521       10.471561    
     34000   1.131904       20.920912      10.431814    
     35000   1.1502862      21.546233      10.560998    
     36000   1.0198856      20.462816      10.763       
     37000   1.0235331      21.270699      10.523752    
     38000   0.99074435     20.195387      10.524811    
     39000   1.0626602      20.70528       11.047211    
     40000   1.0631638      20.844817      11.033753    
     41000   1.1300707      21.078531      10.82738     
     42000   1.0163279      20.547429      10.525508    
     43000   1.0076838      21.244044      10.386741    
     44000   1.0395097      20.627131      10.150229    
     45000   0.99030988     21.15329       10.259257    
     46000   0.96491182     19.74779       10.420439    
     47000   1.0231778      20.793751      9.9295974    
     48000   1.0499299      21.192538      9.7491887    
     49000   0.9226948      19.352899      9.9169415    
     50000   1.0845173      21.179289      9.5778089    
     51000   1.0350085      21.607054      9.1510028    
     52000   0.94862536     21.199958      9.0724279    
     53000   0.98115344     20.160545      9.3979883    
     54000   0.97501346     20.281568      10.100758    
     55000   0.98106686     21.445013      10.331323    
     56000   1.103829       21.367225      10.529827    
     57000   1.0170553      21.294847      10.348067    
     58000   0.95504019     20.261803      10.739393    
     59000   0.96837218     21.037556      10.72912     
     60000   0.92582945     19.902861      10.403959    
     61000   0.9718669      20.612559      9.9276235    
     62000   1.073484       21.133936      9.7886957    
     63000   0.85746314     20.012261      9.7755067    
     64000   0.98698389     19.98837       10.032292    
     65000   0.94308185     19.222325      10.300872    
     66000   0.96055494     21.351433      10.032604    
     67000   0.99696425     20.521339      9.9962708    
     68000   1.0187893      20.35747       9.8689566    
     69000   0.97616833     20.40312       10.059054    
     70000   0.92277034     20.594456      9.9596067    
     71000   0.98278993     20.457473      9.9273641    
     72000   0.92684352     21.715123      10.046335    
     73000   0.99110065     19.577695      10.532381    
     74000   0.95526604     19.743357      10.088877    
     75000   0.99873569     20.338409      10.209596    
     76000   1.0308821      20.276097      10.274508    
     77000   0.94788877     20.239185      10.022605    
     78000   1.025303       20.133016      9.8315173    
     79000   1.0569434      20.680672      9.6865662    
     80000   0.93018668     20.495162      10.084145    
     81000   1.0774385      19.916373      9.9895134    
     82000   0.92942491     20.878334      10.433852    
     83000   1.0205692      21.470882      10.211807    
     84000   0.91045426     20.030629      9.8342256    
     85000   1.0128652      20.139836      9.7466367    
     86000   0.97173828     20.619735      10.089705    
     87000   1.0147877      21.773629      9.7554732    
     88000   1.0637909      21.428397      9.1570883    
     89000   0.97520781     20.4955        9.1353975    
     90000   0.96754092     20.937959      9.2074991    
     91000   1.0027328      20.275975      9.0165472    
     92000   0.85764116     20.25679       9.2976352    
     93000   1.1255516      21.719233      9.4089466    
     94000   0.96936568     20.353186      9.6714868    
     95000   0.95254933     19.570049      9.6783783    
     96000   1.0871415      21.18953       9.9256438    
     97000   1.019829       21.525632      9.6575819    
     98000   0.9084922      20.390371      9.2909773    
     99000   1.0276181      20.788866      8.7093811    
    100000   1.0024975      21.692725      8.3867148    
Loop time of 434.071 on 2 procs for 100000 steps with 201 atoms

Performance: 199045.648 tau/day, 230.377 timesteps/s
100.8% CPU use with 1 MPI tasks x 2 OpenMP threads

MPI task timing breakdown:
Section |  min time  |  avg time  |  max time  |%varavg| %total
---------------------------------------------------------------
Pair    | 0.47406    | 0.47406    | 0.47406    |   0.0 |  0.11
Bond    | 0.55953    | 0.55953    | 0.55953    |   0.0 |  0.13
Neigh   | 431.66     | 431.66     | 431.66     |   0.0 | 99.44
Comm    | 0.019465   | 0.019465   | 0.019465   |   0.0 |  0.00
Output  | 0.15662    | 0.15662    | 0.15662    |   0.0 |  0.04
Modify  | 1.1102     | 1.1102     | 1.1102     |   0.0 |  0.26
Other   |            | 0.09094    |            |       |  0.02

Nlocal:            201 ave         201 max         201 min
Histogram: 1 0 0 0 0 0 0 0 0 0
Nghost:              0 ave           0 max           0 min
Histogram: 1 0 0 0 0 0 0 0 0 0
Neighs:           3100 ave        3100 max        3100 min
Histogram: 1 0 0 0 0 0 0 0 0 0

Total # of neighbors = 3100
Ave neighs/atom = 15.422886
Ave special neighs/atom = 1.9900498
Neighbor list builds = 1016
Dangerous builds = 0

# Replace lj potential, now collapse
pair_style      lj/cut 3

# Cutoff simul when gyration under 10
# Variable created with equal requires v_ + 'name'
fix 3 all halt 1000 v_rog < 7

run 3000000
Generated 0 of 0 mixed pair_coeff terms from geometric mixing rule
Last active /omp style is angle_style cosine/omp
Per MPI rank memory allocation (min/avg/max) = 1861 | 1861 | 1861 Mbytes
   Step          Temp         Enthalpy         c_1      
    100000   1.0024975      20.495944      8.3867148    
    101000   1.0499826      17.853313      7.5784499    
    102000   1.0961378      18.249364      7.0334016    
Fix halt condition for fix-id 3 met on step 103000 with value 6.602532143445705 (src/fix_halt.cpp:237)
    103000   1.1443657      20.237495      6.6025321    
Loop time of 3.89267 on 2 procs for 3000 steps with 201 atoms

Performance: 665867.283 tau/day, 770.680 timesteps/s
103.5% CPU use with 1 MPI tasks x 2 OpenMP threads

MPI task timing breakdown:
Section |  min time  |  avg time  |  max time  |%varavg| %total
---------------------------------------------------------------
Pair    | 0.058161   | 0.058161   | 0.058161   |   0.0 |  1.49
Bond    | 0.015392   | 0.015392   | 0.015392   |   0.0 |  0.40
Neigh   | 3.7801     | 3.7801     | 3.7801     |   0.0 | 97.11
Comm    | 0.000521   | 0.000521   | 0.000521   |   0.0 |  0.01
Output  | 0.0044459  | 0.0044459  | 0.0044459  |   0.0 |  0.11
Modify  | 0.031648   | 0.031648   | 0.031648   |   0.0 |  0.81
Other   |            | 0.002371   |            |       |  0.06

Nlocal:            201 ave         201 max         201 min
Histogram: 1 0 0 0 0 0 0 0 0 0
Nghost:              0 ave           0 max           0 min
Histogram: 1 0 0 0 0 0 0 0 0 0
Neighs:           9018 ave        9018 max        9018 min
Histogram: 1 0 0 0 0 0 0 0 0 0

Total # of neighbors = 9018
Ave neighs/atom = 44.865672
Ave special neighs/atom = 1.9900498
Neighbor list builds = 26
Dangerous builds = 0

# This simulation is done
# Move onto the next one
clear
  using 2 OpenMP thread(s) per MPI task
package omp 0
using multi-threaded neighbor list subroutines
next f
jump SELF

###
# Reference paper:
# K. Kremer and G. S. Grest
# Dynamics of entangled linear polymer melts: A molecular-dynamics simulation
# J Chem Phys 92, 5057 (1990)

##################################
# MIHIR: for branched polymers
# LJ minimum first to expand and explore, then collapse
###

###
# Looping through the various nuc3branch4 polymers to simulate,
# define variables to switch through
variable f index bb40nuc3bl10bn4d30tot100 bb80nuc3bl20bn4d30tot200 bb120nuc3bl30bn4d30tot300 bb160nuc3bl40bn4d30tot400 bb200nuc3bl50bn4d30tot500 bb240nuc3bl60bn4d30tot600 bb280nuc3bl70bn4d30tot700 bb320nuc3bl80bn4d30tot800 bb360nuc3bl90bn4d30tot900 bb400nuc3bl100bn4d30tot1000 bb440nuc3bl110bn4d30tot1100 bb480nuc3bl120bn4d30tot1200
###


###
# Box and units  (use LJ units and periodic boundaries)
###

units lj
log nuc3branch4/logs2/$f.log
log nuc3branch4/logs2/bb120nuc3bl30bn4d30tot300.log
