#atom_style bond #no stiffness
atom_style angle #with stiffness

boundary        p p p
###
# Pair interactions require lists of neighbours to be calculated
###

#neighbor 0.3 bin
neighbor 4 bin

neigh_modify every 1 delay 1 check yes
atom_modify sort 0 0
### Generate RESTART file, SPECIAL format, not a .txt file ###
### Useful if simulation crashes ###

restart 1000000 plusshaped/restarts3/$f.restart
restart 1000000 plusshaped/restarts3/bb301nuc1bl150bn4d30tot600.restart
#############################



### READ "start" data file ###

read_data plusshaped/$f.dat
read_data plusshaped/bb301nuc1bl150bn4d30tot600.dat
Reading data file ...
  orthogonal box = (-1000 -1000 -1000) to (1000 1000 1000)
  1 by 1 by 1 MPI processor grid
  reading atoms ...
  601 atoms
  scanning bonds ...
  3 = max bonds/atom
  scanning angles ...
  6 = max angles/atom
  reading bonds ...
  600 bonds
  reading angles ...
  602 angles
Finding 1-2 1-3 1-4 neighbors ...
  special bond factors lj:    0        0        0       
  special bond factors coul:  0        0        0       
     4 = max # of 1-2 neighbors
     4 = max # of 1-3 neighbors
     8 = max # of 1-4 neighbors
    12 = max # of special neighbors
  special bonds CPU = 0.001 seconds
  read_data CPU = 0.072 seconds

######################

### READ "REstart" data file ###

######################



###
# Define groups (atom type 1 is group 'all')
###
group all type 1
601 atoms in group all


###
# Dump configs - "simple dumpings"
###

###
# Dump configs + box coords
###

dump   1   all   custom   1000  plusshaped/trjs3/$f.lammpstrj  id  x y z  ix iy iz
dump   1   all   custom   1000  plusshaped/trjs3/bb301nuc1bl150bn4d30tot600.lammpstrj  id  x y z  ix iy iz
dump_modify   1   format line "%d %.5f %.5f %.5f %d %d %d"

########################################################################


###################################################################
# Stiffness term
#
# E = K * (1+cos(theta)), K>0
#
angle_style   cosine
#change this coefficient to change stiffness (e.g. 1,5,10)
angle_coeff   1 1.0
###################################################################

###################################################################
# Pair interaction between non-bonded atoms
#
#  Lennard-Jones 12-6 potential with cutoff:
#  potential E=4epsilon[ (sigma/r)^12 - (sigma/r)^6]  for r<r_cut
#
#  1.12246 = 2^(1/6) is the minimum of the potential


pair_style      lj/cut 1.12246152962189
#pair_style      lj/cut 3

#
#  pair_modify shift yes adds a constant to the potential such

#  that E(r_cut)=0. Forces remains unchanged.
#

pair_modify     shift yes

#
#  pair_coeff for lj/cut, specify 4:
#    * atom type interacting with
#    * atom type
#    * epsilon (energy units)
#    * sigma (distance units)
#

pair_coeff      1 1 1.0 1.0
###################################################################

###################################################################
# Pair interaction between non-bonded atoms
#
#  soft potential, for PUSHING apart overlapping atoms
#  potential E=A*(1 + cos(pi*r/r_c))
#
#  1.12246 = 2^(1/6) is the cut-off r_c

#pair_style     soft 1.12246152962189

#
#  pair_coeff for soft, specify 3:
#    * atom type interacting with
#    * atom type
#    * A
#
#

#pair_coeff      1 1 100.0
###################################################################

###################################################################
# Pair interaction between bonded atoms
#
# Fene potential + Lennard Jones 12-6:

#
#  E= - 0.5 K R0^2 ln[ 1- (r/R0)^2]
#     + 4epsilon[ (sigma/r)^12 - (sigma/r)^6] + epsilon
#

bond_style   fene


#
# For style fene, specify:
#   * bond type
#   * K (energy/distance^2)
#   * R0 (distance)
#   * epsilon (energy)  (LJ component)
#   * sigma (distance)  (LJ component)
#


special_bonds fene #<=== I M P O R T A N T (new command)
Finding 1-2 1-3 1-4 neighbors ...
  special bond factors lj:    0        1        1       
  special bond factors coul:  0        1        1       
     4 = max # of 1-2 neighbors
    12 = max # of special neighbors
  special bonds CPU = 0.000 seconds

bond_coeff   1   30   2   1.0   1.0


###################################################

###################################################################
# Pair interaction between bonded atoms
#
# Harmonic potential:
#
#  E= K * (R-R0)^2
#

#bond_style   harmonic

#
# For style harmonic, specify:
#   * bond type
#   * K (energy/distance^2)
#   * R0 (distance)
#

#bond_coeff   1   60.0   1.0
#bond_coeff   2   harmonic 0.1   1.0

###################################################
compute 1 all gyration
variable rog equal c_1
#compute 2 all coord/atom cutoff 1.1

#dump 2 all custom 10000 contact_number.dump id c_2


###
# Set up fixes
###
thermo_style   custom   step  temp enthalpy c_1
fix 1 all nve   ###NVE ensemble

fix 2 all   langevin   1.0 1.0 1.0  158102   ###Langevin integrator Tstart Tstop 1/friction rndseed


##### Sample thermodynamic info  (temperature, energy, pressure, etc.) #####
thermo 1000









############################################################################

###
# set timestep of integrator

timestep 0.01

###
# run integration for a number of steps
###
#run 0
#variable r equal c_1
#if "$r < 63.1" then "quit 1"

# lj potential minimum, cause molecule to explore
run 100000
Generated 0 of 0 mixed pair_coeff terms from geometric mixing rule
Last active /omp style is angle_style cosine/omp
Neighbor list info ...
  update: every = 1 steps, delay = 1 steps, check = yes
  max neighbors/atom: 2000, page size: 100000
  master list distance cutoff = 5.1224615
  ghost atom cutoff = 5.1224615
  binsize = 2.5612308, bins = 781 781 781
  1 neighbor lists, perpetual/occasional/extra = 1 0 0
  (1) pair lj/cut/omp, perpetual
      attributes: half, newton on, omp
      pair build: half/bin/newton/omp
      stencil: half/bin/3d
      bin: standard
WARNING: Communication cutoff 5.12246152962189 is shorter than a bond length based estimate of 5.455. This may lead to errors. (src/comm.cpp:723)
Per MPI rank memory allocation (min/avg/max) = 1861 | 1861 | 1861 Mbytes
   Step          Temp         Enthalpy         c_1      
         0   0              13.283195      78.97946     
      1000   1.0161493      17.774187      78.165161    
      2000   1.0178999      17.923963      77.367674    
      3000   0.99388337     18.67032       76.407286    
      4000   0.99747167     18.334506      75.812402    
      5000   1.0347897      18.812388      75.254851    
      6000   0.98748805     18.946739      74.74079     
      7000   0.95468027     18.365516      74.468822    
      8000   1.0469009      19.112705      73.662382    
      9000   1.0112614      19.27129       73.001376    
     10000   1.0641391      19.73395       72.541002    
     11000   0.96631102     19.407705      71.742913    
     12000   0.97201904     19.260727      71.349966    
     13000   0.95744442     18.556711      70.953677    
     14000   1.025691       19.075566      70.311817    
     15000   0.98590574     20.140259      70.130429    
     16000   1.0217578      19.47873       69.934481    
     17000   0.99755374     19.563781      69.659177    
     18000   1.0825187      19.75872       69.420617    
     19000   1.0077617      19.369463      68.893821    
     20000   0.99097188     20.152693      68.446955    
     21000   0.98294742     19.553697      68.163016    
     22000   0.97071396     19.583247      68.141707    
     23000   1.0153448      19.820602      68.020385    
     24000   1.0515288      20.234987      67.422603    
     25000   1.0234884      19.561493      67.205477    
     26000   0.99915742     19.801544      66.814755    
     27000   0.95585756     19.758552      66.794341    
     28000   1.0472965      19.61408       66.368516    
     29000   0.98268777     19.931582      66.017111    
     30000   1.0398093      20.259365      65.773606    
     31000   1.0181156      19.934639      65.38525     
     32000   1.0205818      19.558228      65.213749    
     33000   1.0604938      19.927892      65.300053    
     34000   0.99593773     19.954629      64.972896    
     35000   0.93813293     19.670656      64.386335    
     36000   1.0438047      19.837514      63.898562    
     37000   0.99554349     19.685256      63.772001    
     38000   0.92504714     19.8092        63.506197    
     39000   1.0231852      19.275387      63.491466    
     40000   0.99354028     20.192378      63.210519    
     41000   1.0468914      20.511579      63.018875    
     42000   1.0222088      19.893509      63.009513    
     43000   0.99749715     20.109186      62.916576    
     44000   1.0425491      19.928683      62.687562    
     45000   1.0081642      20.461655      62.06225     
     46000   1.0161663      19.582018      61.751494    
     47000   0.95295077     20.036038      61.563138    
     48000   1.035184       20.320499      61.385102    
     49000   0.96632778     20.280052      61.012937    
     50000   1.0105925      19.942191      60.846914    
     51000   1.0545885      19.937069      60.585253    
     52000   1.0150338      20.657452      60.593149    
     53000   0.95168892     20.072733      60.340241    
     54000   1.0080191      20.300522      60.386038    
     55000   1.0181773      19.822299      60.243684    
     56000   1.0211936      19.691012      59.833949    
     57000   0.95967685     20.602128      60.154892    
     58000   1.0420612      20.810832      59.967434    
     59000   0.95593396     19.953244      59.948373    
     60000   1.0411797      20.951117      59.737546    
     61000   1.005398       19.44583       59.630955    
     62000   1.0305243      19.647303      59.70126     
     63000   1.0027111      19.805366      59.377664    
     64000   1.0111327      19.794247      59.541533    
     65000   1.0031597      20.22117       59.141041    
     66000   1.0539555      20.25654       59.056905    
     67000   0.95057119     20.218602      58.906426    
     68000   1.0525825      20.226619      58.768698    
     69000   0.96366689     19.608165      58.831168    
     70000   1.0174338      20.22019       58.706018    
     71000   0.99057787     20.122895      58.395635    
     72000   1.0304789      19.967422      58.087273    
     73000   0.93047611     20.067069      57.814687    
     74000   1.060992       20.906494      57.634331    
     75000   0.9915108      20.239479      57.571407    
     76000   0.97292106     20.361257      57.528147    
     77000   0.98030959     19.944467      57.426915    
     78000   1.0119422      20.324493      57.383974    
     79000   1.0235944      20.916415      57.344966    
     80000   0.97932688     20.16087       57.158981    
     81000   1.0805929      19.905682      56.836049    
     82000   0.98259766     20.328819      56.504758    
     83000   0.98465239     20.67153       56.293462    
     84000   1.0134254      19.567454      56.297989    
     85000   1.0227885      20.497083      56.420635    
     86000   1.0352588      20.567777      56.265546    
     87000   0.98100798     19.927095      56.218929    
     88000   0.97799927     20.095639      56.149564    
     89000   0.93524309     20.338527      56.104513    
     90000   1.0249311      20.420874      55.701349    
     91000   0.98324462     20.043181      55.620122    
     92000   0.93538848     20.331945      55.69692     
     93000   0.98455818     19.846664      55.493365    
     94000   0.92623796     19.792115      55.355897    
     95000   1.0375506      20.291446      55.270593    
     96000   1.049429       20.405888      55.049398    
     97000   0.99852869     19.972421      54.850673    
     98000   1.0192491      19.21134       54.962294    
     99000   1.0299591      20.33997       55.041907    
    100000   1.059554       20.36357       54.789428    
Loop time of 424.227 on 2 procs for 100000 steps with 601 atoms

Performance: 203664.787 tau/day, 235.723 timesteps/s
102.2% CPU use with 1 MPI tasks x 2 OpenMP threads

MPI task timing breakdown:
Section |  min time  |  avg time  |  max time  |%varavg| %total
---------------------------------------------------------------
Pair    | 0.96756    | 0.96756    | 0.96756    |   0.0 |  0.23
Bond    | 1.869      | 1.869      | 1.869      |   0.0 |  0.44
Neigh   | 416.91     | 416.91     | 416.91     |   0.0 | 98.27
Comm    | 0.035502   | 0.035502   | 0.035502   |   0.0 |  0.01
Output  | 0.24572    | 0.24572    | 0.24572    |   0.0 |  0.06
Modify  | 3.9007     | 3.9007     | 3.9007     |   0.0 |  0.92
Other   |            | 0.3004     |            |       |  0.07

Nlocal:            601 ave         601 max         601 min
Histogram: 1 0 0 0 0 0 0 0 0 0
Nghost:              0 ave           0 max           0 min
Histogram: 1 0 0 0 0 0 0 0 0 0
Neighs:           3716 ave        3716 max        3716 min
Histogram: 1 0 0 0 0 0 0 0 0 0

Total # of neighbors = 3716
Ave neighs/atom = 6.1830283
Ave special neighs/atom = 1.9966722
Neighbor list builds = 1077
Dangerous builds = 0

# Replace lj potential, now collapse
pair_style      lj/cut 3

# Cutoff simul when gyration under 5
# Variable created with equal requires v_ + 'name'
fix 3 all halt 1000 v_rog < 7

run 5000000
Generated 0 of 0 mixed pair_coeff terms from geometric mixing rule
Last active /omp style is angle_style cosine/omp
Per MPI rank memory allocation (min/avg/max) = 1861 | 1861 | 1861 Mbytes
   Step          Temp         Enthalpy         c_1      
    100000   1.059554       19.654615      54.789428    
    101000   0.941616       18.671491      54.863436    
    102000   1.0261976      19.949407      54.402343    
    103000   1.0439023      19.546101      53.89169     
    104000   1.0102777      19.585145      53.493256    
    105000   1.0110568      19.657279      53.325935    
    106000   1.0119798      19.227863      53.055611    
    107000   0.96683553     19.758187      52.859671    
    108000   0.98264058     19.316822      52.689457    
    109000   1.0064625      20.024401      52.372237    
    110000   1.0150617      19.19439       51.877182    
    111000   0.96621323     19.26326       51.867584    
    112000   0.97096329     19.275137      51.47992     
    113000   1.0501289      19.568901      50.880052    
    114000   0.99692471     19.599042      50.357988    
    115000   0.98287299     19.347527      50.054959    
    116000   1.0016467      18.504404      49.580919    
    117000   0.98009445     18.739405      49.549803    
    118000   0.99210894     19.303686      49.442266    
    119000   1.0219301      19.556445      49.270861    
    120000   1.0200476      18.848762      48.970105    
    121000   0.99005338     19.382915      48.711598    
    122000   1.0345984      19.021762      48.29581     
    123000   1.0186707      19.304966      48.087906    
    124000   0.98975362     19.070995      47.997712    
    125000   0.97383939     19.166127      47.749772    
    126000   0.9674222      19.057755      47.473572    
    127000   1.029657       18.559326      46.856515    
    128000   1.0302849      19.31208       46.576821    
    129000   0.93497244     18.221439      46.603198    
    130000   1.0176389      19.063417      46.10164     
    131000   1.0054463      19.14087       45.752345    
    132000   1.0128649      18.466618      45.307744    
    133000   1.0481088      18.564407      44.9458      
    134000   1.0153596      18.724946      44.645779    
    135000   1.0096602      18.03296       44.503291    
    136000   1.0248432      18.889434      43.990677    
    137000   0.941871       18.43406       43.79783     
    138000   0.99711976     18.565813      43.672952    
    139000   1.011511       19.0758        43.319593    
    140000   0.96903906     19.175387      43.054885    
    141000   0.98823705     18.327161      43.038476    
    142000   1.0640068      18.709902      43.049729    
    143000   1.0119683      18.868056      42.82132     
    144000   0.9971846      19.429921      42.543276    
    145000   0.97166078     18.526799      42.223884    
    146000   0.97807199     18.482185      41.994259    
    147000   0.97343924     18.727675      42.010534    
    148000   1.016566       18.994885      42.078983    
    149000   0.98878029     19.014956      41.515653    
    150000   0.98711765     18.666873      41.506722    
    151000   1.0325838      19.077972      41.214067    
    152000   0.96765585     18.731142      40.915778    
    153000   0.95676504     18.799234      40.641904    
    154000   1.052167       18.285203      40.50782     
    155000   0.95388683     19.089991      39.940225    
    156000   1.0119901      18.390716      39.67284     
    157000   1.0333446      18.460989      39.413164    
    158000   0.9349363      18.164746      38.932538    
    159000   1.0021777      19.205788      38.672959    
    160000   1.0292868      19.190591      38.434222    
    161000   1.0775837      18.659147      38.033481    
    162000   0.99340355     18.553829      37.929309    
    163000   0.9568534      18.804918      37.938576    
    164000   0.96135686     18.339511      37.954098    
    165000   1.0142426      18.424199      37.512597    
    166000   0.97156199     18.245704      37.153664    
    167000   0.99991894     17.976612      36.479293    
    168000   1.0624834      18.508546      36.325356    
    169000   1.0174798      18.703337      36.040588    
    170000   1.0773981      18.693979      35.367292    
    171000   1.0100566      18.605955      35.023784    
    172000   0.99580849     18.195589      34.949281    
    173000   1.036431       18.71483       34.939242    
    174000   1.0128396      19.274827      34.61414     
    175000   0.96050026     17.958011      34.330011    
    176000   0.99279558     18.924217      34.228148    
    177000   1.0321917      18.539221      33.871686    
    178000   1.0250191      18.387697      33.727443    
    179000   0.96152007     18.49738       33.789417    
    180000   0.93873386     18.381854      33.459282    
    181000   1.0163865      19.058745      33.359533    
    182000   1.0502605      18.687668      33.198985    
    183000   1.0571274      18.756183      33.214226    
    184000   1.0423965      18.476293      33.234762    
    185000   0.99529707     18.499229      33.092632    
    186000   0.98458637     18.215497      32.852947    
    187000   1.02738        18.356749      32.827208    
    188000   1.0434225      18.810735      32.686128    
    189000   0.9771753      18.351082      32.585392    
    190000   0.95594979     18.378658      32.315789    
    191000   1.0378954      18.247092      32.246383    
    192000   1.0343125      19.121521      32.072381    
    193000   1.0182436      18.372878      31.772936    
    194000   0.96445744     18.510637      31.549253    
    195000   1.0668815      18.328215      31.396338    
    196000   1.0322587      18.877474      31.079051    
    197000   0.98498625     18.988554      31.032078    
    198000   1.0068917      19.209275      30.99663     
    199000   0.98975307     18.377661      30.624693    
    200000   1.015526       18.493434      30.503392    
    201000   0.94985336     18.692105      30.388146    
    202000   1.0296012      17.885443      30.359284    
    203000   0.94661305     18.490158      30.365502    
    204000   1.0366661      18.538042      30.37878     
    205000   1.0169696      17.535825      29.910916    
    206000   1.0343052      18.47149       29.682882    
    207000   0.94357033     18.013407      29.587796    
    208000   1.0187297      18.307254      29.218045    
    209000   0.98882676     18.691962      28.878116    
    210000   0.99287722     18.418783      28.69601     
    211000   1.0857159      18.734358      28.448262    
    212000   1.0495993      18.096607      28.285994    
    213000   1.0056055      18.305233      28.124759    
    214000   1.0254918      18.517652      27.900943    
    215000   0.98486535     17.653491      27.604142    
    216000   0.97304803     18.269157      27.621601    
    217000   0.9815474      17.674526      27.437195    
    218000   1.0285451      18.478494      27.264202    
    219000   1.0088288      17.832879      27.354034    
    220000   1.0337942      18.783547      27.116482    
    221000   1.034936       18.279127      26.982303    
    222000   0.98557515     18.107228      26.912334    
    223000   0.96689216     18.40219       26.781956    
    224000   1.0092006      18.181325      26.681977    
    225000   1.0360352      18.563408      26.474852    
    226000   1.0231325      18.676637      26.540094    
    227000   1.080347       17.944156      26.265312    
    228000   0.98187167     17.777254      26.024121    
    229000   0.99511553     18.773264      25.498109    
    230000   1.0451367      18.127665      25.284782    
    231000   1.0148868      17.661128      24.967691    
    232000   1.003258       18.01519       24.767696    
    233000   0.9939942      18.473305      24.29179     
    234000   0.99935501     17.989165      24.05858     
    235000   1.0514436      18.993842      23.764226    
    236000   1.0047128      18.417737      23.596949    
    237000   1.021028       18.724328      23.24266     
    238000   1.0333245      18.15329       23.181838    
    239000   0.94215142     17.93467       23.373402    
    240000   1.0206382      18.159248      23.039122    
    241000   1.008378       18.678958      22.811054    
    242000   1.0203732      17.785243      22.761493    
    243000   0.95412259     17.649168      22.47397     
    244000   1.0115957      18.087704      22.375534    
    245000   1.0289842      17.451689      21.991731    
    246000   1.0011576      18.554602      21.337901    
    247000   1.0228971      18.120879      21.155026    
    248000   0.94056391     18.030013      20.934374    
    249000   0.9709284      17.812299      20.708573    
    250000   1.0107775      18.212128      20.233126    
    251000   0.99759493     17.648882      19.940495    
    252000   0.96206466     18.530659      19.89201     
    253000   0.98832054     17.724652      20.04206     
    254000   0.99286156     18.041272      19.702709    
    255000   0.94411847     17.873285      19.620308    
    256000   1.0466309      17.645604      19.419056    
    257000   0.96406922     17.700023      19.431812    
    258000   0.99679144     18.19812       19.377419    
    259000   1.038397       17.726444      19.45875     
    260000   1.0176537      18.858608      19.752538    
    261000   1.0539818      18.147435      19.527797    
    262000   1.0450722      17.376704      19.437361    
    263000   0.97222419     17.420752      19.443602    
    264000   0.98957616     18.39704       19.00927     
    265000   0.97094773     17.477465      18.786853    
    266000   0.99490545     17.732184      18.707811    
    267000   1.0124778      18.062137      18.455936    
    268000   0.93826752     17.891863      18.292417    
    269000   0.97327253     18.827552      18.376929    
    270000   1.0117352      17.950435      18.173043    
    271000   0.97193609     18.196296      17.794835    
    272000   1.062389       18.701842      17.480299    
    273000   1.0026663      18.461713      17.627812    
    274000   1.0028331      18.10397       17.762069    
    275000   0.97115035     17.433279      17.960805    
    276000   1.0428206      17.262606      17.850609    
    277000   1.0275603      18.432312      17.644803    
    278000   1.0213882      17.794723      17.708897    
    279000   0.98922087     17.533163      17.607781    
    280000   1.0216804      17.901012      17.449333    
    281000   1.0331873      17.678138      17.280289    
    282000   1.0031535      18.55067       17.089021    
    283000   0.96007876     17.854104      16.820669    
    284000   1.058661       18.365559      16.833872    
    285000   0.96198249     17.488821      16.383477    
    286000   1.0266091      17.859614      16.199891    
    287000   1.0554659      17.83872       15.956063    
    288000   1.0264809      17.346973      15.611454    
    289000   1.0153282      18.317605      15.654121    
    290000   1.0188884      17.937636      15.500154    
    291000   0.93384431     17.691717      15.182569    
    292000   0.91411246     17.716484      15.007387    
    293000   1.0381545      17.432474      15.043611    
    294000   1.0204431      17.765684      14.869578    
    295000   0.94666351     17.861653      14.638265    
    296000   1.0127705      17.823565      14.48681     
    297000   0.98346299     17.748195      14.441071    
    298000   1.0243961      17.219094      14.40852     
    299000   0.9781907      18.29731       14.282902    
    300000   0.98897016     17.591634      13.967401    
    301000   0.99659368     17.767621      13.850544    
    302000   1.0112996      17.419591      13.426904    
    303000   0.98548511     18.089154      12.995224    
    304000   0.98523039     17.29618       12.72995     
    305000   0.97824303     17.675451      12.300892    
    306000   1.0134633      17.828061      12.420339    
    307000   1.0502113      17.322796      12.136739    
    308000   0.97283001     16.989315      12.151311    
    309000   0.94853393     17.858635      12.087686    
    310000   0.98132514     18.286736      11.951808    
    311000   0.96814672     17.519957      11.722771    
    312000   1.0448642      17.543398      11.927753    
    313000   1.0090622      16.993559      11.807698    
    314000   0.98176105     16.688425      11.677079    
    315000   0.99617434     17.97793       11.523274    
    316000   0.99012625     17.632087      11.370053    
    317000   0.9807124      17.942737      11.109839    
    318000   1.0466137      17.611085      11.025786    
    319000   0.96786852     16.639376      10.922369    
    320000   0.98400722     17.585682      11.144592    
    321000   1.0786291      18.193525      11.254927    
    322000   1.0287487      17.091252      10.868249    
    323000   0.99728049     16.485516      10.623949    
    324000   1.0559538      17.712713      10.225931    
    325000   1.0379153      17.521852      10.088553    
    326000   0.9844328      17.650119      10.06189     
    327000   0.96972939     17.060947      9.5243147    
    328000   1.0198349      17.289035      9.1722868    
    329000   0.96616708     17.226054      9.1231693    
    330000   0.96784566     16.838081      8.9284841    
    331000   0.99363986     18.142983      8.9456659    
    332000   1.0481422      17.503488      8.7751253    
    333000   0.9950943      17.82247       8.6692097    
    334000   1.0097007      17.710109      8.8204309    
    335000   1.0000553      16.68273       8.7705486    
    336000   0.99178044     17.120333      8.4715329    
    337000   0.99998808     16.951492      8.3426908    
    338000   0.94966765     17.329073      8.2049163    
    339000   0.99568066     16.998234      7.8851726    
    340000   0.99546952     16.852247      7.5700529    
    341000   1.0206031      17.315423      7.5298182    
    342000   1.03487        17.662764      7.3822304    
    343000   0.94732986     16.571464      7.4177427    
    344000   0.99438068     17.759771      7.3242772    
    345000   0.93536056     16.502673      7.0831617    
Fix halt condition for fix-id 3 met on step 346000 with value 6.913808555392769 (src/fix_halt.cpp:237)
    346000   0.98034146     16.226272      6.9138086    
Loop time of 498.024 on 2 procs for 246000 steps with 601 atoms

Performance: 426774.797 tau/day, 493.952 timesteps/s
112.8% CPU use with 1 MPI tasks x 2 OpenMP threads

MPI task timing breakdown:
Section |  min time  |  avg time  |  max time  |%varavg| %total
---------------------------------------------------------------
Pair    | 41.465     | 41.465     | 41.465     |   0.0 |  8.33
Bond    | 5.8579     | 5.8579     | 5.8579     |   0.0 |  1.18
Neigh   | 437.89     | 437.89     | 437.89     |   0.0 | 87.93
Comm    | 0.11698    | 0.11698    | 0.11698    |   0.0 |  0.02
Output  | 0.67678    | 0.67678    | 0.67678    |   0.0 |  0.14
Modify  | 10.927     | 10.927     | 10.927     |   0.0 |  2.19
Other   |            | 1.087      |            |       |  0.22

Nlocal:            601 ave         601 max         601 min
Histogram: 1 0 0 0 0 0 0 0 0 0
Nghost:              0 ave           0 max           0 min
Histogram: 1 0 0 0 0 0 0 0 0 0
Neighs:          97075 ave       97075 max       97075 min
Histogram: 1 0 0 0 0 0 0 0 0 0

Total # of neighbors = 97075
Ave neighs/atom = 161.52246
Ave special neighs/atom = 1.9966722
Neighbor list builds = 2197
Dangerous builds = 0

# This simulation is done
# Move onto the next one
clear
  using 2 OpenMP thread(s) per MPI task
package omp 0
using multi-threaded neighbor list subroutines
next f
jump SELF

###
# Reference paper:
# K. Kremer and G. S. Grest
# Dynamics of entangled linear polymer melts: A molecular-dynamics simulation
# J Chem Phys 92, 5057 (1990)

##################################
# MIHIR: for branched polymers
# LJ minimum first to expand and explore, then collapse
###

###
# Looping through the various plusshaped polymers to simulate,
# define variables to switch through
variable f index bb51nuc1bl25bn4d30tot100 bb101nuc1bl50bn4d30tot200 bb151nuc1bl75bn4d30tot300 bb201nuc1bl100bn4d30tot400 bb251nuc1bl125bn4d30tot500 bb301nuc1bl150bn4d30tot600 bb351nuc1bl175bn4d30tot700 bb401nuc1bl200bn4d30tot800 bb451nuc1bl225bn4d30tot900 bb501nuc1bl250bn4d30tot1000 bb551nuc1bl275bn4d30tot1100 bb601nuc1bl300bn4d30tot1200
###


###
# Box and units  (use LJ units and periodic boundaries)
###

units lj
log plusshaped/logs3/$f.log
log plusshaped/logs3/bb351nuc1bl175bn4d30tot700.log
