#atom_style bond #no stiffness
atom_style angle #with stiffness

boundary        p p p
###
# Pair interactions require lists of neighbours to be calculated
###

#neighbor 0.3 bin
neighbor 4 bin

neigh_modify every 1 delay 1 check yes
atom_modify sort 0 0
### Generate RESTART file, SPECIAL format, not a .txt file ###
### Useful if simulation crashes ###

restart 1000000 plusshaped/restarts3/$f.restart
restart 1000000 plusshaped/restarts3/bb351nuc1bl175bn4d30tot700.restart
#############################



### READ "start" data file ###

read_data plusshaped/$f.dat
read_data plusshaped/bb351nuc1bl175bn4d30tot700.dat
Reading data file ...
  orthogonal box = (-1000 -1000 -1000) to (1000 1000 1000)
  1 by 1 by 1 MPI processor grid
  reading atoms ...
  701 atoms
  scanning bonds ...
  3 = max bonds/atom
  scanning angles ...
  6 = max angles/atom
  reading bonds ...
  700 bonds
  reading angles ...
  702 angles
Finding 1-2 1-3 1-4 neighbors ...
  special bond factors lj:    0        0        0       
  special bond factors coul:  0        0        0       
     4 = max # of 1-2 neighbors
     4 = max # of 1-3 neighbors
     8 = max # of 1-4 neighbors
    12 = max # of special neighbors
  special bonds CPU = 0.002 seconds
  read_data CPU = 0.161 seconds

######################

### READ "REstart" data file ###

######################



###
# Define groups (atom type 1 is group 'all')
###
group all type 1
701 atoms in group all


###
# Dump configs - "simple dumpings"
###

###
# Dump configs + box coords
###

dump   1   all   custom   1000  plusshaped/trjs3/$f.lammpstrj  id  x y z  ix iy iz
dump   1   all   custom   1000  plusshaped/trjs3/bb351nuc1bl175bn4d30tot700.lammpstrj  id  x y z  ix iy iz
dump_modify   1   format line "%d %.5f %.5f %.5f %d %d %d"

########################################################################


###################################################################
# Stiffness term
#
# E = K * (1+cos(theta)), K>0
#
angle_style   cosine
#change this coefficient to change stiffness (e.g. 1,5,10)
angle_coeff   1 1.0
###################################################################

###################################################################
# Pair interaction between non-bonded atoms
#
#  Lennard-Jones 12-6 potential with cutoff:
#  potential E=4epsilon[ (sigma/r)^12 - (sigma/r)^6]  for r<r_cut
#
#  1.12246 = 2^(1/6) is the minimum of the potential


pair_style      lj/cut 1.12246152962189
#pair_style      lj/cut 3

#
#  pair_modify shift yes adds a constant to the potential such

#  that E(r_cut)=0. Forces remains unchanged.
#

pair_modify     shift yes

#
#  pair_coeff for lj/cut, specify 4:
#    * atom type interacting with
#    * atom type
#    * epsilon (energy units)
#    * sigma (distance units)
#

pair_coeff      1 1 1.0 1.0
###################################################################

###################################################################
# Pair interaction between non-bonded atoms
#
#  soft potential, for PUSHING apart overlapping atoms
#  potential E=A*(1 + cos(pi*r/r_c))
#
#  1.12246 = 2^(1/6) is the cut-off r_c

#pair_style     soft 1.12246152962189

#
#  pair_coeff for soft, specify 3:
#    * atom type interacting with
#    * atom type
#    * A
#
#

#pair_coeff      1 1 100.0
###################################################################

###################################################################
# Pair interaction between bonded atoms
#
# Fene potential + Lennard Jones 12-6:

#
#  E= - 0.5 K R0^2 ln[ 1- (r/R0)^2]
#     + 4epsilon[ (sigma/r)^12 - (sigma/r)^6] + epsilon
#

bond_style   fene


#
# For style fene, specify:
#   * bond type
#   * K (energy/distance^2)
#   * R0 (distance)
#   * epsilon (energy)  (LJ component)
#   * sigma (distance)  (LJ component)
#


special_bonds fene #<=== I M P O R T A N T (new command)
Finding 1-2 1-3 1-4 neighbors ...
  special bond factors lj:    0        1        1       
  special bond factors coul:  0        1        1       
     4 = max # of 1-2 neighbors
    12 = max # of special neighbors
  special bonds CPU = 0.000 seconds

bond_coeff   1   30   2   1.0   1.0


###################################################

###################################################################
# Pair interaction between bonded atoms
#
# Harmonic potential:
#
#  E= K * (R-R0)^2
#

#bond_style   harmonic

#
# For style harmonic, specify:
#   * bond type
#   * K (energy/distance^2)
#   * R0 (distance)
#

#bond_coeff   1   60.0   1.0
#bond_coeff   2   harmonic 0.1   1.0

###################################################
compute 1 all gyration
variable rog equal c_1
#compute 2 all coord/atom cutoff 1.1

#dump 2 all custom 10000 contact_number.dump id c_2


###
# Set up fixes
###
thermo_style   custom   step  temp enthalpy c_1
fix 1 all nve   ###NVE ensemble

fix 2 all   langevin   1.0 1.0 1.0  158102   ###Langevin integrator Tstart Tstop 1/friction rndseed


##### Sample thermodynamic info  (temperature, energy, pressure, etc.) #####
thermo 1000









############################################################################

###
# set timestep of integrator

timestep 0.01

###
# run integration for a number of steps
###
#run 0
#variable r equal c_1
#if "$r < 63.1" then "quit 1"

# lj potential minimum, cause molecule to explore
run 100000
Generated 0 of 0 mixed pair_coeff terms from geometric mixing rule
Last active /omp style is angle_style cosine/omp
Neighbor list info ...
  update: every = 1 steps, delay = 1 steps, check = yes
  max neighbors/atom: 2000, page size: 100000
  master list distance cutoff = 5.1224615
  ghost atom cutoff = 5.1224615
  binsize = 2.5612308, bins = 781 781 781
  1 neighbor lists, perpetual/occasional/extra = 1 0 0
  (1) pair lj/cut/omp, perpetual
      attributes: half, newton on, omp
      pair build: half/bin/newton/omp
      stencil: half/bin/3d
      bin: standard
WARNING: Communication cutoff 5.12246152962189 is shorter than a bond length based estimate of 5.455. This may lead to errors. (src/comm.cpp:723)
Per MPI rank memory allocation (min/avg/max) = 1862 | 1862 | 1862 Mbytes
   Step          Temp         Enthalpy         c_1      
         0   0              13.196122      92.093179    
      1000   1.0081982      17.395506      91.459041    
      2000   1.0177586      17.57502       90.727122    
      3000   0.9822121      18.051206      90.187092    
      4000   1.0128925      18.427051      89.605213    
      5000   0.93862044     18.425319      88.920983    
      6000   0.9731984      17.952784      88.17264     
      7000   1.0177045      18.392459      87.892139    
      8000   1.0056486      18.723511      87.347596    
      9000   1.037021       18.696522      86.677553    
     10000   0.98471838     18.88105       86.325663    
     11000   1.040038       19.658872      85.895422    
     12000   0.98821039     19.116455      85.210442    
     13000   1.0106963      19.287612      84.397963    
     14000   1.0000695      19.47971       83.711501    
     15000   0.99904447     19.325095      83.275654    
     16000   1.0273396      19.056772      82.951605    
     17000   1.0457563      19.405769      82.586286    
     18000   0.96918422     19.480188      81.945464    
     19000   0.99956081     19.403089      81.679984    
     20000   0.99297757     19.527037      81.291531    
     21000   0.9701928      19.780737      80.953589    
     22000   1.0199662      19.723245      80.557772    
     23000   1.0591469      20.024584      80.230226    
     24000   0.99829327     19.759761      80.142292    
     25000   1.0469729      19.805802      79.780586    
     26000   0.96995362     19.236752      79.25959     
     27000   0.96684791     20.049433      78.70652     
     28000   0.97982088     19.595408      78.245891    
     29000   0.95665171     19.64459       77.979362    
     30000   1.028044       19.935207      77.590381    
     31000   1.0077689      19.576727      77.394312    
     32000   0.97805762     19.850137      76.895458    
     33000   1.019926       19.400141      76.708908    
     34000   1.0027156      19.217036      75.974126    
     35000   1.0009306      20.01877       75.852576    
     36000   0.97384328     19.785368      75.751253    
     37000   1.0108246      20.302057      75.745873    
     38000   0.97329954     19.795744      75.405503    
     39000   1.016719       19.876478      75.078916    
     40000   0.99476156     19.078644      74.73635     
     41000   1.0829839      20.42486       74.715493    
     42000   0.93878821     19.586237      74.752314    
     43000   1.0035779      20.249602      74.361866    
     44000   0.98962739     20.506845      74.068262    
     45000   0.99081103     20.294038      74.070857    
     46000   1.0136452      20.183222      73.911303    
     47000   1.0202959      20.255924      73.606093    
     48000   1.0145184      20.35442       73.241851    
     49000   1.0014808      20.050003      72.890512    
     50000   0.96919312     20.681724      72.517584    
     51000   1.0058355      20.565718      72.225702    
     52000   0.97066596     19.487204      71.949556    
     53000   0.93953148     19.439775      71.774825    
     54000   0.99563146     20.813182      71.564317    
     55000   1.0436583      20.122987      71.432731    
     56000   1.0257943      20.210786      71.098411    
     57000   1.017613       19.774289      70.955524    
     58000   1.0033883      20.49335       70.896769    
     59000   1.0865363      20.808979      70.580899    
     60000   1.0045876      20.074554      70.422609    
     61000   0.95379061     19.94005       70.290867    
     62000   1.0302632      19.969372      70.275149    
     63000   0.99007723     19.744975      70.264365    
     64000   1.0386139      20.748779      70.154253    
     65000   1.0417653      20.189798      70.036324    
     66000   1.0266861      20.516489      69.766181    
     67000   1.0041136      20.26724       69.558801    
     68000   1.0404463      20.540547      69.073226    
     69000   0.95831942     19.902951      68.756747    
     70000   1.0272449      20.516644      68.755539    
     71000   1.0190051      20.078179      68.651731    
     72000   1.0725273      20.336246      68.202249    
     73000   1.039649       19.862973      68.256505    
     74000   0.99754962     20.207578      68.314624    
     75000   0.99591023     19.742874      68.132914    
     76000   0.96859009     20.083992      68.083376    
     77000   1.0062092      20.226761      67.661701    
     78000   0.98643837     20.329133      67.195205    
     79000   1.0339388      20.321249      67.323114    
     80000   1.0412056      20.000106      67.199815    
     81000   0.98617047     19.813098      67.106472    
     82000   0.93561293     19.689052      66.937185    
     83000   1.0039913      20.574122      66.583404    
     84000   1.0172151      20.400248      66.262911    
     85000   0.97452176     20.317793      66.196495    
     86000   0.99997332     20.179854      65.961015    
     87000   1.0684033      19.694131      66.222553    
     88000   1.0344701      19.883688      66.198879    
     89000   0.99834094     19.954832      66.166554    
     90000   0.98224826     19.868801      66.36502     
     91000   1.0182385      20.499579      66.380635    
     92000   0.99643317     20.497728      66.206215    
     93000   0.99725216     20.53999       66.303716    
     94000   1.0173547      20.593046      66.108982    
     95000   1.0262414      20.797436      66.037438    
     96000   1.029439       20.633193      65.957676    
     97000   1.0112764      20.186278      65.576722    
     98000   1.0379575      20.622901      65.489895    
     99000   0.99277009     20.375772      65.35775     
    100000   1.0080634      20.164847      65.306542    
Loop time of 699.398 on 2 procs for 100000 steps with 701 atoms

Performance: 123534.814 tau/day, 142.980 timesteps/s
101.7% CPU use with 1 MPI tasks x 2 OpenMP threads

MPI task timing breakdown:
Section |  min time  |  avg time  |  max time  |%varavg| %total
---------------------------------------------------------------
Pair    | 1.4221     | 1.4221     | 1.4221     |   0.0 |  0.20
Bond    | 2.7921     | 2.7921     | 2.7921     |   0.0 |  0.40
Neigh   | 689.06     | 689.06     | 689.06     |   0.0 | 98.52
Comm    | 0.054971   | 0.054971   | 0.054971   |   0.0 |  0.01
Output  | 0.32044    | 0.32044    | 0.32044    |   0.0 |  0.05
Modify  | 5.2496     | 5.2496     | 5.2496     |   0.0 |  0.75
Other   |            | 0.4967     |            |       |  0.07

Nlocal:            701 ave         701 max         701 min
Histogram: 1 0 0 0 0 0 0 0 0 0
Nghost:              0 ave           0 max           0 min
Histogram: 1 0 0 0 0 0 0 0 0 0
Neighs:           4516 ave        4516 max        4516 min
Histogram: 1 0 0 0 0 0 0 0 0 0

Total # of neighbors = 4516
Ave neighs/atom = 6.4422254
Ave special neighs/atom = 1.9971469
Neighbor list builds = 1090
Dangerous builds = 0

# Replace lj potential, now collapse
pair_style      lj/cut 3

# Cutoff simul when gyration under 5
# Variable created with equal requires v_ + 'name'
fix 3 all halt 1000 v_rog < 7

run 5000000
Generated 0 of 0 mixed pair_coeff terms from geometric mixing rule
Last active /omp style is angle_style cosine/omp
Per MPI rank memory allocation (min/avg/max) = 1862 | 1862 | 1862 Mbytes
   Step          Temp         Enthalpy         c_1      
    100000   1.0080634      19.471077      65.306542    
    101000   1.021259       19.22832       64.982549    
    102000   0.9665703      18.793705      64.820032    
    103000   1.0019514      19.275365      64.803735    
    104000   0.99122749     19.065793      64.647123    
    105000   0.96841814     19.89049       64.61347     
    106000   0.97853953     19.59393       64.648263    
    107000   0.96480244     19.122964      64.541924    
    108000   1.0362856      19.529577      64.137812    
    109000   0.99298634     18.958081      63.905127    
    110000   0.99933125     18.743005      63.607889    
    111000   1.0198961      19.198297      63.47434     
    112000   0.9362603      18.915615      63.263268    
    113000   1.0111179      19.297762      63.207025    
    114000   1.0125217      19.409054      62.849988    
    115000   0.98746518     18.876016      62.880375    
    116000   0.96919676     19.466245      62.699334    
    117000   1.0299148      18.544323      62.583191    
    118000   0.95879117     19.07663       62.224756    
    119000   1.0083597      18.807444      61.946371    
    120000   1.0369808      19.353441      61.967832    
    121000   1.0000418      19.074392      61.745054    
    122000   1.0271664      18.638586      61.461886    
    123000   0.97250132     18.810999      61.264359    
    124000   1.0443172      19.599867      60.996996    
    125000   1.0348841      19.716615      60.68773     
    126000   0.99073385     19.554387      60.616402    
    127000   1.0544505      19.259991      60.521557    
    128000   1.0138921      18.757937      60.282251    
    129000   1.0650988      18.884439      60.274584    
    130000   0.95943249     19.317376      59.769232    
    131000   0.99893997     19.209816      59.258584    
    132000   1.040442       19.252414      59.015861    
    133000   0.99754154     19.226879      59.059669    
    134000   1.0072487      18.938965      58.926607    
    135000   1.0158274      18.693737      58.520247    
    136000   1.008868       18.797447      58.388501    
    137000   0.9879         19.387407      58.072797    
    138000   0.97909873     18.359514      57.987404    
    139000   0.9981957      18.373472      57.76651     
    140000   0.9842926      17.99805       57.579757    
    141000   0.98777452     19.122353      57.476719    
    142000   1.004445       18.996204      57.386608    
    143000   1.0754158      18.613664      56.760328    
    144000   1.028106       19.026866      56.562465    
    145000   0.99037038     18.993737      56.436181    
    146000   0.9673579      18.715678      56.251705    
    147000   0.99255738     19.216046      56.216675    
    148000   1.0424434      19.438309      56.302571    
    149000   0.98225943     19.22413       56.229755    
    150000   1.0484985      19.577803      55.918469    
    151000   0.9986258      18.918766      55.647643    
    152000   1.0074676      18.922542      55.577937    
    153000   0.97349951     17.99969       55.438401    
    154000   0.97123633     19.006754      55.18216     
    155000   1.0228096      19.22142       54.988139    
    156000   1.0481472      18.887482      54.612616    
    157000   0.99539811     18.56628       54.636123    
    158000   1.017539       18.774659      54.40589     
    159000   0.97464493     18.577267      54.382012    
    160000   1.0176553      19.460459      54.257995    
    161000   1.0228529      18.844811      53.673822    
    162000   1.0018766      19.494374      53.396492    
    163000   0.96872731     18.930036      53.235603    
    164000   0.99641418     17.813547      53.325239    
    165000   0.98207998     18.836932      53.026352    
    166000   0.95815026     19.593008      53.053681    
    167000   1.0391595      18.689         52.919934    
    168000   0.95041097     18.525162      52.808637    
    169000   1.0316087      18.430311      52.82062     
    170000   0.98735047     18.810243      53.005918    
    171000   0.99375647     18.72722       52.696262    
    172000   1.0439012      18.837615      52.239275    
    173000   1.0184406      18.169393      52.041848    
    174000   0.9799763      18.532712      51.989106    
    175000   0.97658409     18.321292      51.919498    
    176000   0.98338732     18.540987      51.828837    
    177000   0.96744268     18.496055      51.790181    
    178000   0.95536557     19.263431      51.477564    
    179000   1.0092889      18.500332      51.278627    
    180000   1.0087273      19.145155      50.949458    
    181000   1.0043156      18.935111      50.373616    
    182000   0.97696514     18.947167      50.387326    
    183000   1.0073014      18.609773      50.145827    
    184000   1.005792       18.432312      49.945462    
    185000   1.0204868      18.947995      49.94859     
    186000   1.0525817      18.585449      49.642337    
    187000   1.0038572      18.188375      49.741277    
    188000   1.014729       19.07702       49.312418    
    189000   0.96841665     18.16534       49.076104    
    190000   0.965409       19.016655      49.100414    
    191000   0.99856059     18.645085      49.006026    
    192000   1.0074626      18.585716      48.806894    
    193000   1.0170409      18.881622      48.56587     
    194000   1.0252506      18.8547        48.325243    
    195000   1.0219706      19.010821      48.081697    
    196000   1.0315243      18.674905      47.946499    
    197000   0.99677698     18.739528      47.822592    
    198000   1.0305792      18.180479      47.768175    
    199000   1.002732       18.579123      47.689983    
    200000   1.0182808      18.714337      47.349986    
    201000   1.0389761      19.100402      47.24167     
    202000   0.98954551     18.753897      46.959513    
    203000   1.0420339      18.884927      46.756687    
    204000   1.0609965      18.519072      46.557298    
    205000   1.0200046      18.244187      46.394312    
    206000   0.95414622     19.076873      46.254776    
    207000   0.99954675     18.795783      45.903131    
    208000   1.0034979      17.926204      45.667721    
    209000   1.0265629      19.177367      45.518134    
    210000   1.0108596      19.174274      45.340838    
    211000   1.0031237      18.370373      45.159069    
    212000   1.0489631      18.681486      45.009926    
    213000   0.9625296      18.732052      44.930821    
    214000   0.94923575     18.926662      44.879822    
    215000   1.0243632      18.137804      44.554353    
    216000   0.96125349     18.150053      44.327642    
    217000   1.04772        18.957422      44.433252    
    218000   0.97658193     18.316591      44.342313    
    219000   0.95708067     18.20883       43.937304    
    220000   1.0060849      18.449288      43.694103    
    221000   0.98643739     18.26604       43.55851     
    222000   0.96673586     18.33069       43.321969    
    223000   1.046769       18.199403      43.384585    
    224000   1.0052774      18.161657      43.370637    
    225000   1.0361263      17.743264      43.428957    
    226000   1.0037251      18.18925       43.562386    
    227000   1.0545755      18.524852      43.346124    
    228000   0.98803803     18.759756      43.280498    
    229000   1.0569798      18.248541      43.178389    
    230000   0.98116265     18.634156      43.013229    
    231000   0.98667834     18.396895      42.625024    
    232000   0.99127882     18.828972      42.309129    
    233000   0.96246305     17.635338      42.146235    
    234000   1.0073004      17.684283      42.065023    
    235000   0.9613478      17.986457      41.761966    
    236000   0.96400785     18.439806      41.848698    
    237000   0.96698543     18.492769      41.904651    
    238000   0.99951664     18.547823      41.638415    
    239000   0.95630085     19.063155      41.374498    
    240000   0.94108831     17.952096      41.307161    
    241000   0.96930347     18.049471      41.328844    
    242000   0.97760506     18.042619      41.371505    
    243000   0.99616095     18.293094      40.844801    
    244000   0.98373106     18.484999      40.654878    
    245000   0.9788523      18.113298      40.44419     
    246000   1.016252       18.44763       40.033072    
    247000   1.0349154      18.062248      39.417002    
    248000   0.99722263     18.185284      39.310963    
    249000   0.99408044     18.828613      39.081822    
    250000   0.97882435     18.817773      38.827592    
    251000   0.99975352     17.980194      38.497361    
    252000   1.0128168      18.424869      38.525728    
    253000   1.0241943      18.617878      38.175107    
    254000   0.98766543     17.779548      38.168903    
    255000   0.94844558     18.41263       37.827976    
    256000   0.96779089     18.262775      37.702464    
    257000   0.95902074     18.336854      37.6721      
    258000   1.018371       19.039562      37.425226    
    259000   1.026391       17.550989      37.344314    
    260000   0.95086108     17.878189      37.13316     
    261000   0.96448537     18.350678      36.878577    
    262000   1.0275089      18.283893      36.440966    
    263000   1.0370413      18.231071      36.28177     
    264000   1.0090964      18.199475      36.04697     
    265000   0.97338615     17.677274      36.088572    
    266000   1.0173164      18.047127      35.663639    
    267000   0.99735101     18.272231      36.010883    
    268000   1.0322119      18.59615       35.857271    
    269000   0.98556166     18.397459      35.674661    
    270000   1.0201432      18.586129      35.482018    
    271000   1.0035407      17.957843      35.048685    
    272000   1.0359945      18.023225      34.780657    
    273000   1.0343534      18.573335      34.550017    
    274000   0.95986499     17.775404      34.460264    
    275000   1.0079861      18.046078      34.399903    
    276000   1.0155528      17.44499       34.211684    
    277000   1.0297391      18.170276      34.39358     
    278000   1.0120241      18.023969      34.383584    
    279000   0.98946164     18.177027      34.4343      
    280000   1.0221914      18.10864       34.301228    
    281000   0.98620528     18.337794      33.7911      
    282000   0.97032803     17.353535      33.631962    
    283000   0.96363071     18.38232       33.351817    
    284000   0.98308833     17.60687       33.238899    
    285000   0.97732765     18.150267      33.154485    
    286000   1.0100407      18.681364      33.019197    
    287000   0.9942318      18.579002      32.900158    
    288000   1.0625195      18.329173      32.653699    
    289000   1.011849       18.584491      32.254773    
    290000   1.0229109      18.411537      32.431874    
    291000   0.99859572     17.922953      32.155942    
    292000   1.0034944      18.288074      32.182752    
    293000   0.96453094     17.859975      32.166333    
    294000   1.0131853      18.311859      31.74611     
    295000   1.0254666      18.333292      31.584696    
    296000   1.0340802      17.909356      31.500293    
    297000   0.98808994     18.091026      31.541788    
    298000   0.99907594     17.817499      31.10067     
    299000   1.0229958      18.215301      31.109731    
    300000   1.0092758      17.604595      30.902306    
    301000   1.0119757      18.889635      30.986044    
    302000   1.0046188      18.661423      30.946513    
    303000   1.0098704      18.681014      30.589556    
    304000   1.0086552      17.594488      30.515296    
    305000   1.0196718      17.644683      30.296695    
    306000   0.96602913     17.877264      29.963699    
    307000   0.99564776     18.246532      29.972487    
    308000   1.0490354      17.946955      29.91702     
    309000   0.97440274     17.781239      29.659809    
    310000   1.003542       18.335464      29.335779    
    311000   0.99498268     18.18366       29.612615    
    312000   1.0317809      17.52416       29.715438    
    313000   0.9690356      17.900031      29.431825    
    314000   1.0263792      18.015302      29.25191     
    315000   0.98656765     18.067214      29.157821    
    316000   0.97751315     18.535497      29.4793      
    317000   0.99279824     17.839036      29.171548    
    318000   0.97396368     18.224881      29.052583    
    319000   1.0152073      17.798583      28.806068    
    320000   0.95613976     18.051986      28.597563    
    321000   0.99664766     18.207839      28.578989    
    322000   0.90511786     18.419696      28.48866     
    323000   0.99056069     17.836938      28.401962    
    324000   0.95286392     17.816094      28.629036    
    325000   0.97420084     18.432236      28.736939    
    326000   1.0122857      17.713065      28.426315    
    327000   0.95622347     17.266508      28.186105    
    328000   1.0242948      18.032043      28.135246    
    329000   0.98624387     17.620697      27.921486    
    330000   1.0179145      17.520581      27.766747    
    331000   1.0569866      17.757042      27.448946    
    332000   1.0074172      17.402478      27.301854    
    333000   1.0291308      17.999817      27.157211    
    334000   1.0517696      17.802045      27.049044    
    335000   1.013432       17.931677      26.982372    
    336000   1.0095628      17.771609      26.804034    
    337000   0.96380794     18.13629       26.662926    
    338000   0.98672392     18.262169      26.604978    
    339000   1.0076256      18.417519      26.406861    
    340000   1.0093873      18.301351      26.048304    
    341000   0.96563265     18.106018      25.696833    
    342000   1.0081359      17.447948      25.263153    
    343000   1.0536378      17.961226      25.082911    
    344000   0.98137408     17.386706      24.981726    
    345000   0.94487674     17.429197      24.769318    
    346000   1.0060545      18.433386      24.568236    
    347000   0.99346399     17.601482      24.44727     
    348000   1.0226716      17.431046      24.132152    
    349000   1.0247622      17.573999      23.781745    
    350000   1.0003759      17.879581      23.684758    
    351000   1.0335735      17.7086        23.699592    
    352000   0.96462279     18.264229      23.565386    
    353000   0.99728683     17.584581      23.141499    
    354000   1.0136159      17.403761      22.791459    
    355000   0.95070703     18.516142      22.430489    
    356000   0.98354288     17.836499      22.058997    
    357000   1.0559833      17.75823       21.839206    
    358000   1.005537       17.557823      22.045652    
    359000   1.0126968      17.631518      21.933499    
    360000   0.92214208     17.29689       21.632989    
    361000   1.0093501      18.034608      21.300679    
    362000   1.0125578      17.561011      21.367253    
    363000   1.0052652      18.481178      21.449913    
    364000   1.010209       17.847552      21.362447    
    365000   0.99558404     17.497392      21.121109    
    366000   0.98903696     18.155229      21.021404    
    367000   1.008532       18.056002      20.83498     
    368000   1.0068291      17.565885      20.738999    
    369000   0.95977024     17.599699      20.552044    
    370000   0.98789046     17.812416      20.523604    
    371000   1.0425583      18.230327      20.390031    
    372000   0.97488603     17.625752      20.046429    
    373000   1.0096728      17.920666      19.941021    
    374000   0.9925843      17.434104      19.628541    
    375000   0.95903898     16.97121       19.604355    
    376000   1.0658561      18.280934      19.366989    
    377000   1.0318053      17.29361       19.102914    
    378000   1.06447        17.718221      18.90508     
    379000   1.0546674      18.202525      18.884853    
    380000   0.91795877     17.195614      18.834061    
    381000   0.99604704     17.138803      18.33361     
    382000   1.0169472      17.724721      18.277014    
    383000   0.99482007     17.210966      18.304273    
    384000   1.0025983      17.907668      18.307796    
    385000   0.9916105      17.797231      18.074964    
    386000   1.0684522      16.99711       17.897946    
    387000   0.99116905     18.16444       18.007989    
    388000   0.99036577     17.734453      17.795165    
    389000   1.0633628      17.785655      17.893498    
    390000   1.0479678      17.671322      17.502354    
    391000   0.97678168     17.0225        17.263302    
    392000   0.98638168     17.45598       17.046407    
    393000   1.0161188      17.426278      16.936976    
    394000   1.0080182      16.743528      16.786264    
    395000   0.99886845     16.877972      16.766089    
    396000   1.0015527      17.481247      16.560099    
    397000   1.0221827      17.360385      16.570698    
    398000   1.0273664      17.880963      16.315673    
    399000   0.99350881     18.018085      15.980657    
    400000   1.0007021      17.880283      15.964413    
    401000   0.99287238     17.576608      15.865081    
    402000   0.9447499      17.343036      15.448335    
    403000   0.9464977      16.771134      15.429924    
    404000   1.020997       17.609032      15.578253    
    405000   1.0140637      17.547884      15.587576    
    406000   0.95964156     17.627027      15.607961    
    407000   0.96825022     16.725184      15.479832    
    408000   1.040476       18.323354      15.501102    
    409000   1.0512894      17.150594      15.208086    
    410000   0.95489989     17.340498      14.742365    
    411000   0.99301222     17.679665      14.862621    
    412000   0.98948838     17.346596      14.677681    
    413000   1.005259       18.069408      14.40457     
    414000   1.0169756      17.186771      14.378302    
    415000   0.977566       16.855662      14.132419    
    416000   1.0296581      17.595619      14.169975    
    417000   0.98872971     17.380063      13.982163    
    418000   0.98733824     17.801897      13.453861    
    419000   0.95649094     17.053933      13.400874    
    420000   0.93980497     17.359305      13.35728     
    421000   0.97294614     17.508708      12.916793    
    422000   1.0300484      17.971521      12.928361    
    423000   1.008436       17.388555      12.85019     
    424000   0.98830858     16.596909      12.974934    
    425000   0.98110148     17.483367      12.930913    
    426000   1.0167678      17.464411      12.902709    
    427000   0.97028451     16.572997      13.027708    
    428000   0.92934891     17.230635      12.79632     
    429000   1.0528783      17.153578      12.428094    
    430000   1.0010112      17.353898      12.240763    
    431000   1.0253906      17.026051      12.110305    
    432000   1.0333519      18.153353      12.17737     
    433000   1.0034449      17.530416      11.998559    
    434000   1.014635       17.495701      11.617392    
    435000   0.98138268     17.840098      11.516789    
    436000   0.99408369     17.090196      11.190875    
    437000   0.99987127     17.108035      10.732839    
    438000   0.95675516     17.800543      10.384458    
    439000   0.97663894     16.831793      10.328841    
    440000   1.0090777      16.901501      10.419864    
    441000   0.98365571     17.52874       10.348962    
    442000   0.93526535     17.494256      10.230356    
    443000   1.0061166      16.697655      10.202489    
    444000   0.98302612     17.505038      10.160898    
    445000   1.0088645      17.032411      10.30749     
    446000   0.985441       16.906893      10.075228    
    447000   1.0280555      17.325246      10.285086    
    448000   0.96041287     16.679665      10.118392    
    449000   1.0386219      16.863308      10.018977    
    450000   1.0032455      17.457993      9.9856124    
    451000   1.0267114      16.841759      10.138511    
    452000   1.0149622      17.648506      9.9070476    
    453000   1.0221086      16.973916      9.9910729    
    454000   0.98158444     17.549748      9.8446164    
    455000   1.0226065      16.963584      9.5496449    
    456000   1.0740301      17.700539      9.4252277    
    457000   1.0374178      17.701509      9.2057793    
    458000   0.9900542      17.315665      8.7579168    
    459000   0.89651378     17.189844      8.5777501    
    460000   1.0208639      17.374244      8.3940932    
    461000   0.9364268      17.100408      8.2923435    
    462000   0.96987049     16.868142      8.1773775    
    463000   0.97556811     16.898937      7.995052     
    464000   0.95487647     16.730574      7.9292629    
    465000   0.95827468     17.361765      7.941689     
    466000   1.0100564      17.216968      7.8981673    
    467000   1.0012729      16.854284      7.8189561    
    468000   1.0265128      16.979964      7.7383654    
    469000   1.0110476      17.143662      7.5992679    
    470000   1.0202409      17.572419      7.4021227    
    471000   0.99025466     17.614332      7.6048568    
    472000   1.0603175      18.021697      7.4591366    
    473000   1.0332985      17.633061      7.4263248    
    474000   1.0115113      17.429461      7.2371424    
    475000   0.95711915     16.775123      7.1593405    
    476000   0.98157211     17.341812      7.3386938    
    477000   1.0293708      17.391856      7.4094389    
    478000   1.0182183      17.734973      7.2037727    
    479000   1.031469       16.754052      7.080719     
    480000   1.0009549      17.274584      7.0659438    
    481000   1.0025607      17.898226      7.0245748    
    482000   0.96628841     17.053651      7.0682318    
Fix halt condition for fix-id 3 met on step 483000 with value 6.923637022221615 (src/fix_halt.cpp:237)
    483000   1.0164784      17.015176      6.923637     
Loop time of 944.854 on 2 procs for 383000 steps with 701 atoms

Performance: 350225.393 tau/day, 405.353 timesteps/s
113.3% CPU use with 1 MPI tasks x 2 OpenMP threads

MPI task timing breakdown:
Section |  min time  |  avg time  |  max time  |%varavg| %total
---------------------------------------------------------------
Pair    | 84.757     | 84.757     | 84.757     |   0.0 |  8.97
Bond    | 10.978     | 10.978     | 10.978     |   0.0 |  1.16
Neigh   | 825.49     | 825.49     | 825.49     |   0.0 | 87.37
Comm    | 0.22144    | 0.22144    | 0.22144    |   0.0 |  0.02
Output  | 1.236      | 1.236      | 1.236      |   0.0 |  0.13
Modify  | 20.154     | 20.154     | 20.154     |   0.0 |  2.13
Other   |            | 2.023      |            |       |  0.21

Nlocal:            701 ave         701 max         701 min
Histogram: 1 0 0 0 0 0 0 0 0 0
Nghost:              0 ave           0 max           0 min
Histogram: 1 0 0 0 0 0 0 0 0 0
Neighs:         121755 ave      121755 max      121755 min
Histogram: 1 0 0 0 0 0 0 0 0 0

Total # of neighbors = 121755
Ave neighs/atom = 173.68759
Ave special neighs/atom = 1.9971469
Neighbor list builds = 3430
Dangerous builds = 0

# This simulation is done
# Move onto the next one
clear
  using 2 OpenMP thread(s) per MPI task
package omp 0
using multi-threaded neighbor list subroutines
next f
jump SELF

###
# Reference paper:
# K. Kremer and G. S. Grest
# Dynamics of entangled linear polymer melts: A molecular-dynamics simulation
# J Chem Phys 92, 5057 (1990)

##################################
# MIHIR: for branched polymers
# LJ minimum first to expand and explore, then collapse
###

###
# Looping through the various plusshaped polymers to simulate,
# define variables to switch through
variable f index bb51nuc1bl25bn4d30tot100 bb101nuc1bl50bn4d30tot200 bb151nuc1bl75bn4d30tot300 bb201nuc1bl100bn4d30tot400 bb251nuc1bl125bn4d30tot500 bb301nuc1bl150bn4d30tot600 bb351nuc1bl175bn4d30tot700 bb401nuc1bl200bn4d30tot800 bb451nuc1bl225bn4d30tot900 bb501nuc1bl250bn4d30tot1000 bb551nuc1bl275bn4d30tot1100 bb601nuc1bl300bn4d30tot1200
###


###
# Box and units  (use LJ units and periodic boundaries)
###

units lj
log plusshaped/logs3/$f.log
log plusshaped/logs3/bb401nuc1bl200bn4d30tot800.log
