#atom_style bond #no stiffness
atom_style angle #with stiffness

boundary        p p p
###
# Pair interactions require lists of neighbours to be calculated
###

#neighbor 0.3 bin
neighbor 4 bin

neigh_modify every 1 delay 1 check yes
atom_modify sort 0 0
### Generate RESTART file, SPECIAL format, not a .txt file ###
### Useful if simulation crashes ###

restart 1000000 plusshaped/restarts3/$f.restart
restart 1000000 plusshaped/restarts3/bb501nuc1bl250bn4d30tot1000.restart
#############################



### READ "start" data file ###

read_data plusshaped/$f.dat
read_data plusshaped/bb501nuc1bl250bn4d30tot1000.dat
Reading data file ...
  orthogonal box = (-1000 -1000 -1000) to (1000 1000 1000)
  1 by 1 by 1 MPI processor grid
  reading atoms ...
  1001 atoms
  scanning bonds ...
  3 = max bonds/atom
  scanning angles ...
  6 = max angles/atom
  reading bonds ...
  1000 bonds
  reading angles ...
  1002 angles
Finding 1-2 1-3 1-4 neighbors ...
  special bond factors lj:    0        0        0       
  special bond factors coul:  0        0        0       
     4 = max # of 1-2 neighbors
     4 = max # of 1-3 neighbors
     8 = max # of 1-4 neighbors
    12 = max # of special neighbors
  special bonds CPU = 0.002 seconds
  read_data CPU = 0.151 seconds

######################

### READ "REstart" data file ###

######################



###
# Define groups (atom type 1 is group 'all')
###
group all type 1
1001 atoms in group all


###
# Dump configs - "simple dumpings"
###

###
# Dump configs + box coords
###

dump   1   all   custom   1000  plusshaped/trjs3/$f.lammpstrj  id  x y z  ix iy iz
dump   1   all   custom   1000  plusshaped/trjs3/bb501nuc1bl250bn4d30tot1000.lammpstrj  id  x y z  ix iy iz
dump_modify   1   format line "%d %.5f %.5f %.5f %d %d %d"

########################################################################


###################################################################
# Stiffness term
#
# E = K * (1+cos(theta)), K>0
#
angle_style   cosine
#change this coefficient to change stiffness (e.g. 1,5,10)
angle_coeff   1 1.0
###################################################################

###################################################################
# Pair interaction between non-bonded atoms
#
#  Lennard-Jones 12-6 potential with cutoff:
#  potential E=4epsilon[ (sigma/r)^12 - (sigma/r)^6]  for r<r_cut
#
#  1.12246 = 2^(1/6) is the minimum of the potential


pair_style      lj/cut 1.12246152962189
#pair_style      lj/cut 3

#
#  pair_modify shift yes adds a constant to the potential such

#  that E(r_cut)=0. Forces remains unchanged.
#

pair_modify     shift yes

#
#  pair_coeff for lj/cut, specify 4:
#    * atom type interacting with
#    * atom type
#    * epsilon (energy units)
#    * sigma (distance units)
#

pair_coeff      1 1 1.0 1.0
###################################################################

###################################################################
# Pair interaction between non-bonded atoms
#
#  soft potential, for PUSHING apart overlapping atoms
#  potential E=A*(1 + cos(pi*r/r_c))
#
#  1.12246 = 2^(1/6) is the cut-off r_c

#pair_style     soft 1.12246152962189

#
#  pair_coeff for soft, specify 3:
#    * atom type interacting with
#    * atom type
#    * A
#
#

#pair_coeff      1 1 100.0
###################################################################

###################################################################
# Pair interaction between bonded atoms
#
# Fene potential + Lennard Jones 12-6:

#
#  E= - 0.5 K R0^2 ln[ 1- (r/R0)^2]
#     + 4epsilon[ (sigma/r)^12 - (sigma/r)^6] + epsilon
#

bond_style   fene


#
# For style fene, specify:
#   * bond type
#   * K (energy/distance^2)
#   * R0 (distance)
#   * epsilon (energy)  (LJ component)
#   * sigma (distance)  (LJ component)
#


special_bonds fene #<=== I M P O R T A N T (new command)
Finding 1-2 1-3 1-4 neighbors ...
  special bond factors lj:    0        1        1       
  special bond factors coul:  0        1        1       
     4 = max # of 1-2 neighbors
    12 = max # of special neighbors
  special bonds CPU = 0.000 seconds

bond_coeff   1   30   2   1.0   1.0


###################################################

###################################################################
# Pair interaction between bonded atoms
#
# Harmonic potential:
#
#  E= K * (R-R0)^2
#

#bond_style   harmonic

#
# For style harmonic, specify:
#   * bond type
#   * K (energy/distance^2)
#   * R0 (distance)
#

#bond_coeff   1   60.0   1.0
#bond_coeff   2   harmonic 0.1   1.0

###################################################
compute 1 all gyration
variable rog equal c_1
#compute 2 all coord/atom cutoff 1.1

#dump 2 all custom 10000 contact_number.dump id c_2


###
# Set up fixes
###
thermo_style   custom   step  temp enthalpy c_1
fix 1 all nve   ###NVE ensemble

fix 2 all   langevin   1.0 1.0 1.0  158102   ###Langevin integrator Tstart Tstop 1/friction rndseed


##### Sample thermodynamic info  (temperature, energy, pressure, etc.) #####
thermo 1000









############################################################################

###
# set timestep of integrator

timestep 0.01

###
# run integration for a number of steps
###
#run 0
#variable r equal c_1
#if "$r < 63.1" then "quit 1"

# lj potential minimum, cause molecule to explore
run 100000
Generated 0 of 0 mixed pair_coeff terms from geometric mixing rule
Last active /omp style is angle_style cosine/omp
Neighbor list info ...
  update: every = 1 steps, delay = 1 steps, check = yes
  max neighbors/atom: 2000, page size: 100000
  master list distance cutoff = 5.1224615
  ghost atom cutoff = 5.1224615
  binsize = 2.5612308, bins = 781 781 781
  1 neighbor lists, perpetual/occasional/extra = 1 0 0
  (1) pair lj/cut/omp, perpetual
      attributes: half, newton on, omp
      pair build: half/bin/newton/omp
      stencil: half/bin/3d
      bin: standard
WARNING: Communication cutoff 5.12246152962189 is shorter than a bond length based estimate of 5.455. This may lead to errors. (src/comm.cpp:723)
Per MPI rank memory allocation (min/avg/max) = 1862 | 1862 | 1862 Mbytes
   Step          Temp         Enthalpy         c_1      
         0   0              13.219708      131.3837     
      1000   0.96904049     17.917233      130.84132    
      2000   1.0018563      17.927987      130.11471    
      3000   0.99977922     18.007812      129.29985    
      4000   0.98863095     17.807851      128.98862    
      5000   0.99857352     17.87356       128.77723    
      6000   0.99787842     18.165601      128.44182    
      7000   1.0585715      18.605347      127.99031    
      8000   1.0350959      18.730957      127.25776    
      9000   1.0301808      18.476155      126.84501    
     10000   1.0208805      18.371771      126.19825    
     11000   0.99394687     18.194957      125.72602    
     12000   0.99150926     18.694604      125.34577    
     13000   1.0185032      18.903474      125.10386    
     14000   1.0296083      18.933463      124.55869    
     15000   0.99979521     18.773964      124.41809    
     16000   1.065706       19.152431      124.0205     
     17000   1.017377       19.178433      123.58889    
     18000   1.006398       18.941023      123.18438    
     19000   1.0235761      19.025997      122.678      
     20000   0.99660217     18.554025      122.15367    
     21000   1.0321326      19.378796      121.70339    
     22000   1.0408339      19.313619      121.32305    
     23000   0.98625955     19.494639      121.14931    
     24000   1.0152073      19.515708      120.80229    
     25000   0.98423261     19.421402      120.37321    
     26000   0.97746972     19.051251      120.28178    
     27000   1.0116149      19.485882      120.06816    
     28000   0.96770625     19.268451      119.50185    
     29000   1.0004701      19.537785      119.21179    
     30000   0.96397837     19.235292      118.96034    
     31000   1.0232278      18.95196       118.49717    
     32000   0.9821033      18.858285      118.03449    
     33000   1.0129547      19.124234      117.97602    
     34000   1.0123634      19.681514      117.61645    
     35000   1.0256569      19.509471      117.48628    
     36000   0.98740814     19.404914      117.23565    
     37000   0.97931579     19.291964      116.9069     
     38000   0.98501938     20.068371      116.74365    
     39000   1.0075275      19.957244      116.5677     
     40000   1.0311932      19.406226      116.22186    
     41000   0.98486181     19.575025      115.97688    
     42000   0.97091289     19.021614      115.71906    
     43000   0.97306596     19.243781      115.40875    
     44000   0.98314757     19.184638      115.01467    
     45000   0.99675675     19.247446      114.88192    
     46000   1.0271056      20.054146      114.66928    
     47000   0.98454684     19.368401      114.40492    
     48000   0.98873343     19.511938      114.42145    
     49000   1.0443915      19.473792      114.52       
     50000   0.98171088     19.615437      114.13037    
     51000   1.0162627      20.099065      113.8433     
     52000   1.0451487      19.817373      113.47519    
     53000   0.99611639     19.459291      113.0088     
     54000   0.99831691     19.506814      113.1126     
     55000   0.97944879     19.720576      112.93561    
     56000   1.0048525      19.473238      112.75933    
     57000   0.97976599     19.548241      112.90507    
     58000   0.99374978     19.689439      112.87769    
     59000   1.0376514      20.136375      112.95823    
     60000   1.0079036      19.242282      112.61891    
     61000   1.007244       19.428083      112.43291    
     62000   1.0270499      19.987382      112.1855     
     63000   1.0007047      20.144764      111.91578    
     64000   0.98436586     19.721338      111.86145    
     65000   1.0085913      19.763048      111.70045    
     66000   0.98752233     19.936993      111.21234    
     67000   0.96313935     18.872449      110.97177    
     68000   0.94058007     20.298264      110.90967    
     69000   0.98648951     19.39625       110.85698    
     70000   0.97292101     19.781443      110.39709    
     71000   0.99838726     20.002975      110.18711    
     72000   0.95719302     19.924674      110.31015    
     73000   0.98679931     19.652814      110.04505    
     74000   1.0156066      19.457751      109.84678    
     75000   1.0155669      19.473092      109.62087    
     76000   1.0039372      19.679018      109.57106    
     77000   1.0252784      20.056245      109.3442     
     78000   1.0265799      20.143028      109.09853    
     79000   1.0303651      20.142205      108.82085    
     80000   0.94335117     19.901327      108.48234    
     81000   0.99018296     19.79106       108.31409    
     82000   1.0141339      19.716226      108.44692    
     83000   1.0270574      19.721566      108.16101    
     84000   1.0218944      19.772368      108.00006    
     85000   1.0155247      19.456021      107.892      
     86000   0.96018002     19.889164      107.85052    
     87000   1.0090489      19.847273      107.83603    
     88000   1.0152498      19.934514      107.61463    
     89000   0.99018985     20.47954       107.21513    
     90000   1.0012662      19.852399      106.87243    
     91000   1.0195584      20.574135      106.68507    
     92000   0.99164347     19.80459       106.4052     
     93000   0.98304227     19.44379       106.11785    
     94000   0.99878395     20.159581      105.86658    
     95000   1.0104031      20.230589      105.65525    
     96000   1.0334665      19.599238      105.27011    
     97000   1.0172757      19.765341      105.15945    
     98000   0.9727843      19.626414      105.09097    
     99000   0.98802749     20.169686      105.06555    
    100000   1.0320418      19.980429      105.13092    
Loop time of 658.842 on 2 procs for 100000 steps with 1001 atoms

Performance: 131139.165 tau/day, 151.781 timesteps/s
101.8% CPU use with 1 MPI tasks x 2 OpenMP threads

MPI task timing breakdown:
Section |  min time  |  avg time  |  max time  |%varavg| %total
---------------------------------------------------------------
Pair    | 1.3683     | 1.3683     | 1.3683     |   0.0 |  0.21
Bond    | 2.8698     | 2.8698     | 2.8698     |   0.0 |  0.44
Neigh   | 648.37     | 648.37     | 648.37     |   0.0 | 98.41
Comm    | 0.051618   | 0.051618   | 0.051618   |   0.0 |  0.01
Output  | 0.33295    | 0.33295    | 0.33295    |   0.0 |  0.05
Modify  | 5.3375     | 5.3375     | 5.3375     |   0.0 |  0.81
Other   |            | 0.5089     |            |       |  0.08

Nlocal:           1001 ave        1001 max        1001 min
Histogram: 1 0 0 0 0 0 0 0 0 0
Nghost:              0 ave           0 max           0 min
Histogram: 1 0 0 0 0 0 0 0 0 0
Neighs:           5493 ave        5493 max        5493 min
Histogram: 1 0 0 0 0 0 0 0 0 0

Total # of neighbors = 5493
Ave neighs/atom = 5.4875125
Ave special neighs/atom = 1.998002
Neighbor list builds = 1105
Dangerous builds = 0

# Replace lj potential, now collapse
pair_style      lj/cut 3

# Cutoff simul when gyration under 5
# Variable created with equal requires v_ + 'name'
fix 3 all halt 1000 v_rog < 7

run 5000000
Generated 0 of 0 mixed pair_coeff terms from geometric mixing rule
Last active /omp style is angle_style cosine/omp
Per MPI rank memory allocation (min/avg/max) = 1862 | 1862 | 1862 Mbytes
   Step          Temp         Enthalpy         c_1      
    100000   1.0320418      19.400188      105.13092    
    101000   0.96906387     19.475246      104.95981    
    102000   0.98814111     19.305194      104.75422    
    103000   1.0110537      19.266777      104.61309    
    104000   0.92787869     19.107443      104.43999    
    105000   1.0039018      19.883491      104.23656    
    106000   1.001042       19.575284      104.02879    
    107000   1.0137411      19.188397      104.02195    
    108000   1.0359265      19.43207       103.6174     
    109000   0.95031619     19.332434      103.20971    
    110000   0.99032838     19.190807      103.06174    
    111000   1.0128947      19.697696      102.9125     
    112000   0.98103007     18.765835      102.6606     
    113000   1.0069386      19.328574      102.40633    
    114000   1.0317605      19.351714      102.3377     
    115000   0.97955054     19.426607      102.08241    
    116000   0.96682918     19.422112      101.76302    
    117000   0.97291982     19.587056      101.6085     
    118000   1.006222       19.336527      101.17974    
    119000   1.0104157      19.122623      100.99003    
    120000   0.9843403      19.27392       100.99793    
    121000   1.0159701      18.773068      100.91137    
    122000   0.97940768     19.678897      100.78576    
    123000   0.97874491     19.057107      100.60955    
    124000   1.004052       18.852145      100.1956     
    125000   0.99732779     19.288316      99.907775    
    126000   0.95359277     19.182555      99.714407    
    127000   0.99452734     19.805796      99.578784    
    128000   0.96167661     18.93709       99.532378    
    129000   0.97199027     19.587352      99.232495    
    130000   1.0285048      19.404047      98.992505    
    131000   0.98826597     19.330627      98.562118    
    132000   0.95901491     19.362118      98.542516    
    133000   1.0133768      19.243827      98.343192    
    134000   1.0344987      19.770234      98.127032    
    135000   0.96845914     19.082169      97.795989    
    136000   0.98971522     19.290851      97.48801     
    137000   1.0178189      19.305041      97.393136    
    138000   1.0312051      19.403105      97.32763     
    139000   0.99722374     18.925576      97.356801    
    140000   1.0370381      18.895525      96.877675    
    141000   0.98178791     18.850528      96.807026    
    142000   1.001249       19.31146       96.674184    
    143000   1.0039303      19.461887      96.639562    
    144000   1.0131256      19.501335      96.452371    
    145000   0.94906815     18.763782      96.288086    
    146000   1.0084651      18.984723      96.422794    
    147000   1.0281941      19.383058      96.321586    
    148000   1.0212955      19.237506      96.363553    
    149000   1.0152832      19.633562      96.141086    
    150000   1.0154645      18.997791      96.157317    
    151000   0.9970638      19.087353      96.16119     
    152000   0.96573012     19.459243      95.927332    
    153000   0.99837083     19.151768      95.816838    
    154000   1.0315125      18.858849      95.656792    
    155000   1.0239801      19.263374      95.753115    
    156000   0.97358366     19.574231      95.778669    
    157000   1.0162092      18.951936      95.559517    
    158000   1.0066423      19.266583      95.518328    
    159000   1.0000802      19.092759      95.248914    
    160000   0.97343132     19.166691      95.048815    
    161000   0.97992697     18.819154      94.917755    
    162000   1.0136048      19.063701      94.834281    
    163000   1.0340505      19.096869      94.647167    
    164000   1.0209709      19.482788      94.609688    
    165000   1.0116909      19.132121      94.618926    
    166000   0.97261829     19.487352      94.436342    
    167000   1.0098159      19.569836      94.378581    
    168000   1.0082906      19.077656      94.265119    
    169000   0.94824327     19.300838      94.160088    
    170000   0.98016726     19.095842      94.057719    
    171000   1.0351708      19.122762      93.890138    
    172000   1.0214557      19.106505      93.773232    
    173000   1.0229632      19.246037      93.521225    
    174000   1.0008123      18.612767      93.521184    
    175000   0.93954366     18.421049      93.30464     
    176000   0.96166564     18.493937      93.204832    
    177000   1.0064852      19.058596      92.891692    
    178000   0.97280892     18.775381      92.679999    
    179000   0.99798609     19.29044       92.610541    
    180000   0.99373345     19.11548       92.376668    
    181000   1.0052485      18.856942      92.200537    
    182000   0.99109412     18.827238      92.031431    
    183000   1.0066492      18.840038      91.753945    
    184000   0.98616563     18.782665      91.61178     
    185000   0.9714969      18.729389      91.27375     
    186000   1.015787       19.232594      91.14809     
    187000   0.99104705     18.743071      91.125804    
    188000   0.99592042     19.039455      90.952509    
    189000   0.96576766     18.718531      90.899987    
    190000   1.0343116      18.766899      90.670586    
    191000   1.0100153      18.694435      90.499035    
    192000   0.98994999     19.141882      90.29631     
    193000   0.97927893     18.91797       89.958602    
    194000   0.99486166     19.144326      89.754748    
    195000   0.99350386     18.483622      89.509021    
    196000   0.99054021     18.756581      89.274113    
    197000   0.96632452     18.885949      89.279609    
    198000   1.0047363      19.200052      88.983086    
    199000   0.99585854     18.674977      88.514724    
    200000   1.0307118      18.9642        88.521955    
    201000   1.0024835      18.685024      88.467057    
    202000   0.98559247     19.196661      88.074351    
    203000   0.99830181     18.530652      87.911262    
    204000   0.99859673     18.87512       87.481389    
    205000   0.96031064     18.387631      87.437765    
    206000   0.97096748     18.979754      87.443968    
    207000   0.97989316     18.417154      87.148657    
    208000   1.0411796      19.221789      86.981055    
    209000   1.0180833      19.030242      86.776421    
    210000   0.99783471     18.942935      86.633998    
    211000   1.0058038      18.24959       86.465998    
    212000   0.98869498     18.787418      86.274614    
    213000   1.0447166      19.278524      85.941724    
    214000   1.0284972      19.198404      85.792583    
    215000   1.007371       18.777422      85.904794    
    216000   1.026634       19.685026      85.313484    
    217000   1.0561014      18.966751      85.015145    
    218000   1.021922       18.977058      84.898197    
    219000   1.0016603      19.007613      84.700178    
    220000   0.95484039     18.915392      84.456028    
    221000   0.98981543     18.727142      84.349411    
    222000   0.95423544     18.365768      84.305616    
    223000   0.98482393     18.912727      84.119878    
    224000   0.98266597     19.053418      83.919294    
    225000   0.98416633     18.442242      83.837337    
    226000   0.97796678     19.040662      83.616689    
    227000   0.95464571     18.895147      83.679836    
    228000   1.0067796      19.318635      83.644737    
    229000   0.99733407     18.598538      83.577858    
    230000   1.0021439      18.96105       83.200368    
    231000   0.96313026     19.109975      83.272447    
    232000   0.96444165     18.674677      83.097727    
    233000   1.0085481      18.860783      82.891801    
    234000   1.0239308      18.601128      82.774758    
    235000   0.99494255     19.109233      82.813923    
    236000   1.0096596      19.152158      82.549096    
    237000   1.0442397      19.124311      82.543834    
    238000   1.035023       18.744334      82.39185     
    239000   0.99484144     18.893615      82.145443    
    240000   1.0164749      19.03835       82.098463    
    241000   0.98949294     19.058769      81.816623    
    242000   0.97544177     18.769176      81.694815    
    243000   0.97744052     18.688577      81.373096    
    244000   0.98809255     18.643033      81.343504    
    245000   1.0437026      19.141404      80.976689    
    246000   1.0084789      18.598581      81.058076    
    247000   0.9905155      18.800652      81.074256    
    248000   1.0286034      18.416333      80.760049    
    249000   1.0083488      18.893234      80.523269    
    250000   0.97121667     18.709591      80.366977    
    251000   1.0562388      18.571465      80.21806     
    252000   0.99956325     18.174786      80.166938    
    253000   0.98273077     18.125365      79.948868    
    254000   0.97804474     18.805425      79.860927    
    255000   0.97957432     17.998614      79.868629    
    256000   1.0314609      18.540415      79.790683    
    257000   0.98199844     18.98516       79.840128    
    258000   1.0024293      19.080761      79.722839    
    259000   0.95670154     18.283141      79.426556    
    260000   1.0054438      18.436771      79.25648     
    261000   0.96740116     18.737118      78.997871    
    262000   1.0441659      18.729111      78.805868    
    263000   0.97523843     18.475775      78.7611      
    264000   1.0219665      18.973352      78.512677    
    265000   0.99315918     18.241301      78.499042    
    266000   0.97536293     19.022241      78.353152    
    267000   0.99642555     18.946756      78.267121    
    268000   0.98648941     18.872134      78.069236    
    269000   0.97556528     18.982322      77.877477    
    270000   1.0174417      18.252442      77.896003    
    271000   1.0002733      18.417176      77.696431    
    272000   1.0267726      18.852671      77.689502    
    273000   0.99235756     18.754935      77.578187    
    274000   0.99907377     18.78466       77.376542    
    275000   1.0480666      18.709852      77.155479    
    276000   1.0347902      18.489209      77.070488    
    277000   0.98029006     18.89399       77.110551    
    278000   0.99229857     18.734738      77.100329    
    279000   0.99928222     18.464375      77.095379    
    280000   0.96871915     18.384317      76.880463    
    281000   0.97709562     18.307758      76.874959    
    282000   0.98971999     18.482428      76.796025    
    283000   1.0081893      19.112085      76.774367    
    284000   1.0084539      18.119321      76.941473    
    285000   0.99661501     18.705904      76.776175    
    286000   1.010001       18.033595      76.455855    
    287000   1.0078441      18.792222      76.254976    
    288000   1.0094434      18.724902      76.165734    
    289000   0.99775897     18.507869      76.107114    
    290000   1.0310851      18.617797      75.847031    
    291000   1.0014748      18.64169       75.857904    
    292000   1.0040257      18.829191      75.748157    
    293000   1.0187524      18.995149      75.553056    
    294000   1.0188082      18.885792      75.445824    
    295000   1.0407639      18.583088      75.116039    
    296000   0.97910261     18.739766      74.720167    
    297000   1.0162935      18.273786      74.568114    
    298000   0.98649815     18.013165      74.572087    
    299000   1.0113888      18.918287      74.288089    
    300000   0.97228899     18.467309      74.17392     
    301000   0.97225167     18.783723      74.11928     
    302000   1.0321654      18.325805      73.817752    
    303000   1.0614824      18.658241      73.571825    
    304000   0.99481316     18.161594      73.529903    
    305000   0.97634286     18.905784      73.48864     
    306000   1.0472319      17.949204      73.361732    
    307000   0.99546526     18.766721      72.842856    
    308000   1.032087       18.55983       72.812686    
    309000   0.9718281      18.059225      72.738755    
    310000   0.98651719     18.178223      72.824138    
    311000   0.97727388     18.817361      72.635048    
    312000   1.0121311      18.651784      72.424984    
    313000   1.0518699      18.458896      72.35883     
    314000   1.0072935      18.835765      72.159616    
    315000   0.99215323     18.430275      72.234168    
    316000   1.0330997      18.636121      72.151472    
    317000   0.98175148     18.413789      71.836889    
    318000   1.0269536      19.298287      71.728622    
    319000   0.98954602     18.24155       71.494755    
    320000   1.0313119      18.943327      71.41998     
    321000   0.98471466     18.122153      71.306506    
    322000   1.010678       18.764349      71.370759    
    323000   0.99916901     18.608683      71.336936    
    324000   1.0272681      18.357522      71.06406     
    325000   0.98874501     17.758705      71.200668    
    326000   1.0173482      18.158007      70.922771    
    327000   1.0505353      17.810379      70.648704    
    328000   1.0039128      18.732868      70.569473    
    329000   0.96364229     18.674035      70.510979    
    330000   0.97695585     18.516253      70.355146    
    331000   1.0263267      18.122182      70.247869    
    332000   0.96602595     18.509014      69.903258    
    333000   1.0006201      17.969951      69.851712    
    334000   0.95684375     18.276388      69.829343    
    335000   1.0094518      18.612764      69.79744     
    336000   0.93961683     18.027873      69.526977    
    337000   0.97853011     18.654852      69.077235    
    338000   0.99219124     18.437413      69.008012    
    339000   1.0213015      18.619948      68.930774    
    340000   1.0082912      18.623262      68.890714    
    341000   0.96585355     18.578916      68.661153    
    342000   1.013382       18.825237      68.508545    
    343000   0.96322742     18.66618       68.274134    
    344000   1.0555605      19.030239      68.152695    
    345000   1.0048868      18.554073      68.106212    
    346000   1.0247835      18.764477      68.251407    
    347000   0.98072855     17.845532      68.219262    
    348000   1.0440155      18.803513      67.988403    
    349000   0.979674       17.783579      67.702674    
    350000   0.96973126     18.272987      67.463533    
    351000   1.02263        18.421388      67.530268    
    352000   0.97245556     18.871198      67.260807    
    353000   0.97722241     18.565724      67.182585    
    354000   0.98926158     18.20223       67.089997    
    355000   0.98630352     18.22829       67.024215    
    356000   1.0063116      18.084876      66.867908    
    357000   1.003308       18.416602      66.573989    
    358000   0.99169171     18.341485      66.33413     
    359000   0.97647757     18.308854      66.266241    
    360000   0.98586591     18.091984      66.14671     
    361000   1.0172243      18.510199      66.147321    
    362000   1.0257835      18.275521      66.15921     
    363000   0.9950851      18.284292      65.942135    
    364000   1.0022397      18.698759      65.92835     
    365000   1.0077893      18.554614      65.89874     
    366000   0.98511115     17.853957      65.853523    
    367000   1.0257966      18.444948      65.490254    
    368000   1.0024602      17.880073      65.35051     
    369000   1.0267028      18.169024      64.967015    
    370000   1.0095138      18.1925        64.917326    
    371000   1.015302       18.726763      64.703933    
    372000   0.99911485     17.952466      64.596334    
    373000   0.99542321     18.30943       64.521514    
    374000   1.0604555      18.5874        64.531154    
    375000   0.99989077     18.241898      64.377175    
    376000   1.0260061      18.089109      64.277631    
    377000   0.99779373     17.857618      64.037096    
    378000   0.983781       18.431507      63.694912    
    379000   1.0057708      18.597337      63.650032    
    380000   0.98120426     18.424426      63.622108    
    381000   1.0282815      18.207301      63.606738    
    382000   1.0144679      18.721635      63.399804    
    383000   1.0211438      18.403691      63.17651     
    384000   1.0259932      18.287679      63.055748    
    385000   1.0368084      18.270454      63.128264    
    386000   1.0003407      17.450676      62.891162    
    387000   1.0349688      18.714448      62.522588    
    388000   1.0068649      18.334827      62.270106    
    389000   0.99158528     17.872673      62.195373    
    390000   0.97748712     17.838647      62.178683    
    391000   0.99770353     17.950219      62.105485    
    392000   1.000803       18.337973      62.353941    
    393000   1.004007       17.81077       62.195451    
    394000   1.0105743      18.504457      62.066269    
    395000   0.97623295     18.353214      61.905491    
    396000   1.0153591      18.305752      61.729081    
    397000   0.98915195     17.966216      61.587724    
    398000   0.97910906     18.385381      61.285653    
    399000   1.0113318      17.865981      61.375332    
    400000   0.97410697     18.396779      61.168116    
    401000   1.0462413      18.530756      61.107064    
    402000   0.99000757     18.415957      61.005308    
    403000   1.0717493      19.00915       60.86824     
    404000   0.9562745      17.574639      60.799558    
    405000   0.98163879     18.031833      60.726905    
    406000   1.0183547      18.679797      60.609558    
    407000   1.038613       18.375385      60.50017     
    408000   1.0097205      18.329747      60.291788    
    409000   1.0467042      18.445679      60.125774    
    410000   0.96726033     18.317722      60.083836    
    411000   0.99884377     18.277422      59.829564    
    412000   1.0240194      18.391337      59.760714    
    413000   0.99127659     18.037073      59.754906    
    414000   1.0078759      18.023682      59.605838    
    415000   0.98597296     18.099665      59.431196    
    416000   0.9377406      17.9351        59.401816    
    417000   0.98818688     18.204666      59.534916    
    418000   0.98894475     18.286002      59.503211    
    419000   1.0399553      18.055419      59.516517    
    420000   1.018825       18.646016      59.340037    
    421000   0.98719842     17.906987      59.059275    
    422000   0.98887365     17.935763      58.716382    
    423000   1.0072446      17.837112      58.701086    
    424000   1.0033518      18.042658      58.496568    
    425000   0.94825823     18.679297      58.211702    
    426000   1.0128892      18.28663       58.058067    
    427000   0.96133016     17.881269      57.730409    
    428000   0.99958313     17.793215      57.820126    
    429000   0.98107738     18.669932      57.965525    
    430000   0.99251022     18.469346      57.757709    
    431000   0.98408486     18.033458      57.763618    
    432000   1.0038356      18.423548      57.831031    
    433000   1.0222592      18.249205      57.707646    
    434000   1.014114       18.305375      57.596352    
    435000   1.0343529      17.899188      57.31176     
    436000   1.0265508      18.280385      57.005535    
    437000   1.0190194      17.856987      56.709929    
    438000   0.96890739     18.070229      56.648682    
    439000   1.0341711      17.813737      56.38589     
    440000   0.99508036     18.115371      56.195079    
    441000   0.97911296     18.6075        56.086616    
    442000   1.0316336      18.392037      55.622438    
    443000   1.0162504      18.097422      55.317548    
    444000   1.0036413      18.501083      55.066156    
    445000   0.9424379      18.055322      55.110804    
    446000   1.0308166      18.140696      55.040781    
    447000   0.97853929     18.485656      54.915618    
    448000   1.0201045      18.063511      54.654444    
    449000   1.0925647      18.64207       54.479359    
    450000   1.0163139      18.445792      54.359873    
    451000   0.98710495     18.226154      54.288853    
    452000   1.0208816      17.808617      53.909059    
    453000   0.97813018     18.063656      53.87122     
    454000   1.0036843      18.373385      53.723659    
    455000   1.0045888      18.093806      53.61009     
    456000   0.96121322     18.126618      53.552314    
    457000   1.0192788      18.448022      53.456965    
    458000   0.96669619     17.899197      53.25906     
    459000   1.0066854      18.083284      53.248421    
    460000   1.0151938      17.952069      52.942027    
    461000   0.97664625     18.190147      53.04207     
    462000   1.0451361      17.728264      53.114897    
    463000   0.98633247     18.017326      52.846541    
    464000   0.96190727     17.930253      52.728365    
    465000   0.97081901     17.795002      52.517439    
    466000   0.96492524     18.418095      52.460989    
    467000   1.0153351      18.473371      52.660568    
    468000   0.99765975     18.613646      52.583835    
    469000   1.0071339      17.873494      52.472623    
    470000   0.98313884     18.399159      52.373468    
    471000   0.95838223     17.980268      52.276833    
    472000   1.0405122      17.979758      52.282198    
    473000   0.98692239     17.776103      52.071129    
    474000   0.97931742     18.408081      51.690968    
    475000   0.99712468     18.041785      51.659194    
    476000   1.0389378      18.758781      51.557985    
    477000   0.99166745     18.335754      51.539742    
    478000   0.99597341     18.44018       51.264647    
    479000   0.99654487     18.13184       51.138695    
    480000   1.0374476      18.010656      50.910364    
    481000   1.0420253      18.22328       50.815071    
    482000   1.0396117      18.180802      50.637464    
    483000   1.0273273      18.167333      50.571361    
    484000   1.0110034      17.916582      50.40159     
    485000   1.0088032      18.198855      50.128516    
    486000   0.95643289     18.076275      49.874543    
    487000   1.0597577      17.974662      49.81368     
    488000   1.009382       17.922754      49.538527    
    489000   0.96536788     17.860088      49.544449    
    490000   0.9721446      17.218012      49.434135    
    491000   1.0091158      17.864917      49.139197    
    492000   1.0362815      17.852172      49.124215    
    493000   0.98734871     18.035938      49.027005    
    494000   1.0490512      18.119368      49.007916    
    495000   0.96754554     18.57879       49.06124     
    496000   0.97925765     17.986449      49.190159    
    497000   0.94993829     17.645891      49.080286    
    498000   1.0498405      17.649855      49.157649    
    499000   1.0664334      18.339572      49.044802    
    500000   1.009467       17.947193      48.783037    
    501000   0.94964969     18.070653      48.670517    
    502000   1.0179669      18.11027       48.554789    
    503000   0.9935193      17.944225      48.322955    
    504000   1.0020361      17.86845       48.012455    
    505000   0.97431149     17.958369      47.831583    
    506000   0.97255265     17.871666      47.869686    
    507000   1.0087939      18.271603      47.586686    
    508000   0.95927617     17.733146      47.590428    
    509000   0.98928179     18.083534      47.31095     
    510000   0.97040645     17.728508      46.919168    
    511000   1.0103701      17.124284      46.945066    
    512000   1.0080636      18.516563      46.766548    
    513000   1.0116571      18.028353      46.857353    
    514000   0.98475764     17.694459      46.629546    
    515000   1.0226822      18.174552      46.545621    
    516000   1.0257991      17.937487      46.60788     
    517000   0.98691571     18.19124       46.870546    
    518000   1.0434512      18.309195      46.903334    
    519000   0.96092432     17.263326      46.784385    
    520000   1.0122144      18.362612      46.777778    
    521000   0.99087562     17.702487      46.843155    
    522000   1.0442394      18.096345      46.875776    
    523000   0.98927155     18.205163      46.822766    
    524000   1.0200061      17.366172      46.823661    
    525000   0.99472572     17.841482      46.688317    
    526000   1.0238952      17.714734      46.631448    
    527000   1.0183567      17.479962      46.615039    
    528000   1.0295415      18.28606       46.364732    
    529000   0.95257804     17.857192      46.176243    
    530000   1.005792       17.555981      45.936278    
    531000   1.0259756      18.099531      45.586542    
    532000   1.0547329      18.431365      45.228926    
    533000   0.9744718      18.164955      44.933718    
    534000   1.0158358      18.654374      44.792665    
    535000   1.0397389      18.610004      44.619508    
    536000   1.0511346      18.352107      44.526087    
    537000   1.0070713      18.053869      44.219296    
    538000   1.0143094      17.908111      44.068653    
    539000   1.0251463      17.815683      43.834336    
    540000   0.98472302     18.089955      43.760172    
    541000   0.98676187     18.133921      43.651732    
    542000   1.0080768      17.984044      43.795182    
    543000   0.97525506     17.63103       43.935732    
    544000   1.0193273      18.114193      43.796538    
    545000   1.0131535      17.897026      43.680795    
    546000   1.0062867      17.48645       43.631502    
    547000   0.98033774     18.016974      43.315134    
    548000   1.0321905      17.697191      43.11264     
    549000   1.0575586      17.88596       42.981834    
    550000   0.99497524     18.164365      42.989509    
    551000   0.98299651     18.096979      42.73288     
    552000   1.0473436      18.080109      42.459066    
    553000   1.0037633      18.406326      42.348276    
    554000   0.99931533     18.113814      42.255085    
    555000   0.9700319      18.307697      42.098509    
    556000   1.0195357      17.355353      41.979749    
    557000   0.94818227     17.88941       41.759211    
    558000   1.0392901      17.695306      41.782376    
    559000   0.9729449      18.508387      41.714259    
    560000   0.99866717     17.540672      41.882663    
    561000   1.0300866      18.282768      41.882732    
    562000   1.0279236      18.479734      41.48875     
    563000   0.99878975     17.52769       41.265749    
    564000   1.0217487      17.789578      41.211227    
    565000   1.0107251      17.3786        41.075135    
    566000   1.0072703      17.475063      40.77848     
    567000   0.99848651     17.645413      40.962002    
    568000   1.0020046      17.823302      40.87726     
    569000   0.99979916     17.906646      40.746121    
    570000   0.98556934     18.029652      40.689       
    571000   1.0174806      18.057388      40.694075    
    572000   0.98016243     17.699064      40.348238    
    573000   1.0288395      18.353866      40.301734    
    574000   1.0187873      17.962526      40.026143    
    575000   0.94723012     18.284407      39.759035    
    576000   0.96660981     17.439401      39.837979    
    577000   1.0347932      18.385866      39.840375    
    578000   1.0067532      17.432028      39.645454    
    579000   0.95962139     17.440034      39.658421    
    580000   1.0005049      17.407646      39.436927    
    581000   0.98029557     17.667408      39.374517    
    582000   1.0009708      18.300283      39.122403    
    583000   1.0188008      17.724857      39.010641    
    584000   0.985655       17.779375      38.879964    
    585000   1.0207038      18.119931      38.988358    
    586000   1.0114627      17.828594      38.934684    
    587000   0.96985538     17.773148      38.799023    
    588000   0.97794223     17.313907      38.734728    
    589000   1.0071429      18.018016      38.723874    
    590000   0.98573409     17.962695      38.54753     
    591000   1.0008449      17.957411      38.369012    
    592000   0.97268593     17.986478      38.250353    
    593000   0.99600909     18.133552      38.271022    
    594000   1.0217749      17.900206      37.848054    
    595000   1.037232       18.062383      37.896225    
    596000   0.98325742     17.677976      37.641515    
    597000   0.99912573     17.709361      37.6868      
    598000   1.0224624      17.405958      37.583469    
    599000   0.97158353     17.752548      37.412823    
    600000   1.0279043      18.062737      37.271113    
    601000   0.98492822     17.995775      37.397616    
    602000   0.96941327     17.07261       37.357869    
    603000   1.0098854      17.829513      37.380433    
    604000   1.0161245      17.425672      37.235731    
    605000   1.0065438      18.474461      37.229792    
    606000   0.98588926     18.16277       37.157279    
    607000   1.0012067      17.60754       37.182815    
    608000   0.96911467     17.822953      37.058787    
    609000   1.0233067      17.980828      36.837651    
    610000   1.0075169      17.795722      36.659042    
    611000   1.0238193      17.526909      36.513169    
    612000   1.0066472      17.623048      36.475193    
    613000   0.96182012     17.684459      36.243681    
    614000   1.0272924      17.540821      36.127401    
    615000   0.97834178     18.504761      36.044505    
    616000   0.98362428     17.813481      35.739395    
    617000   0.98496867     17.795844      35.469124    
    618000   1.0069473      17.314379      35.480329    
    619000   0.99505864     17.77243       35.328066    
    620000   1.0163673      17.606195      35.594534    
    621000   0.9864042      17.338329      35.567957    
    622000   1.0030849      17.520297      35.470027    
    623000   0.99844468     18.190923      35.18174     
    624000   0.98267332     17.859655      35.071123    
    625000   1.0266652      17.883203      35.058962    
    626000   0.96239751     17.517561      34.798101    
    627000   0.99732163     17.515901      34.739313    
    628000   1.0039308      17.591192      34.502067    
    629000   0.99609072     17.412027      34.439982    
    630000   1.0761297      18.356941      34.428342    
    631000   1.001311       18.092139      34.289967    
    632000   1.0089362      17.472145      33.970686    
    633000   1.0040655      18.052243      33.687644    
    634000   0.97856466     17.915499      33.374756    
    635000   1.0218951      17.967188      33.348902    
    636000   1.0302265      18.331772      33.218782    
    637000   1.0208961      17.595146      33.300461    
    638000   1.0033355      17.939752      33.206744    
    639000   1.0416751      17.772581      33.150293    
    640000   0.98151019     17.814703      33.384591    
    641000   1.0009837      17.443617      33.29255     
    642000   1.0108028      17.502584      33.206142    
    643000   0.97902188     17.337328      33.014286    
    644000   0.96911458     17.139738      32.964178    
    645000   1.0278253      17.519076      32.925425    
    646000   1.0099559      17.978305      32.859592    
    647000   1.0076398      17.912714      32.66781     
    648000   1.0142188      17.574555      32.492371    
    649000   0.95521832     17.946267      32.520615    
    650000   0.98150833     17.226505      32.533878    
    651000   0.99474935     18.12917       32.389391    
    652000   0.97268359     17.98886       32.104487    
    653000   0.97845143     17.648167      31.969432    
    654000   1.0199318      17.814334      32.059618    
    655000   1.0062532      17.325698      31.917856    
    656000   0.98661406     17.573512      31.529328    
    657000   0.99378626     17.516958      31.422541    
    658000   0.99621876     17.387961      31.350347    
    659000   0.96611909     17.780704      31.138751    
    660000   0.9313086      17.32199       31.149916    
    661000   1.0131311      17.694646      31.223666    
    662000   1.0231976      17.50084       31.219969    
    663000   0.97933161     17.069792      31.086487    
    664000   0.97899694     17.169526      30.78652     
    665000   1.0032431      17.338017      30.881727    
    666000   0.958158       17.310775      31.04679     
    667000   1.016787       18.209166      31.073118    
    668000   1.0033333      17.595208      30.901866    
    669000   1.02378        17.566006      31.000932    
    670000   1.0375524      18.253995      30.976445    
    671000   1.0441961      17.825805      30.94589     
    672000   0.978699       17.668363      30.699762    
    673000   1.0237909      17.371574      30.548158    
    674000   0.99094483     17.310416      30.304831    
    675000   0.99493889     17.699347      30.229137    
    676000   1.0255193      17.566817      30.304617    
    677000   0.99459996     17.677378      29.992353    
    678000   1.0061757      17.882231      30.054763    
    679000   1.0324541      17.836432      29.729227    
    680000   1.0276722      17.469388      29.428048    
    681000   1.0423578      17.742556      29.38476     
    682000   0.98936644     17.289352      29.368642    
    683000   0.96935106     17.436592      29.25434     
    684000   1.0364513      17.658549      29.308472    
    685000   0.99472197     17.810042      29.238623    
    686000   0.97526782     17.739087      29.141546    
    687000   1.0049834      17.103663      28.964652    
    688000   1.028262       17.762368      28.703964    
    689000   1.0029029      17.705067      28.690295    
    690000   0.99914329     17.868881      28.437837    
    691000   0.95812937     17.816958      28.128413    
    692000   0.91923746     16.993632      27.986753    
    693000   1.032032       17.239058      27.942595    
    694000   0.99248085     17.784838      27.823988    
    695000   0.99182692     17.447454      27.793649    
    696000   0.97877995     17.32673       27.803549    
    697000   0.99786557     17.742204      27.5698      
    698000   0.97905498     17.223065      27.423155    
    699000   0.99381545     17.338136      27.360211    
    700000   0.98275719     17.595528      27.378593    
    701000   1.0230656      17.69946       27.375661    
    702000   1.0204829      17.282243      27.558773    
    703000   0.99092138     17.333111      27.353361    
    704000   0.98985832     17.641409      27.535154    
    705000   1.0181501      17.639419      27.366846    
    706000   1.0606797      17.480761      27.172605    
    707000   1.0331653      17.642398      27.072709    
    708000   0.9846165      17.441979      27.176377    
    709000   1.0000846      18.180566      27.19799     
    710000   1.0035424      16.817346      27.255916    
    711000   1.0152118      17.339033      27.12629     
    712000   1.0468402      18.17075       27.126083    
    713000   0.9956993      17.512572      27.041771    
    714000   1.0183411      17.121924      26.98413     
    715000   0.97534981     17.290447      26.752717    
    716000   0.97910842     17.586004      26.869149    
    717000   1.0024746      17.346018      26.797648    
    718000   0.99354324     17.86752       26.503866    
    719000   1.0092765      17.683218      26.454153    
    720000   0.99683672     17.503894      26.255143    
    721000   1.0096099      17.423105      25.977424    
    722000   1.0076693      17.723698      25.544988    
    723000   1.0091523      17.375882      25.595318    
    724000   1.0190666      17.312327      25.440406    
    725000   1.0474637      17.550646      25.297921    
    726000   1.0682559      17.574593      25.047859    
    727000   1.0264143      17.698146      24.944437    
    728000   0.99243139     17.283992      24.580309    
    729000   1.0154914      17.370833      24.517171    
    730000   1.0454151      17.742998      24.401072    
    731000   0.96698279     16.974661      24.277915    
    732000   0.97387227     17.117233      24.365578    
    733000   0.99279685     17.647856      24.417617    
    734000   0.9733048      17.63851       24.427199    
    735000   0.97152228     16.928819      24.345581    
    736000   0.95268188     17.455341      24.445999    
    737000   0.98842526     18.050326      24.256623    
    738000   0.990439       18.091525      24.128071    
    739000   1.0181466      17.740258      23.899341    
    740000   1.0129448      17.5761        23.809262    
    741000   0.98295967     17.552473      23.517231    
    742000   0.99119868     17.731219      23.524002    
    743000   0.9639522      17.57006       23.523361    
    744000   1.0203674      17.668947      23.352432    
    745000   1.0030331      17.442395      23.208056    
    746000   1.0408709      17.38921       23.109232    
    747000   1.0104816      17.409101      22.937367    
    748000   0.9794074      17.548089      22.564077    
    749000   0.99754618     18.015078      22.242492    
    750000   1.0446776      18.150092      22.017855    
    751000   0.98864845     17.369182      21.824505    
    752000   1.0159576      17.548707      21.901976    
    753000   0.98759554     17.517063      21.853007    
    754000   0.99641305     17.32778       21.777669    
    755000   0.98836923     17.863062      21.558753    
    756000   1.0369545      17.471778      21.268497    
    757000   0.98657839     17.062245      20.848558    
    758000   0.97703965     17.341768      20.954304    
    759000   1.0332407      17.390015      21.045782    
    760000   1.0108926      16.740862      21.037277    
    761000   0.9957726      17.808668      20.936057    
    762000   1.0036023      17.706531      20.613839    
    763000   1.023251       17.105361      20.448868    
    764000   1.0573489      17.307618      20.379884    
    765000   0.97264417     17.700617      20.475551    
    766000   1.0000265      17.4745        20.337642    
    767000   1.0223745      17.548392      20.184491    
    768000   1.0128826      17.654672      20.30525     
    769000   0.99653703     17.350869      20.33014     
    770000   0.9891402      17.135506      20.213076    
    771000   0.99535167     17.910491      20.064331    
    772000   0.97519508     16.998608      20.086901    
    773000   0.96110491     17.57239       19.949368    
    774000   0.97442042     17.075871      19.889604    
    775000   1.0047486      17.402169      19.810174    
    776000   1.0167866      17.211019      19.718432    
    777000   0.96624597     17.563435      19.587686    
    778000   0.98602674     17.335484      19.442824    
    779000   1.0001366      17.618493      19.329368    
    780000   1.0066515      17.41645       18.963595    
    781000   0.96740043     17.006002      18.684209    
    782000   0.95555085     17.932417      18.494364    
    783000   1.015923       17.382328      18.491979    
    784000   0.99445016     17.905502      18.349858    
    785000   1.0363161      17.269372      18.481721    
    786000   0.97518619     17.325058      18.321559    
    787000   1.002515       17.542722      18.228359    
    788000   1.0190597      17.129011      18.359936    
    789000   0.97648569     17.125224      18.426288    
    790000   0.98912078     17.204737      18.104708    
    791000   1.0110657      17.24099       18.121187    
    792000   0.9601943      17.021775      17.996577    
    793000   1.0178158      17.456578      17.975772    
    794000   1.0245548      17.969737      18.017278    
    795000   0.99906217     16.967434      17.985885    
    796000   0.98864156     17.152469      17.940844    
    797000   1.0210834      17.490878      17.800375    
    798000   0.99347827     17.880225      17.717511    
    799000   1.0238799      17.655708      17.841981    
    800000   1.0038297      17.505423      17.744151    
    801000   1.0140083      16.877045      17.890624    
    802000   1.0084494      17.322089      17.798545    
    803000   1.0200056      17.175586      17.66742     
    804000   0.99922249     17.338637      17.77221     
    805000   0.99760179     17.572097      17.767447    
    806000   0.98985398     17.089433      17.554819    
    807000   1.0350134      17.66061       17.346702    
    808000   1.009885       17.120964      17.371929    
    809000   0.9837364      17.295487      17.182384    
    810000   0.96931553     16.869977      16.99069     
    811000   1.0190801      17.423628      16.831789    
    812000   1.0072942      17.105644      16.634463    
    813000   0.9928235      17.370892      16.550385    
    814000   1.0250834      17.344409      16.549235    
    815000   1.0108405      17.13322       16.47918     
    816000   0.92824062     17.507619      16.43304     
    817000   0.98954513     17.41064       16.214032    
    818000   0.99826025     17.242377      16.253228    
    819000   0.97212293     17.057617      16.288219    
    820000   0.99454542     17.349557      16.04496     
    821000   0.97899228     17.229592      15.853858    
    822000   1.0457171      17.294206      15.839448    
    823000   1.0340929      17.319866      15.689604    
    824000   1.0539579      17.603828      15.696027    
    825000   1.0307003      17.423744      15.603518    
    826000   1.0141377      17.481445      15.427843    
    827000   1.0269093      18.08516       15.499861    
    828000   0.9868985      17.35335       15.704396    
    829000   0.95907611     17.227298      15.647716    
    830000   0.97169821     17.007871      15.484028    
    831000   0.96888651     17.406071      15.16156     
    832000   1.0482953      17.742737      15.268071    
    833000   1.0254283      17.194237      15.423559    
    834000   1.0313876      17.472345      15.455816    
    835000   0.9751404      17.353423      15.442646    
    836000   1.0076188      17.860838      15.34025     
    837000   0.98100949     17.136282      15.337342    
    838000   1.0129819      17.629431      15.319335    
    839000   1.0389103      16.834167      15.241673    
    840000   1.0045836      16.872326      15.395105    
    841000   1.0095695      16.741787      15.283079    
    842000   0.99112297     16.591719      15.125142    
    843000   0.98934302     17.687134      14.986915    
    844000   0.98944562     17.033612      14.775627    
    845000   0.96202235     16.914655      14.569111    
    846000   0.99178052     17.406047      14.637555    
    847000   1.0218475      17.040232      14.632747    
    848000   0.98889986     16.922164      14.565086    
    849000   1.0416173      17.735347      14.374472    
    850000   0.98601878     17.551657      14.161911    
    851000   0.95281544     17.381904      14.22478     
    852000   1.0335623      17.495962      14.103843    
    853000   0.96855086     16.783218      14.015981    
    854000   1.0090579      17.183196      13.794891    
    855000   1.0731785      17.179689      13.790705    
    856000   0.98946692     17.241309      13.865977    
    857000   1.0170844      17.161448      13.931037    
    858000   1.0253085      17.30499       13.885688    
    859000   0.88673918     17.076893      13.645912    
    860000   0.97653651     17.260697      13.392673    
    861000   0.98584802     17.007421      13.30618     
    862000   1.0081854      16.954121      13.220847    
    863000   0.97251278     17.649541      13.100408    
    864000   1.0016291      17.171449      13.07428     
    865000   1.0128556      17.579934      13.085669    
    866000   0.99127662     17.525314      13.036261    
    867000   1.0048675      17.135915      12.81526     
    868000   0.99430383     16.526656      12.520343    
    869000   1.0350515      16.781233      12.354662    
    870000   0.97932383     17.010277      12.266944    
    871000   1.0391679      17.450453      12.012481    
    872000   0.9809548      16.412508      11.940159    
    873000   0.98841965     16.88464       11.9276      
    874000   1.0488499      17.372674      11.815274    
    875000   0.98117877     16.94065       11.836538    
    876000   1.00023        17.16346       11.724979    
    877000   1.0213146      16.958241      11.75002     
    878000   0.95621407     16.758462      11.665739    
    879000   0.98802316     16.717233      11.638492    
    880000   1.0051419      17.171643      11.591077    
    881000   1.0387844      16.867686      11.61958     
    882000   0.99739202     17.010911      11.721413    
    883000   0.94360312     16.363064      11.57449     
    884000   1.0126022      16.684925      11.537295    
    885000   1.0057131      16.674679      11.236418    
    886000   1.0246609      16.844275      11.397021    
    887000   0.9948773      17.396515      11.370276    
    888000   0.96537471     17.208185      11.125122    
    889000   1.0341502      17.539994      11.067329    
    890000   0.96010523     17.082439      11.181592    
    891000   0.97427509     17.197005      11.413376    
    892000   1.0033062      16.940079      11.239272    
    893000   1.041959       17.142375      11.334822    
    894000   1.0810027      16.98528       11.200091    
    895000   1.019239       16.749231      10.842278    
    896000   1.0097662      17.278609      10.890396    
    897000   1.0411549      17.107422      10.963405    
    898000   1.032172       16.576054      10.819182    
    899000   1.0018592      16.902942      11.039282    
    900000   0.9868359      16.794431      10.993013    
    901000   0.97883121     17.192546      11.0905      
    902000   1.0160948      17.307229      11.038283    
    903000   0.95787598     16.563518      10.940476    
    904000   0.98814418     17.519379      10.866258    
    905000   1.0297636      16.760301      10.854162    
    906000   1.0020238      16.700578      11.030355    
    907000   0.98878685     17.304056      11.006604    
    908000   0.96450597     17.036106      10.85688     
    909000   1.0175963      17.247616      10.772196    
    910000   0.97875613     17.243975      10.619363    
    911000   1.0130937      17.442791      10.492857    
    912000   1.0146385      17.176595      10.323715    
    913000   1.0328653      17.229502      10.247769    
    914000   0.98816219     17.086051      10.36801     
    915000   0.98311589     17.257037      10.229239    
    916000   0.97901924     16.787096      10.268077    
    917000   1.0708389      17.079227      10.298701    
    918000   0.99644111     16.42404       10.224445    
    919000   0.97394199     16.89627       9.9927851    
    920000   0.98961583     16.602203      9.9677663    
    921000   1.0090884      16.961245      9.9761623    
    922000   1.0232293      16.341638      10.13754     
    923000   1.0296759      17.385613      9.95879      
    924000   0.955124       17.379484      10.006553    
    925000   1.0151825      16.432859      9.8968739    
    926000   0.96569232     17.002378      9.9552438    
    927000   1.0227172      17.216912      9.7902248    
    928000   0.9848386      17.019821      9.7510749    
    929000   0.99389755     16.202049      9.6200782    
    930000   1.0325193      16.851406      9.5986747    
    931000   1.0024196      16.618066      9.564398     
    932000   0.98607876     17.221057      9.4584776    
    933000   0.99141616     17.428914      9.4367548    
    934000   1.0348396      17.540729      9.4449303    
    935000   1.0199953      16.782775      9.266834     
    936000   0.92586806     16.694589      9.3598757    
    937000   0.99470958     16.889668      9.3469857    
    938000   0.99911995     17.278554      9.2913798    
    939000   1.0024303      16.859031      9.2079106    
    940000   1.0279896      17.065716      9.2167813    
    941000   1.0027037      16.965062      9.1436724    
    942000   0.98449627     17.132507      8.9874902    
    943000   1.0132449      16.425937      8.9577695    
    944000   1.0099448      17.259579      8.9622425    
    945000   0.95983255     16.573523      9.1288114    
    946000   0.97347134     16.479963      9.0758106    
    947000   1.0194809      17.684224      8.9891894    
    948000   0.97684493     17.076245      8.8637464    
    949000   0.99598279     17.16842       8.750825     
    950000   1.0532356      17.176309      8.7012341    
    951000   0.96821847     16.067003      8.8077676    
    952000   0.98691786     16.426896      8.6446328    
    953000   1.0194413      16.89243       8.5896803    
    954000   1.0281444      17.29087       8.5005702    
    955000   0.98394272     17.205978      8.3970631    
    956000   0.97571366     17.425914      8.3431675    
    957000   0.98559159     17.153181      8.1416328    
    958000   1.0211873      16.954178      7.9763266    
    959000   1.0119022      17.331838      7.8452045    
    960000   0.99446633     17.015094      7.8823027    
    961000   1.0026467      17.23249       8.0088662    
    962000   1.0008749      17.214814      7.864785     
    963000   1.0086814      17.096859      7.9009265    
    964000   0.96721828     17.471866      7.661268     
    965000   0.997458       17.151654      7.5105086    
    966000   0.99772533     16.507717      7.3802815    
    967000   0.9973151      16.993728      7.3422968    
    968000   1.0059157      17.168311      7.1553831    
    969000   0.96629807     17.200083      7.1230206    
    970000   0.98810349     17.101193      7.0591746    
    971000   1.0207241      17.249142      7.1270106    
    972000   0.97052694     17.102984      7.0583209    
    973000   0.98704345     16.814759      7.1275033    
    974000   0.99165268     17.254021      7.079965     
Fix halt condition for fix-id 3 met on step 975000 with value 6.997142656950935 (src/fix_halt.cpp:237)
    975000   0.95468142     16.626562      6.9971427    
Loop time of 2073.19 on 2 procs for 875000 steps with 1001 atoms

Performance: 364654.996 tau/day, 422.054 timesteps/s
116.8% CPU use with 1 MPI tasks x 2 OpenMP threads

MPI task timing breakdown:
Section |  min time  |  avg time  |  max time  |%varavg| %total
---------------------------------------------------------------
Pair    | 252.85     | 252.85     | 252.85     |   0.0 | 12.20
Bond    | 26.384     | 26.384     | 26.384     |   0.0 |  1.27
Neigh   | 1737.5     | 1737.5     | 1737.5     |   0.0 | 83.81
Comm    | 0.47294    | 0.47294    | 0.47294    |   0.0 |  0.02
Output  | 2.7749     | 2.7749     | 2.7749     |   0.0 |  0.13
Modify  | 48.183     | 48.183     | 48.183     |   0.0 |  2.32
Other   |            | 5.033      |            |       |  0.24

Nlocal:           1001 ave        1001 max        1001 min
Histogram: 1 0 0 0 0 0 0 0 0 0
Nghost:              0 ave           0 max           0 min
Histogram: 1 0 0 0 0 0 0 0 0 0
Neighs:         213907 ave      213907 max      213907 min
Histogram: 1 0 0 0 0 0 0 0 0 0

Total # of neighbors = 213907
Ave neighs/atom = 213.69331
Ave special neighs/atom = 1.998002
Neighbor list builds = 8155
Dangerous builds = 0

# This simulation is done
# Move onto the next one
clear
  using 2 OpenMP thread(s) per MPI task
package omp 0
using multi-threaded neighbor list subroutines
next f
jump SELF

###
# Reference paper:
# K. Kremer and G. S. Grest
# Dynamics of entangled linear polymer melts: A molecular-dynamics simulation
# J Chem Phys 92, 5057 (1990)

##################################
# MIHIR: for branched polymers
# LJ minimum first to expand and explore, then collapse
###

###
# Looping through the various plusshaped polymers to simulate,
# define variables to switch through
variable f index bb51nuc1bl25bn4d30tot100 bb101nuc1bl50bn4d30tot200 bb151nuc1bl75bn4d30tot300 bb201nuc1bl100bn4d30tot400 bb251nuc1bl125bn4d30tot500 bb301nuc1bl150bn4d30tot600 bb351nuc1bl175bn4d30tot700 bb401nuc1bl200bn4d30tot800 bb451nuc1bl225bn4d30tot900 bb501nuc1bl250bn4d30tot1000 bb551nuc1bl275bn4d30tot1100 bb601nuc1bl300bn4d30tot1200
###


###
# Box and units  (use LJ units and periodic boundaries)
###

units lj
log plusshaped/logs3/$f.log
log plusshaped/logs3/bb551nuc1bl275bn4d30tot1100.log
