#atom_style bond #no stiffness
atom_style angle #with stiffness

boundary        p p p
###
# Pair interactions require lists of neighbours to be calculated
###

#neighbor 0.3 bin
neighbor 4 bin

neigh_modify every 1 delay 1 check yes
atom_modify sort 0 0
### Generate RESTART file, SPECIAL format, not a .txt file ###
### Useful if simulation crashes ###

restart 1000000 plusshaped/restarts3/$f.restart
restart 1000000 plusshaped/restarts3/bb551nuc1bl275bn4d30tot1100.restart
#############################



### READ "start" data file ###

read_data plusshaped/$f.dat
read_data plusshaped/bb551nuc1bl275bn4d30tot1100.dat
Reading data file ...
  orthogonal box = (-1000 -1000 -1000) to (1000 1000 1000)
  1 by 1 by 1 MPI processor grid
  reading atoms ...
  1101 atoms
  scanning bonds ...
  3 = max bonds/atom
  scanning angles ...
  6 = max angles/atom
  reading bonds ...
  1100 bonds
  reading angles ...
  1102 angles
Finding 1-2 1-3 1-4 neighbors ...
  special bond factors lj:    0        0        0       
  special bond factors coul:  0        0        0       
     4 = max # of 1-2 neighbors
     4 = max # of 1-3 neighbors
     8 = max # of 1-4 neighbors
    12 = max # of special neighbors
  special bonds CPU = 0.002 seconds
  read_data CPU = 0.155 seconds

######################

### READ "REstart" data file ###

######################



###
# Define groups (atom type 1 is group 'all')
###
group all type 1
1101 atoms in group all


###
# Dump configs - "simple dumpings"
###

###
# Dump configs + box coords
###

dump   1   all   custom   1000  plusshaped/trjs3/$f.lammpstrj  id  x y z  ix iy iz
dump   1   all   custom   1000  plusshaped/trjs3/bb551nuc1bl275bn4d30tot1100.lammpstrj  id  x y z  ix iy iz
dump_modify   1   format line "%d %.5f %.5f %.5f %d %d %d"

########################################################################


###################################################################
# Stiffness term
#
# E = K * (1+cos(theta)), K>0
#
angle_style   cosine
#change this coefficient to change stiffness (e.g. 1,5,10)
angle_coeff   1 1.0
###################################################################

###################################################################
# Pair interaction between non-bonded atoms
#
#  Lennard-Jones 12-6 potential with cutoff:
#  potential E=4epsilon[ (sigma/r)^12 - (sigma/r)^6]  for r<r_cut
#
#  1.12246 = 2^(1/6) is the minimum of the potential


pair_style      lj/cut 1.12246152962189
#pair_style      lj/cut 3

#
#  pair_modify shift yes adds a constant to the potential such

#  that E(r_cut)=0. Forces remains unchanged.
#

pair_modify     shift yes

#
#  pair_coeff for lj/cut, specify 4:
#    * atom type interacting with
#    * atom type
#    * epsilon (energy units)
#    * sigma (distance units)
#

pair_coeff      1 1 1.0 1.0
###################################################################

###################################################################
# Pair interaction between non-bonded atoms
#
#  soft potential, for PUSHING apart overlapping atoms
#  potential E=A*(1 + cos(pi*r/r_c))
#
#  1.12246 = 2^(1/6) is the cut-off r_c

#pair_style     soft 1.12246152962189

#
#  pair_coeff for soft, specify 3:
#    * atom type interacting with
#    * atom type
#    * A
#
#

#pair_coeff      1 1 100.0
###################################################################

###################################################################
# Pair interaction between bonded atoms
#
# Fene potential + Lennard Jones 12-6:

#
#  E= - 0.5 K R0^2 ln[ 1- (r/R0)^2]
#     + 4epsilon[ (sigma/r)^12 - (sigma/r)^6] + epsilon
#

bond_style   fene


#
# For style fene, specify:
#   * bond type
#   * K (energy/distance^2)
#   * R0 (distance)
#   * epsilon (energy)  (LJ component)
#   * sigma (distance)  (LJ component)
#


special_bonds fene #<=== I M P O R T A N T (new command)
Finding 1-2 1-3 1-4 neighbors ...
  special bond factors lj:    0        1        1       
  special bond factors coul:  0        1        1       
     4 = max # of 1-2 neighbors
    12 = max # of special neighbors
  special bonds CPU = 0.000 seconds

bond_coeff   1   30   2   1.0   1.0


###################################################

###################################################################
# Pair interaction between bonded atoms
#
# Harmonic potential:
#
#  E= K * (R-R0)^2
#

#bond_style   harmonic

#
# For style harmonic, specify:
#   * bond type
#   * K (energy/distance^2)
#   * R0 (distance)
#

#bond_coeff   1   60.0   1.0
#bond_coeff   2   harmonic 0.1   1.0

###################################################
compute 1 all gyration
variable rog equal c_1
#compute 2 all coord/atom cutoff 1.1

#dump 2 all custom 10000 contact_number.dump id c_2


###
# Set up fixes
###
thermo_style   custom   step  temp enthalpy c_1
fix 1 all nve   ###NVE ensemble

fix 2 all   langevin   1.0 1.0 1.0  158102   ###Langevin integrator Tstart Tstop 1/friction rndseed


##### Sample thermodynamic info  (temperature, energy, pressure, etc.) #####
thermo 1000









############################################################################

###
# set timestep of integrator

timestep 0.01

###
# run integration for a number of steps
###
#run 0
#variable r equal c_1
#if "$r < 63.1" then "quit 1"

# lj potential minimum, cause molecule to explore
run 100000
Generated 0 of 0 mixed pair_coeff terms from geometric mixing rule
Last active /omp style is angle_style cosine/omp
Neighbor list info ...
  update: every = 1 steps, delay = 1 steps, check = yes
  max neighbors/atom: 2000, page size: 100000
  master list distance cutoff = 5.1224615
  ghost atom cutoff = 5.1224615
  binsize = 2.5612308, bins = 781 781 781
  1 neighbor lists, perpetual/occasional/extra = 1 0 0
  (1) pair lj/cut/omp, perpetual
      attributes: half, newton on, omp
      pair build: half/bin/newton/omp
      stencil: half/bin/3d
      bin: standard
WARNING: Communication cutoff 5.12246152962189 is shorter than a bond length based estimate of 5.455. This may lead to errors. (src/comm.cpp:723)
Per MPI rank memory allocation (min/avg/max) = 1862 | 1862 | 1862 Mbytes
   Step          Temp         Enthalpy         c_1      
         0   0              13.163119      144.49757    
      1000   0.98547411     17.61967       144.05203    
      2000   1.0056126      17.658668      143.54543    
      3000   0.98196585     18.075804      142.99053    
      4000   0.97637269     18.039022      142.48959    
      5000   0.98534244     17.995521      141.90643    
      6000   1.0063311      18.570309      141.34257    
      7000   1.0093542      18.050988      141.10393    
      8000   1.0060815      18.531891      140.72064    
      9000   1.0272465      18.792254      140.43086    
     10000   1.0339924      18.47071       140.019      
     11000   1.0039547      18.267501      139.70975    
     12000   0.99838308     18.470003      139.13425    
     13000   0.97841833     18.442669      138.80139    
     14000   0.97774464     18.407019      138.39514    
     15000   0.98291708     18.684892      137.96504    
     16000   0.98167004     18.638229      137.85057    
     17000   1.0086395      18.783136      137.45619    
     18000   1.0761292      18.894948      137.09348    
     19000   1.0110891      18.495484      136.54039    
     20000   1.0057113      18.602625      136.30976    
     21000   0.99106811     18.64528       136.0383     
     22000   1.0278207      19.315594      135.72583    
     23000   1.0246768      19.128839      135.2317     
     24000   0.97509704     19.083848      134.974      
     25000   1.0053685      18.763531      134.57375    
     26000   0.97954888     19.027221      134.06802    
     27000   1.0329306      19.191844      133.67366    
     28000   0.97049436     18.823891      133.25072    
     29000   0.98399599     19.218196      132.70406    
     30000   0.97294095     18.821167      132.6348     
     31000   0.98906928     18.782725      132.38452    
     32000   0.99327309     18.815734      132.29181    
     33000   1.0163146      19.752171      132.19555    
     34000   1.0145712      19.626862      132.03622    
     35000   0.9794115      18.973289      131.68934    
     36000   0.99510929     19.065748      131.46329    
     37000   0.98348633     19.61911       131.2247     
     38000   0.98272474     19.041133      130.95665    
     39000   1.017947       19.320141      130.42159    
     40000   0.96478288     18.847605      130.07319    
     41000   1.0400592      19.188987      129.8898     
     42000   0.98065675     19.064426      129.43954    
     43000   0.98607681     19.108359      129.41583    
     44000   0.99809453     19.419397      129.50839    
     45000   1.0237616      19.626157      129.29175    
     46000   0.99794527     19.548847      129.04386    
     47000   0.99333071     18.991074      128.51632    
     48000   1.0384508      19.602307      128.34871    
     49000   1.01479        19.499775      128.08714    
     50000   0.98720662     19.47457       128.0353     
     51000   1.0368299      19.470967      127.86351    
     52000   1.0246615      19.19605       127.61971    
     53000   1.0502897      19.916832      127.48806    
     54000   0.97617046     19.492841      127.47289    
     55000   0.97933424     19.747422      127.22787    
     56000   0.98238011     19.716082      127.02996    
     57000   1.0139609      19.568594      126.97368    
     58000   0.97664736     19.626235      126.81       
     59000   0.99147255     19.302557      126.63796    
     60000   1.0060855      19.587879      126.45892    
     61000   0.99542038     19.22739       126.1058     
     62000   0.97328148     19.535917      125.94576    
     63000   0.97682987     19.374479      125.75619    
     64000   0.98384483     19.828226      125.83868    
     65000   0.98520316     20.212877      125.52326    
     66000   0.99994099     19.484636      125.4257     
     67000   0.97399282     19.711833      125.46232    
     68000   0.9967477      19.621626      125.37948    
     69000   0.98621226     19.559845      125.10945    
     70000   0.98240347     19.653348      124.99257    
     71000   0.9932906      19.643194      124.99312    
     72000   0.97341392     19.225558      124.6938     
     73000   1.0327398      19.847213      124.46271    
     74000   1.0167574      20.193495      124.33079    
     75000   0.99565614     20.288461      124.05515    
     76000   1.0016719      19.610335      123.82914    
     77000   0.99777736     19.71099       123.88038    
     78000   0.98543173     19.958429      123.83458    
     79000   1.0230616      19.548661      123.74811    
     80000   1.0106581      19.593005      123.49398    
     81000   0.973015       19.595831      123.11693    
     82000   0.99923385     19.844617      122.86662    
     83000   0.99911026     19.569981      122.62504    
     84000   0.98366786     19.36565       122.56647    
     85000   1.0147354      19.824029      122.48993    
     86000   1.0213547      19.810814      122.30561    
     87000   1.0079338      19.870176      122.11688    
     88000   0.99144033     19.184272      122.06066    
     89000   1.0100788      20.338904      121.79209    
     90000   1.0199168      19.742777      121.70621    
     91000   0.9588398      19.651514      121.56651    
     92000   0.9923614      19.98972       121.51818    
     93000   0.98197333     19.765884      121.53918    
     94000   1.0222068      19.891219      121.28088    
     95000   1.0190153      19.96079       121.06464    
     96000   0.9838802      19.339043      120.76715    
     97000   1.0044859      19.849976      120.66024    
     98000   0.96111084     19.469943      120.64621    
     99000   0.94718484     19.754638      120.65343    
    100000   0.99736343     19.610396      120.42248    
Loop time of 568.844 on 2 procs for 100000 steps with 1101 atoms

Performance: 151887.019 tau/day, 175.795 timesteps/s
102.1% CPU use with 1 MPI tasks x 2 OpenMP threads

MPI task timing breakdown:
Section |  min time  |  avg time  |  max time  |%varavg| %total
---------------------------------------------------------------
Pair    | 1.3487     | 1.3487     | 1.3487     |   0.0 |  0.24
Bond    | 2.9144     | 2.9144     | 2.9144     |   0.0 |  0.51
Neigh   | 558.22     | 558.22     | 558.22     |   0.0 | 98.13
Comm    | 0.047081   | 0.047081   | 0.047081   |   0.0 |  0.01
Output  | 0.32356    | 0.32356    | 0.32356    |   0.0 |  0.06
Modify  | 5.511      | 5.511      | 5.511      |   0.0 |  0.97
Other   |            | 0.4786     |            |       |  0.08

Nlocal:           1101 ave        1101 max        1101 min
Histogram: 1 0 0 0 0 0 0 0 0 0
Nghost:              0 ave           0 max           0 min
Histogram: 1 0 0 0 0 0 0 0 0 0
Neighs:           5973 ave        5973 max        5973 min
Histogram: 1 0 0 0 0 0 0 0 0 0

Total # of neighbors = 5973
Ave neighs/atom = 5.4250681
Ave special neighs/atom = 1.9981835
Neighbor list builds = 1110
Dangerous builds = 0

# Replace lj potential, now collapse
pair_style      lj/cut 3

# Cutoff simul when gyration under 5
# Variable created with equal requires v_ + 'name'
fix 3 all halt 1000 v_rog < 7

run 5000000
Generated 0 of 0 mixed pair_coeff terms from geometric mixing rule
Last active /omp style is angle_style cosine/omp
Per MPI rank memory allocation (min/avg/max) = 1862 | 1862 | 1862 Mbytes
   Step          Temp         Enthalpy         c_1      
    100000   0.99736343     19.047863      120.42248    
    101000   0.96647123     19.387795      120.32273    
    102000   1.0043328      19.662811      120.15073    
    103000   0.98911087     19.427257      119.86524    
    104000   1.0437011      19.722462      119.45947    
    105000   1.0403407      19.328746      119.36137    
    106000   1.0101194      19.427218      119.09867    
    107000   0.97746611     18.947996      118.92945    
    108000   0.99059263     19.336493      118.50398    
    109000   0.99059335     18.994933      118.50446    
    110000   1.0125681      19.598574      118.17435    
    111000   0.98695117     19.404987      118.21743    
    112000   0.98374102     18.888383      117.81092    
    113000   0.97443311     19.224105      117.35245    
    114000   1.0016225      19.056445      117.1628     
    115000   1.0027326      19.184119      117.05178    
    116000   0.99636788     19.307168      116.76471    
    117000   0.99904717     19.381057      116.68482    
    118000   0.98165848     19.072862      116.5333     
    119000   1.0181681      19.398569      116.38438    
    120000   1.0084229      19.426737      116.41429    
    121000   1.0247002      20.014332      116.47622    
    122000   1.0083454      18.875942      116.35255    
    123000   0.99682323     19.057045      116.06475    
    124000   1.0362132      19.177575      115.84268    
    125000   0.96638435     19.498346      115.65298    
    126000   0.99846478     19.255911      115.50942    
    127000   1.0015715      19.470212      115.16386    
    128000   0.98448493     19.316075      114.70911    
    129000   0.99429667     18.859604      114.61479    
    130000   1.0448642      19.419491      114.4543     
    131000   1.0249293      18.909725      114.42237    
    132000   1.0167042      19.026942      114.18148    
    133000   1.0057008      18.881793      113.94083    
    134000   1.0019221      19.522728      113.7405     
    135000   0.98602117     18.978957      113.50148    
    136000   1.0177222      18.98266       113.37518    
    137000   0.99157821     19.379296      113.00127    
    138000   0.98789827     19.253908      113.13184    
    139000   0.98914852     19.182888      113.01698    
    140000   0.99249302     19.090385      112.97587    
    141000   0.99064806     18.714338      112.90409    
    142000   1.0269724      19.692651      112.62019    
    143000   1.0256836      19.377379      112.59137    
    144000   1.0014479      19.006821      112.43996    
    145000   0.9573452      18.707725      112.0285     
    146000   0.99453124     19.359178      111.84804    
    147000   0.97002922     18.996229      111.63031    
    148000   0.96465604     19.242587      111.31739    
    149000   1.0157859      19.869312      111.17172    
    150000   1.020155       19.373792      111.18271    
    151000   0.98378551     18.862559      111.05243    
    152000   1.0508075      19.710945      110.64184    
    153000   1.0066437      19.095739      110.41857    
    154000   0.99316142     19.108787      110.30804    
    155000   1.0331979      19.417997      110.22541    
    156000   1.0111206      19.215272      110.25329    
    157000   1.0016242      18.926147      110.01755    
    158000   0.97415265     19.260689      109.93602    
    159000   0.99041076     18.858125      110.00994    
    160000   0.94391227     19.226906      110.07158    
    161000   1.0092476      19.035089      109.84778    
    162000   1.0001778      19.441581      109.63862    
    163000   0.98448823     19.073405      109.3752     
    164000   0.99626915     19.046187      109.32529    
    165000   0.98171358     18.850112      109.23216    
    166000   1.0142819      19.663376      109.06348    
    167000   1.0080151      18.894598      109.15708    
    168000   0.98229551     18.809612      109.06325    
    169000   0.99446362     18.978562      108.95516    
    170000   1.0124063      19.403368      108.78264    
    171000   0.97631609     18.853115      108.32632    
    172000   1.0079018      18.777076      108.17899    
    173000   0.97129813     19.205384      108.23275    
    174000   1.0335397      19.083421      108.12178    
    175000   0.99684975     18.794285      107.94756    
    176000   0.96889519     19.15907       107.69145    
    177000   0.9937257      19.337594      107.56544    
    178000   0.99999507     18.975635      107.32952    
    179000   0.95373929     19.204938      106.94048    
    180000   0.97788233     18.864568      106.71728    
    181000   1.0000249      19.338386      106.51477    
    182000   1.0324577      19.043338      106.42999    
    183000   1.019044       19.318381      106.16745    
    184000   1.0123275      18.963208      105.95742    
    185000   1.0055068      18.887452      105.73088    
    186000   0.98911294     18.730522      105.43618    
    187000   0.98881685     19.097829      105.40848    
    188000   1.0007423      19.568757      105.23839    
    189000   0.96964677     19.249038      104.82243    
    190000   0.99468883     18.69884       104.34802    
    191000   1.0205449      19.099814      104.23684    
    192000   1.0049196      18.893622      104.12933    
    193000   1.017759       19.208049      104.0136     
    194000   0.98009963     19.262349      103.84126    
    195000   0.9997667      19.200879      103.71679    
    196000   0.96133577     18.687647      103.4789     
    197000   0.9888924      18.89625       103.2371     
    198000   1.0239012      18.514358      103.01504    
    199000   1.0109935      19.261042      102.70458    
    200000   1.0018069      18.817566      102.48838    
    201000   0.99410814     18.61088       102.31238    
    202000   0.97343473     19.490445      102.20573    
    203000   0.9914645      19.396536      102.08645    
    204000   0.99718272     19.1407        101.72441    
    205000   1.0091331      19.671528      101.68148    
    206000   1.0301634      18.998993      101.73254    
    207000   0.97266644     18.998737      101.62068    
    208000   0.98826267     18.949531      101.63968    
    209000   0.9987746      19.147812      101.57294    
    210000   0.99220561     18.998068      101.6408     
    211000   0.97415501     19.162736      101.73474    
    212000   0.98375425     19.464064      101.56487    
    213000   1.0097492      19.31716       101.23436    
    214000   1.0110671      18.649579      101.02806    
    215000   0.9338177      18.712675      100.81664    
    216000   0.98433645     19.289471      100.64293    
    217000   1.0015381      18.842933      100.4069     
    218000   0.9900643      18.799339      100.37397    
    219000   1.0134695      18.741924      100.36893    
    220000   1.0127318      18.82705       100.24429    
    221000   1.0061099      18.903407      99.902334    
    222000   1.0106362      19.037293      99.762872    
    223000   1.0067657      19.222553      99.476815    
    224000   1.0109142      19.090636      99.306124    
    225000   1.0034951      19.441978      99.175538    
    226000   1.0020248      18.703602      98.843589    
    227000   0.9490036      18.804869      98.813393    
    228000   1.0066982      18.959367      98.743703    
    229000   1.0042076      18.858852      98.861669    
    230000   1.0365255      19.172741      98.760643    
    231000   1.0221586      19.045301      98.650906    
    232000   1.0101443      18.676775      98.471674    
    233000   1.0328586      18.940529      98.435923    
    234000   0.98790033     18.536725      98.297835    
    235000   0.98081915     18.366167      98.073409    
    236000   1.0071179      18.804886      97.62632     
    237000   1.0066191      18.818465      97.56196     
    238000   0.98957244     18.600426      97.375238    
    239000   0.98034141     18.15714       97.197454    
    240000   0.99745112     19.362312      96.996602    
    241000   1.0134177      18.818256      96.81694     
    242000   1.0010532      18.986375      96.856211    
    243000   0.9537636      19.326633      96.724085    
    244000   1.0105364      18.486727      96.608164    
    245000   1.0237323      19.198881      96.502393    
    246000   1.0078629      18.930495      96.288145    
    247000   0.99192855     18.614067      95.982724    
    248000   0.98301235     19.065438      95.811525    
    249000   1.0108541      19.061191      95.689536    
    250000   0.98937674     18.67531       95.776103    
    251000   0.974672       19.086228      95.6806      
    252000   0.98238665     19.104984      95.415312    
    253000   1.0331649      19.115937      95.272037    
    254000   0.97093283     18.774628      95.060546    
    255000   1.02598        19.102964      95.053943    
    256000   1.0138887      18.895735      95.079495    
    257000   1.0076232      18.951203      94.995686    
    258000   0.99234136     18.672412      95.014138    
    259000   1.0207249      18.903818      94.616313    
    260000   1.0354395      18.996929      94.504934    
    261000   0.99134366     19.040494      94.258807    
    262000   0.98077939     18.649439      93.955053    
    263000   0.9875696      19.114208      93.853617    
    264000   0.9988878      19.149764      93.614645    
    265000   0.9977586      18.487784      93.359883    
    266000   1.0088507      19.523003      93.254479    
    267000   0.98314175     18.858792      93.23413     
    268000   1.0060078      18.779208      92.99313     
    269000   0.99022319     18.442437      92.821695    
    270000   0.99757651     18.41461       92.655448    
    271000   0.94156455     18.717192      92.464441    
    272000   1.0061945      19.181488      92.178926    
    273000   1.0219249      19.091256      92.075364    
    274000   0.99124219     19.179538      91.986334    
    275000   0.99732019     18.572323      91.751871    
    276000   1.0625012      19.0727        91.407476    
    277000   0.99415239     18.584125      91.304207    
    278000   0.96292083     18.658402      91.344825    
    279000   0.97902671     18.402653      91.16458     
    280000   0.96752328     18.395287      90.915757    
    281000   1.0050285      18.481866      90.660306    
    282000   1.0164899      18.685319      90.642137    
    283000   0.9873398      18.306278      90.422655    
    284000   1.058162       18.802601      90.363913    
    285000   1.0025725      18.911389      90.14385     
    286000   0.96888075     18.763465      90.078216    
    287000   0.99950926     18.991525      90.038081    
    288000   0.97034261     18.567952      89.824889    
    289000   1.0060366      18.722122      89.664101    
    290000   1.0170099      18.73305       89.438246    
    291000   0.97021178     18.996378      89.411601    
    292000   0.97278152     18.564198      89.114716    
    293000   0.9788106      18.550216      88.924558    
    294000   1.0319425      19.226213      88.794133    
    295000   1.0130626      19.105717      88.711118    
    296000   0.97566404     18.568593      88.538099    
    297000   0.97441267     19.012371      88.370282    
    298000   1.0035129      18.997774      88.30011     
    299000   1.0664364      18.957342      88.0842      
    300000   1.0027206      19.268513      88.017581    
    301000   1.0162284      18.931014      87.81849     
    302000   1.0040472      18.628306      87.675632    
    303000   0.99102209     18.847934      87.711927    
    304000   0.98593622     18.548509      87.640493    
    305000   1.0010399      19.106566      87.334877    
    306000   1.0211709      18.742667      87.022172    
    307000   0.95535306     18.852628      86.970322    
    308000   0.9700135      18.558116      86.881788    
    309000   1.0043503      18.834394      86.84879     
    310000   1.0271894      19.003657      86.532939    
    311000   1.0056013      19.133279      86.460348    
    312000   0.97896547     18.933997      86.342342    
    313000   0.99448903     18.989963      86.438775    
    314000   0.98187612     18.579618      86.27536     
    315000   1.0120737      18.67833       86.075968    
    316000   1.012095       18.609104      86.100316    
    317000   0.99172591     18.761998      85.955496    
    318000   0.98494674     18.647147      85.903397    
    319000   1.0049216      19.122423      85.653254    
    320000   0.96699329     18.309988      85.562277    
    321000   1.0346266      18.876714      85.596575    
    322000   1.0164333      18.559371      85.616763    
    323000   1.0366738      18.637259      85.803946    
    324000   1.0368918      18.81055       85.67045     
    325000   1.0297392      19.235375      85.534788    
    326000   1.0122148      19.145292      85.303719    
    327000   0.97155429     18.525601      85.276009    
    328000   0.97257973     19.039135      85.152649    
    329000   1.0085089      18.437736      84.837577    
    330000   0.98389837     19.081641      84.801617    
    331000   0.99523784     18.950051      84.72879     
    332000   1.0103787      18.803801      84.553094    
    333000   0.97115816     18.316461      84.296936    
    334000   0.96587748     18.837807      84.057809    
    335000   1.0195076      18.953228      83.796089    
    336000   0.98245566     18.690744      83.477619    
    337000   0.97798252     19.37628       83.227948    
    338000   1.0186211      18.669783      83.203683    
    339000   1.0134554      18.926612      83.094112    
    340000   0.94859705     18.425534      83.031105    
    341000   1.0270775      18.721462      82.928079    
    342000   1.0363309      19.113136      82.982443    
    343000   1.0082482      18.851534      82.815675    
    344000   1.0018333      18.461129      82.796073    
    345000   0.99810433     18.688541      82.485851    
    346000   0.97054617     18.806319      82.285025    
    347000   1.0090384      18.64256       82.262269    
    348000   0.99641753     18.350633      82.293824    
    349000   1.0545808      18.922786      82.270062    
    350000   1.0156474      18.832252      82.050813    
    351000   0.98114808     18.361458      81.835255    
    352000   0.98599877     18.603567      82.03947     
    353000   1.0063196      19.007923      81.688158    
    354000   0.99573956     18.79543       81.582185    
    355000   0.96004251     18.516591      81.350612    
    356000   0.95740869     18.374931      81.431716    
    357000   0.98252231     18.856666      81.440083    
    358000   0.99293403     18.84066       81.316955    
    359000   0.97719075     18.39675       81.544559    
    360000   0.9892915      18.059273      81.399594    
    361000   0.9945344      18.379565      81.46877     
    362000   1.0030602      18.613896      81.483031    
    363000   1.0254674      18.721283      81.446488    
    364000   1.0098306      18.940176      81.322992    
    365000   0.98005838     18.768733      81.190641    
    366000   0.98319993     18.80986       80.932758    
    367000   1.0036374      18.462711      80.739938    
    368000   1.0114099      18.824613      80.495948    
    369000   1.0282537      18.41857       80.427965    
    370000   1.0165292      18.264024      80.427088    
    371000   0.97574645     18.343013      80.432174    
    372000   1.0352981      18.211234      80.031689    
    373000   0.98448095     18.527919      79.812686    
    374000   1.0221029      18.662355      79.56397     
    375000   1.0366459      19.321392      79.39618     
    376000   1.0300607      18.436707      79.402041    
    377000   0.99566347     19.040758      79.337634    
    378000   0.99426913     18.739356      79.433047    
    379000   0.95821122     17.989789      79.394247    
    380000   1.0173055      18.995956      79.2417      
    381000   1.0086818      18.309532      79.245377    
    382000   1.0031386      18.307226      79.077813    
    383000   1.0465156      19.032769      78.832141    
    384000   0.97683737     18.290933      78.545349    
    385000   0.99810197     18.716413      78.33377     
    386000   1.0119735      18.426531      78.075745    
    387000   0.98032863     18.550179      78.005735    
    388000   1.0164865      18.80453       77.915489    
    389000   1.0049417      18.448357      77.832035    
    390000   0.9658186      18.579524      77.826013    
    391000   1.0291667      18.8033        77.700866    
    392000   1.028652       18.146945      77.476591    
    393000   1.0129362      18.464607      77.193575    
    394000   0.994702       18.44543       76.930313    
    395000   1.0182537      18.31588       76.800442    
    396000   0.98701105     18.671528      76.680984    
    397000   0.98952212     18.121294      76.494331    
    398000   1.0437977      19.235266      76.367145    
    399000   1.0120336      18.796476      76.114419    
    400000   1.0101508      18.376845      75.895463    
    401000   1.0296786      19.099351      75.808891    
    402000   1.0054073      18.630823      75.683519    
    403000   1.0131796      18.025447      75.587325    
    404000   1.0109974      18.663375      75.415567    
    405000   0.99063761     18.227853      75.168392    
    406000   1.0340986      18.238875      75.069722    
    407000   1.0276941      19.105221      74.886359    
    408000   1.0205998      18.500868      74.66408     
    409000   0.99251873     18.187936      74.428212    
    410000   1.0287744      18.63089       74.249407    
    411000   0.98886045     18.176508      74.264176    
    412000   0.9813804      18.394397      74.084905    
    413000   0.99519406     18.163754      73.958287    
    414000   1.0008193      18.374998      73.930803    
    415000   1.0668694      18.017396      73.862717    
    416000   0.98921806     18.24445       74.013634    
    417000   1.0071057      18.495749      73.763044    
    418000   0.99621636     18.382704      73.618105    
    419000   1.0104885      18.290814      73.475317    
    420000   1.0324313      18.689197      73.448665    
    421000   1.0245012      18.724811      72.939028    
    422000   0.99277306     18.474292      72.683832    
    423000   0.98983121     18.480367      72.452983    
    424000   1.0066326      18.426486      72.17918     
    425000   1.0172763      18.819935      71.846844    
    426000   1.0045147      18.709461      71.761564    
    427000   1.0085066      18.276533      71.638329    
    428000   0.97066207     18.137112      71.262656    
    429000   1.0369402      18.463353      70.967401    
    430000   1.0286714      18.083656      70.904739    
    431000   1.0396952      18.664503      70.771279    
    432000   1.0245872      18.303724      70.581596    
    433000   0.96432646     18.264101      70.425353    
    434000   0.98317168     18.555745      70.24258     
    435000   0.96160669     18.302922      70.169018    
    436000   1.0280342      18.408605      70.169484    
    437000   1.0404832      18.229995      69.886359    
    438000   1.0542921      18.732653      69.793073    
    439000   0.98130879     18.844684      69.798001    
    440000   1.0157505      18.075229      69.765366    
    441000   0.99314182     18.510733      69.621762    
    442000   1.0137932      18.324904      69.531694    
    443000   0.99982509     18.389417      69.344612    
    444000   0.98224157     18.650386      69.297581    
    445000   1.0054933      18.034243      69.311103    
    446000   1.0122382      17.919823      69.277654    
    447000   0.97240211     18.617318      69.131399    
    448000   1.0090981      18.434212      69.261852    
    449000   0.96280141     18.303243      69.183966    
    450000   1.0258784      17.642001      69.158291    
    451000   0.96566512     18.352244      68.915078    
    452000   1.0097934      17.901493      68.459349    
    453000   0.97253899     18.5765        68.439294    
    454000   1.0094547      17.905937      68.426088    
    455000   1.0119127      18.372375      68.282426    
    456000   1.0399004      18.605528      68.209079    
    457000   1.0188759      18.810329      67.880661    
    458000   0.97062313     18.615493      67.655768    
    459000   1.0220065      18.194236      67.439379    
    460000   1.0040991      18.678876      67.138334    
    461000   1.0282471      18.260682      66.984329    
    462000   1.0101224      18.356679      66.876379    
    463000   0.97633623     18.11826       66.771201    
    464000   0.98659237     18.019192      66.574103    
    465000   1.0285041      18.426563      66.523641    
    466000   1.0036536      18.203697      65.999431    
    467000   1.0084582      18.272007      65.784092    
    468000   0.99526693     18.080331      65.553209    
    469000   1.0279541      18.184827      65.284458    
    470000   1.0007611      17.645238      65.14703     
    471000   0.96996958     17.559339      65.009362    
    472000   1.0232548      18.426655      64.719025    
    473000   1.0340653      18.020224      64.610168    
    474000   0.98594375     18.201608      64.621801    
    475000   0.99955862     17.769671      64.544648    
    476000   0.98199381     18.102987      64.304642    
    477000   1.0022366      18.159573      64.151314    
    478000   0.96858705     18.723942      64.102863    
    479000   0.99566161     18.059756      64.138091    
    480000   1.0498184      18.361316      63.992249    
    481000   1.0362085      18.688754      63.826599    
    482000   0.99764029     18.252657      63.652155    
    483000   0.9761724      18.69573       63.565512    
    484000   1.0464623      18.411313      63.575113    
    485000   0.96086641     18.610486      63.542831    
    486000   0.99727854     17.937824      63.35098     
    487000   1.0058529      18.113364      63.00765     
    488000   0.99301801     18.217584      62.811862    
    489000   1.0022959      18.600913      62.565985    
    490000   1.0068894      18.465434      62.530876    
    491000   1.0263807      18.438181      62.297308    
    492000   0.97954764     17.884706      62.175428    
    493000   1.0029118      18.300264      62.042982    
    494000   0.98021781     18.605276      62.127204    
    495000   1.0041133      17.762481      61.760056    
    496000   0.97484993     18.557005      61.730416    
    497000   1.0461833      18.294223      61.633172    
    498000   1.007087       18.339111      61.414424    
    499000   1.0571064      18.59178       61.403049    
    500000   0.99678767     18.126285      61.038149    
    501000   1.0152982      18.110764      60.885337    
    502000   0.98787168     18.376156      60.929078    
    503000   1.0408232      17.998503      60.688146    
    504000   1.0343809      18.05614       60.492271    
    505000   0.99587009     18.401709      60.378459    
    506000   0.9810459      17.706985      60.054752    
    507000   1.0005683      17.514351      59.607496    
    508000   1.018456       18.238873      59.504443    
    509000   1.0051429      17.89322       59.504819    
    510000   0.97869347     17.590865      59.45396     
    511000   0.96701805     18.134543      59.619833    
    512000   0.9870123      18.166577      59.644423    
    513000   1.0114176      18.358709      59.60366     
    514000   1.0048381      18.160403      59.374318    
    515000   1.0175622      17.779513      59.328257    
    516000   1.0349854      18.414064      59.283189    
    517000   1.0143732      18.223042      59.143127    
    518000   1.0113584      18.204933      59.023858    
    519000   0.99725773     18.020106      59.133318    
    520000   1.0218086      18.412341      59.084265    
    521000   0.98584744     17.920078      59.101615    
    522000   0.98136642     17.967426      59.034416    
    523000   1.0249606      17.769599      58.93971     
    524000   0.96637959     17.875841      58.740738    
    525000   1.01425        18.469705      58.783627    
    526000   1.0158154      18.125891      58.687806    
    527000   0.99391978     18.323249      58.54014     
    528000   1.0186224      17.872381      58.589631    
    529000   0.96995518     17.856078      58.505868    
    530000   0.98550159     18.056363      58.306085    
    531000   1.0076264      17.984195      58.19841     
    532000   1.031945       18.545794      57.993687    
    533000   1.0058439      17.913607      57.790148    
    534000   0.95745444     18.055847      57.613828    
    535000   1.0096999      17.961143      57.640977    
    536000   0.94691711     18.259168      57.611637    
    537000   1.0719903      18.071409      57.53068     
    538000   1.0011869      17.630683      57.441131    
    539000   1.0061704      18.245691      57.34502     
    540000   1.0308879      18.025582      56.970665    
    541000   0.96271311     18.322959      56.969275    
    542000   0.98269624     18.482827      56.804064    
    543000   0.97219897     17.553457      56.751724    
    544000   1.0309773      18.566304      56.555177    
    545000   0.99665864     18.248453      56.304246    
    546000   1.0113886      18.162007      56.2695      
    547000   1.0564016      18.396248      56.297353    
    548000   0.99696531     18.111765      56.212312    
    549000   1.0179187      18.123179      55.913472    
    550000   1.0218801      17.561039      55.569206    
    551000   0.96904575     17.429945      55.59837     
    552000   1.0128115      17.923385      55.567592    
    553000   0.98246846     18.088081      55.363334    
    554000   1.0533385      18.449474      55.25568     
    555000   0.96262526     18.32629       55.186561    
    556000   0.97903893     18.54562       55.046438    
    557000   1.0034423      18.416976      54.913768    
    558000   1.018005       18.46335       54.673351    
    559000   0.97343448     18.188069      54.490333    
    560000   1.0405172      18.511414      54.332215    
    561000   0.99765217     18.627804      54.127649    
    562000   1.022129       18.426653      53.937479    
    563000   0.98633954     17.674157      53.903717    
    564000   1.0030828      18.259136      53.748496    
    565000   0.99008023     17.886501      53.465027    
    566000   1.0380709      18.258743      53.266146    
    567000   1.0153014      18.043428      53.146435    
    568000   0.99787499     17.951696      52.936216    
    569000   1.0013996      18.075037      52.896163    
    570000   0.98004099     18.06137       52.770005    
    571000   0.99985949     17.899799      52.701608    
    572000   0.98471618     17.311105      52.400977    
    573000   1.047625       17.977738      52.163517    
    574000   1.0069304      18.174112      52.118343    
    575000   1.0100372      17.967011      51.736637    
    576000   1.0049265      18.229211      51.60838     
    577000   1.0100339      18.477865      51.619972    
    578000   1.0093159      18.060541      51.41825     
    579000   0.99508631     18.147504      51.22429     
    580000   0.97355629     18.154601      51.060927    
    581000   0.99734052     18.138588      51.037205    
    582000   1.0324797      18.256116      51.221801    
    583000   1.0367978      18.515665      51.123144    
    584000   0.98866076     17.618304      51.051475    
    585000   1.0250527      18.020065      51.043672    
    586000   1.0228787      17.315994      51.025511    
    587000   0.97453771     18.159717      51.0678      
    588000   1.0339507      18.273265      50.805936    
    589000   0.99780708     18.295214      50.656089    
    590000   1.0314378      18.559052      50.541727    
    591000   1.0744304      18.465534      50.581326    
    592000   0.97154014     17.971622      50.46766     
    593000   0.97551506     17.787334      50.178253    
    594000   0.98919408     17.991927      50.02027     
    595000   0.98806593     17.731526      49.755212    
    596000   0.96934187     17.401809      49.685725    
    597000   1.0036134      17.664562      49.474671    
    598000   0.967782       17.543559      49.245306    
    599000   0.97334797     18.055998      49.029854    
    600000   1.0398569      18.292717      48.984136    
    601000   1.0077413      18.25048       49.021478    
    602000   1.0025282      17.561081      48.941239    
    603000   1.0606071      18.260438      48.93474     
    604000   1.0034729      17.903511      48.73645     
    605000   0.98680895     17.74824       48.469669    
    606000   0.99450351     17.889054      48.580085    
    607000   1.021133       18.045095      48.564584    
    608000   1.000664       18.039604      48.285872    
    609000   1.0554789      17.589804      48.083629    
    610000   0.98556172     18.017104      47.847355    
    611000   1.014383       18.393667      47.89663     
    612000   0.96917326     17.582222      47.96435     
    613000   0.99568385     17.80126       47.888679    
    614000   1.0191409      18.379363      47.899058    
    615000   0.99701691     17.863483      47.930113    
    616000   1.0006709      18.290319      47.856368    
    617000   1.0170527      18.265023      47.482754    
    618000   0.99075789     18.037896      47.414268    
    619000   1.0225807      18.332209      47.237832    
    620000   1.0587474      18.303122      47.16751     
    621000   0.98477721     18.118521      47.195847    
    622000   0.97217159     18.034773      47.022732    
    623000   0.98607404     18.225065      46.889692    
    624000   1.0418403      17.940329      46.803051    
    625000   0.95842864     17.814006      46.647947    
    626000   0.99416213     17.879778      46.435405    
    627000   0.99563463     17.683435      46.381571    
    628000   0.96238859     18.043481      46.252516    
    629000   1.0042683      17.684175      46.075621    
    630000   0.95156354     17.628582      45.827719    
    631000   1.0452732      18.02545       45.64087     
    632000   1.0196953      17.999465      45.558455    
    633000   1.0121745      18.07243       45.356642    
    634000   0.98209983     18.258779      45.282327    
    635000   0.98156406     17.649891      45.096337    
    636000   0.99422146     17.818819      45.060325    
    637000   0.93482049     17.503983      44.958623    
    638000   1.0495668      18.000924      44.77801     
    639000   0.99858656     17.605722      44.70178     
    640000   0.97085734     17.932084      44.583115    
    641000   1.0114333      18.111382      44.538063    
    642000   1.005547       17.13552       44.575484    
    643000   1.0404077      17.612234      44.313797    
    644000   0.99441707     17.398182      44.19968     
    645000   0.99002078     18.02832       44.127638    
    646000   0.97802271     17.955389      44.259708    
    647000   1.0122475      17.850457      44.201306    
    648000   1.0431484      17.989903      43.964072    
    649000   0.96753393     17.931252      43.663493    
    650000   1.009864       18.417259      43.467703    
    651000   1.0080467      17.855757      43.268516    
    652000   0.97775422     18.160433      43.313149    
    653000   1.0145205      17.980571      43.153635    
    654000   0.97428431     18.196968      43.026567    
    655000   1.032575       18.392855      42.92707     
    656000   0.98481594     17.731201      43.016649    
    657000   1.0323807      17.966628      43.031186    
    658000   0.98971192     17.807889      43.004525    
    659000   1.0070893      17.640896      42.765163    
    660000   1.0286829      18.100454      42.834129    
    661000   1.0156706      17.294555      42.739175    
    662000   1.0326086      17.922434      42.633983    
    663000   1.0524435      18.506827      42.398018    
    664000   0.97222652     17.254054      42.515656    
    665000   1.0266679      17.563924      42.739217    
    666000   1.0237266      17.970444      42.629129    
    667000   0.99300317     17.620896      42.41076     
    668000   0.99037542     17.680549      42.236805    
    669000   0.97108793     18.024594      42.08587     
    670000   0.99276652     17.341999      41.939752    
    671000   1.0142325      17.539927      41.703274    
    672000   1.0294737      17.846006      41.615161    
    673000   0.98839744     17.802465      41.529099    
    674000   1.0174945      17.746601      41.681796    
    675000   1.0813197      17.966539      41.657605    
    676000   0.99510717     17.272197      41.676041    
    677000   0.95794267     17.73041       41.642643    
    678000   0.98813166     16.973327      41.148041    
    679000   1.0114935      17.770349      41.125286    
    680000   1.0489933      17.458093      41.052391    
    681000   0.99076087     17.607153      41.020152    
    682000   0.97838221     17.53146       40.912823    
    683000   0.99893837     17.672207      40.549362    
    684000   0.99938721     17.708525      40.591817    
    685000   1.0028676      17.752296      40.518232    
    686000   0.96862739     17.55738       40.45094     
    687000   0.98488714     17.175462      40.357905    
    688000   1.0372041      18.071818      40.181616    
    689000   0.96911576     17.969898      40.057696    
    690000   0.97611874     17.737905      39.922363    
    691000   1.0230393      17.902443      39.764678    
    692000   0.98558739     17.889052      39.641933    
    693000   1.0276607      17.961686      39.480407    
    694000   0.99812711     17.639225      39.296847    
    695000   1.0134112      17.76414       39.398001    
    696000   1.0325064      18.221782      39.408119    
    697000   1.0105857      17.8672        39.245325    
    698000   0.96031403     17.687148      38.96597     
    699000   1.0341332      18.278951      38.840077    
    700000   0.98330313     17.313541      38.785252    
    701000   0.95042619     17.62576       38.509772    
    702000   1.0207884      17.167112      38.333337    
    703000   1.0214907      18.054044      38.148001    
    704000   0.9636442      17.732384      38.002699    
    705000   0.99013709     18.172163      38.144187    
    706000   1.0280995      17.451311      38.101922    
    707000   0.98857127     17.944813      38.048204    
    708000   1.0531252      18.479442      37.859739    
    709000   0.99906706     17.633044      37.56502     
    710000   0.99217474     17.607631      37.695853    
    711000   0.9977664      17.810164      37.409079    
    712000   1.0109122      17.2457        37.373528    
    713000   1.0094565      17.716203      37.151731    
    714000   1.0092695      17.44739       37.198209    
    715000   1.0427603      17.65488       37.048502    
    716000   0.97780598     17.754387      36.918798    
    717000   1.0009579      17.876877      36.78785     
    718000   0.96216052     17.094386      36.684142    
    719000   0.96403831     17.600843      36.471013    
    720000   1.0065713      17.86307       36.456636    
    721000   1.0266265      17.740557      36.13478     
    722000   1.0185647      18.101754      36.039793    
    723000   0.97724153     17.437051      35.838849    
    724000   1.0604813      17.725899      35.814117    
    725000   0.97319713     17.454063      35.566018    
    726000   0.99130917     17.716941      35.504755    
    727000   1.0191432      17.540029      35.47625     
    728000   0.99145211     18.091853      35.422442    
    729000   1.0049074      17.831448      35.26677     
    730000   0.96491243     17.33199       35.214845    
    731000   0.97832242     17.699611      34.888497    
    732000   1.0385719      17.835631      34.930392    
    733000   1.0192589      17.691415      34.688128    
    734000   0.97142362     17.613606      34.590961    
    735000   1.0519645      17.542176      34.504356    
    736000   0.95960376     17.794123      34.330347    
    737000   1.0270793      17.393782      34.017617    
    738000   0.9770752      17.937737      33.70944     
    739000   0.99313461     17.885427      33.68204     
    740000   0.98872698     17.375423      33.438026    
    741000   1.0194602      17.856273      33.438556    
    742000   1.0495482      17.490989      33.142977    
    743000   0.98892338     17.715493      32.921636    
    744000   1.0132946      17.824604      32.893993    
    745000   1.0015158      17.768115      32.724209    
    746000   1.0300315      17.685034      32.549391    
    747000   0.98233439     16.945792      32.370636    
    748000   0.96542216     17.744831      32.103216    
    749000   1.0473967      17.553599      32.137904    
    750000   1.0315879      17.085384      32.314855    
    751000   1.0043999      17.39044       32.115731    
    752000   1.0398352      17.408719      32.138668    
    753000   0.98719762     17.96871       32.02019     
    754000   0.94875001     17.147094      31.839989    
    755000   1.0074886      17.682308      31.821059    
    756000   0.98833548     17.246902      31.663819    
    757000   1.0066181      17.395957      31.60147     
    758000   1.0068812      17.668377      31.663183    
    759000   1.0391101      17.705712      31.640936    
    760000   1.0035046      17.309775      31.386828    
    761000   0.99975811     17.561034      31.287124    
    762000   0.93393626     17.20468       31.066418    
    763000   1.0061734      17.568367      30.981981    
    764000   0.99507599     17.633808      30.96679     
    765000   1.0265196      17.096369      30.992441    
    766000   1.0184305      18.072466      30.909708    
    767000   1.0258248      17.542758      30.72492     
    768000   0.99231375     17.642688      30.783181    
    769000   1.0334987      18.15247       30.817426    
    770000   1.0297725      17.412228      30.783846    
    771000   1.0342268      17.597537      30.590352    
    772000   0.9973831      17.762556      30.261532    
    773000   1.0038499      17.569167      29.907761    
    774000   0.97434632     17.305145      29.801412    
    775000   1.0020251      16.986662      29.671013    
    776000   1.0410561      17.557038      29.480393    
    777000   1.0271379      17.525999      29.403228    
    778000   1.0006478      17.460818      29.309205    
    779000   1.003364       17.442593      29.291903    
    780000   1.0132603      17.668219      29.145089    
    781000   1.0046713      17.503873      28.933461    
    782000   1.0409301      17.519596      28.617324    
    783000   0.99901229     17.58747       28.430837    
    784000   1.003529       17.863055      28.245775    
    785000   1.0161197      17.245521      28.023561    
    786000   0.95645223     17.065747      28.161691    
    787000   1.0067915      17.442261      28.162334    
    788000   1.041814       17.927664      28.068776    
    789000   0.98113635     17.397359      27.974504    
    790000   0.938516       17.4256        27.779819    
    791000   0.9413829      17.528441      27.602743    
    792000   0.99820138     17.586346      27.461942    
    793000   1.0194227      17.446898      27.550594    
    794000   1.0061437      17.427174      27.461329    
    795000   0.98762795     17.774504      27.415641    
    796000   0.98706688     17.217679      27.304302    
    797000   1.0154366      17.843789      27.252801    
    798000   1.016928       17.458165      27.182318    
    799000   0.99993256     17.320361      27.181069    
    800000   1.0383272      17.691109      27.104829    
    801000   1.0283827      17.965189      26.780693    
    802000   1.0304171      17.322037      26.579804    
    803000   1.0045186      17.701612      26.578701    
    804000   1.0176439      17.715462      26.646348    
    805000   1.0160452      17.529881      26.597134    
    806000   0.99563364     18.000641      26.595655    
    807000   0.97765109     17.543383      26.432423    
    808000   0.9776371      17.100683      26.282708    
    809000   0.99831022     17.321636      26.161291    
    810000   1.0355745      17.317921      26.061837    
    811000   1.0108462      17.730641      26.190603    
    812000   0.96913424     16.90888       26.299109    
    813000   1.0233368      17.499836      26.333917    
    814000   1.0265614      17.794961      26.178241    
    815000   0.98592994     17.145813      26.066367    
    816000   0.98651498     17.599304      26.019816    
    817000   0.98076451     17.160255      25.73644     
    818000   0.99275537     17.08499       25.681884    
    819000   0.99433402     17.208723      25.695564    
    820000   1.0313659      18.018168      25.731742    
    821000   0.95715704     17.43911       25.524986    
    822000   1.0210657      16.975709      25.313225    
    823000   0.97998286     17.591374      25.44168     
    824000   1.0374584      17.867551      25.497959    
    825000   0.96086133     17.346671      25.395472    
    826000   1.0168414      17.503124      25.536677    
    827000   0.99938678     17.587904      25.549083    
    828000   0.99966164     17.216634      25.474723    
    829000   1.0781597      17.931933      25.478716    
    830000   0.98903186     17.437931      25.351606    
    831000   0.98828043     17.423805      24.93643     
    832000   1.0125671      17.462882      24.714966    
    833000   1.0099108      17.592856      24.878183    
    834000   0.97248041     17.628271      24.800835    
    835000   1.0008982      17.624658      24.577555    
    836000   1.0274775      16.836915      24.382647    
    837000   1.0204706      17.224767      23.997775    
    838000   1.0235231      17.280598      23.845333    
    839000   0.97338869     17.704699      23.619819    
    840000   0.96812595     17.498729      23.49129     
    841000   1.0122184      17.457663      23.553257    
    842000   1.0308323      17.304172      23.445482    
    843000   1.0748888      17.931318      23.312812    
    844000   1.028347       17.444312      23.109143    
    845000   1.0393102      17.88791       23.087992    
    846000   1.0431499      17.61559       22.908744    
    847000   1.0349883      17.574274      22.96312     
    848000   0.99340757     17.422533      22.988133    
    849000   0.99304516     17.440438      22.860163    
    850000   0.98970279     17.346174      22.69196     
    851000   1.0064383      17.27052       22.465958    
    852000   0.99343309     17.463891      22.485222    
    853000   0.99650947     17.424363      22.443911    
    854000   0.99446175     17.836964      22.193531    
    855000   0.99203815     17.203434      22.097931    
    856000   1.0347779      17.71094       22.007634    
    857000   0.95968714     17.554306      22.04901     
    858000   0.94874148     17.35835       21.911294    
    859000   1.0014132      17.568941      21.864318    
    860000   1.0031009      17.540793      21.843197    
    861000   1.0017696      17.234128      21.789331    
    862000   1.0113446      17.105462      21.7376      
    863000   1.0061815      17.495384      21.604487    
    864000   1.0418991      17.567475      21.318151    
    865000   0.98373872     17.372248      21.055677    
    866000   1.0274832      17.027874      20.928788    
    867000   1.0231564      17.352058      20.855306    
    868000   1.028878       17.303372      20.866586    
    869000   1.0085618      17.44484       20.747283    
    870000   1.0340877      17.328262      20.647672    
    871000   1.0074156      17.265875      20.532636    
    872000   0.96770807     17.370616      20.297018    
    873000   1.0050658      17.354239      20.354888    
    874000   0.97975338     17.249251      20.406975    
    875000   1.0299588      17.513188      20.343411    
    876000   0.99765676     17.037441      20.344656    
    877000   1.0072074      17.741515      20.31448     
    878000   1.0032472      17.679182      20.035596    
    879000   0.99535608     17.337671      19.905044    
    880000   0.99154187     17.630874      19.709932    
    881000   0.98014684     17.086395      19.562168    
    882000   0.98644317     17.562792      19.328748    
    883000   0.97513584     17.275903      19.237851    
    884000   1.0016227      17.990326      19.19012     
    885000   0.99353563     17.260822      19.153259    
    886000   1.0502111      18.043053      18.961756    
    887000   0.9953318      17.683076      18.83892     
    888000   1.0273781      17.547286      18.742203    
    889000   0.98435718     17.025064      18.669449    
    890000   1.0368208      17.055861      18.709353    
    891000   0.97779365     17.270616      18.713695    
    892000   1.0403461      17.080299      18.526829    
    893000   0.99171945     17.753244      18.574834    
    894000   0.95038117     17.275204      18.592214    
    895000   1.0091996      17.419362      18.68273     
    896000   0.99614718     17.483392      18.725289    
    897000   0.99616816     17.636056      18.542941    
    898000   0.94194243     17.135811      18.567825    
    899000   0.95967154     17.018421      18.555934    
    900000   1.0149647      17.084848      18.620544    
    901000   0.94695637     16.839033      18.293783    
    902000   0.99412717     17.211815      18.263754    
    903000   1.0084626      17.458879      18.217757    
    904000   0.9653861      17.58758       18.11705     
    905000   1.0016928      16.846869      17.84657     
    906000   0.9660464      17.229881      17.726385    
    907000   1.0132608      17.661237      17.595403    
    908000   1.0090672      17.173663      17.252235    
    909000   1.0027712      17.68987       17.24944     
    910000   0.97636879     17.043365      17.114995    
    911000   1.0087599      17.618344      16.916752    
    912000   0.99585474     17.059466      16.792998    
    913000   0.98063957     17.264167      16.52163     
    914000   0.99303909     17.15628       16.418933    
    915000   0.97041832     17.005095      16.554863    
    916000   1.0192054      17.30679       16.479255    
    917000   1.0095893      17.325633      16.192483    
    918000   0.98821674     17.169231      16.094406    
    919000   1.0013348      16.915777      16.097746    
    920000   0.94917836     17.319109      15.936394    
    921000   0.9967007      17.330991      15.558217    
    922000   1.0115691      16.999079      15.397532    
    923000   0.99441752     16.670473      15.412758    
    924000   0.99451119     17.235308      14.952187    
    925000   1.0401578      17.609634      14.893194    
    926000   0.97586821     17.203051      14.730504    
    927000   0.97230281     17.195049      14.788139    
    928000   0.95610215     16.687058      14.758664    
    929000   0.98595131     16.862522      14.572916    
    930000   1.0261391      17.277225      14.382737    
    931000   1.0393497      17.232008      14.320807    
    932000   0.97115242     17.753865      14.176129    
    933000   0.98446683     17.20187       14.065175    
    934000   1.001528       17.078164      13.950024    
    935000   0.97147965     16.936129      13.658555    
    936000   0.98244231     17.859891      13.713088    
    937000   1.0495298      17.401491      13.803206    
    938000   1.0120723      16.926555      13.715472    
    939000   1.0002566      16.984282      13.552999    
    940000   1.0034942      17.383757      13.469719    
    941000   0.95630101     16.786965      13.505849    
    942000   0.9928766      17.01879       13.389293    
    943000   0.96678856     17.123419      13.156727    
    944000   1.0558903      17.380465      12.986114    
    945000   1.0172239      17.199421      12.900306    
    946000   0.99738976     16.716894      12.901184    
    947000   0.9738401      16.940188      12.696676    
    948000   0.9862052      16.756935      12.645809    
    949000   0.97687166     16.772522      12.296037    
    950000   0.99713588     16.430837      12.325792    
    951000   1.0110302      16.946328      12.319019    
    952000   1.0267167      17.347581      12.252456    
    953000   1.0181861      16.889552      12.060911    
    954000   0.99025267     16.594013      12.037049    
    955000   0.97304076     17.175341      11.820608    
    956000   0.99565488     17.675129      11.671573    
    957000   0.95712431     16.844184      11.745319    
    958000   1.0381126      17.255334      11.585035    
    959000   0.98259054     16.701909      11.390486    
    960000   1.0324272      17.014233      11.111916    
    961000   0.99705716     17.132388      10.732364    
    962000   1.0601386      17.126928      10.496812    
    963000   0.96954878     16.830055      10.414532    
    964000   1.0278727      17.231438      10.277065    
    965000   0.9997434      17.066535      10.178622    
    966000   0.98739249     17.050958      9.9504871    
    967000   1.0216363      17.112873      10.077775    
    968000   0.99837992     16.437882      9.9223264    
    969000   1.0050533      17.044477      9.8860199    
    970000   0.98770008     16.859366      9.8470255    
    971000   1.0417941      17.390311      9.8972475    
    972000   1.0127003      16.858068      9.9329524    
    973000   0.99651482     16.666407      9.7407922    
    974000   0.97263485     16.189318      9.7805127    
    975000   1.0260049      17.376359      9.8342303    
    976000   1.063549       17.381083      9.6804256    
    977000   1.0340572      16.575522      9.5195921    
    978000   1.0008887      17.159995      9.3071308    
    979000   0.99614077     17.077902      9.2089382    
    980000   0.97767191     17.031918      9.1547161    
    981000   1.0249308      17.495525      9.0947494    
    982000   1.0315627      16.889433      9.0897009    
    983000   1.0011018      16.645552      9.0264784    
    984000   1.0546005      17.08474       9.1146742    
    985000   0.99569155     16.777205      8.9543959    
    986000   0.98915389     17.062267      8.9593429    
    987000   1.0055872      17.529291      8.8358315    
    988000   1.0026885      16.664883      8.7529178    
    989000   1.0029375      17.160899      8.7156486    
    990000   0.97048413     17.14268       8.5426196    
    991000   0.9992441      16.918413      8.258868     
    992000   1.0335828      17.134035      8.1874184    
    993000   1.0184412      17.171891      8.0785914    
    994000   0.99331498     16.328898      7.8227026    
    995000   0.99109084     17.171563      7.8418318    
    996000   1.0224988      16.76027       7.6236241    
    997000   1.0166295      17.00876       7.5347239    
    998000   1.0229912      16.996944      7.3899461    
    999000   1.0110354      17.421029      7.4098183    
   1000000   0.99812643     16.764711      7.397182     
   1001000   1.0372001      16.587062      7.4551167    
   1002000   1.0177886      16.941377      7.4518063    
   1003000   0.99400458     17.186333      7.3064038    
   1004000   0.99123285     16.734529      7.1893354    
   1005000   0.97245013     16.957834      7.0706375    
Fix halt condition for fix-id 3 met on step 1006000 with value 6.951734398297911 (src/fix_halt.cpp:237)
   1006000   1.0086158      17.045685      6.9517344    
Loop time of 2288.91 on 2 procs for 906000 steps with 1101 atoms

Performance: 341989.979 tau/day, 395.822 timesteps/s
119.7% CPU use with 1 MPI tasks x 2 OpenMP threads

MPI task timing breakdown:
Section |  min time  |  avg time  |  max time  |%varavg| %total
---------------------------------------------------------------
Pair    | 328.14     | 328.14     | 328.14     |   0.0 | 14.34
Bond    | 35.074     | 35.074     | 35.074     |   0.0 |  1.53
Neigh   | 1852.1     | 1852.1     | 1852.1     |   0.0 | 80.92
Comm    | 0.59092    | 0.59092    | 0.59092    |   0.0 |  0.03
Output  | 3.3588     | 3.3588     | 3.3588     |   0.0 |  0.15
Modify  | 63.077     | 63.077     | 63.077     |   0.0 |  2.76
Other   |            | 6.588      |            |       |  0.29

Nlocal:           1101 ave        1101 max        1101 min
Histogram: 1 0 0 0 0 0 0 0 0 0
Nghost:              0 ave           0 max           0 min
Histogram: 1 0 0 0 0 0 0 0 0 0
Neighs:         246233 ave      246233 max      246233 min
Histogram: 1 0 0 0 0 0 0 0 0 0

Total # of neighbors = 246233
Ave neighs/atom = 223.64487
Ave special neighs/atom = 1.9981835
Neighbor list builds = 8757
Dangerous builds = 0

# This simulation is done
# Move onto the next one
clear
  using 2 OpenMP thread(s) per MPI task
package omp 0
using multi-threaded neighbor list subroutines
next f
jump SELF

###
# Reference paper:
# K. Kremer and G. S. Grest
# Dynamics of entangled linear polymer melts: A molecular-dynamics simulation
# J Chem Phys 92, 5057 (1990)

##################################
# MIHIR: for branched polymers
# LJ minimum first to expand and explore, then collapse
###

###
# Looping through the various plusshaped polymers to simulate,
# define variables to switch through
variable f index bb51nuc1bl25bn4d30tot100 bb101nuc1bl50bn4d30tot200 bb151nuc1bl75bn4d30tot300 bb201nuc1bl100bn4d30tot400 bb251nuc1bl125bn4d30tot500 bb301nuc1bl150bn4d30tot600 bb351nuc1bl175bn4d30tot700 bb401nuc1bl200bn4d30tot800 bb451nuc1bl225bn4d30tot900 bb501nuc1bl250bn4d30tot1000 bb551nuc1bl275bn4d30tot1100 bb601nuc1bl300bn4d30tot1200
###


###
# Box and units  (use LJ units and periodic boundaries)
###

units lj
log plusshaped/logs3/$f.log
log plusshaped/logs3/bb601nuc1bl300bn4d30tot1200.log
