#atom_style bond #no stiffness
atom_style angle #with stiffness

boundary        p p p
###
# Pair interactions require lists of neighbours to be calculated
###

#neighbor 0.3 bin
neighbor 4 bin

neigh_modify every 1 delay 1 check yes
atom_modify sort 0 0
### Generate RESTART file, SPECIAL format, not a .txt file ###
### Useful if simulation crashes ###

restart 1000000 plusshaped/restarts3/$f.restart
restart 1000000 plusshaped/restarts3/bb601nuc1bl300bn4d30tot1200.restart
#############################



### READ "start" data file ###

read_data plusshaped/$f.dat
read_data plusshaped/bb601nuc1bl300bn4d30tot1200.dat
Reading data file ...
  orthogonal box = (-1000 -1000 -1000) to (1000 1000 1000)
  1 by 1 by 1 MPI processor grid
  reading atoms ...
  1201 atoms
  scanning bonds ...
  3 = max bonds/atom
  scanning angles ...
  6 = max angles/atom
  reading bonds ...
  1200 bonds
  reading angles ...
  1202 angles
Finding 1-2 1-3 1-4 neighbors ...
  special bond factors lj:    0        0        0       
  special bond factors coul:  0        0        0       
     4 = max # of 1-2 neighbors
     4 = max # of 1-3 neighbors
     8 = max # of 1-4 neighbors
    12 = max # of special neighbors
  special bonds CPU = 0.002 seconds
  read_data CPU = 0.204 seconds

######################

### READ "REstart" data file ###

######################



###
# Define groups (atom type 1 is group 'all')
###
group all type 1
1201 atoms in group all


###
# Dump configs - "simple dumpings"
###

###
# Dump configs + box coords
###

dump   1   all   custom   1000  plusshaped/trjs3/$f.lammpstrj  id  x y z  ix iy iz
dump   1   all   custom   1000  plusshaped/trjs3/bb601nuc1bl300bn4d30tot1200.lammpstrj  id  x y z  ix iy iz
dump_modify   1   format line "%d %.5f %.5f %.5f %d %d %d"

########################################################################


###################################################################
# Stiffness term
#
# E = K * (1+cos(theta)), K>0
#
angle_style   cosine
#change this coefficient to change stiffness (e.g. 1,5,10)
angle_coeff   1 1.0
###################################################################

###################################################################
# Pair interaction between non-bonded atoms
#
#  Lennard-Jones 12-6 potential with cutoff:
#  potential E=4epsilon[ (sigma/r)^12 - (sigma/r)^6]  for r<r_cut
#
#  1.12246 = 2^(1/6) is the minimum of the potential


pair_style      lj/cut 1.12246152962189
#pair_style      lj/cut 3

#
#  pair_modify shift yes adds a constant to the potential such

#  that E(r_cut)=0. Forces remains unchanged.
#

pair_modify     shift yes

#
#  pair_coeff for lj/cut, specify 4:
#    * atom type interacting with
#    * atom type
#    * epsilon (energy units)
#    * sigma (distance units)
#

pair_coeff      1 1 1.0 1.0
###################################################################

###################################################################
# Pair interaction between non-bonded atoms
#
#  soft potential, for PUSHING apart overlapping atoms
#  potential E=A*(1 + cos(pi*r/r_c))
#
#  1.12246 = 2^(1/6) is the cut-off r_c

#pair_style     soft 1.12246152962189

#
#  pair_coeff for soft, specify 3:
#    * atom type interacting with
#    * atom type
#    * A
#
#

#pair_coeff      1 1 100.0
###################################################################

###################################################################
# Pair interaction between bonded atoms
#
# Fene potential + Lennard Jones 12-6:

#
#  E= - 0.5 K R0^2 ln[ 1- (r/R0)^2]
#     + 4epsilon[ (sigma/r)^12 - (sigma/r)^6] + epsilon
#

bond_style   fene


#
# For style fene, specify:
#   * bond type
#   * K (energy/distance^2)
#   * R0 (distance)
#   * epsilon (energy)  (LJ component)
#   * sigma (distance)  (LJ component)
#


special_bonds fene #<=== I M P O R T A N T (new command)
Finding 1-2 1-3 1-4 neighbors ...
  special bond factors lj:    0        1        1       
  special bond factors coul:  0        1        1       
     4 = max # of 1-2 neighbors
    12 = max # of special neighbors
  special bonds CPU = 0.000 seconds

bond_coeff   1   30   2   1.0   1.0


###################################################

###################################################################
# Pair interaction between bonded atoms
#
# Harmonic potential:
#
#  E= K * (R-R0)^2
#

#bond_style   harmonic

#
# For style harmonic, specify:
#   * bond type
#   * K (energy/distance^2)
#   * R0 (distance)
#

#bond_coeff   1   60.0   1.0
#bond_coeff   2   harmonic 0.1   1.0

###################################################
compute 1 all gyration
variable rog equal c_1
#compute 2 all coord/atom cutoff 1.1

#dump 2 all custom 10000 contact_number.dump id c_2


###
# Set up fixes
###
thermo_style   custom   step  temp enthalpy c_1
fix 1 all nve   ###NVE ensemble

fix 2 all   langevin   1.0 1.0 1.0  158102   ###Langevin integrator Tstart Tstop 1/friction rndseed


##### Sample thermodynamic info  (temperature, energy, pressure, etc.) #####
thermo 1000









############################################################################

###
# set timestep of integrator

timestep 0.01

###
# run integration for a number of steps
###
#run 0
#variable r equal c_1
#if "$r < 63.1" then "quit 1"

# lj potential minimum, cause molecule to explore
run 100000
Generated 0 of 0 mixed pair_coeff terms from geometric mixing rule
Last active /omp style is angle_style cosine/omp
Neighbor list info ...
  update: every = 1 steps, delay = 1 steps, check = yes
  max neighbors/atom: 2000, page size: 100000
  master list distance cutoff = 5.1224615
  ghost atom cutoff = 5.1224615
  binsize = 2.5612308, bins = 781 781 781
  1 neighbor lists, perpetual/occasional/extra = 1 0 0
  (1) pair lj/cut/omp, perpetual
      attributes: half, newton on, omp
      pair build: half/bin/newton/omp
      stencil: half/bin/3d
      bin: standard
WARNING: Communication cutoff 5.12246152962189 is shorter than a bond length based estimate of 5.455. This may lead to errors. (src/comm.cpp:723)
Per MPI rank memory allocation (min/avg/max) = 1862 | 1862 | 1862 Mbytes
   Step          Temp         Enthalpy         c_1      
         0   0              13.192671      157.58589    
      1000   1.0010327      17.587206      157.16927    
      2000   0.94483809     17.899472      156.61306    
      3000   0.97775947     17.884293      156.27621    
      4000   0.98715993     17.445204      155.74867    
      5000   0.99695438     18.022535      155.29174    
      6000   0.97506649     18.128711      154.70314    
      7000   0.99783173     17.836964      154.48298    
      8000   0.99191294     18.233947      153.96327    
      9000   1.0125558      17.97095       153.58252    
     10000   1.0362143      18.705865      153.21101    
     11000   0.97391631     17.999047      152.73375    
     12000   0.9895021      18.495755      152.31824    
     13000   0.99119526     18.663634      151.98302    
     14000   0.97974648     18.53177       151.82307    
     15000   0.99945821     19.194786      151.39405    
     16000   1.0046159      18.66225       151.05138    
     17000   1.0092653      18.926282      150.73924    
     18000   0.98831861     18.86037       150.61914    
     19000   0.99756768     18.517253      150.45424    
     20000   1.0114297      18.469257      150.04219    
     21000   0.98443295     18.540162      149.54913    
     22000   0.98944909     18.911175      149.12959    
     23000   1.0380964      18.792786      148.65788    
     24000   1.0085974      18.839316      148.23204    
     25000   1.0235626      18.876375      148.08167    
     26000   0.93713108     18.872899      147.95791    
     27000   1.0197233      18.950889      147.65276    
     28000   0.9772237      18.808783      147.21216    
     29000   1.001633       18.613166      147.0368     
     30000   0.96459337     18.886894      146.81103    
     31000   1.0265969      18.987197      146.43328    
     32000   0.93262696     18.615926      146.11393    
     33000   0.97967297     18.803571      145.75471    
     34000   0.99071749     19.37924       145.44828    
     35000   0.97603037     18.900326      145.27444    
     36000   1.0161664      19.050615      144.93257    
     37000   0.99223168     19.122589      144.80996    
     38000   0.96964487     19.141266      144.69858    
     39000   0.97898281     19.160493      144.57956    
     40000   1.0170986      18.684093      144.41336    
     41000   1.0069533      19.138658      144.25424    
     42000   1.0029534      19.426216      144.17923    
     43000   0.97620554     19.001816      143.80184    
     44000   0.98905133     19.002357      143.56518    
     45000   1.0351996      19.195986      143.20987    
     46000   0.98344904     19.491565      142.7972     
     47000   0.98432926     18.871643      142.66745    
     48000   1.0070831      19.353094      142.31521    
     49000   0.99321118     19.274297      142.16034    
     50000   1.0495702      19.302825      142.07662    
     51000   0.99808984     18.917995      141.79057    
     52000   1.033443       19.188044      141.63259    
     53000   1.0445219      19.405754      141.28662    
     54000   1.0589882      19.086475      141.05285    
     55000   1.0212728      19.161759      140.76252    
     56000   0.99051626     19.56209       140.56499    
     57000   1.0049657      19.510907      140.35274    
     58000   0.9899794      19.325677      140.20157    
     59000   1.0106938      19.031854      139.90923    
     60000   1.0193982      19.830561      139.51455    
     61000   1.022373       19.417825      139.21803    
     62000   0.98410254     19.41679       139.13301    
     63000   1.015599       19.409239      139.05908    
     64000   1.026501       19.615339      138.90065    
     65000   1.0039782      19.278922      138.95047    
     66000   1.0111527      19.562491      138.66589    
     67000   0.96332433     19.295881      138.40228    
     68000   0.99943867     19.549713      137.96707    
     69000   1.0317012      19.890614      137.8074     
     70000   0.95740749     19.531663      137.72624    
     71000   0.99434735     19.543872      137.56741    
     72000   0.97502843     19.41523       137.36876    
     73000   1.0234879      19.519114      137.04273    
     74000   1.0088107      19.244882      137.17842    
     75000   1.0060598      19.372709      136.99789    
     76000   0.97537886     19.494067      136.95291    
     77000   0.97839396     19.062143      136.66929    
     78000   1.017513       19.836269      136.53392    
     79000   0.99301898     19.215538      136.42873    
     80000   1.0093176      19.613315      136.39623    
     81000   0.99864045     19.468364      136.21172    
     82000   0.99817919     19.983127      135.96448    
     83000   0.99276781     19.778028      135.78949    
     84000   0.98564183     19.697867      135.40341    
     85000   0.99990657     19.555975      135.31884    
     86000   0.98588456     19.492469      135.21076    
     87000   0.97048642     20.009884      134.89106    
     88000   0.9771003      19.975945      134.80084    
     89000   0.98481157     19.707441      134.53837    
     90000   0.99600443     19.293891      134.33381    
     91000   1.0423456      20.291364      134.01499    
     92000   0.99921809     19.568602      133.77028    
     93000   1.052162       19.988517      133.48198    
     94000   0.98840799     19.626451      133.62125    
     95000   0.99707371     20.086172      133.37042    
     96000   1.0018499      19.417987      133.23991    
     97000   0.96784442     19.821395      133.14899    
     98000   0.98245975     19.408853      133.05569    
     99000   0.9718456      19.298977      132.97316    
    100000   1.0018693      19.577903      132.63093    
Loop time of 672.539 on 2 procs for 100000 steps with 1201 atoms

Performance: 128468.295 tau/day, 148.690 timesteps/s
102.4% CPU use with 1 MPI tasks x 2 OpenMP threads

MPI task timing breakdown:
Section |  min time  |  avg time  |  max time  |%varavg| %total
---------------------------------------------------------------
Pair    | 1.92       | 1.92       | 1.92       |   0.0 |  0.29
Bond    | 4.0267     | 4.0267     | 4.0267     |   0.0 |  0.60
Neigh   | 658.01     | 658.01     | 658.01     |   0.0 | 97.84
Comm    | 0.066255   | 0.066255   | 0.066255   |   0.0 |  0.01
Output  | 0.39366    | 0.39366    | 0.39366    |   0.0 |  0.06
Modify  | 7.4425     | 7.4425     | 7.4425     |   0.0 |  1.11
Other   |            | 0.6833     |            |       |  0.10

Nlocal:           1201 ave        1201 max        1201 min
Histogram: 1 0 0 0 0 0 0 0 0 0
Nghost:              0 ave           0 max           0 min
Histogram: 1 0 0 0 0 0 0 0 0 0
Neighs:           6372 ave        6372 max        6372 min
Histogram: 1 0 0 0 0 0 0 0 0 0

Total # of neighbors = 6372
Ave neighs/atom = 5.3055787
Ave special neighs/atom = 1.9983347
Neighbor list builds = 1104
Dangerous builds = 0

# Replace lj potential, now collapse
pair_style      lj/cut 3

# Cutoff simul when gyration under 5
# Variable created with equal requires v_ + 'name'
fix 3 all halt 1000 v_rog < 7

run 5000000
Generated 0 of 0 mixed pair_coeff terms from geometric mixing rule
Last active /omp style is angle_style cosine/omp
Per MPI rank memory allocation (min/avg/max) = 1862 | 1862 | 1862 Mbytes
   Step          Temp         Enthalpy         c_1      
    100000   1.0018693      19.033341      132.63093    
    101000   1.062183       19.669628      132.20455    
    102000   0.9812315      19.152438      132.07134    
    103000   0.97950178     19.754196      131.8302     
    104000   0.98708794     18.831588      131.5789     
    105000   1.0031364      19.118754      131.29217    
    106000   1.0034974      19.572639      130.91654    
    107000   0.98172354     19.51452       130.73316    
    108000   1.0463768      19.165249      130.60506    
    109000   0.99032802     19.572121      130.15489    
    110000   0.97167494     19.494257      130.09616    
    111000   1.04051        19.079677      129.88414    
    112000   0.97995776     19.238385      129.95608    
    113000   1.011884       19.636497      129.83885    
    114000   0.98067821     18.914732      129.6783     
    115000   1.0026563      19.540949      129.43856    
    116000   1.0343133      19.525937      129.22122    
    117000   0.98766457     19.016277      129.13499    
    118000   1.0142097      19.676798      128.88789    
    119000   1.0030598      19.339081      128.76564    
    120000   1.0061386      18.945766      128.45473    
    121000   0.99911663     18.946751      128.07814    
    122000   0.95694384     19.090745      128.02541    
    123000   0.9686602      19.202952      127.94249    
    124000   1.030977       18.929111      127.73764    
    125000   1.0140409      19.245523      127.6231     
    126000   1.0081484      18.723597      127.58464    
    127000   1.0005622      19.201229      127.71356    
    128000   1.001587       19.033154      127.50974    
    129000   0.98541778     19.077342      127.4026     
    130000   0.9559757      18.839812      127.10644    
    131000   1.0022137      19.166113      127.03279    
    132000   0.98703544     19.009394      127.02004    
    133000   0.98277382     19.095863      126.89837    
    134000   1.0247027      19.192597      126.71545    
    135000   1.0100134      19.516826      126.47215    
    136000   1.0623276      19.285582      126.26075    
    137000   1.0102266      18.809588      126.11543    
    138000   0.99303903     19.020222      125.92014    
    139000   1.0006659      18.902458      125.63583    
    140000   0.96877717     18.972855      125.37206    
    141000   0.99231994     18.900228      125.24886    
    142000   0.98973587     18.725534      125.01403    
    143000   1.0335078      19.047117      124.80989    
    144000   0.98490706     19.017818      124.78738    
    145000   0.9860311      19.442529      124.7829     
    146000   0.98652396     19.412531      124.63642    
    147000   0.98577664     19.554465      124.63463    
    148000   0.9749765      19.617746      124.52713    
    149000   1.0212705      18.847717      124.29878    
    150000   0.98276936     18.913362      124.11215    
    151000   1.0363446      18.92884       123.90274    
    152000   0.97481681     18.668234      123.53231    
    153000   0.94089708     18.415339      123.36683    
    154000   0.97000497     18.823975      123.20892    
    155000   1.0057895      19.389656      123.19853    
    156000   0.97190081     18.474719      123.03289    
    157000   1.0342405      19.358362      122.78522    
    158000   0.99347867     19.10021       122.58625    
    159000   0.98591354     18.576658      122.34932    
    160000   1.0416729      18.987289      122.33713    
    161000   0.99610994     19.199772      122.08314    
    162000   1.0268377      19.086942      121.79903    
    163000   0.98528166     19.605213      121.5512     
    164000   1.0283179      19.269981      121.18359    
    165000   0.96772384     19.090783      121.02986    
    166000   0.97422136     18.924522      120.85525    
    167000   0.94847547     19.04795       120.91308    
    168000   1.0023058      19.302816      120.66398    
    169000   1.0201888      19.543003      120.61906    
    170000   0.99284934     18.981871      120.58523    
    171000   1.0240223      19.190987      120.6183     
    172000   0.9709727      19.083746      120.47935    
    173000   0.9635479      18.914071      120.09836    
    174000   1.0281182      18.733334      119.96105    
    175000   1.0150423      19.424797      119.97573    
    176000   0.98342901     18.809729      119.80897    
    177000   1.026676       19.197409      119.85681    
    178000   1.0121961      19.216085      119.71799    
    179000   1.0123563      19.04678       119.72995    
    180000   1.0239694      19.167772      119.7303     
    181000   0.99770363     19.056244      119.60776    
    182000   0.97018861     19.11865       119.51411    
    183000   1.0413667      18.98126       119.30228    
    184000   0.9983028      19.421164      119.00253    
    185000   1.0170424      18.792474      118.86649    
    186000   0.98546021     18.482798      118.71602    
    187000   0.97808152     18.538444      118.71076    
    188000   1.0187127      18.89969       118.36154    
    189000   1.0305809      19.006851      118.32186    
    190000   0.99971742     18.369866      118.15252    
    191000   0.98659329     18.661393      118.10289    
    192000   0.98831773     18.981975      117.83063    
    193000   1.01019        18.809066      117.72082    
    194000   0.98380251     19.526097      117.57812    
    195000   1.0122882      19.055676      117.49364    
    196000   0.98636621     18.795051      117.11776    
    197000   0.95991302     19.058205      117.06608    
    198000   1.0130012      18.723592      116.73991    
    199000   0.98669208     18.948417      116.59015    
    200000   1.0112461      19.155419      116.19603    
    201000   1.00499        18.777287      116.0016     
    202000   0.97029712     18.999838      115.79617    
    203000   0.99759311     19.01041       115.65947    
    204000   0.9820867      18.867348      115.37968    
    205000   0.99684118     19.019201      114.91027    
    206000   0.98963059     19.181962      114.76748    
    207000   1.0024904      19.058692      114.55393    
    208000   0.99372253     18.607178      114.42642    
    209000   1.0168007      19.196033      114.32821    
    210000   1.0120945      18.949335      114.06725    
    211000   1.0046048      19.188313      113.93838    
    212000   0.99594733     19.142337      113.84621    
    213000   1.0219792      19.275589      113.63043    
    214000   1.0309798      18.897661      113.38289    
    215000   0.96306552     18.465756      113.25007    
    216000   0.97514532     18.779787      113.02609    
    217000   1.0100496      18.472237      112.92939    
    218000   1.0161351      19.395357      112.68881    
    219000   1.0151172      19.399664      112.45117    
    220000   0.99823359     19.358925      112.46302    
    221000   0.99740277     18.861554      112.26599    
    222000   1.0192249      18.766326      112.33993    
    223000   1.027001       19.190829      112.3082     
    224000   1.0047669      19.185256      112.1351     
    225000   1.0345581      19.239613      112.00117    
    226000   1.0117878      19.061478      111.94119    
    227000   0.97229378     18.516428      111.69186    
    228000   1.0180543      18.511844      111.25369    
    229000   1.011726       19.339317      110.71144    
    230000   1.0322725      19.100126      110.7236     
    231000   0.97057921     18.802509      110.6752     
    232000   0.98176243     18.977194      110.60886    
    233000   0.98948217     18.953888      110.35496    
    234000   1.0169119      18.99797       110.14217    
    235000   1.0519687      19.433343      110.02241    
    236000   1.0088762      19.573133      109.90345    
    237000   0.98194795     19.073741      109.74393    
    238000   0.97168774     18.884407      109.60574    
    239000   1.0032214      18.933775      109.66239    
    240000   0.98165052     19.051157      109.29244    
    241000   1.0070313      18.87295       109.32329    
    242000   1.0244135      19.020563      109.0233     
    243000   1.020025       19.611387      108.96388    
    244000   1.038905       18.763324      108.99397    
    245000   1.0246443      18.681561      108.80663    
    246000   1.0008061      18.726825      108.61656    
    247000   1.008634       18.755711      108.4466     
    248000   1.0153637      18.903576      108.23712    
    249000   0.99763125     18.837959      108.15946    
    250000   0.94052209     19.292069      108.31488    
    251000   1.0201743      18.777506      108.39317    
    252000   0.97465186     18.796071      108.38249    
    253000   1.0163087      19.045462      108.26074    
    254000   1.0038796      19.043725      107.95608    
    255000   1.0072561      19.176662      107.7501     
    256000   0.99377577     18.684049      107.47602    
    257000   1.007494       18.95372       107.5608     
    258000   0.99003514     18.95699       107.55097    
    259000   0.97853459     18.967153      107.26799    
    260000   0.97858135     19.007849      107.14896    
    261000   0.96486506     18.852286      106.96275    
    262000   1.012998       18.467218      106.73016    
    263000   1.0346966      18.650937      106.65154    
    264000   1.008732       18.928815      106.6448     
    265000   0.98975797     18.794541      106.49393    
    266000   1.0084816      19.029059      106.38922    
    267000   0.97643623     18.345648      106.17183    
    268000   0.97945898     18.738411      105.88464    
    269000   0.96049393     18.562794      105.93668    
    270000   0.98417675     19.043693      105.65809    
    271000   0.99525508     19.224064      105.36463    
    272000   0.99483199     18.910652      105.03626    
    273000   1.0125942      18.809981      104.92192    
    274000   1.0462723      19.211548      104.89654    
    275000   0.99091328     18.579835      104.598      
    276000   0.99555201     18.999529      104.42122    
    277000   1.0075152      18.26631       104.2117     
    278000   0.97848098     18.719557      104.06597    
    279000   0.99955505     19.372433      104.10226    
    280000   0.98379649     18.55627       104.10042    
    281000   1.014621       18.734591      103.92485    
    282000   1.0008332      19.024411      103.61771    
    283000   0.99267738     18.582828      103.35585    
    284000   1.0055139      18.551897      103.36992    
    285000   1.022049       18.630064      103.39883    
    286000   0.95568981     18.664109      103.18692    
    287000   1.0191826      18.97817       103.16087    
    288000   0.99220454     19.04128       103.1069     
    289000   1.0535702      19.287481      103.0606     
    290000   0.99703932     18.700053      103.01342    
    291000   1.001636       18.713652      102.81656    
    292000   0.96195995     19.535056      102.51474    
    293000   0.97916366     18.58003       102.40708    
    294000   0.99872044     18.841056      102.33428    
    295000   0.96011514     18.975851      102.29744    
    296000   0.99796436     19.377696      102.10889    
    297000   1.0079073      18.729531      102.02373    
    298000   1.0362126      18.646452      102.01895    
    299000   0.99823386     18.736103      101.91374    
    300000   0.99837495     18.47859       101.76492    
    301000   1.042156       18.970099      101.56458    
    302000   0.99044921     18.860072      101.5558     
    303000   1.0232704      19.253797      101.3076     
    304000   1.0145153      19.003927      101.20768    
    305000   0.97064377     19.117549      100.92049    
    306000   1.0163903      18.567662      100.71936    
    307000   1.024216       18.839952      100.54411    
    308000   0.98906098     18.54009       100.53205    
    309000   1.0049603      18.924546      100.3979     
    310000   0.98250471     18.462054      100.27831    
    311000   0.95348734     18.887165      100.15185    
    312000   1.0223965      18.795965      100.07807    
    313000   0.98776583     18.757633      99.948143    
    314000   1.0221831      18.521712      99.689988    
    315000   1.0044148      18.952263      99.626334    
    316000   0.98849505     18.4067        99.45922     
    317000   1.0105873      18.915793      99.263055    
    318000   1.002733       18.668542      99.224306    
    319000   1.0135708      18.492162      99.066875    
    320000   1.0018882      18.563545      98.926576    
    321000   0.96380294     19.059322      98.945303    
    322000   1.0127572      18.754588      99.11342     
    323000   0.99772626     19.158468      98.975398    
    324000   1.026009       18.045806      98.65715     
    325000   1.011019       19.133926      98.511231    
    326000   1.031979       19.102134      98.636343    
    327000   1.0094901      18.818496      98.646787    
    328000   0.97806122     18.911599      98.666635    
    329000   1.017915       19.050357      98.262856    
    330000   0.99704716     19.044577      98.034946    
    331000   0.99497882     18.640305      97.945323    
    332000   0.95323544     18.712093      98.025838    
    333000   1.0005937      18.619871      97.987285    
    334000   1.0018534      18.966854      97.854567    
    335000   0.99640222     18.809464      97.702609    
    336000   1.026552       18.676711      97.557464    
    337000   0.99621257     18.588526      97.337003    
    338000   1.0229227      18.973701      97.015454    
    339000   1.0177533      18.81999       97.100768    
    340000   1.012461       18.749055      96.882119    
    341000   0.99525949     18.645799      96.771361    
    342000   0.98333103     18.594845      96.487747    
    343000   1.0044734      18.571676      96.376787    
    344000   1.0040822      18.935925      96.170105    
    345000   0.98491437     18.780962      96.050838    
    346000   1.0320435      19.212838      96.046594    
    347000   0.99732216     18.838456      95.984112    
    348000   1.0280855      19.1815        95.897414    
    349000   1.0100545      18.625913      95.929366    
    350000   1.0029294      19.12524       95.763671    
    351000   1.0331097      18.69896       95.450948    
    352000   0.97339926     18.808961      95.303926    
    353000   0.99641661     18.948506      95.170607    
    354000   1.0285098      18.923699      95.127078    
    355000   1.0063328      18.914542      94.976799    
    356000   1.0066621      18.97606       94.963872    
    357000   1.0062473      18.83922       95.062365    
    358000   1.0138944      19.156108      94.934418    
    359000   0.97059773     19.06281       94.736711    
    360000   0.99021665     18.536182      94.704789    
    361000   1.0066419      18.641445      94.687456    
    362000   0.97155689     18.484202      94.328451    
    363000   0.96079388     18.636567      94.266586    
    364000   0.97182116     18.579893      94.31376     
    365000   0.98388675     18.500484      94.244098    
    366000   0.97952893     18.239106      93.86063     
    367000   1.0103967      18.420813      93.774225    
    368000   0.9730038      18.492835      93.471331    
    369000   1.0006192      18.605512      93.377283    
    370000   1.01009        18.889904      93.225534    
    371000   0.98207024     18.854052      93.207638    
    372000   1.0437813      18.78037       93.052892    
    373000   0.96521819     18.516527      92.95867     
    374000   0.9937204      18.7606        92.693826    
    375000   0.99042995     18.286786      92.552853    
    376000   0.9850201      18.684219      92.515224    
    377000   0.98956111     19.215643      92.334187    
    378000   1.0030164      18.56823       92.114846    
    379000   1.0025958      18.022235      92.236454    
    380000   0.9623997      18.560346      92.2798      
    381000   1.0648856      18.430375      92.227858    
    382000   0.97932669     18.873888      92.001045    
    383000   0.98521979     18.549677      92.008916    
    384000   1.0278924      18.492526      92.022122    
    385000   0.9941444      19.003067      91.895972    
    386000   1.0168479      18.626225      91.831884    
    387000   1.0166597      18.83397       92.051732    
    388000   0.96337074     18.378235      92.044928    
    389000   1.0145429      18.432221      91.96467     
    390000   1.0480607      18.781053      91.868167    
    391000   0.98027502     18.317163      91.74615     
    392000   0.98551995     19.351837      91.568277    
    393000   0.98381595     18.862966      91.670165    
    394000   0.93485422     18.297947      91.351575    
    395000   1.0314188      18.910891      91.114092    
    396000   1.0054456      18.595952      91.168584    
    397000   1.0052199      18.658303      91.317908    
    398000   1.0176356      18.907085      91.204475    
    399000   1.0205132      19.07505       90.932805    
    400000   1.0244601      18.7202        90.908475    
    401000   1.0012716      18.574874      90.778393    
    402000   0.97775631     18.322344      90.644592    
    403000   1.0216399      18.862682      90.498056    
    404000   0.99863263     18.851996      90.544029    
    405000   0.99484217     18.372397      90.360157    
    406000   0.98595889     18.780919      90.437881    
    407000   1.0154454      18.604131      90.270439    
    408000   1.0162221      19.503796      90.24332     
    409000   1.0392744      18.726891      90.233869    
    410000   0.97611813     18.364804      90.099121    
    411000   1.0075743      18.744643      89.995066    
    412000   0.98638138     18.537372      89.73197     
    413000   1.0227997      18.778613      89.54086     
    414000   0.97247293     18.549454      89.379878    
    415000   0.97676169     18.878215      89.23436     
    416000   1.0262694      18.522671      88.922877    
    417000   1.0310691      18.754252      88.550186    
    418000   1.0065515      18.914958      88.196153    
    419000   0.95384827     18.657068      88.160965    
    420000   1.0176328      19.081978      88.065291    
    421000   1.0422977      19.060135      87.650943    
    422000   1.0035244      18.725057      87.462759    
    423000   0.99044215     18.815273      87.405909    
    424000   1.0068836      18.510635      87.338048    
    425000   0.97230956     18.952817      87.234694    
    426000   1.0522094      18.397659      87.107294    
    427000   1.0393788      18.493388      86.807065    
    428000   1.0000777      18.05071       86.750248    
    429000   1.0201906      18.62494       86.68651     
    430000   1.0240608      18.520666      86.483513    
    431000   0.97732383     18.096642      86.217562    
    432000   0.97294138     18.221027      86.104885    
    433000   0.97116122     18.170962      86.030126    
    434000   1.0039951      18.476482      86.105026    
    435000   0.97487692     18.276132      85.825449    
    436000   1.0019138      18.639904      85.797956    
    437000   0.9775193      18.215469      85.688718    
    438000   0.99594879     17.987423      85.640114    
    439000   1.0132109      18.63384       85.539714    
    440000   0.96830474     18.503133      85.38953     
    441000   0.96820606     18.328749      85.109657    
    442000   0.99545067     18.458515      85.243648    
    443000   0.98302419     18.541958      85.085006    
    444000   1.018064       18.874725      85.167177    
    445000   1.0091382      18.359436      85.025177    
    446000   1.0128072      18.329939      84.974154    
    447000   1.0178903      17.757674      84.861432    
    448000   1.0023558      18.555689      84.588248    
    449000   0.99662706     18.636489      84.656714    
    450000   1.0109659      18.983999      84.320149    
    451000   0.96447072     18.201195      84.226494    
    452000   0.98532957     18.685876      83.960197    
    453000   0.9862941      18.071994      83.961627    
    454000   1.0015523      18.20482       83.925068    
    455000   0.96424451     18.425774      83.820176    
    456000   1.0239735      18.680804      83.775309    
    457000   1.0080811      18.302131      83.752938    
    458000   1.0290301      18.107371      83.705604    
    459000   1.0122684      18.354844      83.536825    
    460000   1.0162205      18.776616      83.371829    
    461000   0.98307062     18.706253      83.404667    
    462000   1.0124308      18.155184      83.377573    
    463000   1.0151691      18.54505       83.358529    
    464000   0.98863554     18.646239      83.437354    
    465000   0.9876062      18.39235       83.425796    
    466000   0.98612627     18.212368      83.354934    
    467000   1.0304338      18.096763      83.10526     
    468000   1.0322671      18.607326      82.965786    
    469000   1.0089911      18.047605      82.92239     
    470000   1.015934       18.506112      82.869818    
    471000   1.0210934      18.107399      82.673731    
    472000   0.99640244     19.220537      82.200082    
    473000   1.0372019      18.276482      81.990666    
    474000   1.0113067      18.246563      81.876709    
    475000   1.0235192      18.262924      81.688611    
    476000   1.0194517      18.652444      81.569812    
    477000   1.0325363      18.505795      81.533558    
    478000   0.96909679     18.32298       81.487252    
    479000   1.0125732      18.143099      81.337646    
    480000   1.0174514      18.517529      81.335841    
    481000   1.0232533      18.250421      81.25489     
    482000   1.0477456      18.501584      81.326537    
    483000   1.0022661      18.636256      80.966057    
    484000   0.99040851     18.228232      80.889153    
    485000   1.0124403      18.187994      80.651224    
    486000   1.0126609      18.004716      80.47512     
    487000   0.96667103     18.400444      80.292715    
    488000   1.0052249      18.313898      80.159977    
    489000   0.98692313     17.971713      79.928673    
    490000   1.0131024      17.905145      79.52871     
    491000   0.96459158     17.979501      79.132038    
    492000   1.0130758      18.717398      79.032783    
    493000   1.0245427      17.844698      78.833708    
    494000   1.0154458      18.48017       78.70975     
    495000   0.94265984     18.220067      78.602551    
    496000   0.99848        18.61065       78.29704     
    497000   1.0004876      18.576958      78.029145    
    498000   1.0119589      18.461531      77.8535      
    499000   0.94643648     18.01057       77.726604    
    500000   1.0134938      18.156272      77.621185    
    501000   0.97504127     17.899049      77.460872    
    502000   1.0056943      18.595495      77.478093    
    503000   1.0123708      18.000215      77.513119    
    504000   0.95535289     18.08731       77.537576    
    505000   1.0051829      18.005293      77.677587    
    506000   0.99231363     18.392952      77.479843    
    507000   1.0571792      18.960856      77.414725    
    508000   1.0428001      18.277002      77.191294    
    509000   0.99051286     18.475387      77.071293    
    510000   0.97921127     18.334344      76.9167      
    511000   0.95663873     18.438262      76.686828    
    512000   0.99940265     18.058515      76.692412    
    513000   0.97485578     18.469805      76.551237    
    514000   1.0087518      18.96613       76.425125    
    515000   1.0014901      18.528864      76.328969    
    516000   1.0171479      18.076085      76.138523    
    517000   1.0001794      18.157684      75.960867    
    518000   1.0104225      18.000079      75.889348    
    519000   0.99317468     18.387088      75.869208    
    520000   0.96648639     18.361475      75.809015    
    521000   1.0244493      18.541214      75.736787    
    522000   0.98427506     18.046454      75.429852    
    523000   0.97393238     18.321885      75.330548    
    524000   1.0058418      18.349861      75.316924    
    525000   1.0000946      18.532999      75.11775     
    526000   1.0307221      18.425935      74.923021    
    527000   0.97487861     18.976204      74.647243    
    528000   0.99126126     18.128145      74.634352    
    529000   0.96864797     18.035141      74.455071    
    530000   0.99701066     18.830592      74.453437    
    531000   0.97455918     18.047483      74.482505    
    532000   0.94968745     18.26278       74.546315    
    533000   0.99207497     18.206187      74.571284    
    534000   0.99004549     17.788053      74.356491    
    535000   0.97003412     17.754165      74.032411    
    536000   0.99649853     18.647129      73.853644    
    537000   1.0130402      18.333487      73.607028    
    538000   1.0022183      18.594036      73.596272    
    539000   1.0194848      18.55167       73.444819    
    540000   1.0398417      18.005873      73.331638    
    541000   0.99415832     17.95211       73.220396    
    542000   1.011805       18.045828      73.179225    
    543000   0.97173118     18.318891      73.109484    
    544000   0.99424645     18.305994      73.136903    
    545000   0.99222906     17.929393      73.226982    
    546000   0.96780233     18.301634      73.062559    
    547000   0.9977949      18.281051      72.776813    
    548000   1.0083824      18.016024      72.724881    
    549000   1.0154269      18.310227      72.573432    
    550000   0.9784581      18.065557      72.314848    
    551000   1.0295532      18.124462      72.191124    
    552000   0.99533316     18.588949      72.231901    
    553000   1.0281033      17.959424      72.201       
    554000   1.0295651      18.430252      71.910719    
    555000   1.0072145      18.088142      72.111758    
    556000   1.0174498      17.817339      72.113946    
    557000   1.0053682      18.828702      72.078053    
    558000   0.98966202     18.122617      71.932276    
    559000   1.0103214      18.112714      71.894467    
    560000   0.97559978     18.159189      71.594675    
    561000   1.0260285      18.440351      71.205584    
    562000   0.98725068     18.321055      71.070502    
    563000   1.0108911      18.069302      71.123276    
    564000   1.03424        17.784917      71.110265    
    565000   1.016515       18.147516      71.115448    
    566000   0.99884461     18.311039      70.899251    
    567000   1.0160374      18.118579      70.903712    
    568000   0.96816406     18.220141      70.955018    
    569000   1.0092574      18.188902      70.943609    
    570000   1.003147       18.761716      70.653788    
    571000   1.0380066      18.218614      70.663149    
    572000   1.004023       18.173859      70.55761     
    573000   0.99189786     17.869409      70.616068    
    574000   0.97282823     18.41893       70.749105    
    575000   1.000541       18.222369      70.794704    
    576000   0.96856478     18.297925      70.760782    
    577000   1.0013301      17.916563      70.621514    
    578000   0.9670839      18.604754      70.717134    
    579000   1.0169117      18.347025      70.587856    
    580000   1.0006116      17.880432      70.354303    
    581000   1.0011317      18.187147      70.216641    
    582000   0.99507625     18.245028      70.037358    
    583000   1.0520572      17.709078      69.922436    
    584000   1.0045516      18.216969      69.831858    
    585000   1.0134891      18.155202      69.784927    
    586000   0.98371422     17.895907      69.728603    
    587000   1.0067696      17.980489      69.961836    
    588000   0.95492767     17.722944      70.017269    
    589000   1.0310999      18.177836      70.082512    
    590000   1.0231102      18.114652      69.852754    
    591000   0.98727821     18.005956      69.846317    
    592000   0.99831978     17.806504      69.589618    
    593000   0.97837052     17.620984      69.279803    
    594000   1.0046756      18.26285       69.046766    
    595000   0.99180367     18.532482      68.967057    
    596000   0.99213545     18.510568      69.075603    
    597000   1.0136067      18.591347      69.128283    
    598000   1.0304629      18.813251      68.841072    
    599000   0.98193476     18.103898      68.739263    
    600000   1.0092582      18.113899      68.707764    
    601000   1.0253879      18.627225      68.573829    
    602000   1.0017796      18.220494      68.211792    
    603000   0.98574401     17.872451      68.150416    
    604000   1.0013031      17.819281      67.978322    
    605000   1.0170768      18.002501      67.751962    
    606000   0.96188834     18.380589      67.646588    
    607000   1.0240664      17.638951      67.555731    
    608000   0.9866563      17.770401      67.498008    
    609000   1.0404567      18.040322      67.31902     
    610000   1.0213589      18.180567      67.355713    
    611000   0.97645724     18.229812      67.268973    
    612000   1.0423331      18.046971      66.953696    
    613000   1.0223188      17.934472      66.943016    
    614000   0.98642804     18.661192      66.868318    
    615000   0.99778491     18.543634      66.944599    
    616000   0.9794147      17.869692      66.915382    
    617000   1.0151618      18.456723      66.918087    
    618000   1.0139252      18.040019      66.928741    
    619000   1.026593       18.347225      66.749557    
    620000   0.98487644     17.364201      66.78271     
    621000   0.99084626     18.061577      66.706294    
    622000   0.9924285      18.068395      66.59371     
    623000   0.96901379     17.975427      66.264831    
    624000   1.0581469      17.98608       65.890784    
    625000   0.98723929     18.392362      65.817202    
    626000   0.99285498     18.2163        65.799886    
    627000   1.0584155      17.741606      65.666336    
    628000   1.0046716      17.781569      65.524922    
    629000   1.0275688      18.419519      65.306074    
    630000   0.98690416     18.076981      65.286394    
    631000   1.016472       17.913374      65.254498    
    632000   1.0172832      18.700667      65.194885    
    633000   0.98264427     17.828944      65.291439    
    634000   1.0224549      17.954888      65.29819     
    635000   0.9797064      18.025274      65.180572    
    636000   0.98983219     17.326896      64.962652    
    637000   1.0037065      18.476662      64.459845    
    638000   1.0001349      18.219065      64.345038    
    639000   1.0232095      18.057305      64.181453    
    640000   0.97585883     17.645086      64.094198    
    641000   0.97754336     18.08544       64.006821    
    642000   1.0492282      18.009842      63.753048    
    643000   1.0049371      18.647768      63.81042     
    644000   1.0005479      18.265416      63.776431    
    645000   1.0030909      18.004407      63.783854    
    646000   1.0264067      17.878567      63.625994    
    647000   1.0055819      17.60514       63.435436    
    648000   0.99161231     18.269757      63.313818    
    649000   1.0396429      18.275274      63.229473    
    650000   1.0040837      17.859963      63.236501    
    651000   1.0154665      17.671301      63.243012    
    652000   1.0127766      18.212651      63.041291    
    653000   0.98238615     18.086931      62.9959      
    654000   1.0193102      17.960884      62.973333    
    655000   0.96683638     17.515018      62.815196    
    656000   0.97831242     17.580283      62.717802    
    657000   0.98221299     18.141112      62.735606    
    658000   1.0256919      18.275088      62.890126    
    659000   0.93084902     17.783811      62.582192    
    660000   0.971193       17.833634      62.727658    
    661000   1.0142747      17.6279        62.440887    
    662000   0.97452007     17.456549      62.366254    
    663000   0.9932568      18.216919      62.480846    
    664000   0.97382039     17.939854      62.215898    
    665000   1.0168252      18.058562      62.222024    
    666000   1.0238651      17.489142      61.853579    
    667000   0.96934242     17.857287      61.716692    
    668000   0.96635769     17.916282      61.607933    
    669000   0.96961663     17.955476      61.717619    
    670000   0.99834955     18.175019      61.515296    
    671000   0.99574948     18.025057      61.596464    
    672000   1.0285568      17.696653      61.628223    
    673000   1.0201855      18.067705      61.470664    
    674000   0.99180382     18.075736      61.55552     
    675000   1.0349377      18.130619      61.212299    
    676000   0.98410452     17.973291      61.135791    
    677000   0.9819492      17.864209      61.15946     
    678000   1.0069355      17.56208       60.948141    
    679000   1.0083745      17.702793      60.802467    
    680000   1.0413391      17.684133      61.051943    
    681000   1.0221557      18.164346      61.082116    
    682000   1.0133983      18.247451      61.07696     
    683000   0.97062448     18.246149      61.063842    
    684000   0.97797455     17.825617      61.025863    
    685000   0.97413948     17.924592      60.753614    
    686000   0.98201199     18.054263      60.601981    
    687000   0.99968083     17.437505      60.639115    
    688000   1.0115346      18.235292      60.612774    
    689000   1.0077649      17.878092      60.633764    
    690000   0.97909634     17.999906      60.590639    
    691000   0.99586026     18.125339      60.688544    
    692000   0.99295077     17.779002      60.652428    
    693000   0.98928221     18.144095      60.367501    
    694000   1.0204303      17.649157      60.15779     
    695000   0.99847313     18.230071      60.052693    
    696000   1.0008239      17.872507      60.139598    
    697000   1.0168261      17.945532      60.09169     
    698000   1.0144512      17.880022      59.813251    
    699000   0.99799974     18.417513      59.716281    
    700000   1.0473327      17.725474      59.524913    
    701000   1.0059984      17.626337      59.363676    
    702000   1.0029347      17.631421      59.221527    
    703000   1.0176713      17.656554      58.967038    
    704000   0.99572399     17.789784      58.733311    
    705000   0.99121596     17.869429      58.661968    
    706000   0.98260061     17.655441      58.492754    
    707000   1.0005957      18.032539      58.207977    
    708000   0.99867655     18.200532      58.272976    
    709000   1.0307055      17.962572      58.009167    
    710000   0.99508447     17.746344      57.989571    
    711000   0.96315893     17.999311      57.77585     
    712000   0.98504954     17.770319      57.704878    
    713000   1.0281061      17.948433      57.567847    
    714000   1.0051939      18.194284      57.362294    
    715000   0.98903175     17.94958       57.544235    
    716000   1.0098915      17.989488      57.391766    
    717000   0.96939176     17.507562      57.243462    
    718000   1.0387999      17.84056       57.107103    
    719000   0.98032743     18.321733      57.01097     
    720000   0.974662       17.221576      57.000505    
    721000   0.92714759     17.938712      56.882804    
    722000   1.016169       18.270488      56.569616    
    723000   0.99801423     17.643381      56.530846    
    724000   0.95303405     17.42104       56.471512    
    725000   0.99669974     18.612335      56.300033    
    726000   0.98197716     17.749525      56.301379    
    727000   1.0264562      17.546202      56.222952    
    728000   1.0211682      18.058451      56.020541    
    729000   0.99012168     18.666231      55.670944    
    730000   0.98868895     17.416233      55.252597    
    731000   1.0243406      18.036331      55.233386    
    732000   0.99158218     17.828995      55.106126    
    733000   1.0013775      18.016021      54.844157    
    734000   1.0064308      18.076207      54.529738    
    735000   1.0518859      18.085818      54.378294    
    736000   0.98669356     17.703223      54.275071    
    737000   1.0234244      18.232393      54.164785    
    738000   0.9784583      18.142947      54.061754    
    739000   0.98275309     17.594434      53.874508    
    740000   1.0042036      18.070413      53.752874    
    741000   0.98443906     17.632097      53.751643    
    742000   1.0354914      18.179711      53.722165    
    743000   1.0166024      18.303887      53.559863    
    744000   1.0160458      17.751271      53.296862    
    745000   1.0293232      18.186514      52.999996    
    746000   1.0301703      17.535784      52.709425    
    747000   1.0307419      18.193829      52.429445    
    748000   1.0044894      17.984305      52.25664     
    749000   0.98313609     17.768366      52.035246    
    750000   0.95341874     18.000304      51.992924    
    751000   1.0594766      17.741686      52.088011    
    752000   1.0014283      17.750634      51.944209    
    753000   0.99570627     17.801817      51.894649    
    754000   1.0279824      17.851142      51.831737    
    755000   0.97541853     17.223975      51.651315    
    756000   1.0052623      18.231005      51.378502    
    757000   1.0085481      17.662933      51.101747    
    758000   1.009693       17.989026      50.952305    
    759000   1.0027367      18.015124      50.767147    
    760000   1.0085705      18.318628      50.631072    
    761000   0.9703428      18.067861      50.437754    
    762000   1.0126888      18.150605      50.366728    
    763000   1.0017603      17.840839      50.072       
    764000   1.0628336      17.374536      50.18268     
    765000   0.98513858     17.906167      49.979982    
    766000   0.98715658     18.246026      49.925541    
    767000   0.98249609     17.666708      50.025647    
    768000   1.019236       17.80583       49.932468    
    769000   1.0023444      17.466737      49.701927    
    770000   0.99201933     17.795206      49.751582    
    771000   0.9923591      17.647745      49.862014    
    772000   1.0011414      17.518747      49.720321    
    773000   0.96758341     18.320413      49.677266    
    774000   1.0694418      18.153432      49.518302    
    775000   0.98147814     17.716209      49.15164     
    776000   1.0013047      17.644266      48.874477    
    777000   0.96984896     17.432373      48.753255    
    778000   1.0215207      18.156569      48.59189     
    779000   1.0244414      18.196016      48.560469    
    780000   1.006021       17.534054      48.349789    
    781000   0.98027101     17.904171      48.203835    
    782000   0.99628908     18.258154      48.174142    
    783000   1.0407096      18.185866      48.07213     
    784000   0.99155206     17.49924       48.024413    
    785000   1.0400319      18.162643      47.839513    
    786000   0.97935519     17.728854      47.829154    
    787000   1.0304683      18.171408      47.518817    
    788000   0.99187654     17.854024      47.306877    
    789000   0.99761521     17.696937      47.063523    
    790000   0.97141574     17.400946      46.964589    
    791000   1.0232241      17.580697      46.822467    
    792000   0.96062234     17.504956      46.796333    
    793000   0.98236704     17.801493      46.759633    
    794000   1.0597216      17.887821      46.955468    
    795000   1.004496       17.679094      46.889328    
    796000   0.97085743     17.663902      46.779628    
    797000   0.97495082     17.654002      46.792438    
    798000   0.99091371     17.548961      46.592978    
    799000   1.0634584      17.920486      46.463532    
    800000   1.0279432      17.526524      46.378322    
    801000   0.95684555     17.92794       46.286565    
    802000   1.0273441      17.370473      46.177405    
    803000   1.0114943      18.113002      45.961222    
    804000   0.98132752     17.557906      45.726539    
    805000   0.99298521     17.572718      45.600082    
    806000   1.0274744      17.196657      45.545725    
    807000   1.0217549      18.401132      45.529218    
    808000   1.020927       17.79036       45.465213    
    809000   1.0127995      17.924549      45.576386    
    810000   0.99204039     17.463128      45.558267    
    811000   1.019656       17.507622      45.640531    
    812000   1.0032851      17.450507      45.595302    
    813000   1.0149342      17.663969      45.354047    
    814000   0.99341379     18.008989      45.283101    
    815000   0.96757527     17.714386      45.183948    
    816000   0.97943552     17.691241      45.006187    
    817000   0.99672647     17.484385      44.90346     
    818000   0.97895117     17.462407      44.819955    
    819000   0.96468125     17.722144      44.56177     
    820000   1.0120773      17.884239      44.701301    
    821000   0.98112759     17.472381      44.661253    
    822000   1.0251703      17.697269      44.510351    
    823000   1.0113399      17.974236      44.516846    
    824000   1.0236492      17.944003      44.219014    
    825000   1.0197214      17.862654      44.130013    
    826000   1.0274797      17.867783      44.237926    
    827000   1.009446       17.496052      44.154043    
    828000   0.97157918     17.800434      43.94205     
    829000   1.0058173      17.6498        43.796751    
    830000   1.0313676      17.542415      43.872053    
    831000   1.0141899      17.609686      43.516918    
    832000   1.0264524      17.738401      43.394001    
    833000   0.99939881     17.271493      43.304495    
    834000   0.97128853     17.415119      43.207769    
    835000   0.98395957     17.408677      42.95477     
    836000   0.98886597     17.77066       42.840454    
    837000   0.9951264      18.033248      42.806646    
    838000   0.94719235     17.418359      42.781693    
    839000   0.99625838     17.802034      42.680857    
    840000   1.0231028      17.357783      42.666795    
    841000   0.97541357     17.629089      42.436653    
    842000   1.0237582      17.695914      42.402296    
    843000   0.99407892     17.717569      42.191161    
    844000   1.0052934      18.060209      42.079503    
    845000   0.97908621     17.700712      41.958326    
    846000   0.9991151      17.548137      41.811633    
    847000   1.0243637      17.605593      41.666231    
    848000   1.0003132      18.242389      41.573508    
    849000   0.99611992     17.936637      41.439337    
    850000   1.0022404      17.805201      41.57096     
    851000   0.99203588     17.861431      41.513593    
    852000   0.97472438     17.47318       41.370971    
    853000   1.0080863      17.438291      41.198016    
    854000   0.9903681      17.556641      41.049625    
    855000   0.9874415      18.065172      41.06332     
    856000   1.0238983      17.859425      40.994841    
    857000   0.99435713     17.10746       41.094026    
    858000   0.98980693     17.197668      41.040644    
    859000   0.98002235     17.409106      41.187535    
    860000   1.0313264      17.316589      41.001241    
    861000   1.0137905      17.113346      41.240795    
    862000   0.95337487     17.890389      41.023891    
    863000   0.9876001      17.618126      41.01714     
    864000   1.0214508      18.068467      40.981555    
    865000   1.0596525      18.078157      40.843532    
    866000   1.0100103      17.25334       40.801785    
    867000   1.0057594      17.791885      40.872253    
    868000   0.99263774     17.676142      40.687238    
    869000   1.0209854      17.970894      40.494112    
    870000   0.9906217      17.778553      40.402259    
    871000   1.0074653      17.586877      40.223934    
    872000   1.0131613      17.878425      40.148599    
    873000   1.036448       17.652426      40.169183    
    874000   1.0621597      17.628272      40.159021    
    875000   1.0095873      17.684485      40.095822    
    876000   0.99632044     18.024959      40.164562    
    877000   0.98253189     17.447031      40.052115    
    878000   0.9649003      17.330347      39.836377    
    879000   1.0147359      17.513847      39.722974    
    880000   1.000762       18.15897       39.530247    
    881000   0.99704763     17.261033      39.42572     
    882000   1.0358101      18.077142      39.231325    
    883000   0.99075271     17.387032      39.242447    
    884000   1.0068678      17.730766      38.930466    
    885000   0.99671046     17.431103      38.82888     
    886000   1.0143697      17.603172      38.545069    
    887000   1.0198209      17.158953      38.500386    
    888000   0.97972667     17.266715      38.412796    
    889000   0.99979806     17.54183       38.428997    
    890000   1.0062971      18.003176      38.234858    
    891000   1.0211746      17.720721      38.348234    
    892000   0.98921814     17.181308      37.9553      
    893000   0.98487173     17.893148      37.824484    
    894000   0.97122298     17.671494      37.695946    
    895000   1.0097352      17.828501      37.631419    
    896000   1.0011786      17.464649      37.508711    
    897000   0.97630526     17.138739      37.31638     
    898000   1.0262774      17.202872      37.221578    
    899000   0.98016282     17.779931      37.119031    
    900000   0.99491095     17.583882      37.091644    
    901000   0.97679504     17.372125      36.866228    
    902000   0.99266786     17.648772      36.64678     
    903000   0.97907928     17.543843      36.491489    
    904000   1.0044579      17.51199       36.293325    
    905000   0.99913735     16.873293      36.425303    
    906000   1.02538        18.012607      36.344421    
    907000   0.99460068     17.647069      36.075522    
    908000   0.99660985     17.532105      36.0401      
    909000   1.0242362      17.705332      35.949689    
    910000   1.0079361      17.178221      35.775573    
    911000   1.0074299      17.619521      35.735285    
    912000   0.97134989     17.324052      35.801369    
    913000   1.0110269      17.615471      35.928391    
    914000   1.0002156      17.688495      36.037676    
    915000   1.0032576      17.152266      35.967243    
    916000   0.99466747     18.142783      35.836611    
    917000   0.96943289     17.486252      35.880373    
    918000   0.97499473     17.354729      35.810043    
    919000   0.99456545     17.945257      35.871635    
    920000   1.0368411      17.385154      35.830076    
    921000   1.0239938      17.086985      35.845626    
    922000   0.98801321     17.825704      35.732893    
    923000   1.0129853      17.810062      35.780824    
    924000   0.94655826     17.71997       35.655299    
    925000   0.98604749     18.199671      35.709513    
    926000   0.99500753     17.455465      35.698378    
    927000   0.98473877     17.510028      35.613376    
    928000   0.96348019     17.429708      35.487677    
    929000   1.0052153      17.13607       35.233737    
    930000   0.95815758     17.511993      35.072768    
    931000   1.0066231      17.795587      35.082692    
    932000   1.0007753      17.42214       35.033855    
    933000   1.001223       17.923188      34.839832    
    934000   0.98693971     16.963706      34.78489     
    935000   0.97812525     18.284804      34.669535    
    936000   1.0328253      17.48993       34.660572    
    937000   1.0298525      17.951225      34.628817    
    938000   1.0378996      17.203789      34.549017    
    939000   0.99832995     17.642302      34.331681    
    940000   0.96905213     18.134355      34.200617    
    941000   1.002051       17.625735      34.105286    
    942000   1.0046755      16.984524      34.15017     
    943000   0.99697611     17.553961      33.994831    
    944000   1.0259589      17.738221      33.855635    
    945000   0.97819232     17.470113      33.60528     
    946000   0.99574328     17.687881      33.511105    
    947000   1.0164007      17.646367      33.436001    
    948000   1.0025223      17.422335      33.345013    
    949000   0.99764004     17.758132      33.338177    
    950000   0.98551471     16.584862      33.28204     
    951000   1.0079907      17.319605      32.881006    
    952000   1.0131022      17.370658      32.857625    
    953000   1.0033292      17.562153      32.736815    
    954000   1.0111551      17.166634      32.768169    
    955000   0.99262892     17.694391      32.440654    
    956000   0.99820754     17.249842      32.384231    
    957000   1.0243841      17.660364      32.178243    
    958000   1.0105624      17.026225      32.018528    
    959000   0.99262001     17.970252      31.863249    
    960000   1.0068746      17.371139      31.727272    
    961000   1.0090171      18.157612      31.584818    
    962000   0.96990509     17.704973      31.386555    
    963000   0.98659612     17.736935      31.03744     
    964000   1.0207222      17.531185      30.816736    
    965000   0.97414013     17.427326      30.757248    
    966000   1.0254996      17.368971      30.6393      
    967000   1.0026751      17.667883      30.485001    
    968000   1.0011192      17.795184      30.479593    
    969000   1.0206945      17.193466      30.467381    
    970000   1.0321969      18.111486      30.353378    
    971000   1.00209        17.871966      30.304349    
    972000   0.98429974     18.129494      30.182029    
    973000   0.98646381     17.862886      30.245663    
    974000   0.95372545     17.222895      29.977744    
    975000   1.0181918      17.228873      30.002181    
    976000   0.96197176     17.365655      29.794977    
    977000   1.0056064      17.480309      29.764776    
    978000   0.97455962     17.672446      29.64197     
    979000   0.9739844      17.409586      29.633419    
    980000   0.98631068     17.228798      29.497488    
    981000   0.96770804     17.383711      29.277599    
    982000   0.9971711      17.851601      29.285736    
    983000   1.020598       17.374915      28.996525    
    984000   0.9895442      17.928343      28.84886     
    985000   0.97743248     17.453287      28.696018    
    986000   1.0384369      17.494893      28.530031    
    987000   1.0067091      17.12241       28.679731    
    988000   1.0098002      17.472447      28.380873    
    989000   1.0537384      17.462059      28.183142    
    990000   1.0101827      17.331382      27.677766    
    991000   0.94871286     16.831677      27.552533    
    992000   1.0228867      18.063706      27.547721    
    993000   0.97792052     17.403295      27.358832    
    994000   0.9530086      17.076206      27.501698    
    995000   1.0043589      17.2682        27.340198    
    996000   1.0113559      17.984521      27.192253    
    997000   1.012401       17.714178      27.06746     
    998000   0.99700852     16.963552      26.827732    
    999000   1.026362       17.288023      26.577078    
   1000000   1.0146108      17.545292      26.530019    
   1001000   1.0201249      17.497254      26.58493     
   1002000   0.95371866     16.946342      26.389238    
   1003000   0.99499976     17.126646      26.376888    
   1004000   1.0176744      17.518037      26.325735    
   1005000   0.98167316     17.785856      25.993667    
   1006000   1.0087416      17.82125       25.928043    
   1007000   0.99678937     17.085737      25.936536    
   1008000   0.97969479     17.670704      25.916707    
   1009000   0.98635373     17.452929      25.889837    
   1010000   1.0040359      17.693728      25.746207    
   1011000   1.0145831      17.448235      25.638096    
   1012000   1.0008413      16.85951       25.529372    
   1013000   1.011895       18.396113      25.441304    
   1014000   0.99530173     17.714849      25.385825    
   1015000   1.0347496      17.226369      25.372132    
   1016000   1.0372701      17.257352      25.424091    
   1017000   1.0342644      17.612377      25.313109    
   1018000   0.99370293     17.28167       25.076626    
   1019000   0.98681158     17.427227      25.193231    
   1020000   0.97353178     17.097364      25.073366    
   1021000   1.0069014      17.495071      24.965266    
   1022000   1.001215       17.0994        24.868465    
   1023000   1.0511174      17.676935      24.793206    
   1024000   1.0002603      16.770898      24.843111    
   1025000   1.0150232      17.078714      24.75044     
   1026000   1.0101104      17.087338      24.632757    
   1027000   1.0221562      17.635468      24.64604     
   1028000   0.97344687     17.268114      24.275856    
   1029000   0.97855832     17.242486      24.350886    
   1030000   1.0036086      17.579021      24.41365     
   1031000   0.9230752      16.89146       24.293967    
   1032000   1.0072726      17.285755      24.266376    
   1033000   1.0174278      17.532775      24.205643    
   1034000   1.025937       17.256717      24.228934    
   1035000   0.99329125     17.155937      24.254652    
   1036000   1.0509059      17.771209      24.312009    
   1037000   0.99964897     17.420442      24.148122    
   1038000   1.0035194      17.49648       24.049837    
   1039000   0.9722643      17.278929      23.716895    
   1040000   1.0409263      17.407208      23.578094    
   1041000   1.0079749      16.898223      23.456591    
   1042000   0.98134744     17.214996      23.597794    
   1043000   0.99898975     17.094933      23.778401    
   1044000   0.99637077     17.636721      23.699137    
   1045000   0.98224012     17.708474      23.497291    
   1046000   1.0602876      17.123813      23.333485    
   1047000   0.99054091     16.972147      23.114592    
   1048000   1.0253362      17.910659      23.218659    
   1049000   1.0010998      17.302174      23.328829    
   1050000   1.0072347      17.642302      23.206914    
   1051000   1.0102038      17.631988      23.02971     
   1052000   0.95084016     17.129145      22.79819     
   1053000   0.98747369     17.4758        22.730056    
   1054000   0.99961923     17.397051      22.76524     
   1055000   0.99707915     17.3682        22.847569    
   1056000   1.0080949      17.259937      22.68193     
   1057000   1.0222114      17.312384      22.49597     
   1058000   1.0091948      17.408129      22.419064    
   1059000   1.0193416      17.396726      22.329836    
   1060000   1.0036428      16.601496      22.162637    
   1061000   0.99263869     16.881246      22.207342    
   1062000   1.042469       17.358651      22.199       
   1063000   0.98627813     17.860478      22.228903    
   1064000   1.0292799      17.525002      22.055586    
   1065000   0.98502807     17.583372      21.897002    
   1066000   1.0441441      17.198958      21.828842    
   1067000   1.0469806      16.978205      21.775169    
   1068000   0.98794243     17.030309      21.447306    
   1069000   0.99501867     16.967819      21.355771    
   1070000   1.0161741      17.180409      21.377005    
   1071000   0.98763075     17.175824      21.328012    
   1072000   1.03399        17.266938      21.278778    
   1073000   1.0103479      17.423864      21.095616    
   1074000   0.98029255     17.494972      20.743457    
   1075000   0.94046659     16.837791      20.423614    
   1076000   1.0506925      17.513821      20.185798    
   1077000   0.95208232     17.390033      19.963703    
   1078000   1.0208767      17.304854      19.832314    
   1079000   0.98676824     17.018097      19.770305    
   1080000   0.98363556     17.022762      19.651712    
   1081000   0.9825912      16.763768      19.640607    
   1082000   0.97171048     16.987619      19.563673    
   1083000   1.0043033      17.045828      19.594555    
   1084000   1.004032       16.839475      19.367261    
   1085000   1.0070308      17.291244      19.163838    
   1086000   0.95384163     16.619402      18.893434    
   1087000   1.0120265      17.151803      18.637221    
   1088000   1.0079349      17.111638      18.375377    
   1089000   1.0155829      17.075682      18.309707    
   1090000   1.0065971      17.295465      18.25961     
   1091000   0.9826478      17.15084       18.133209    
   1092000   1.0153859      16.760266      18.107845    
   1093000   0.98874891     16.508536      17.929968    
   1094000   0.98914722     17.435181      17.798317    
   1095000   0.99864576     16.858388      17.931498    
   1096000   1.016493       17.289286      17.879088    
   1097000   0.99715445     16.641976      17.779341    
   1098000   1.045007       16.909694      17.937293    
   1099000   0.97855897     17.227129      17.863935    
   1100000   1.0011905      17.456155      17.962173    
   1101000   1.0386865      16.911839      17.889736    
   1102000   0.97210781     17.387839      17.596631    
   1103000   1.0289605      17.279973      17.541796    
   1104000   1.0285629      17.424798      17.514903    
   1105000   0.98645684     16.846827      17.547062    
   1106000   0.99584451     17.019768      17.550967    
   1107000   1.0048188      17.029525      17.527884    
   1108000   1.0074256      17.466945      17.392915    
   1109000   0.98007358     17.22655       17.149933    
   1110000   1.0184472      17.159423      16.986888    
   1111000   1.012376       17.143373      16.5935      
   1112000   0.99797397     17.263161      16.572907    
   1113000   0.99416327     17.010913      16.64057     
   1114000   1.0034236      16.992556      16.404754    
   1115000   1.0121403      17.371591      16.504998    
   1116000   1.0147346      17.66371       16.220048    
   1117000   1.0204305      17.313845      16.257174    
   1118000   1.0177517      17.350127      16.264989    
   1119000   1.0338803      17.286614      16.150695    
   1120000   1.0228281      16.94923       16.177582    
   1121000   0.98226942     17.064797      16.136872    
   1122000   0.9957697      17.350138      16.094909    
   1123000   1.0270256      16.771768      15.960348    
   1124000   0.98765512     17.445121      15.749355    
   1125000   0.9901888      16.871747      15.679621    
   1126000   1.0194802      17.013737      15.695774    
   1127000   1.03772        17.212429      15.665474    
   1128000   0.95084824     17.22468       15.411492    
   1129000   0.98583258     16.604605      15.354002    
   1130000   1.0018962      17.532272      15.376922    
   1131000   0.99089692     17.756948      15.15224     
   1132000   0.97247748     17.279566      15.113938    
   1133000   1.0250574      17.303652      14.994708    
   1134000   0.98543303     17.13173       14.799702    
   1135000   0.98747225     17.77999       14.806636    
   1136000   1.0123532      16.884859      14.830264    
   1137000   0.97278244     17.037454      14.738448    
   1138000   0.99072538     17.333091      14.529108    
   1139000   1.0028682      17.178747      14.475123    
   1140000   0.98684915     16.809861      14.384695    
   1141000   1.0493992      17.358903      14.185569    
   1142000   1.0371274      17.335115      14.135437    
   1143000   1.0032975      17.04714       14.040736    
   1144000   0.96935027     17.142813      13.973952    
   1145000   1.0016789      17.148162      13.988943    
   1146000   1.0376326      17.193485      13.901262    
   1147000   0.96526119     17.442858      13.863318    
   1148000   1.0209227      17.227302      13.612736    
   1149000   1.0048019      17.144248      13.196316    
   1150000   1.0566994      17.175171      13.262581    
   1151000   0.99708504     17.053267      13.043363    
   1152000   1.0051177      17.112222      13.026767    
   1153000   1.0285322      17.570969      12.846533    
   1154000   1.0161558      16.400082      12.646711    
   1155000   0.98936698     17.137956      12.373039    
   1156000   1.0234833      16.629152      12.270811    
   1157000   0.95453453     17.4644        12.263052    
   1158000   0.99560856     16.787086      12.306695    
   1159000   1.0016747      16.993346      12.330314    
   1160000   1.0276277      16.656249      12.401806    
   1161000   1.0215956      17.572236      12.197299    
   1162000   0.97199792     16.972407      12.200958    
   1163000   1.0039862      16.690327      12.041278    
   1164000   1.0161432      17.667537      11.988827    
   1165000   0.99904069     16.893997      11.996379    
   1166000   1.0294779      16.896903      11.786103    
   1167000   1.0031048      17.767687      11.812682    
   1168000   0.97203975     17.226411      11.800047    
   1169000   0.97577983     16.762457      11.897902    
   1170000   1.0148601      17.408567      11.987683    
   1171000   1.0430607      17.226709      11.814111    
   1172000   0.97514106     16.809605      11.681744    
   1173000   0.99958526     17.322739      11.475206    
   1174000   1.0156064      16.812177      11.404211    
   1175000   1.044875       17.411908      11.393125    
   1176000   0.99666141     17.092196      11.277748    
   1177000   1.0423709      16.832073      11.063658    
   1178000   1.0098977      17.094724      10.952478    
   1179000   1.0301196      17.088053      10.766278    
   1180000   0.99107039     17.414693      10.537703    
   1181000   1.0196832      16.854898      10.395475    
   1182000   0.9661656      17.027593      10.335889    
   1183000   1.0075877      17.206971      10.138802    
   1184000   1.0387294      17.12712       10.0944      
   1185000   0.97780013     16.343874      10.110915    
   1186000   1.0149789      17.145283      9.8684549    
   1187000   1.0459903      16.685981      9.6640776    
   1188000   1.0062194      16.563904      9.6228001    
   1189000   0.92859431     17.172785      9.5764193    
   1190000   1.0177575      17.515774      9.5038277    
   1191000   1.0090067      16.411133      9.4847496    
   1192000   1.0200314      16.8967        9.2781181    
   1193000   0.98547091     17.056899      9.006344     
   1194000   1.011099       16.864567      8.9273237    
   1195000   0.96126708     16.933463      8.8192077    
   1196000   0.97357755     16.841357      8.701415     
   1197000   1.0274888      16.696832      8.5558285    
   1198000   1.0153171      17.341971      8.408692     
   1199000   1.0377696      16.875326      8.285787     
   1200000   1.0406227      17.225685      8.1510102    
   1201000   0.98530638     17.116854      8.0593448    
   1202000   0.99328457     17.494562      7.9795096    
   1203000   1.0170191      16.523846      7.9870295    
   1204000   1.0218821      16.834627      7.9481331    
   1205000   1.033555       16.852134      7.8244921    
   1206000   0.97800597     16.8319        7.5539699    
   1207000   0.9732712      16.31307       7.4163983    
   1208000   0.97433236     16.931894      7.2647973    
   1209000   0.9733229      17.096483      7.3531822    
   1210000   1.0115756      17.209926      7.2446287    
   1211000   0.99204445     16.78553       7.2595232    
   1212000   0.99432546     16.833607      7.1946713    
Fix halt condition for fix-id 3 met on step 1213000 with value 6.957912721277377 (src/fix_halt.cpp:237)
   1213000   1.0072539      16.80738       6.9579127    
Loop time of 3093.56 on 2 procs for 1113000 steps with 1201 atoms

Performance: 310849.739 tau/day, 359.780 timesteps/s
116.6% CPU use with 1 MPI tasks x 2 OpenMP threads

MPI task timing breakdown:
Section |  min time  |  avg time  |  max time  |%varavg| %total
---------------------------------------------------------------
Pair    | 371.42     | 371.42     | 371.42     |   0.0 | 12.01
Bond    | 41.055     | 41.055     | 41.055     |   0.0 |  1.33
Neigh   | 2595.5     | 2595.5     | 2595.5     |   0.0 | 83.90
Comm    | 0.7165     | 0.7165     | 0.7165     |   0.0 |  0.02
Output  | 3.9297     | 3.9297     | 3.9297     |   0.0 |  0.13
Modify  | 72.755     | 72.755     | 72.755     |   0.0 |  2.35
Other   |            | 8.144      |            |       |  0.26

Nlocal:           1201 ave        1201 max        1201 min
Histogram: 1 0 0 0 0 0 0 0 0 0
Nghost:              0 ave           0 max           0 min
Histogram: 1 0 0 0 0 0 0 0 0 0
Neighs:         285693 ave      285693 max      285693 min
Histogram: 1 0 0 0 0 0 0 0 0 0

Total # of neighbors = 285693
Ave neighs/atom = 237.87927
Ave special neighs/atom = 1.9983347
Neighbor list builds = 10878
Dangerous builds = 0

# This simulation is done
# Move onto the next one
clear
  using 2 OpenMP thread(s) per MPI task
package omp 0
using multi-threaded neighbor list subroutines
next f
jump SELF

Total wall time: 5:03:58
