#atom_style bond #no stiffness
atom_style angle #with stiffness

boundary        p p p
###
# Pair interactions require lists of neighbours to be calculated
###

#neighbor 0.3 bin
neighbor 4 bin

neigh_modify every 1 delay 1 check yes
atom_modify sort 0 0
### Generate RESTART file, SPECIAL format, not a .txt file ###
### Useful if simulation crashes ###

restart 1000000 plusshaped/restarts2/$f.restart
restart 1000000 plusshaped/restarts2/bb301nuc1bl150bn4d30tot600.restart
#############################



### READ "start" data file ###

read_data plusshaped/$f.dat
read_data plusshaped/bb301nuc1bl150bn4d30tot600.dat
Reading data file ...
  orthogonal box = (-1000 -1000 -1000) to (1000 1000 1000)
  1 by 1 by 1 MPI processor grid
  reading atoms ...
  601 atoms
  scanning bonds ...
  3 = max bonds/atom
  scanning angles ...
  6 = max angles/atom
  reading bonds ...
  600 bonds
  reading angles ...
  602 angles
Finding 1-2 1-3 1-4 neighbors ...
  special bond factors lj:    0        0        0       
  special bond factors coul:  0        0        0       
     4 = max # of 1-2 neighbors
     4 = max # of 1-3 neighbors
     8 = max # of 1-4 neighbors
    12 = max # of special neighbors
  special bonds CPU = 0.000 seconds
  read_data CPU = 0.060 seconds

######################

### READ "REstart" data file ###

######################



###
# Define groups (atom type 1 is group 'all')
###
group all type 1
601 atoms in group all


###
# Dump configs - "simple dumpings"
###

###
# Dump configs + box coords
###

dump   1   all   custom   1000  plusshaped/trjs2/$f.lammpstrj  id  x y z  ix iy iz
dump   1   all   custom   1000  plusshaped/trjs2/bb301nuc1bl150bn4d30tot600.lammpstrj  id  x y z  ix iy iz
dump_modify   1   format line "%d %.5f %.5f %.5f %d %d %d"

########################################################################


###################################################################
# Stiffness term
#
# E = K * (1+cos(theta)), K>0
#
angle_style   cosine
#change this coefficient to change stiffness (e.g. 1,5,10)
angle_coeff   1 1.0
###################################################################

###################################################################
# Pair interaction between non-bonded atoms
#
#  Lennard-Jones 12-6 potential with cutoff:
#  potential E=4epsilon[ (sigma/r)^12 - (sigma/r)^6]  for r<r_cut
#
#  1.12246 = 2^(1/6) is the minimum of the potential


pair_style      lj/cut 1.12246152962189
#pair_style      lj/cut 3

#
#  pair_modify shift yes adds a constant to the potential such

#  that E(r_cut)=0. Forces remains unchanged.
#

pair_modify     shift yes

#
#  pair_coeff for lj/cut, specify 4:
#    * atom type interacting with
#    * atom type
#    * epsilon (energy units)
#    * sigma (distance units)
#

pair_coeff      1 1 1.0 1.0
###################################################################

###################################################################
# Pair interaction between non-bonded atoms
#
#  soft potential, for PUSHING apart overlapping atoms
#  potential E=A*(1 + cos(pi*r/r_c))
#
#  1.12246 = 2^(1/6) is the cut-off r_c

#pair_style     soft 1.12246152962189

#
#  pair_coeff for soft, specify 3:
#    * atom type interacting with
#    * atom type
#    * A
#
#

#pair_coeff      1 1 100.0
###################################################################

###################################################################
# Pair interaction between bonded atoms
#
# Fene potential + Lennard Jones 12-6:

#
#  E= - 0.5 K R0^2 ln[ 1- (r/R0)^2]
#     + 4epsilon[ (sigma/r)^12 - (sigma/r)^6] + epsilon
#

bond_style   fene


#
# For style fene, specify:
#   * bond type
#   * K (energy/distance^2)
#   * R0 (distance)
#   * epsilon (energy)  (LJ component)
#   * sigma (distance)  (LJ component)
#


special_bonds fene #<=== I M P O R T A N T (new command)
Finding 1-2 1-3 1-4 neighbors ...
  special bond factors lj:    0        1        1       
  special bond factors coul:  0        1        1       
     4 = max # of 1-2 neighbors
    12 = max # of special neighbors
  special bonds CPU = 0.000 seconds

bond_coeff   1   30   2   1.0   1.0


###################################################

###################################################################
# Pair interaction between bonded atoms
#
# Harmonic potential:
#
#  E= K * (R-R0)^2
#

#bond_style   harmonic

#
# For style harmonic, specify:
#   * bond type
#   * K (energy/distance^2)
#   * R0 (distance)
#

#bond_coeff   1   60.0   1.0
#bond_coeff   2   harmonic 0.1   1.0

###################################################
compute 1 all gyration
variable rog equal c_1
#compute 2 all coord/atom cutoff 1.1

#dump 2 all custom 10000 contact_number.dump id c_2


###
# Set up fixes
###
thermo_style   custom   step  temp enthalpy c_1
fix 1 all nve   ###NVE ensemble

fix 2 all   langevin   1.0 1.0 1.0  778655   ###Langevin integrator Tstart Tstop 1/friction rndseed


##### Sample thermodynamic info  (temperature, energy, pressure, etc.) #####
thermo 1000









############################################################################

###
# set timestep of integrator

timestep 0.01

###
# run integration for a number of steps
###
#run 0
#variable r equal c_1
#if "$r < 63.1" then "quit 1"

# lj potential minimum, cause molecule to explore
run 100000
Generated 0 of 0 mixed pair_coeff terms from geometric mixing rule
Last active /omp style is angle_style cosine/omp
Neighbor list info ...
  update: every = 1 steps, delay = 1 steps, check = yes
  max neighbors/atom: 2000, page size: 100000
  master list distance cutoff = 5.1224615
  ghost atom cutoff = 5.1224615
  binsize = 2.5612308, bins = 781 781 781
  1 neighbor lists, perpetual/occasional/extra = 1 0 0
  (1) pair lj/cut/omp, perpetual
      attributes: half, newton on, omp
      pair build: half/bin/newton/omp
      stencil: half/bin/3d
      bin: standard
WARNING: Communication cutoff 5.12246152962189 is shorter than a bond length based estimate of 5.455. This may lead to errors. (src/comm.cpp:723)
Per MPI rank memory allocation (min/avg/max) = 1861 | 1861 | 1861 Mbytes
   Step          Temp         Enthalpy         c_1      
         0   0              13.283195      78.97946     
      1000   1.0091426      18.161544      77.973076    
      2000   1.0677329      18.594917      77.074452    
      3000   1.0122615      18.452612      76.359644    
      4000   0.96254258     18.242248      75.598924    
      5000   1.0325381      18.682754      74.673215    
      6000   1.0575021      19.705493      74.100714    
      7000   0.96139361     18.898555      73.295175    
      8000   1.0055663      18.934928      72.884066    
      9000   0.98107512     19.201798      72.239976    
     10000   1.00028        18.743664      72.009169    
     11000   0.99252996     19.028923      71.76393     
     12000   0.96919571     19.265044      71.450766    
     13000   0.97213056     19.004138      71.000922    
     14000   1.0143623      19.14562       70.53351     
     15000   0.94822369     19.245475      69.821739    
     16000   1.0207753      19.12318       69.360536    
     17000   1.0094918      19.11038       69.162556    
     18000   0.98821791     19.138938      68.83358     
     19000   0.96547573     19.465296      68.577325    
     20000   1.0191443      20.09836       68.065532    
     21000   1.0310313      19.717491      67.819432    
     22000   1.0430373      19.524748      67.452634    
     23000   1.0299981      19.95725       66.990226    
     24000   0.95360865     19.489868      66.720351    
     25000   0.96905153     19.732986      66.366783    
     26000   1.0027825      19.700622      65.79938     
     27000   0.96101554     19.470569      65.20635     
     28000   1.0660575      20.059069      64.992774    
     29000   0.99289459     19.80659       64.850254    
     30000   0.99499013     19.439483      64.821434    
     31000   1.0376489      19.74885       64.44847     
     32000   1.0057437      20.637733      64.044591    
     33000   1.0289335      19.96528       63.998044    
     34000   0.95442097     20.353918      64.154355    
     35000   0.98794597     19.401627      63.986059    
     36000   1.0319945      19.837137      63.708883    
     37000   0.95594564     19.680095      63.755455    
     38000   1.0901084      20.587332      63.551882    
     39000   1.007179       19.935629      63.217671    
     40000   0.96188381     19.662733      62.751644    
     41000   0.94666966     20.208333      62.516789    
     42000   0.94358305     20.131619      62.086183    
     43000   1.0282677      20.254327      61.842954    
     44000   0.98947929     20.141852      61.625344    
     45000   0.96183357     19.638272      61.426244    
     46000   0.98498108     19.980585      61.451946    
     47000   1.0003157      19.989693      61.311204    
     48000   0.99388454     20.11605       60.980848    
     49000   1.0165012      20.355328      60.843717    
     50000   0.97277107     19.503441      60.538637    
     51000   0.99885058     20.028344      60.150782    
     52000   1.0296609      20.063564      59.753658    
     53000   0.99475772     19.764703      59.270467    
     54000   0.99839096     20.094817      58.883273    
     55000   0.98963863     19.771704      58.944929    
     56000   1.0257451      19.930257      58.745101    
     57000   0.92452887     20.298986      58.512016    
     58000   1.0575325      20.303919      58.122355    
     59000   1.0159046      20.413522      58.00955     
     60000   1.0340237      20.141112      57.76699     
     61000   0.98813508     19.753463      57.769219    
     62000   0.97724361     20.500219      57.634615    
     63000   0.99187442     19.925926      57.831881    
     64000   1.0098353      20.875069      57.797909    
     65000   0.98214022     19.626838      57.375216    
     66000   0.98169923     20.231447      57.14606     
     67000   1.0336725      20.318176      57.224958    
     68000   1.0048956      20.023656      57.022713    
     69000   1.0016048      20.584995      57.103451    
     70000   1.0021804      19.964866      57.007957    
     71000   0.99214282     19.723036      57.000633    
     72000   1.0247874      19.856115      56.987083    
     73000   0.9817586      20.453911      56.754878    
     74000   1.0771362      20.111517      56.592255    
     75000   0.96924543     19.534633      56.514404    
     76000   0.93899239     19.574235      56.100859    
     77000   0.97107949     20.076061      55.784827    
     78000   1.0181988      20.769193      55.708155    
     79000   0.97701289     20.021235      55.507541    
     80000   1.0211584      19.94658       55.505929    
     81000   0.94585431     20.490978      55.446742    
     82000   1.0261862      20.478408      55.599784    
     83000   0.98899553     20.251456      55.663674    
     84000   0.97610209     20.673701      55.569648    
     85000   0.95196443     20.304704      55.505121    
     86000   1.019119       20.592637      55.276437    
     87000   0.93713039     19.463095      55.286787    
     88000   0.95041072     20.550789      55.254058    
     89000   0.96839741     19.371218      55.237049    
     90000   1.034985       20.120844      55.100225    
     91000   0.98524836     20.127181      55.122782    
     92000   0.99828401     20.160675      54.779365    
     93000   1.001629       20.019995      54.782306    
     94000   1.0335084      20.044177      54.578209    
     95000   0.95800788     20.440531      54.669404    
     96000   0.98140425     20.128144      54.395804    
     97000   0.98558677     20.358         54.664087    
     98000   0.99873346     20.242299      54.52143     
     99000   0.95266224     20.096818      54.541617    
    100000   1.0280242      20.072889      54.326123    
Loop time of 402.148 on 2 procs for 100000 steps with 601 atoms

Performance: 214846.359 tau/day, 248.665 timesteps/s
101.6% CPU use with 1 MPI tasks x 2 OpenMP threads

MPI task timing breakdown:
Section |  min time  |  avg time  |  max time  |%varavg| %total
---------------------------------------------------------------
Pair    | 0.67793    | 0.67793    | 0.67793    |   0.0 |  0.17
Bond    | 1.3175     | 1.3175     | 1.3175     |   0.0 |  0.33
Neigh   | 396.99     | 396.99     | 396.99     |   0.0 | 98.72
Comm    | 0.024342   | 0.024342   | 0.024342   |   0.0 |  0.01
Output  | 0.20387    | 0.20387    | 0.20387    |   0.0 |  0.05
Modify  | 2.7223     | 2.7223     | 2.7223     |   0.0 |  0.68
Other   |            | 0.2124     |            |       |  0.05

Nlocal:            601 ave         601 max         601 min
Histogram: 1 0 0 0 0 0 0 0 0 0
Nghost:              0 ave           0 max           0 min
Histogram: 1 0 0 0 0 0 0 0 0 0
Neighs:           3772 ave        3772 max        3772 min
Histogram: 1 0 0 0 0 0 0 0 0 0

Total # of neighbors = 3772
Ave neighs/atom = 6.2762063
Ave special neighs/atom = 1.9966722
Neighbor list builds = 1084
Dangerous builds = 0

# Replace lj potential, now collapse
pair_style      lj/cut 3

# Cutoff simul when gyration under 5
# Variable created with equal requires v_ + 'name'
fix 3 all halt 1000 v_rog < 7

run 5000000
Generated 0 of 0 mixed pair_coeff terms from geometric mixing rule
Last active /omp style is angle_style cosine/omp
Per MPI rank memory allocation (min/avg/max) = 1861 | 1861 | 1861 Mbytes
   Step          Temp         Enthalpy         c_1      
    100000   1.0280242      19.367826      54.326123    
    101000   1.0099533      19.709897      53.92044     
    102000   0.99141649     19.957622      53.734642    
    103000   1.037924       19.839586      53.155576    
    104000   1.0350574      19.012788      52.65766     
    105000   0.99782701     18.982637      52.293064    
    106000   1.034424       19.587274      51.934079    
    107000   0.97223922     19.625184      51.855012    
    108000   1.0245637      19.253168      51.724952    
    109000   1.0325483      19.051658      51.751406    
    110000   0.99482932     19.244939      51.467089    
    111000   0.95831828     18.578723      51.151624    
    112000   1.0098545      18.782208      51.03069     
    113000   1.0146939      19.539917      50.825825    
    114000   0.99402681     19.118075      50.570631    
    115000   0.98545189     19.322209      50.201924    
    116000   1.0248697      19.624348      50.046589    
    117000   1.0135299      19.313582      49.739712    
    118000   0.95142122     18.493855      49.527957    
    119000   1.0272117      19.046073      49.228895    
    120000   0.98956087     20.058999      48.905786    
    121000   0.9778721      18.798609      48.42343     
    122000   1.0209838      19.075436      48.444104    
    123000   0.95960415     19.226185      48.165588    
    124000   0.97684611     19.756424      47.949263    
    125000   1.0044966      19.430979      47.37961     
    126000   0.97504404     19.837733      47.225698    
    127000   0.99507422     18.709163      47.166033    
    128000   1.0155279      18.833346      46.944878    
    129000   0.95910495     19.019333      46.779863    
    130000   1.0275514      19.535525      46.816734    
    131000   1.0398139      18.72403       46.467769    
    132000   1.0052606      19.604704      46.311618    
    133000   1.0168483      19.04567       46.130034    
    134000   1.031765       18.618743      45.905504    
    135000   1.0107164      19.264769      45.346008    
    136000   0.91591585     18.507392      44.935507    
    137000   1.0182884      18.942521      44.997959    
    138000   0.96523691     19.269662      44.792673    
    139000   0.95308225     18.402408      44.625895    
    140000   0.99563311     19.115713      44.411158    
    141000   1.0102407      19.387917      44.153593    
    142000   0.98138875     19.630015      43.847487    
    143000   1.0306651      19.289364      43.711589    
    144000   1.0363973      19.381341      43.666834    
    145000   0.9503134      18.677889      43.35979     
    146000   1.0293562      19.269551      43.247073    
    147000   0.96540528     18.910178      43.13954     
    148000   0.99572455     18.066774      43.167227    
    149000   1.0481013      19.845504      42.983049    
    150000   1.0441881      19.397746      42.401889    
    151000   1.031127       18.863986      42.116481    
    152000   0.96849135     18.150308      41.880838    
    153000   0.99945867     18.640688      41.698889    
    154000   1.0182801      18.565522      41.302887    
    155000   0.9712866      18.730141      41.087766    
    156000   0.99208301     18.883053      40.949528    
    157000   0.96691523     18.880971      40.55435     
    158000   1.0201852      18.92206       40.518272    
    159000   0.9890663      18.214824      40.306844    
    160000   1.0169985      18.996577      40.062433    
    161000   1.0557457      18.588672      39.822725    
    162000   0.98077806     18.738976      39.52041     
    163000   1.0314947      19.162736      39.230188    
    164000   1.001037       18.952595      38.874206    
    165000   0.9946024      18.893116      38.416101    
    166000   1.0653633      18.662443      38.100003    
    167000   1.0483231      19.021175      38.007219    
    168000   0.99843777     18.462578      37.511188    
    169000   1.0826651      18.492274      37.361311    
    170000   0.98984959     17.892579      37.109591    
    171000   1.037405       18.570019      36.971236    
    172000   0.99024163     18.37077       36.915782    
    173000   1.0059933      18.116398      36.965699    
    174000   0.96730622     18.592942      36.869008    
    175000   0.97720664     18.964049      36.528524    
    176000   0.97998269     18.867949      36.213272    
    177000   0.98697643     18.776475      35.828968    
    178000   0.96716809     18.532859      35.608084    
    179000   0.96762426     19.280928      35.620053    
    180000   0.92988679     19.246393      35.674679    
    181000   1.0552711      19.249014      35.240492    
    182000   1.0410308      19.136193      35.220713    
    183000   0.99012107     19.0657        34.568016    
    184000   1.0237812      18.655196      34.292715    
    185000   0.97834491     18.37633       34.177751    
    186000   1.0223764      18.739495      34.061637    
    187000   0.96582292     18.162259      33.875876    
    188000   0.99610073     18.377836      33.640282    
    189000   0.97538776     19.022493      33.471513    
    190000   1.0288335      19.116183      33.281615    
    191000   1.0161656      18.494569      33.237323    
    192000   0.97684648     18.480148      32.851274    
    193000   1.0160099      18.710861      32.431007    
    194000   0.98875644     19.183309      32.401423    
    195000   1.0281008      19.805816      32.359543    
    196000   0.9970509      17.999093      32.446516    
    197000   0.97343423     19.195264      32.363137    
    198000   0.974423       18.508965      32.444441    
    199000   0.95682685     18.211632      32.59115     
    200000   0.98578152     18.119331      32.492828    
    201000   1.0064096      18.777626      32.486775    
    202000   0.95430797     19.058457      32.1534      
    203000   1.0298605      18.23015       32.154945    
    204000   0.99737337     18.499565      31.953381    
    205000   1.0405251      17.979438      31.693612    
    206000   0.96129495     18.372704      31.582276    
    207000   0.97645344     18.01371       31.356648    
    208000   1.0143612      18.40482       31.29849     
    209000   1.0470256      18.246596      30.969422    
    210000   0.9607176      17.950145      30.636322    
    211000   1.0429421      18.619778      30.130955    
    212000   0.98517545     18.265935      30.108617    
    213000   1.058003       18.23779       29.728056    
    214000   0.976545       18.724625      29.803411    
    215000   0.98504846     18.56287       29.626384    
    216000   0.98957527     17.894015      29.540412    
    217000   1.0125984      18.165445      29.452078    
    218000   0.98409138     18.888301      29.046698    
    219000   1.0048175      18.556902      28.801884    
    220000   1.0195294      18.623742      28.475235    
    221000   0.99521361     17.910103      28.289122    
    222000   0.99853618     18.852748      28.197852    
    223000   1.0064964      18.432308      27.922511    
    224000   1.0159394      17.808226      27.691604    
    225000   1.0036297      17.975115      27.724348    
    226000   1.0273179      18.161158      27.748388    
    227000   1.0132265      17.830062      27.826968    
    228000   0.97876595     18.323979      27.45919     
    229000   0.99963431     18.182466      27.13584     
    230000   0.99212895     18.49774       26.916471    
    231000   1.0196637      18.260017      26.827852    
    232000   0.99289203     17.56357       26.217552    
    233000   1.0085604      17.875644      26.101671    
    234000   1.0067096      17.899777      26.122234    
    235000   0.98218827     18.504705      25.961718    
    236000   1.0208923      18.165566      25.789457    
    237000   0.94223372     18.097696      25.587971    
    238000   0.95291671     17.724874      25.312334    
    239000   1.0083813      18.952721      25.278591    
    240000   1.0184766      17.076876      24.919268    
    241000   1.0094022      18.476575      24.692175    
    242000   1.0070638      17.926035      24.471485    
    243000   0.96724275     18.279276      24.31636     
    244000   0.95728187     18.25552       24.318811    
    245000   0.98297103     17.048637      24.293175    
    246000   0.99422256     18.365696      24.296693    
    247000   0.99247965     17.627326      24.153041    
    248000   1.0407783      18.046309      23.989579    
    249000   0.98225729     18.137453      23.833207    
    250000   0.96160919     17.939138      24.089631    
    251000   0.97719226     17.645624      23.748921    
    252000   0.94238029     17.495696      23.561134    
    253000   0.93967183     18.179742      23.338517    
    254000   1.0364019      18.265843      22.911994    
    255000   0.97714325     18.074653      22.380041    
    256000   1.0244586      17.507666      22.64377     
    257000   1.0278474      17.438664      22.776244    
    258000   1.0780613      19.451887      22.487205    
    259000   1.0228118      18.285536      22.096866    
    260000   0.99530027     17.892506      21.968282    
    261000   0.9512018      18.422376      21.6537      
    262000   0.97693294     17.861941      21.361907    
    263000   1.0237585      18.178064      21.049046    
    264000   1.0103681      18.326823      20.904597    
    265000   1.0304133      17.919787      20.625498    
    266000   1.044244       18.162925      20.491556    
    267000   0.97219026     17.976435      20.260406    
    268000   1.050506       18.275661      20.149161    
    269000   1.0163263      18.36713       19.886495    
    270000   1.0313848      18.303538      19.350206    
    271000   0.98424364     17.799926      19.05664     
    272000   1.0618829      17.939662      19.031103    
    273000   1.0166899      18.009009      18.638176    
    274000   0.99511512     17.788401      17.932784    
    275000   0.91996565     18.251145      17.83475     
    276000   0.97807932     17.628985      17.694177    
    277000   0.99413915     17.70277       17.376285    
    278000   1.0185918      17.789434      16.954913    
    279000   0.98309324     18.574167      16.840153    
    280000   0.97567384     17.923069      16.796763    
    281000   1.0434698      18.162505      16.656613    
    282000   1.040854       17.756885      16.570041    
    283000   1.0205113      18.039514      16.307517    
    284000   1.0014836      17.00088       16.233607    
    285000   1.0466863      17.708921      16.118714    
    286000   0.97727952     17.428567      15.59031     
    287000   1.0030602      18.238794      15.226612    
    288000   1.0224387      17.133885      14.918391    
    289000   1.0025925      18.258346      14.766978    
    290000   0.99906121     17.460769      14.724076    
    291000   0.98539683     18.531733      14.399706    
    292000   1.0050611      17.901775      14.091535    
    293000   1.0453462      18.279491      13.757265    
    294000   1.0054872      17.864886      13.321592    
    295000   0.96779221     16.948709      13.200675    
    296000   1.0075163      17.95098       12.748803    
    297000   1.0230659      18.136507      12.560268    
    298000   1.0265418      17.561128      12.409858    
    299000   0.98555703     17.484609      12.300181    
    300000   0.98796452     18.108429      12.332735    
    301000   0.98637517     17.663446      11.986794    
    302000   0.99551684     17.534363      11.82685     
    303000   1.0509275      18.000903      11.57649     
    304000   1.0106985      16.779878      11.53057     
    305000   1.0178883      17.104927      11.469701    
    306000   1.0180117      17.793626      11.131909    
    307000   0.97727046     17.862359      11.068097    
    308000   0.97042346     17.457767      10.909724    
    309000   1.006562       17.58495       10.718655    
    310000   1.0193036      17.104091      10.779194    
    311000   1.058499       18.527667      10.573285    
    312000   1.022369       18.261188      10.336007    
    313000   0.98282352     17.511065      10.017243    
    314000   0.96564414     17.664164      9.6844478    
    315000   1.0288977      17.111798      9.6471549    
    316000   0.96485913     16.51158       9.292793     
    317000   1.0235642      17.315304      9.0067687    
    318000   0.90641915     17.453569      8.6443041    
    319000   0.95168392     17.286433      8.3886578    
    320000   0.99794142     17.699553      8.1709371    
    321000   0.99278207     18.036646      7.8484527    
    322000   0.98589614     17.017536      7.5038575    
    323000   0.98981846     17.850527      7.2429558    
Fix halt condition for fix-id 3 met on step 324000 with value 6.783560416002901 (src/fix_halt.cpp:237)
    324000   1.0056914      17.958333      6.7835604    
Loop time of 327.239 on 2 procs for 224000 steps with 601 atoms

Performance: 591421.251 tau/day, 684.515 timesteps/s
110.0% CPU use with 1 MPI tasks x 2 OpenMP threads

MPI task timing breakdown:
Section |  min time  |  avg time  |  max time  |%varavg| %total
---------------------------------------------------------------
Pair    | 19.867     | 19.867     | 19.867     |   0.0 |  6.07
Bond    | 3.0142     | 3.0142     | 3.0142     |   0.0 |  0.92
Neigh   | 297.15     | 297.15     | 297.15     |   0.0 | 90.81
Comm    | 0.055097   | 0.055097   | 0.055097   |   0.0 |  0.02
Output  | 0.44905    | 0.44905    | 0.44905    |   0.0 |  0.14
Modify  | 6.2099     | 6.2099     | 6.2099     |   0.0 |  1.90
Other   |            | 0.4906     |            |       |  0.15

Nlocal:            601 ave         601 max         601 min
Histogram: 1 0 0 0 0 0 0 0 0 0
Nghost:              0 ave           0 max           0 min
Histogram: 1 0 0 0 0 0 0 0 0 0
Neighs:          86545 ave       86545 max       86545 min
Histogram: 1 0 0 0 0 0 0 0 0 0

Total # of neighbors = 86545
Ave neighs/atom = 144.00166
Ave special neighs/atom = 1.9966722
Neighbor list builds = 2086
Dangerous builds = 0

# This simulation is done
# Move onto the next one
clear
  using 2 OpenMP thread(s) per MPI task
package omp 0
using multi-threaded neighbor list subroutines
next f
jump SELF

###
# Reference paper:
# K. Kremer and G. S. Grest
# Dynamics of entangled linear polymer melts: A molecular-dynamics simulation
# J Chem Phys 92, 5057 (1990)

##################################
# MIHIR: for branched polymers
# LJ minimum first to expand and explore, then collapse
###

###
# Looping through the various plusshaped polymers to simulate,
# define variables to switch through
variable f index bb51nuc1bl25bn4d30tot100 bb101nuc1bl50bn4d30tot200 bb151nuc1bl75bn4d30tot300 bb201nuc1bl100bn4d30tot400 bb251nuc1bl125bn4d30tot500 bb301nuc1bl150bn4d30tot600 bb351nuc1bl175bn4d30tot700 bb401nuc1bl200bn4d30tot800 bb451nuc1bl225bn4d30tot900 bb501nuc1bl250bn4d30tot1000 bb551nuc1bl275bn4d30tot1100 bb601nuc1bl300bn4d30tot1200
###


###
# Box and units  (use LJ units and periodic boundaries)
###

units lj
log plusshaped/logs2/$f.log
log plusshaped/logs2/bb351nuc1bl175bn4d30tot700.log
