#atom_style bond #no stiffness
atom_style angle #with stiffness

boundary        p p p
###
# Pair interactions require lists of neighbours to be calculated
###

#neighbor 0.3 bin
neighbor 4 bin

neigh_modify every 1 delay 1 check yes
atom_modify sort 0 0
### Generate RESTART file, SPECIAL format, not a .txt file ###
### Useful if simulation crashes ###

restart 1000000 plusshaped/restarts2/$f.restart
restart 1000000 plusshaped/restarts2/bb401nuc1bl200bn4d30tot800.restart
#############################



### READ "start" data file ###

read_data plusshaped/$f.dat
read_data plusshaped/bb401nuc1bl200bn4d30tot800.dat
Reading data file ...
  orthogonal box = (-1000 -1000 -1000) to (1000 1000 1000)
  1 by 1 by 1 MPI processor grid
  reading atoms ...
  801 atoms
  scanning bonds ...
  3 = max bonds/atom
  scanning angles ...
  6 = max angles/atom
  reading bonds ...
  800 bonds
  reading angles ...
  802 angles
Finding 1-2 1-3 1-4 neighbors ...
  special bond factors lj:    0        0        0       
  special bond factors coul:  0        0        0       
     4 = max # of 1-2 neighbors
     4 = max # of 1-3 neighbors
     8 = max # of 1-4 neighbors
    12 = max # of special neighbors
  special bonds CPU = 0.001 seconds
  read_data CPU = 0.127 seconds

######################

### READ "REstart" data file ###

######################



###
# Define groups (atom type 1 is group 'all')
###
group all type 1
801 atoms in group all


###
# Dump configs - "simple dumpings"
###

###
# Dump configs + box coords
###

dump   1   all   custom   1000  plusshaped/trjs2/$f.lammpstrj  id  x y z  ix iy iz
dump   1   all   custom   1000  plusshaped/trjs2/bb401nuc1bl200bn4d30tot800.lammpstrj  id  x y z  ix iy iz
dump_modify   1   format line "%d %.5f %.5f %.5f %d %d %d"

########################################################################


###################################################################
# Stiffness term
#
# E = K * (1+cos(theta)), K>0
#
angle_style   cosine
#change this coefficient to change stiffness (e.g. 1,5,10)
angle_coeff   1 1.0
###################################################################

###################################################################
# Pair interaction between non-bonded atoms
#
#  Lennard-Jones 12-6 potential with cutoff:
#  potential E=4epsilon[ (sigma/r)^12 - (sigma/r)^6]  for r<r_cut
#
#  1.12246 = 2^(1/6) is the minimum of the potential


pair_style      lj/cut 1.12246152962189
#pair_style      lj/cut 3

#
#  pair_modify shift yes adds a constant to the potential such

#  that E(r_cut)=0. Forces remains unchanged.
#

pair_modify     shift yes

#
#  pair_coeff for lj/cut, specify 4:
#    * atom type interacting with
#    * atom type
#    * epsilon (energy units)
#    * sigma (distance units)
#

pair_coeff      1 1 1.0 1.0
###################################################################

###################################################################
# Pair interaction between non-bonded atoms
#
#  soft potential, for PUSHING apart overlapping atoms
#  potential E=A*(1 + cos(pi*r/r_c))
#
#  1.12246 = 2^(1/6) is the cut-off r_c

#pair_style     soft 1.12246152962189

#
#  pair_coeff for soft, specify 3:
#    * atom type interacting with
#    * atom type
#    * A
#
#

#pair_coeff      1 1 100.0
###################################################################

###################################################################
# Pair interaction between bonded atoms
#
# Fene potential + Lennard Jones 12-6:

#
#  E= - 0.5 K R0^2 ln[ 1- (r/R0)^2]
#     + 4epsilon[ (sigma/r)^12 - (sigma/r)^6] + epsilon
#

bond_style   fene


#
# For style fene, specify:
#   * bond type
#   * K (energy/distance^2)
#   * R0 (distance)
#   * epsilon (energy)  (LJ component)
#   * sigma (distance)  (LJ component)
#


special_bonds fene #<=== I M P O R T A N T (new command)
Finding 1-2 1-3 1-4 neighbors ...
  special bond factors lj:    0        1        1       
  special bond factors coul:  0        1        1       
     4 = max # of 1-2 neighbors
    12 = max # of special neighbors
  special bonds CPU = 0.000 seconds

bond_coeff   1   30   2   1.0   1.0


###################################################

###################################################################
# Pair interaction between bonded atoms
#
# Harmonic potential:
#
#  E= K * (R-R0)^2
#

#bond_style   harmonic

#
# For style harmonic, specify:
#   * bond type
#   * K (energy/distance^2)
#   * R0 (distance)
#

#bond_coeff   1   60.0   1.0
#bond_coeff   2   harmonic 0.1   1.0

###################################################
compute 1 all gyration
variable rog equal c_1
#compute 2 all coord/atom cutoff 1.1

#dump 2 all custom 10000 contact_number.dump id c_2


###
# Set up fixes
###
thermo_style   custom   step  temp enthalpy c_1
fix 1 all nve   ###NVE ensemble

fix 2 all   langevin   1.0 1.0 1.0  778655   ###Langevin integrator Tstart Tstop 1/friction rndseed


##### Sample thermodynamic info  (temperature, energy, pressure, etc.) #####
thermo 1000









############################################################################

###
# set timestep of integrator

timestep 0.01

###
# run integration for a number of steps
###
#run 0
#variable r equal c_1
#if "$r < 63.1" then "quit 1"

# lj potential minimum, cause molecule to explore
run 100000
Generated 0 of 0 mixed pair_coeff terms from geometric mixing rule
Last active /omp style is angle_style cosine/omp
Neighbor list info ...
  update: every = 1 steps, delay = 1 steps, check = yes
  max neighbors/atom: 2000, page size: 100000
  master list distance cutoff = 5.1224615
  ghost atom cutoff = 5.1224615
  binsize = 2.5612308, bins = 781 781 781
  1 neighbor lists, perpetual/occasional/extra = 1 0 0
  (1) pair lj/cut/omp, perpetual
      attributes: half, newton on, omp
      pair build: half/bin/newton/omp
      stencil: half/bin/3d
      bin: standard
WARNING: Communication cutoff 5.12246152962189 is shorter than a bond length based estimate of 5.455. This may lead to errors. (src/comm.cpp:723)
Per MPI rank memory allocation (min/avg/max) = 1862 | 1862 | 1862 Mbytes
   Step          Temp         Enthalpy         c_1      
         0   0              13.182906      105.18155    
      1000   1.0620823      18.113837      104.41332    
      2000   0.9746075      18.003473      103.53761    
      3000   1.0541566      18.085609      102.85387    
      4000   0.97362297     18.734365      102.08186    
      5000   1.0034687      18.422739      101.62381    
      6000   1.0046412      19.111684      101.00741    
      7000   1.0123191      18.56441       100.64517    
      8000   1.0172701      18.74701       100.04145    
      9000   0.98623537     18.704316      99.793982    
     10000   1.0280996      18.953212      99.47687     
     11000   1.0145611      18.836803      98.891154    
     12000   1.0205254      19.218163      98.520742    
     13000   1.0311301      18.594677      98.295325    
     14000   1.0005966      19.281591      97.885248    
     15000   0.99419879     19.146215      97.409826    
     16000   0.96482288     18.97187       97.032744    
     17000   1.0238305      19.376834      96.495332    
     18000   0.99690294     18.72788       95.949406    
     19000   0.97325402     19.518032      95.42088     
     20000   0.99249045     18.962194      95.381152    
     21000   0.9868736      19.538657      95.107376    
     22000   1.0347648      19.744817      94.696911    
     23000   1.0282887      19.443729      94.453867    
     24000   1.028333       19.480931      94.237312    
     25000   0.99847933     19.988476      94.037282    
     26000   1.0582971      19.529011      93.55141     
     27000   0.98966375     19.280387      92.877359    
     28000   0.97435644     19.858323      92.6485      
     29000   1.0665619      19.388954      92.071915    
     30000   1.0229747      19.910276      92.18477     
     31000   1.0022036      19.997152      91.679809    
     32000   0.9853408      19.460844      91.185892    
     33000   0.96709692     19.35326       90.662703    
     34000   1.0093685      19.307053      90.287396    
     35000   1.0154496      19.247421      90.001002    
     36000   0.97551106     19.910243      89.704016    
     37000   1.0672089      20.063579      89.565819    
     38000   0.99585787     19.763658      89.380301    
     39000   0.93521294     19.49545       89.153274    
     40000   0.97035277     19.612048      89.168011    
     41000   1.0135115      18.945026      88.999563    
     42000   0.97219729     19.376761      88.911542    
     43000   1.0459884      19.78096       88.62622     
     44000   0.99233627     19.602882      88.230136    
     45000   1.0558298      19.878452      88.141684    
     46000   1.0245468      19.432689      88.012825    
     47000   0.99976782     19.55643       87.721051    
     48000   0.94656216     19.749965      87.379558    
     49000   0.995393       19.428047      87.268099    
     50000   1.074546       19.315082      87.131828    
     51000   1.0182151      19.323402      86.808026    
     52000   0.97312        20.245679      86.630378    
     53000   1.0262963      20.069821      86.571604    
     54000   1.0174494      19.611315      86.542253    
     55000   1.0576918      20.010408      86.273121    
     56000   1.0052584      19.468741      86.069048    
     57000   1.0053978      19.913224      85.983791    
     58000   1.0038966      19.708855      85.775083    
     59000   0.98587243     19.830073      85.614796    
     60000   1.0566052      19.613896      85.374374    
     61000   1.0118764      20.160117      85.040484    
     62000   1.0485263      20.562596      84.698592    
     63000   1.0380092      20.116419      84.768745    
     64000   0.97247463     19.793513      84.627664    
     65000   1.0393103      20.284104      84.307154    
     66000   0.97527042     19.972385      84.292547    
     67000   0.98868137     19.947087      84.102915    
     68000   1.0130832      20.114557      83.726246    
     69000   0.99441608     20.276366      83.510693    
     70000   1.0039483      19.834817      83.343103    
     71000   1.031744       20.445796      83.42528     
     72000   0.96480334     19.877426      83.306325    
     73000   0.90330145     19.826776      83.177261    
     74000   1.000545       20.275452      82.962626    
     75000   0.99219441     19.837193      82.596494    
     76000   1.0004054      20.099944      82.418406    
     77000   0.97586993     19.703979      82.209686    
     78000   1.0622677      19.763718      82.140517    
     79000   0.96332732     20.226084      81.916435    
     80000   1.0118705      20.285402      81.813059    
     81000   1.0152896      20.157052      81.48939     
     82000   1.0154083      19.96305       81.345993    
     83000   0.96303882     19.838548      81.165064    
     84000   0.99717975     19.972461      80.975572    
     85000   1.0619637      20.62172       80.996646    
     86000   1.0169429      20.194423      80.99173     
     87000   0.98518103     19.751756      81.130756    
     88000   0.97081906     19.89107       81.072789    
     89000   0.9718835      20.033342      80.864828    
     90000   0.98073869     19.957631      80.837108    
     91000   1.007752       20.227362      80.798867    
     92000   0.97449983     19.873619      80.611517    
     93000   1.0072662      20.118393      80.317009    
     94000   0.95237629     19.701227      79.978053    
     95000   1.032655       20.938131      80.03232     
     96000   0.99208516     19.324009      80.18905     
     97000   1.0308355      20.278284      79.940139    
     98000   1.0299251      20.452319      79.857811    
     99000   0.9714042      19.741645      79.790549    
    100000   0.97883287     20.054142      79.618033    
Loop time of 418.881 on 2 procs for 100000 steps with 801 atoms

Performance: 206263.940 tau/day, 238.731 timesteps/s
102.0% CPU use with 1 MPI tasks x 2 OpenMP threads

MPI task timing breakdown:
Section |  min time  |  avg time  |  max time  |%varavg| %total
---------------------------------------------------------------
Pair    | 0.91406    | 0.91406    | 0.91406    |   0.0 |  0.22
Bond    | 1.8431     | 1.8431     | 1.8431     |   0.0 |  0.44
Neigh   | 411.84     | 411.84     | 411.84     |   0.0 | 98.32
Comm    | 0.031051   | 0.031051   | 0.031051   |   0.0 |  0.01
Output  | 0.23611    | 0.23611    | 0.23611    |   0.0 |  0.06
Modify  | 3.7222     | 3.7222     | 3.7222     |   0.0 |  0.89
Other   |            | 0.2955     |            |       |  0.07

Nlocal:            801 ave         801 max         801 min
Histogram: 1 0 0 0 0 0 0 0 0 0
Nghost:              0 ave           0 max           0 min
Histogram: 1 0 0 0 0 0 0 0 0 0
Neighs:           4778 ave        4778 max        4778 min
Histogram: 1 0 0 0 0 0 0 0 0 0

Total # of neighbors = 4778
Ave neighs/atom = 5.9650437
Ave special neighs/atom = 1.9975031
Neighbor list builds = 1096
Dangerous builds = 0

# Replace lj potential, now collapse
pair_style      lj/cut 3

# Cutoff simul when gyration under 5
# Variable created with equal requires v_ + 'name'
fix 3 all halt 1000 v_rog < 7

run 5000000
Generated 0 of 0 mixed pair_coeff terms from geometric mixing rule
Last active /omp style is angle_style cosine/omp
Per MPI rank memory allocation (min/avg/max) = 1862 | 1862 | 1862 Mbytes
   Step          Temp         Enthalpy         c_1      
    100000   0.97883287     19.3985        79.618033    
    101000   0.96454971     19.252137      79.370304    
    102000   0.98183295     19.829252      79.104954    
    103000   0.97523123     19.527026      79.249664    
    104000   1.0154935      19.449494      79.04411     
    105000   0.9487702      19.462727      78.750192    
    106000   0.97141375     19.171016      78.371635    
    107000   1.0237053      19.480118      78.217884    
    108000   1.0147325      19.839297      77.83821     
    109000   0.98537923     19.116082      77.639319    
    110000   0.99480834     19.823046      77.470873    
    111000   0.99782834     19.38343       77.151566    
    112000   1.0301022      19.36697       77.184275    
    113000   1.010958       19.787888      76.836632    
    114000   0.98199149     19.666621      76.628822    
    115000   0.97758993     19.11531       76.261944    
    116000   1.004057       19.454557      76.181168    
    117000   1.0030885      19.378451      75.956077    
    118000   1.001848       19.106992      75.669768    
    119000   1.0391317      19.49379       75.669827    
    120000   0.94148728     19.330833      75.920891    
    121000   1.0049035      19.378702      75.648908    
    122000   0.94263294     19.026997      75.028144    
    123000   0.97824722     19.379654      74.422314    
    124000   1.0194773      19.427625      74.304612    
    125000   1.0111147      19.106217      74.124944    
    126000   1.0157435      19.519078      74.034595    
    127000   1.1156666      19.318525      73.913126    
    128000   1.0066128      19.671782      73.596543    
    129000   1.0429129      20.029842      73.311263    
    130000   1.0105206      19.633071      72.952932    
    131000   0.9754838      19.501859      72.689421    
    132000   0.99767326     19.321649      72.462291    
    133000   0.96093736     18.872308      72.004828    
    134000   0.95712784     18.933781      71.700949    
    135000   0.97991061     19.016614      71.366301    
    136000   1.0377314      18.902638      71.076822    
    137000   0.98138697     19.327057      70.901032    
    138000   1.0382952      20.238509      70.669884    
    139000   1.0338639      19.406054      70.514254    
    140000   0.99159361     19.29606       70.513603    
    141000   0.98332547     18.890972      70.481238    
    142000   1.0140928      19.142817      70.380916    
    143000   0.98732872     19.489088      70.207344    
    144000   1.0013095      19.756474      70.120901    
    145000   1.0496644      19.58213       69.758754    
    146000   0.99270667     18.954081      69.538426    
    147000   1.0186492      19.01085       69.157859    
    148000   1.0332841      19.225224      69.066315    
    149000   0.97713999     18.794908      69.038304    
    150000   1.0376718      19.006433      69.003898    
    151000   1.0049087      18.940057      68.779012    
    152000   1.0277602      18.893666      68.536756    
    153000   1.0322557      19.01736       68.364476    
    154000   1.0217196      19.212016      68.355027    
    155000   1.017146       19.093542      68.29388     
    156000   0.98886151     18.830977      68.130141    
    157000   0.96938581     18.878834      68.114898    
    158000   0.98870169     18.878673      68.043216    
    159000   1.0019455      19.494322      68.136334    
    160000   0.96617853     19.082942      68.085346    
    161000   1.0117045      19.254016      68.093131    
    162000   1.0576778      19.110053      67.757123    
    163000   0.98380138     18.847988      67.45401     
    164000   1.0432191      19.276572      67.441476    
    165000   1.0582054      19.476564      67.341546    
    166000   1.0638613      19.297609      67.306007    
    167000   0.93972909     19.264279      67.352906    
    168000   1.0035667      18.727548      66.973688    
    169000   0.98148596     19.07812       66.648667    
    170000   0.99417268     19.335014      66.692943    
    171000   0.993789       19.455732      66.599091    
    172000   0.98980967     18.469394      66.645819    
    173000   0.96707797     18.957934      66.475591    
    174000   0.99337986     18.941055      66.117216    
    175000   1.0156318      19.594972      66.120751    
    176000   1.0494645      19.305069      65.971793    
    177000   0.9827302      18.615609      65.586331    
    178000   0.97396291     18.191124      65.351955    
    179000   1.0520786      19.267544      65.354538    
    180000   1.0380205      19.06557       65.184577    
    181000   1.007495       19.20007       65.012406    
    182000   0.98803656     19.134093      64.973975    
    183000   1.0058216      19.019666      64.828989    
    184000   1.0905831      19.00731       64.61374     
    185000   1.0308984      18.891863      64.629127    
    186000   0.98541392     18.697589      64.568636    
    187000   0.96091112     18.787754      64.432228    
    188000   1.0317014      18.893875      64.161331    
    189000   1.0564265      18.772946      63.737674    
    190000   1.0287163      18.921957      63.656913    
    191000   0.977811       18.622737      63.326537    
    192000   0.97973972     19.20966       63.268437    
    193000   1.0493379      19.052066      62.958898    
    194000   1.0103215      19.146017      62.748091    
    195000   0.9919517      19.265027      62.425488    
    196000   0.98225091     19.219248      62.397403    
    197000   0.97657382     18.707314      62.208313    
    198000   0.99983489     19.671233      61.84453     
    199000   1.0093538      18.797041      61.678313    
    200000   1.006962       19.422243      61.359361    
    201000   0.99126005     19.334415      60.998632    
    202000   0.96249932     18.331619      60.878286    
    203000   1.0306503      18.790643      60.605488    
    204000   0.94920369     18.844913      60.21519     
    205000   0.98849054     18.45557       59.74867     
    206000   1.006848       18.771192      59.807184    
    207000   0.9898676      18.944167      59.667022    
    208000   0.99793943     18.653266      59.73382     
    209000   1.0002877      19.458313      59.666187    
    210000   1.0077923      18.401271      59.517227    
    211000   1.0143736      19.805916      59.399794    
    212000   0.99634593     19.079824      59.078723    
    213000   1.0105107      19.259019      59.105177    
    214000   1.0122369      18.664637      59.125716    
    215000   1.0073871      19.533934      59.222299    
    216000   0.9459699      19.168051      59.169956    
    217000   1.0571566      18.603592      58.809599    
    218000   0.98762208     18.568995      58.50588     
    219000   1.0033128      18.989865      58.519148    
    220000   0.96119958     18.504744      58.227952    
    221000   0.99024038     18.915603      58.159179    
    222000   0.98665512     18.681758      58.168941    
    223000   1.0897438      19.009163      58.146636    
    224000   1.0229788      18.073137      58.008849    
    225000   1.0200794      18.753391      57.56835     
    226000   1.008436       18.600322      57.248457    
    227000   1.0594332      19.18547       57.095995    
    228000   1.1129813      19.308182      57.003696    
    229000   0.9869832      18.689143      56.798097    
    230000   0.99384268     19.158331      56.853317    
    231000   0.97625033     19.005253      56.759666    
    232000   0.98227069     18.831215      56.432811    
    233000   1.005918       18.462951      56.171762    
    234000   0.97696772     18.268544      56.105124    
    235000   0.99054149     18.350292      56.109565    
    236000   0.99362155     18.916249      55.816769    
    237000   1.0419489      18.797776      55.521622    
    238000   1.0229544      18.52105       55.37367     
    239000   1.0417189      18.422281      55.167572    
    240000   1.0138555      18.727243      54.964318    
    241000   0.999555       18.055927      54.594279    
    242000   1.0143689      18.356999      54.343872    
    243000   0.96992681     18.335351      53.983041    
    244000   1.0216097      18.311679      53.891182    
    245000   0.9809473      19.033656      53.615391    
    246000   0.98893133     18.037032      53.343168    
    247000   1.0161951      18.532331      52.814619    
    248000   0.9770922      18.383769      52.684819    
    249000   0.96440587     17.889965      52.193539    
    250000   1.0468274      18.631429      52.308464    
    251000   0.94512454     18.517106      52.284892    
    252000   0.97952984     18.773895      52.07619     
    253000   1.0326508      18.541186      51.945059    
    254000   1.029501       18.906874      51.565601    
    255000   1.0109069      19.432502      51.370629    
    256000   0.97250755     18.687177      51.367334    
    257000   0.95244097     18.268138      50.996397    
    258000   0.9891286      18.45709       50.833778    
    259000   0.97209583     18.857022      50.544564    
    260000   0.97460345     18.118489      50.44156     
    261000   1.0116219      18.772034      50.338057    
    262000   0.99736028     18.709197      50.162541    
    263000   0.99742102     18.37938       50.032933    
    264000   1.0224511      18.275427      49.624797    
    265000   0.99822439     18.723929      49.544505    
    266000   0.97049712     18.173023      49.162941    
    267000   0.96597481     18.682435      48.66589     
    268000   1.0184639      18.566395      48.540119    
    269000   1.0003376      18.152366      48.204251    
    270000   0.99258038     18.122749      48.126189    
    271000   0.98392652     18.310154      47.858417    
    272000   1.0018992      18.280593      47.811748    
    273000   1.0067913      18.423217      47.521424    
    274000   0.95218369     18.158547      47.508701    
    275000   1.0415662      18.136578      47.213433    
    276000   1.0457284      18.981223      47.208682    
    277000   0.97430977     18.670271      47.102811    
    278000   0.92934648     18.234769      47.055992    
    279000   1.0064201      18.180566      46.758704    
    280000   0.98148491     18.081698      46.70887     
    281000   1.0354602      18.4806        46.570071    
    282000   0.99922357     18.818356      46.704811    
    283000   1.0141631      17.938935      46.372189    
    284000   0.95884967     17.80733       46.210847    
    285000   0.93801625     18.220479      45.932551    
    286000   1.0152585      19.266906      45.518178    
    287000   0.97092633     18.344496      45.493446    
    288000   0.95118618     17.396222      45.017686    
    289000   0.99996913     18.451781      44.833011    
    290000   0.98246696     18.099414      44.620877    
    291000   0.99515        18.662547      44.382926    
    292000   0.98060783     18.046007      44.389404    
    293000   0.98328315     18.380685      44.381566    
    294000   0.97947108     18.11791       44.23843     
    295000   0.97042477     18.103322      44.180118    
    296000   1.0149571      17.947902      44.096153    
    297000   0.96897172     17.935652      43.628632    
    298000   1.0064092      18.667997      43.567549    
    299000   0.97867914     18.331682      43.53041     
    300000   1.0065429      18.75467       43.452937    
    301000   1.0134553      18.434877      43.359442    
    302000   0.97861294     18.332739      43.192597    
    303000   0.98243442     18.743484      43.082446    
    304000   0.99583305     18.353538      43.1212      
    305000   0.99184958     18.128275      43.247512    
    306000   1.0064647      18.629898      42.85189     
    307000   1.0689908      18.418308      42.789454    
    308000   0.9832653      17.912486      42.580055    
    309000   1.0337707      19.091434      42.455393    
    310000   1.0213269      18.251925      42.245535    
    311000   0.99311813     18.800132      42.133524    
    312000   1.0367183      18.454478      41.817937    
    313000   1.0327481      18.192303      42.152244    
    314000   1.0205426      18.78363       42.126487    
    315000   1.0486213      18.476658      42.029958    
    316000   1.0218014      18.005783      41.796224    
    317000   0.96755628     18.331011      41.738845    
    318000   0.95489598     18.609026      41.424145    
    319000   0.96974312     18.432526      41.234964    
    320000   0.99516963     18.183256      41.071112    
    321000   1.0000912      18.253339      40.849565    
    322000   1.0391718      18.019275      40.549776    
    323000   1.0745041      18.576605      40.036079    
    324000   1.0679147      18.383685      39.809905    
    325000   1.0173361      18.024067      39.680847    
    326000   0.9874548      18.070776      39.690602    
    327000   1.0195359      18.736489      39.343362    
    328000   1.0019372      18.137945      39.170004    
    329000   1.0398359      17.775963      39.312576    
    330000   1.0114849      18.160737      39.241665    
    331000   0.97265058     17.937177      39.307067    
    332000   1.0195351      18.227501      38.951922    
    333000   0.9402496      18.126726      38.768762    
    334000   1.0005805      18.43381       38.489772    
    335000   1.010956       18.097403      38.78878     
    336000   1.0028582      18.342605      38.519359    
    337000   0.98372883     18.020618      38.212565    
    338000   0.99940703     17.883662      37.804152    
    339000   0.99184389     18.001753      37.469252    
    340000   0.96556292     18.104843      37.133797    
    341000   1.0036779      18.337317      37.173563    
    342000   0.98340739     17.247857      36.909699    
    343000   1.0403889      18.683838      36.671677    
    344000   0.98113351     18.193627      36.49091     
    345000   0.98969397     18.177657      36.207723    
    346000   0.99616018     18.311807      35.842231    
    347000   0.95609524     17.992836      35.784534    
    348000   0.99003508     18.396551      35.603772    
    349000   1.0439326      18.089999      35.604685    
    350000   1.0181458      17.751224      35.429693    
    351000   1.0010751      17.922734      35.364578    
    352000   0.9734053      17.961254      35.007766    
    353000   0.99374533     18.028464      34.828741    
    354000   0.94754617     17.776807      34.323216    
    355000   0.97977145     17.970983      34.320741    
    356000   0.99377213     17.923849      34.321661    
    357000   0.99191337     18.14773       34.144352    
    358000   0.98415939     17.836973      34.129662    
    359000   0.99938007     18.525531      34.122543    
    360000   1.0102637      18.134598      34.184826    
    361000   1.0454442      18.073731      33.919635    
    362000   0.98783044     18.11163       34.023074    
    363000   0.99885121     18.301746      34.077394    
    364000   0.98305366     17.958895      33.893961    
    365000   1.0321115      17.694834      33.373853    
    366000   1.0136986      17.404366      33.093179    
    367000   0.93952889     17.737339      32.994105    
    368000   1.0235892      18.205756      32.714833    
    369000   0.93896512     18.204115      32.533495    
    370000   1.0013802      17.990532      32.465487    
    371000   0.93792119     18.161397      32.206181    
    372000   1.0149704      18.528047      31.901638    
    373000   1.0022059      18.025519      31.679743    
    374000   0.98765136     18.02531       31.653449    
    375000   1.0087494      17.924829      31.68748     
    376000   0.96620508     17.532939      31.660547    
    377000   1.006041       18.494502      31.672389    
    378000   0.90655329     17.369978      31.565356    
    379000   1.0172646      17.509241      31.31132     
    380000   0.97481855     17.74203       31.465697    
    381000   1.0003147      18.070724      31.492478    
    382000   0.99263971     18.003156      31.239974    
    383000   1.0519508      18.731524      31.04749     
    384000   1.039132       18.885769      31.160207    
    385000   1.0190196      18.192929      31.072156    
    386000   0.98702649     17.041572      30.672535    
    387000   0.96921702     17.636067      30.44571     
    388000   0.98321595     18.012437      30.28751     
    389000   1.0318401      17.873355      29.971194    
    390000   0.98929344     17.47835       29.779776    
    391000   1.0420052      18.602576      29.488541    
    392000   0.99347554     17.781062      29.382868    
    393000   1.0252311      18.152292      29.069978    
    394000   0.99240252     17.482126      28.941484    
    395000   1.0003821      17.754122      28.777982    
    396000   0.96356276     18.39028       28.695453    
    397000   1.0008579      18.727224      28.580076    
    398000   1.033192       18.621201      28.690901    
    399000   0.97214903     18.174411      28.434031    
    400000   1.015397       18.52742       28.639094    
    401000   0.97566275     17.550764      28.460274    
    402000   1.030484       17.563405      28.611506    
    403000   1.0080764      18.066318      28.358055    
    404000   0.97375174     17.746178      28.134357    
    405000   0.97970741     17.616367      28.259507    
    406000   0.99001546     18.524953      27.824823    
    407000   1.0047711      17.855777      27.426939    
    408000   1.0588371      18.125678      27.345805    
    409000   0.92917111     17.720957      27.512083    
    410000   1.0405104      17.653821      27.500566    
    411000   0.99294171     17.876518      27.634627    
    412000   0.97178091     17.997731      27.309883    
    413000   0.98684175     17.535518      27.139888    
    414000   0.98051524     17.615691      27.042784    
    415000   1.0543389      18.142051      26.534327    
    416000   1.0217753      17.887885      26.130167    
    417000   1.0085491      17.719849      26.128783    
    418000   1.0273018      17.713872      25.941771    
    419000   1.0167624      17.579509      25.728755    
    420000   0.9979227      17.477913      25.812238    
    421000   0.97219814     17.481721      25.504438    
    422000   0.93835819     17.669455      25.410167    
    423000   1.0025275      18.106488      25.231911    
    424000   0.96075646     17.906859      25.185819    
    425000   0.99872999     17.998522      24.813185    
    426000   1.0106408      18.14954       24.621598    
    427000   0.9855944      18.483494      24.512148    
    428000   0.95330789     17.54033       24.486494    
    429000   0.95453619     17.183828      24.281577    
    430000   0.98435263     17.729386      23.905108    
    431000   0.99045572     17.591572      23.755768    
    432000   0.98440444     17.869616      23.759046    
    433000   1.0274581      17.783452      23.650882    
    434000   1.0106579      17.962066      23.336872    
    435000   0.99386594     17.382253      23.040979    
    436000   1.0014628      17.627914      22.980432    
    437000   0.98580218     17.543722      22.791819    
    438000   0.99738896     17.575645      22.767334    
    439000   0.97722185     17.521046      22.446452    
    440000   0.99623055     17.761397      22.299526    
    441000   0.96413251     16.908241      22.344848    
    442000   1.0074436      17.678741      22.236119    
    443000   0.99256232     17.136123      22.027203    
    444000   1.0333599      17.741328      21.721614    
    445000   0.9859231      17.335038      21.619349    
    446000   1.0179678      17.661979      21.539331    
    447000   1.0402401      17.548681      21.445649    
    448000   0.98154796     17.299681      21.229017    
    449000   0.98065447     17.835772      21.117256    
    450000   0.98702801     16.936363      20.924934    
    451000   0.97254694     17.614242      20.929474    
    452000   0.95838014     17.51067       20.911133    
    453000   0.96673204     17.089723      20.73489     
    454000   1.0173449      17.800708      20.665324    
    455000   1.0159527      17.454322      20.511066    
    456000   0.9787517      17.01624       20.168947    
    457000   1.026683       17.968245      19.951674    
    458000   1.003493       17.843539      19.777279    
    459000   0.97139083     17.160729      19.741452    
    460000   1.0056416      17.794227      19.748307    
    461000   0.98303238     17.433926      19.477122    
    462000   1.0181062      17.383194      19.224607    
    463000   0.99002118     17.642504      18.967819    
    464000   0.9685051      17.187527      18.933941    
    465000   0.97076682     17.330066      18.779414    
    466000   0.95948401     17.802872      18.35871     
    467000   0.97034522     16.815084      18.16539     
    468000   0.99231152     17.273688      18.086961    
    469000   1.0088376      17.314911      17.953079    
    470000   0.96053941     17.732461      17.491441    
    471000   1.0136262      17.177136      17.318115    
    472000   1.0069219      16.880586      17.113314    
    473000   1.0030265      17.649513      16.857208    
    474000   0.97414934     17.59011       16.803984    
    475000   0.99902427     17.115292      16.927601    
    476000   1.0067039      17.509188      16.915728    
    477000   0.97466493     17.121105      16.681415    
    478000   1.0159584      16.938268      16.791554    
    479000   0.99968885     17.418354      16.527752    
    480000   1.0252697      17.911671      16.281866    
    481000   1.0168164      16.831372      16.229081    
    482000   0.96560974     17.704104      15.679845    
    483000   0.99791751     17.808371      15.684272    
    484000   0.9611928      17.426491      15.557737    
    485000   0.98235149     17.211383      15.430127    
    486000   0.94316075     17.34688       15.352396    
    487000   1.0037664      17.730205      15.704247    
    488000   1.0029795      18.020185      15.627204    
    489000   0.96733113     17.620177      15.556244    
    490000   0.97784129     17.071153      15.266755    
    491000   0.99358781     17.386526      15.154515    
    492000   0.99998555     17.579272      14.766284    
    493000   0.97749764     17.443706      14.590936    
    494000   1.0106653      16.521262      14.437424    
    495000   1.0015479      17.097454      14.359303    
    496000   1.000155       17.349112      14.337368    
    497000   0.94271627     17.780903      14.326126    
    498000   1.0272526      17.372254      14.202185    
    499000   1.0356867      17.371306      13.89379     
    500000   0.98734199     16.779386      14.022846    
    501000   1.0135522      16.950808      14.030012    
    502000   0.99399197     16.95          13.635851    
    503000   0.99693627     16.841654      13.725408    
    504000   0.97719855     17.346002      13.513407    
    505000   0.94054589     17.234364      13.191071    
    506000   1.000008       17.203468      13.127051    
    507000   0.9839538      17.154361      12.72872     
    508000   1.0373822      16.775735      12.61963     
    509000   1.0438029      17.125496      12.743445    
    510000   1.0001889      17.293763      12.450184    
    511000   0.98200941     16.939503      12.482823    
    512000   0.99416648     16.741436      12.329306    
    513000   0.97956085     17.070117      12.135213    
    514000   0.98970033     17.24827       12.14463     
    515000   0.95369564     17.295011      11.927617    
    516000   0.95378497     16.705912      11.538303    
    517000   1.0185255      17.387165      11.444567    
    518000   0.99783519     16.986988      11.383953    
    519000   0.95451988     17.55319       11.005792    
    520000   0.99883781     16.794218      11.001258    
    521000   1.026753       16.943577      10.955268    
    522000   0.99270215     17.913332      10.940752    
    523000   1.0148774      17.247307      11.046486    
    524000   1.0352232      17.429896      10.950859    
    525000   1.037636       18.035438      11.077451    
    526000   0.98933131     17.449232      11.018536    
    527000   1.0116288      17.327565      10.887886    
    528000   0.98878024     17.049452      10.912941    
    529000   1.0413137      17.186177      10.956485    
    530000   1.0279727      16.845609      10.662516    
    531000   0.98293138     17.429323      10.496525    
    532000   0.99388045     16.468321      10.493849    
    533000   0.96739075     16.681951      10.231017    
    534000   1.0472367      17.439357      10.180088    
    535000   0.99549833     17.234193      10.039842    
    536000   0.96335382     17.002394      9.8911855    
    537000   0.94589772     17.007853      9.9677092    
    538000   0.97140291     17.300242      10.058335    
    539000   1.0070972      17.532048      9.9526754    
    540000   1.0424079      16.951877      9.6938858    
    541000   1.0316604      16.55834       9.6899869    
    542000   1.0137514      16.858528      9.5888945    
    543000   1.002995       17.072855      9.5803922    
    544000   0.98368823     16.368858      9.4712011    
    545000   1.0023989      17.2284        9.4794488    
    546000   1.0549919      17.301115      9.3835866    
    547000   1.0288344      17.29908       9.2980522    
    548000   0.96039127     16.61594       9.1009995    
    549000   0.95454293     16.763153      9.0263141    
    550000   1.007285       17.310099      8.8568042    
    551000   1.0052912      16.788431      8.7165007    
    552000   1.0032869      17.116525      8.4575252    
    553000   0.98518046     16.723413      8.718029     
    554000   0.9832746      17.087529      8.6148084    
    555000   0.98585717     16.280645      8.3699841    
    556000   1.0585746      17.857673      8.3864399    
    557000   1.0284977      17.373678      8.0977672    
    558000   1.0062066      17.126992      8.0319389    
    559000   1.017986       17.364589      7.9766187    
    560000   0.96552315     16.827003      7.9058408    
    561000   0.97890384     17.344563      7.7601685    
    562000   0.99008718     17.516944      7.6851837    
    563000   0.96693322     17.342735      7.665198     
    564000   1.0822945      17.521837      7.5850054    
    565000   1.0007069      16.698865      7.6950832    
    566000   1.0280827      17.550471      7.6792652    
    567000   0.98468364     17.397074      7.6966489    
    568000   0.99151166     16.942245      7.5551276    
    569000   0.98898282     17.368509      7.5022473    
    570000   0.99187352     17.310543      7.4617422    
    571000   1.0013038      16.595282      7.2715747    
    572000   1.0297845      17.569457      7.2171179    
    573000   1.0327195      16.690616      7.0230491    
    574000   1.005472       17.129932      7.0437663    
Fix halt condition for fix-id 3 met on step 575000 with value 6.819408178251352 (src/fix_halt.cpp:237)
    575000   0.9519169      17.031132      6.8194082    
Loop time of 699.51 on 2 procs for 475000 steps with 801 atoms

Performance: 586696.098 tau/day, 679.046 timesteps/s
117.8% CPU use with 1 MPI tasks x 2 OpenMP threads

MPI task timing breakdown:
Section |  min time  |  avg time  |  max time  |%varavg| %total
---------------------------------------------------------------
Pair    | 89.041     | 89.041     | 89.041     |   0.0 | 12.73
Bond    | 8.7748     | 8.7748     | 8.7748     |   0.0 |  1.25
Neigh   | 581.17     | 581.17     | 581.17     |   0.0 | 83.08
Comm    | 0.14422    | 0.14422    | 0.14422    |   0.0 |  0.02
Output  | 1.1265     | 1.1265     | 1.1265     |   0.0 |  0.16
Modify  | 17.863     | 17.863     | 17.863     |   0.0 |  2.55
Other   |            | 1.388      |            |       |  0.20

Nlocal:            801 ave         801 max         801 min
Histogram: 1 0 0 0 0 0 0 0 0 0
Nghost:              0 ave           0 max           0 min
Histogram: 1 0 0 0 0 0 0 0 0 0
Neighs:         154773 ave      154773 max      154773 min
Histogram: 1 0 0 0 0 0 0 0 0 0

Total # of neighbors = 154773
Ave neighs/atom = 193.22472
Ave special neighs/atom = 1.9975031
Neighbor list builds = 4377
Dangerous builds = 0

# This simulation is done
# Move onto the next one
clear
  using 2 OpenMP thread(s) per MPI task
package omp 0
using multi-threaded neighbor list subroutines
next f
jump SELF

###
# Reference paper:
# K. Kremer and G. S. Grest
# Dynamics of entangled linear polymer melts: A molecular-dynamics simulation
# J Chem Phys 92, 5057 (1990)

##################################
# MIHIR: for branched polymers
# LJ minimum first to expand and explore, then collapse
###

###
# Looping through the various plusshaped polymers to simulate,
# define variables to switch through
variable f index bb51nuc1bl25bn4d30tot100 bb101nuc1bl50bn4d30tot200 bb151nuc1bl75bn4d30tot300 bb201nuc1bl100bn4d30tot400 bb251nuc1bl125bn4d30tot500 bb301nuc1bl150bn4d30tot600 bb351nuc1bl175bn4d30tot700 bb401nuc1bl200bn4d30tot800 bb451nuc1bl225bn4d30tot900 bb501nuc1bl250bn4d30tot1000 bb551nuc1bl275bn4d30tot1100 bb601nuc1bl300bn4d30tot1200
###


###
# Box and units  (use LJ units and periodic boundaries)
###

units lj
log plusshaped/logs2/$f.log
log plusshaped/logs2/bb451nuc1bl225bn4d30tot900.log
